41
Coordinates from ORCA-job orca E -848.307529446603
  C      -3.019850     -1.671100     -0.739090
  H      -3.032820     -2.418460      0.069200
  C      -1.882480     -0.660160     -0.402550
  C      -2.202610      0.154550      0.874480
  H      -1.317630      0.208700      1.515630
  H      -2.945310     -0.388470      1.474700
  C      -2.647020      1.584410      0.602030
  H      -2.679010      2.146260      1.547060
  H      -3.659370      1.629480      0.173340
  C      -1.660940      2.241190     -0.342500
  H      -0.647920      2.191920      0.097910
  C      -1.978410      3.681880     -0.707080
  C      -1.851650      4.659490      0.458430
  H      -2.582720      4.405520      1.244070
  H      -0.855170      4.547670      0.920090
  C      -2.059360      6.108960      0.032920
  H      -1.970330      6.795890      0.887380
  H      -3.057170      6.252630     -0.410450
  H      -1.315960      6.411970     -0.720910
  H      -2.995560      3.723880     -1.133330
  H      -1.289690      3.977130     -1.515030
  O      -1.622710      1.522630     -1.586890
  C      -1.656230      0.188850     -1.668370
  O      -1.521980     -0.332010     -2.743260
  C      -4.483930     -1.216950     -0.972070
  C      -5.142650     -0.718530      0.312170
  O      -5.074040     -1.623830      1.301020
  C      -5.677070     -1.258940      2.529850
  H      -5.543860     -2.112290      3.204080
  H      -5.194040     -0.363930      2.950100
  H      -6.746480     -1.043600      2.394120
  O      -5.699680      0.340100      0.451680
  C      -5.268940     -2.475990     -1.402910
  H      -5.163840     -3.286660     -0.668800
  H      -6.339980     -2.249710     -1.518160
  H      -4.891760     -2.830680     -2.373480
  C      -4.634150     -0.151540     -2.060750
  H      -4.168690      0.802750     -1.785850
  H      -5.697490      0.051980     -2.249330
  H      -4.163800     -0.497440     -2.990780
  H      -2.712770     -2.194160     -1.656210
41
Coordinates from ORCA-job orca E -848.319415339148
  C      -3.039790     -1.635510     -0.732508
  H      -3.011973     -2.375831      0.074277
  C      -1.982417     -0.565332     -0.407108
  C      -2.227998      0.233004      0.872460
  H      -1.316871      0.257676      1.482346
  H      -2.961371     -0.290514      1.489017
  C      -2.636793      1.674619      0.605792
  H      -2.634641      2.233310      1.545777
  H      -3.648153      1.748373      0.197359
  C      -1.638851      2.301445     -0.344437
  H      -0.632094      2.224304      0.092568
  C      -1.916546      3.748461     -0.708036
  C      -1.764318      4.718390      0.458154
  H      -2.497970      4.484363      1.238228
  H      -0.776909      4.581574      0.917628
  C      -1.933671      6.170845      0.033177
  H      -1.828050      6.850347      0.882803
  H      -2.921060      6.339243     -0.407953
  H      -1.186509      6.452850     -0.715161
  H      -2.926242      3.817515     -1.131435
  H      -1.224066      4.025360     -1.510676
  O      -1.612048      1.580332     -1.587733
  C      -1.687641      0.246151     -1.658589
  O      -1.547065     -0.286527     -2.727724
  C      -4.531391     -1.271708     -0.970321
  C      -5.226678     -0.811090      0.308125
  O      -5.106140     -1.706535      1.300813
  C      -5.746005     -1.373911      2.523613
  H      -5.562796     -2.207971      3.199097
  H      -5.330961     -0.452084      2.940416
  H      -6.819067     -1.233525      2.376175
  O      -5.852085      0.208410      0.437494
  C      -5.229332     -2.578936     -1.394616
  H      -5.074488     -3.371877     -0.660415
  H      -6.305610     -2.422848     -1.512340
  H      -4.829906     -2.911126     -2.356343
  C      -4.749696     -0.229620     -2.066202
  H      -4.352220      0.750266     -1.802342
  H      -5.817425     -0.100740     -2.255059
  H      -4.261040     -0.551071     -2.987800
  H      -2.707180     -2.136693     -1.646059
41
Coordinates from ORCA-job orca E -848.327624993858
  C      -3.034222     -1.648058     -0.738556
  H      -3.002098     -2.385095      0.066047
  C      -2.065594     -0.547111     -0.419630
  C      -2.276686      0.216418      0.855592
  H      -1.354790      0.224659      1.453314
  H      -3.008567     -0.305632      1.469782
  C      -2.679506      1.659805      0.589359
  H      -2.681013      2.215027      1.526643
  H      -3.685602      1.732089      0.173510
  C      -1.661720      2.282262     -0.340183
  H      -0.669776      2.200878      0.119786
  C      -1.925494      3.729018     -0.709339
  C      -1.800637      4.696239      0.461054
  H      -2.551777      4.465474      1.218720
  H      -0.829282      4.559145      0.943758
  C      -1.955329      6.147448      0.029787
  H      -1.870380      6.824712      0.877675
  H      -2.926744      6.316203     -0.434747
  H      -1.191300      6.425047     -0.696121
  H      -2.920066      3.800607     -1.155774
  H      -1.215066      4.004568     -1.490446
  O      -1.601558      1.561069     -1.581206
  C      -1.696891      0.224101     -1.641459
  O      -1.525159     -0.316369     -2.704919
  C      -4.518792     -1.267539     -0.973341
  C      -5.186544     -0.793987      0.313520
  O      -5.071897     -1.693048      1.303880
  C      -5.687074     -1.338808      2.537996
  H      -5.513352     -2.172942      3.208693
  H      -5.244193     -0.430590      2.942765
  H      -6.753601     -1.174354      2.404685
  O      -5.775035      0.244854      0.451856
  C      -5.243366     -2.554510     -1.407328
  H      -5.104529     -3.354042     -0.684058
  H      -6.311744     -2.373542     -1.519873
  H      -4.855185     -2.884414     -2.369249
  C      -4.703029     -0.206005     -2.051996
  H      -4.278848      0.754988     -1.769948
  H      -5.761406     -0.044761     -2.241411
  H      -4.221829     -0.527139     -2.973126
  H      -2.695389     -2.133277     -1.653251
41
Coordinates from ORCA-job orca E -848.334707424081
  C      -3.042126     -1.642486     -0.744396
  H      -2.963629     -2.365254      0.072176
  C      -2.192616     -0.457120     -0.459754
  C      -2.332032      0.275604      0.831475
  H      -1.386290      0.242338      1.389441
  H      -3.061389     -0.228630      1.466686
  C      -2.684682      1.739371      0.591697
  H      -2.657786      2.285824      1.536816
  H      -3.693657      1.843147      0.184138
  C      -1.649225      2.335075     -0.337880
  H      -0.660635      2.227521      0.128666
  C      -1.874269      3.790546     -0.700738
  C      -1.735056      4.749210      0.476694
  H      -2.499288      4.533898      1.228904
  H      -0.768599      4.587809      0.966315
  C      -1.850943      6.206473      0.048318
  H      -1.755187      6.880310      0.901202
  H      -2.817110      6.399941     -0.423187
  H      -1.073271      6.467076     -0.673013
  H      -2.865775      3.889016     -1.154416
  H      -1.149765      4.053768     -1.475995
  O      -1.596657      1.620482     -1.583974
  C      -1.761664      0.284714     -1.652670
  O      -1.559739     -0.256801     -2.714592
  C      -4.551058     -1.339996     -0.976774
  C      -5.222412     -0.866494      0.308666
  O      -5.086680     -1.753622      1.307539
  C      -5.724493     -1.403695      2.534952
  H      -5.525456     -2.226413      3.216764
  H      -5.313228     -0.474082      2.930190
  H      -6.796808     -1.278372      2.388127
  O      -5.842912      0.155652      0.433253
  C      -5.228090     -2.659569     -1.387101
  H      -5.054990     -3.443143     -0.649774
  H      -6.305725     -2.521003     -1.497788
  H      -4.829739     -2.990568     -2.347406
  C      -4.770676     -0.298933     -2.068879
  H      -4.378255      0.680385     -1.794485
  H      -5.836191     -0.175388     -2.262048
  H      -4.276085     -0.615475     -2.987625
  H      -2.680884     -2.117723     -1.657063
41
Coordinates from ORCA-job orca E -848.338172879340
  C      -3.065366     -1.644687     -0.774220
  H      -2.952970     -2.347397      0.056384
  C      -2.319702     -0.387465     -0.506375
  C      -2.411648      0.304813      0.811688
  H      -1.456827      0.212054      1.347477
  H      -3.155575     -0.177707      1.448573
  C      -2.697263      1.790401      0.610802
  H      -2.657967      2.315914      1.568098
  H      -3.700197      1.933640      0.195915
  C      -1.640237      2.369356     -0.307753
  H      -0.658373      2.242366      0.171108
  C      -1.834737      3.833085     -0.659480
  C      -1.697267      4.781978      0.526753
  H      -2.478122      4.576910      1.266307
  H      -0.740138      4.600774      1.030215
  C      -1.778862      6.244324      0.104992
  H      -1.682441      6.912464      0.963700
  H      -2.735354      6.458761     -0.379627
  H      -0.985148      6.493209     -0.604588
  H      -2.818522      3.952363     -1.127577
  H      -1.093475      4.090421     -1.422341
  O      -1.582669      1.669717     -1.562047
  C      -1.799412      0.337812     -1.658072
  O      -1.644101     -0.178326     -2.743419
  C      -4.593994     -1.426407     -1.015951
  C      -5.268672     -0.918597      0.254132
  O      -5.074454     -1.744594      1.294930
  C      -5.659384     -1.329658      2.529219
  H      -5.413603     -2.108466      3.247875
  H      -5.243979     -0.371480      2.846895
  H      -6.740206     -1.228882      2.424577
  O      -5.850659      0.128442      0.360840
  C      -5.220424     -2.784308     -1.370603
  H      -5.015429     -3.531133     -0.602168
  H      -6.303918     -2.692930     -1.483231
  H      -4.810542     -3.138672     -2.319095
  C      -4.849716     -0.435380     -2.147416
  H      -4.498127      0.567985     -1.903074
  H      -5.919085     -0.360239     -2.351171
  H      -4.335494     -0.763698     -3.052283
  H      -2.671008     -2.113375     -1.677525
41
Coordinates from ORCA-job orca E -848.339980344319
  C      -3.067276     -1.599788     -0.778371
  H      -2.888805     -2.269517      0.066343
  C      -2.435942     -0.273942     -0.558266
  C      -2.459299      0.387866      0.777954
  H      -1.491121      0.234724      1.276559
  H      -3.207624     -0.062779      1.430341
  C      -2.675562      1.887865      0.605320
  H      -2.612086      2.399455      1.567392
  H      -3.673911      2.070678      0.192376
  C      -1.606477      2.437138     -0.318495
  H      -0.626598      2.283321      0.156502
  C      -1.762726      3.908063     -0.662775
  C      -1.602553      4.850683      0.525158
  H      -2.389264      4.665676      1.263072
  H      -0.651195      4.644168      1.028981
  C      -1.644464      6.315398      0.106006
  H      -1.530182      6.979138      0.964982
  H      -2.594144      6.556449     -0.378144
  H      -0.844719      6.543194     -0.602898
  H      -2.742239      4.053719     -1.131125
  H      -1.014997      4.148862     -1.424065
  O      -1.575002      1.746706     -1.577101
  C      -1.892474      0.433782     -1.699824
  O      -1.712587     -0.087201     -2.780859
  C      -4.614053     -1.493733     -0.994175
  C      -5.275825     -0.989418      0.283346
  O      -5.137999     -1.856859      1.299416
  C      -5.798089     -1.497832      2.512815
  H      -5.588724     -2.304308      3.210961
  H      -5.410820     -0.551667      2.893601
  H      -6.870871     -1.399709      2.347796
  O      -5.928157      0.016628      0.378701
  C      -5.164958     -2.890148     -1.314124
  H      -4.904184     -3.609912     -0.537407
  H      -6.252848     -2.865433     -1.408765
  H      -4.751860     -3.238539     -2.262921
  C      -4.937461     -0.528635     -2.131082
  H      -4.640972      0.493394     -1.892411
  H      -6.010516     -0.514675     -2.326797
  H      -4.411769     -0.831736     -3.037175
  H      -2.654716     -2.057684     -1.678381
41
Coordinates from ORCA-job orca E -848.340764639065
  C      -3.092798     -1.574150     -0.782878
  H      -2.893324     -2.224429      0.072375
  C      -2.501153     -0.228292     -0.569921
  C      -2.513837      0.424751      0.769363
  H      -1.552734      0.237327      1.270653
  H      -3.278184     -0.008510      1.414477
  C      -2.690359      1.929510      0.606645
  H      -2.618854      2.433307      1.571783
  H      -3.681137      2.140132      0.190231
  C      -1.608534      2.460263     -0.313016
  H      -0.631868      2.283046      0.159456
  C      -1.734886      3.936514     -0.646845
  C      -1.559861      4.866122      0.548678
  H      -2.351406      4.689613      1.283077
  H      -0.614362      4.637323      1.053216
  C      -1.573695      6.334636      0.142375
  H      -1.448512      6.988415      1.007094
  H      -2.517372      6.598190     -0.341174
  H      -0.768777      6.553798     -0.562981
  H      -2.709841      4.104091     -1.116638
  H      -0.980871      4.168043     -1.404368
  O      -1.594793      1.777824     -1.576057
  C      -1.961032      0.480934     -1.715880
  O      -1.781306     -0.041888     -2.794736
  C      -4.639884     -1.538859     -1.012072
  C      -5.332623     -1.038147      0.251086
  O      -5.151948     -1.869904      1.290058
  C      -5.774145     -1.478843      2.512505
  H      -5.534004     -2.260073      3.228962
  H      -5.385245     -0.517630      2.851150
  H      -6.852771     -1.395640      2.381628
  O      -5.951444     -0.011443      0.347918
  C      -5.121123     -2.964881     -1.305870
  H      -4.832428     -3.656398     -0.514271
  H      -6.208050     -2.993609     -1.407223
  H      -4.686512     -3.311764     -2.245200
  C      -4.998913     -0.617164     -2.174291
  H      -4.759754      0.423286     -1.954223
  H      -6.068242     -0.664445     -2.383678
  H      -4.445636     -0.911133     -3.066688
  H      -2.652854     -2.026533     -1.672258
41
Coordinates from ORCA-job orca E -848.341175498577
  C      -3.109801     -1.541596     -0.782868
  H      -2.887150     -2.170135      0.083891
  C      -2.543959     -0.181855     -0.577116
  C      -2.528808      0.459791      0.765707
  H      -1.572971      0.230349      1.260109
  H      -3.304726      0.043424      1.409573
  C      -2.668697      1.968659      0.623122
  H      -2.567664      2.459631      1.592400
  H      -3.660909      2.209673      0.228803
  C      -1.602204      2.490555     -0.319365
  H      -0.614606      2.295691      0.121754
  C      -1.718092      3.971762     -0.635616
  C      -1.499276      4.885368      0.564631
  H      -2.272844      4.709322      1.318291
  H      -0.543970      4.638370      1.041571
  C      -1.506193      6.358613      0.176803
  H      -1.348443      6.999977      1.045810
  H      -2.459501      6.640769     -0.276922
  H      -0.718526      6.577365     -0.548276
  H      -2.703050      4.155544     -1.077945
  H      -0.981746      4.201175     -1.411175
  O      -1.635213      1.818813     -1.588224
  C      -2.012695      0.528973     -1.732820
  O      -1.962903      0.042458     -2.840037
  C      -4.652352     -1.578206     -1.020004
  C      -5.367957     -1.069233      0.227428
  O      -5.193648     -1.888461      1.277251
  C      -5.819641     -1.484096      2.491832
  H      -5.587055     -2.258928      3.218264
  H      -5.430391     -0.520849      2.825511
  H      -6.897930     -1.397593      2.356475
  O      -5.985667     -0.040860      0.309993
  C      -5.060766     -3.033738     -1.272412
  H      -4.741850     -3.688342     -0.461370
  H      -6.144910     -3.119576     -1.375349
  H      -4.607121     -3.385506     -2.201065
  C      -5.048113     -0.714330     -2.214405
  H      -4.864963      0.343222     -2.025804
  H      -6.111682     -0.825177     -2.431190
  H      -4.471547     -1.007740     -3.092574
  H      -2.645529     -1.989893     -1.662221
41
Coordinates from ORCA-job orca E -848.341482531235
  C      -3.116533     -1.525790     -0.801630
  H      -2.870794     -2.145541      0.065441
  C      -2.586647     -0.151567     -0.596387
  C      -2.600595      0.490967      0.746112
  H      -1.665500      0.241538      1.270086
  H      -3.404610      0.087942      1.364713
  C      -2.710114      2.002077      0.603431
  H      -2.621625      2.489518      1.575423
  H      -3.688802      2.261889      0.188026
  C      -1.615533      2.507408     -0.315086
  H      -0.640389      2.291153      0.143181
  C      -1.695451      3.991738     -0.628172
  C      -1.475412      4.896769      0.578291
  H      -2.264562      4.736376      1.318901
  H      -0.533936      4.626448      1.069496
  C      -1.442073      6.370749      0.195039
  H      -1.281553      7.005592      1.067997
  H      -2.381609      6.676871     -0.271122
  H      -0.639396      6.572926     -0.517965
  H      -2.668941      4.197490     -1.085442
  H      -0.942590      4.207718     -1.391425
  O      -1.637255      1.840794     -1.586648
  C      -2.040096      0.560655     -1.743218
  O      -1.952024      0.066493     -2.844779
  C      -4.658149     -1.604736     -1.024216
  C      -5.363759     -1.091981      0.226590
  O      -5.175785     -1.904807      1.279004
  C      -5.796306     -1.499261      2.495649
  H      -5.554439     -2.269310      3.223703
  H      -5.411200     -0.532498      2.823126
  H      -6.875764     -1.419901      2.367449
  O      -5.998904     -0.074021      0.304817
  C      -5.033406     -3.072954     -1.255730
  H      -4.689465     -3.710815     -0.441891
  H      -6.115898     -3.187153     -1.345033
  H      -4.582138     -3.423425     -2.185776
  C      -5.087164     -0.762260     -2.221878
  H      -4.922459      0.300298     -2.046911
  H      -6.150917     -0.897889     -2.422690
  H      -4.517126     -1.053625     -3.104217
  H      -2.646150     -1.962483     -1.683796
41
Coordinates from ORCA-job orca E -848.341583255920
  C      -3.119472     -1.508766     -0.781185
  H      -2.862371     -2.113826      0.093319
  C      -2.618718     -0.121602     -0.590182
  C      -2.626139      0.527656      0.749363
  H      -1.696325      0.265626      1.276866
  H      -3.435845      0.136242      1.367265
  C      -2.719315      2.038943      0.605854
  H      -2.613158      2.525760      1.576120
  H      -3.699491      2.311712      0.202469
  C      -1.630115      2.530639     -0.325800
  H      -0.651368      2.297192      0.115839
  C      -1.691003      4.016656     -0.634528
  C      -1.425495      4.914270      0.568269
  H      -2.197667      4.764351      1.328409
  H      -0.476609      4.626619      1.034175
  C      -1.378207      6.388619      0.188350
  H      -1.181524      7.017548      1.057826
  H      -2.325268      6.712418     -0.249131
  H      -0.593569      6.579693     -0.547034
  H      -2.670877      4.240751     -1.068350
  H      -0.953024      4.220873     -1.415043
  O      -1.682433      1.867552     -1.598337
  C      -2.099124      0.591774     -1.747565
  O      -2.021803      0.091980     -2.847747
  C      -4.656232     -1.625544     -1.015132
  C      -5.381969     -1.130543      0.230839
  O      -5.204545     -1.954212      1.276794
  C      -5.844841     -1.565905      2.488657
  H      -5.611505     -2.343886      3.210574
  H      -5.468383     -0.602353      2.834443
  H      -6.922228     -1.488347      2.345567
  O      -6.027544     -0.119273      0.309393
  C      -4.994717     -3.101057     -1.256739
  H      -4.645879     -3.734743     -0.442107
  H      -6.072771     -3.240162     -1.359367
  H      -4.524618     -3.436107     -2.182817
  C      -5.091013     -0.784322     -2.210857
  H      -4.941350      0.279360     -2.030307
  H      -6.151235     -0.935659     -2.417831
  H      -4.512549     -1.063949     -3.091139
  H      -2.634769     -1.942587     -1.656732
41
Coordinates from ORCA-job orca E -848.341674990276
  C      -3.123505     -1.490489     -0.774914
  H      -2.852831     -2.082422      0.104806
  C      -2.648741     -0.092731     -0.592081
  C      -2.679577      0.566338      0.742171
  H      -1.770002      0.289426      1.296683
  H      -3.512089      0.189735      1.339559
  C      -2.749659      2.077554      0.593575
  H      -2.642774      2.564581      1.563803
  H      -3.722643      2.365852      0.183803
  C      -1.649137      2.552457     -0.332805
  H      -0.675087      2.297715      0.107581
  C      -1.680489      4.040278     -0.636367
  C      -1.380772      4.925839      0.567345
  H      -2.145540      4.787108      1.337192
  H      -0.431917      4.615447      1.018348
  C      -1.308903      6.401029      0.194824
  H      -1.083029      7.020438      1.064113
  H      -2.256500      6.747925     -0.223482
  H      -0.533691      6.579984     -0.553570
  H      -2.659520      4.288395     -1.058959
  H      -0.946337      4.230787     -1.423959
  O      -1.714680      1.894027     -1.607617
  C      -2.132922      0.619271     -1.752783
  O      -2.063280      0.117653     -2.852947
  C      -4.656237     -1.646286     -1.010843
  C      -5.393489     -1.165248      0.234050
  O      -5.212843     -1.991948      1.277122
  C      -5.860135     -1.613900      2.488318
  H      -5.626007     -2.394692      3.207052
  H      -5.489979     -0.650559      2.841664
  H      -6.937404     -1.540641      2.341702
  O      -6.050224     -0.161318      0.313926
  C      -4.954864     -3.130261     -1.250510
  H      -4.593706     -3.753455     -0.433120
  H      -6.028354     -3.297752     -1.358248
  H      -4.471347     -3.453774     -2.173789
  C      -5.110911     -0.818533     -2.208666
  H      -4.982117      0.248314     -2.032378
  H      -6.168140     -0.993862     -2.412691
  H      -4.528525     -1.089211     -3.089150
  H      -2.627164     -1.919679     -1.646299
41
Coordinates from ORCA-job orca E -848.341806756106
  C      -3.131477     -1.448140     -0.758236
  H      -2.835486     -2.008407      0.134506
  C      -2.719153     -0.027597     -0.599111
  C      -2.814579      0.657353      0.719059
  H      -1.957443      0.354412      1.339435
  H      -3.698697      0.315324      1.262408
  C      -2.833189      2.167030      0.555689
  H      -2.729307      2.657410      1.524921
  H      -3.787112      2.487555      0.125957
  C      -1.703634      2.599385     -0.355029
  H      -0.744952      2.290174      0.084627
  C      -1.658802      4.089719     -0.641766
  C      -1.281925      4.936997      0.568114
  H      -2.030195      4.819109      1.357741
  H      -0.336936      4.570526      0.983443
  C      -1.150552      6.414204      0.221144
  H      -0.862979      7.003800      1.093203
  H      -2.094174      6.816070     -0.155141
  H      -0.394232      6.571053     -0.551388
  H      -2.630462      4.400452     -1.039435
  H      -0.930709      4.249412     -1.441822
  O      -1.802144      1.956178     -1.636305
  C      -2.211154      0.677936     -1.767658
  O      -2.151847      0.168826     -2.865981
  C      -4.652813     -1.690117     -1.000563
  C      -5.419519     -1.243579      0.239862
  O      -5.211593     -2.062088      1.284164
  C      -5.874469     -1.705881      2.493477
  H      -5.621065     -2.481423      3.211648
  H      -5.532218     -0.733628      2.850990
  H      -6.952951     -1.662181      2.343262
  O      -6.118366     -0.267938      0.315241
  C      -4.861439     -3.189299     -1.235427
  H      -4.474875     -3.787278     -0.410770
  H      -5.921906     -3.419525     -1.356043
  H      -4.347332     -3.485928     -2.151253
  C      -5.148381     -0.895362     -2.204947
  H      -5.068360      0.177610     -2.038362
  H      -6.196165     -1.124280     -2.405505
  H      -4.554226     -1.145192     -3.083951
  H      -2.608253     -1.869301     -1.617737
41
Coordinates from ORCA-job orca E -848.341881517334
  C      -3.136789     -1.432793     -0.752663
  H      -2.835625     -1.983255      0.144375
  C      -2.743057     -0.005669     -0.603769
  C      -2.865307      0.690524      0.706689
  H      -2.028261      0.381844      1.351012
  H      -3.767457      0.362906      1.228993
  C      -2.863260      2.199533      0.534550
  H      -2.765905      2.694021      1.502456
  H      -3.807029      2.530222      0.090240
  C      -1.717429      2.611351     -0.365179
  H      -0.769023      2.279919      0.080829
  C      -1.638700      4.101118     -0.646740
  C      -1.260319      4.936970      0.571008
  H      -2.018686      4.826991      1.352172
  H      -0.325399      4.553925      0.994257
  C      -1.102822      6.413560      0.232650
  H      -0.821156      6.995658      1.111801
  H      -2.034892      6.829571     -0.157009
  H      -0.331749      6.563217     -0.526735
  H      -2.598941      4.433976     -1.054328
  H      -0.897197      4.248800     -1.436806
  O      -1.824873      1.973910     -1.648518
  C      -2.228344      0.692649     -1.773546
  O      -2.164938      0.177830     -2.869162
  C      -4.654969     -1.700199     -0.996454
  C      -5.431479     -1.272278      0.244345
  O      -5.196605     -2.080362      1.290755
  C      -5.863105     -1.737361      2.502043
  H      -5.587516     -2.504693      3.221000
  H      -5.542248     -0.756165      2.855108
  H      -6.942975     -1.720279      2.356172
  O      -6.157775     -0.316630      0.318497
  C      -4.835497     -3.202681     -1.233046
  H      -4.437776     -3.793893     -0.408673
  H      -5.891557     -3.452668     -1.354331
  H      -4.315304     -3.488352     -2.149022
  C      -5.165248     -0.913421     -2.200130
  H      -5.103130      0.160845     -2.032920
  H      -6.209332     -1.159301     -2.399981
  H      -4.567358     -1.152333     -3.079749
  H      -2.606035     -1.853616     -1.607730
41
Coordinates from ORCA-job orca E -848.342026855029
  C      -3.153568     -1.383721     -0.741791
  H      -2.836647     -1.902328      0.168273
  C      -2.827848      0.063365     -0.624443
  C      -3.018989      0.783564      0.665934
  H      -2.237508      0.455969      1.367594
  H      -3.965811      0.494279      1.128646
  C      -2.954067      2.291242      0.482882
  H      -2.866345      2.789560      1.449434
  H      -3.869437      2.655598      0.006930
  C      -1.770621      2.645154     -0.393407
  H      -0.852194      2.243321      0.057960
  C      -1.590463      4.130207     -0.649545
  C      -1.190136      4.926926      0.588330
  H      -1.965350      4.841190      1.355595
  H      -0.280970      4.493824      1.019569
  C      -0.956855      6.399341      0.277298
  H      -0.678007      6.957087      1.173019
  H      -1.858233      6.859107     -0.134725
  H      -0.156775      6.525645     -0.455884
  H      -2.518385      4.531059     -1.070515
  H      -0.823333      4.243035     -1.420702
  O      -1.918572      2.037454     -1.685914
  C      -2.305170      0.747361     -1.798057
  O      -2.229358      0.219838     -2.886811
  C      -4.656610     -1.733744     -0.989441
  C      -5.465648     -1.355237      0.246063
  O      -5.131875     -2.096759      1.313676
  C      -5.820293     -1.790138      2.523013
  H      -5.456919     -2.501737      3.259994
  H      -5.599526     -0.770126      2.840870
  H      -6.896951     -1.892161      2.389648
  O      -6.296592     -0.487037      0.298412
  C      -4.749882     -3.246039     -1.217205
  H      -4.315245     -3.806220     -0.389671
  H      -5.789961     -3.558394     -1.333657
  H      -4.215844     -3.506548     -2.132734
  C      -5.206185     -0.984332     -2.199240
  H      -5.203330      0.093286     -2.038034
  H      -6.235283     -1.284762     -2.400567
  H      -4.592616     -1.194970     -3.075446
  H      -2.597667     -1.799772     -1.582895
41
Coordinates from ORCA-job orca E -848.342078454888
  C      -3.150785     -1.396695     -0.749060
  H      -2.839446     -1.925343      0.156801
  C      -2.811034      0.046631     -0.624746
  C      -3.009663      0.765852      0.665318
  H      -2.227155      0.443120      1.367867
  H      -3.956215      0.472133      1.125447
  C      -2.947539      2.274924      0.482788
  H      -2.869644      2.773449      1.449872
  H      -3.860293      2.634763     -0.001346
  C      -1.758073      2.632475     -0.385083
  H      -0.841985      2.238903      0.078130
  C      -1.585155      4.117369     -0.646760
  C      -1.216740      4.929221      0.590852
  H      -2.006759      4.846318      1.342964
  H      -0.313324      4.508872      1.046181
  C      -0.986556      6.399767      0.268161
  H      -0.734171      6.970148      1.163572
  H      -1.881084      6.847179     -0.171389
  H      -0.170323      6.523553     -0.447264
  H      -2.508905      4.505403     -1.088484
  H      -0.805584      4.231965     -1.404970
  O      -1.888084      2.019829     -1.676698
  C      -2.269636      0.727524     -1.791532
  O      -2.172328      0.196533     -2.876195
  C      -4.659194     -1.721716     -0.991743
  C      -5.460643     -1.344010      0.248763
  O      -5.106606     -2.074244      1.317810
  C      -5.795715     -1.776769      2.529284
  H      -5.410846     -2.474692      3.268316
  H      -5.598714     -0.749414      2.838701
  H      -6.870033     -1.906615      2.402173
  O      -6.305524     -0.489649      0.302868
  C      -4.781199     -3.231662     -1.227561
  H      -4.346516     -3.802950     -0.407622
  H      -5.827748     -3.525487     -1.333256
  H      -4.262545     -3.497415     -2.150301
  C      -5.201634     -0.955476     -2.193486
  H      -5.184929      0.120865     -2.023545
  H      -6.235406     -1.238927     -2.394460
  H      -4.593507     -1.167574     -3.073005
  H      -2.603829     -1.814769     -1.594902
41
Coordinates from ORCA-job orca E -848.342112306604
  C      -3.151222     -1.392107     -0.747770
  H      -2.836050     -1.916592      0.159259
  C      -2.820807      0.053673     -0.625687
  C      -3.027378      0.774339      0.662038
  H      -2.253423      0.446430      1.371771
  H      -3.979539      0.484232      1.113046
  C      -2.957419      2.283119      0.482008
  H      -2.880083      2.779262      1.450297
  H      -3.867024      2.648317     -0.004117
  C      -1.765192      2.637349     -0.383459
  H      -0.850876      2.240532      0.080463
  C      -1.587100      4.121654     -0.644759
  C      -1.207814      4.931143      0.590425
  H      -1.995018      4.855553      1.346250
  H      -0.306012      4.503828      1.042284
  C      -0.966106      6.399327      0.264767
  H      -0.702164      6.967944      1.157821
  H      -1.859147      6.855289     -0.168989
  H      -0.154092      6.514693     -0.456717
  H      -2.511588      4.512994     -1.082133
  H      -0.811920      4.232988     -1.407854
  O      -1.894257      2.025492     -1.675377
  C      -2.276962      0.733993     -1.792051
  O      -2.175024      0.201710     -2.875349
  C      -4.656318     -1.724334     -0.989992
  C      -5.462904     -1.353636      0.249428
  O      -5.098238     -2.075723      1.320918
  C      -5.795765     -1.788402      2.529943
  H      -5.400404     -2.477695      3.271495
  H      -5.619501     -0.756888      2.837792
  H      -6.867129     -1.938607      2.400319
  O      -6.322704     -0.514333      0.300360
  C      -4.773461     -3.234851     -1.226960
  H      -4.335094     -3.804792     -0.408024
  H      -5.819060     -3.532331     -1.330699
  H      -4.255572     -3.498494     -2.150635
  C      -5.200355     -0.958747     -2.191049
  H      -5.189550      0.117281     -2.018880
  H      -6.232182     -1.247031     -2.395027
  H      -4.589179     -1.166072     -3.069522
  H      -2.601435     -1.807114     -1.593176
41
Coordinates from ORCA-job orca E -848.342129496905
  C      -3.152609     -1.387314     -0.745505
  H      -2.832732     -1.906865      0.162825
  C      -2.829659      0.060874     -0.626291
  C      -3.049921      0.786137      0.656272
  H      -2.290538      0.451999      1.378778
  H      -4.011176      0.502812      1.092610
  C      -2.968329      2.293867      0.476385
  H      -2.894429      2.788997      1.445446
  H      -3.871907      2.666044     -0.015746
  C      -1.769259      2.641485     -0.381874
  H      -0.858862      2.241581      0.087111
  C      -1.584584      4.124761     -0.644307
  C      -1.199935      4.932743      0.589545
  H      -1.987476      4.864382      1.345718
  H      -0.301586      4.499069      1.042172
  C      -0.946720      6.398603      0.261683
  H      -0.673938      6.965495      1.153142
  H      -1.837181      6.862777     -0.168642
  H      -0.137136      6.506007     -0.463672
  H      -2.507853      4.518766     -1.082047
  H      -0.810260      4.231735     -1.408871
  O      -1.893058      2.028134     -1.673525
  C      -2.278329      0.738139     -1.791626
  O      -2.171429      0.203682     -2.873106
  C      -4.654293     -1.725889     -0.987096
  C      -5.466591     -1.366396      0.252097
  O      -5.086302     -2.078250      1.325619
  C      -5.791361     -1.804092      2.533101
  H      -5.383098     -2.483967      3.276299
  H      -5.638697     -0.768616      2.840046
  H      -6.859108     -1.977497      2.402163
  O      -6.345468     -0.547277      0.300892
  C      -4.767348     -3.236457     -1.228454
  H      -4.324163     -3.806821     -0.412374
  H      -5.812281     -3.536989     -1.329292
  H      -4.251583     -3.496107     -2.154421
  C      -5.201192     -0.958661     -2.185865
  H      -5.197274      0.116717     -2.009010
  H      -6.230700     -1.252288     -2.393532
  H      -4.586883     -1.158617     -3.063880
  H      -2.599820     -1.799310     -1.590307
41
Coordinates from ORCA-job orca E -848.342136402075
  C      -3.155494     -1.379131     -0.744333
  H      -2.829875     -1.891793      0.165871
  C      -2.843339      0.072215     -0.631057
  C      -3.084780      0.804744      0.643503
  H      -2.345629      0.464817      1.383957
  H      -4.058310      0.531446      1.059155
  C      -2.986960      2.311118      0.461707
  H      -2.919564      2.807101      1.430835
  H      -3.881015      2.691692     -0.041207
  C      -1.775963      2.646543     -0.384319
  H      -0.873860      2.237451      0.092641
  C      -1.574726      4.128013     -0.644841
  C      -1.189833      4.930957      0.592074
  H      -1.982328      4.869169      1.343631
  H      -0.298356      4.488328      1.049551
  C      -0.921268      6.394846      0.267683
  H      -0.646631      6.957646      1.161152
  H      -1.805427      6.868401     -0.165393
  H      -0.107866      6.495599     -0.454347
  H      -2.491331      4.531011     -1.088335
  H      -0.794744      4.227760     -1.404618
  O      -1.895393      2.034073     -1.676728
  C      -2.282148      0.744694     -1.794578
  O      -2.169471      0.207227     -2.873971
  C      -4.653761     -1.729563     -0.983883
  C      -5.470996     -1.383271      0.255922
  O      -5.067760     -2.077853      1.332656
  C      -5.778347     -1.817626      2.539870
  H      -5.351287     -2.483182      3.285470
  H      -5.653540     -0.777093      2.842265
  H      -6.841240     -2.020273      2.411161
  O      -6.373604     -0.590369      0.302104
  C      -4.755843     -3.240819     -1.227774
  H      -4.305017     -3.808544     -0.413978
  H      -5.798750     -3.549327     -1.325268
  H      -4.241118     -3.494922     -2.155840
  C      -5.208498     -0.964780     -2.180798
  H      -5.214510      0.110258     -2.001217
  H      -6.235179     -1.267219     -2.389323
  H      -4.592262     -1.156898     -3.059286
  H      -2.599049     -1.789056     -1.587653
41
Coordinates from ORCA-job orca E -848.342148210340
  C      -3.164668     -1.352789     -0.747143
  H      -2.818366     -1.843184      0.167611
  C      -2.887778      0.107814     -0.654202
  C      -3.201008      0.863015      0.591308
  H      -2.531579      0.506942      1.387933
  H      -4.211198      0.621477      0.935221
  C      -3.050626      2.364642      0.406896
  H      -3.007871      2.863187      1.376156
  H      -3.910764      2.771367     -0.133104
  C      -1.799292      2.660672     -0.393628
  H      -0.927878      2.220997      0.112099
  C      -1.541390      4.135230     -0.643807
  C      -1.164956      4.920757      0.606704
  H      -1.979224      4.881703      1.336221
  H      -0.301296      4.447827      1.086546
  C      -0.841410      6.376746      0.297530
  H      -0.570411      6.925672      1.200691
  H      -1.698813      6.881299     -0.153869
  H      -0.007747      6.454561     -0.403964
  H      -2.431501      4.568930     -1.111587
  H      -0.737743      4.211067     -1.381361
  O      -1.899401      2.052755     -1.689721
  C      -2.292694      0.765747     -1.809165
  O      -2.159807      0.219760     -2.882046
  C      -4.652505     -1.741459     -0.974018
  C      -5.479987     -1.434078      0.269438
  O      -4.999879     -2.059310      1.357636
  C      -5.724606     -1.844085      2.565046
  H      -5.233547     -2.452862      3.319743
  H      -5.696701     -0.790985      2.847735
  H      -6.764697     -2.147370      2.447804
  O      -6.457013     -0.734821      0.307221
  C      -4.719674     -3.255086     -1.221486
  H      -4.242721     -3.811502     -0.414523
  H      -5.755731     -3.589559     -1.305273
  H      -4.210602     -3.494060     -2.156641
  C      -5.236145     -0.988673     -2.165278
  H      -5.274411      0.085100     -1.979526
  H      -6.253532     -1.320544     -2.372874
  H      -4.616319     -1.156999     -3.046409
  H      -2.599576     -1.756514     -1.587456
41
Coordinates from ORCA-job orca E -848.342161393217
  C      -3.168515     -1.347036     -0.753029
  H      -2.814320     -1.833242      0.160902
  C      -2.899012      0.115344     -0.663865
  C      -3.234728      0.877071      0.572092
  H      -2.587099      0.517685      1.384911
  H      -4.254728      0.644919      0.893563
  C      -3.069038      2.377343      0.387461
  H      -3.036398      2.877266      1.356433
  H      -3.917371      2.790766     -0.165923
  C      -1.803573      2.661772     -0.394802
  H      -0.943603      2.214438      0.123591
  C      -1.528617      4.133790     -0.641825
  C      -1.166656      4.916751      0.614634
  H      -1.994607      4.887016      1.329098
  H      -0.316955      4.435347      1.110703
  C      -0.822553      6.368985      0.310240
  H      -0.563169      6.916034      1.217952
  H      -1.665885      6.881820     -0.157990
  H       0.025475      6.437281     -0.374861
  H      -2.406667      4.575132     -1.124906
  H      -0.711633      4.201749     -1.365357
  O      -1.891456      2.054136     -1.691899
  C      -2.291067      0.769346     -1.814224
  O      -2.152362      0.222069     -2.885757
  C      -4.654321     -1.744229     -0.972476
  C      -5.481515     -1.447664      0.273723
  O      -4.971520     -2.040768      1.366298
  C      -5.697797     -1.840347      2.575275
  H      -5.177095     -2.417655      3.334826
  H      -5.712417     -0.783402      2.844337
  H      -6.725030     -2.188277      2.468827
  O      -6.482463     -0.782983      0.309529
  C      -4.714071     -3.258379     -1.220971
  H      -4.230117     -3.812366     -0.416354
  H      -5.748592     -3.598589     -1.300362
  H      -4.207574     -3.493824     -2.158405
  C      -5.247908     -0.994393     -2.160864
  H      -5.295363      0.078737     -1.972615
  H      -6.262647     -1.334766     -2.367055
  H      -4.628230     -1.155104     -3.043641
  H      -2.603872     -1.748383     -1.594754
41
Coordinates from ORCA-job orca E -848.342182256563
  C      -3.175938     -1.343232     -0.772103
  H      -2.807236     -1.831144      0.135180
  C      -2.909263      0.119398     -0.681629
  C      -3.276157      0.889127      0.541467
  H      -2.655647      0.530897      1.375358
  H      -4.307217      0.667764      0.834435
  C      -3.094201      2.388322      0.354195
  H      -3.082854      2.893346      1.320978
  H      -3.924196      2.805206     -0.223883
  C      -1.804303      2.658183     -0.392435
  H      -0.965156      2.203715      0.153297
  C      -1.504118      4.125683     -0.636374
  C      -1.191335      4.913496      0.630949
  H      -2.056189      4.905960      1.301034
  H      -0.377655      4.420754      1.174123
  C      -0.804497      6.356003      0.332175
  H      -0.590051      6.908703      1.248241
  H      -1.608913      6.877558     -0.191506
  H       0.085571      6.401124     -0.299519
  H      -2.353547      4.574994     -1.161104
  H      -0.652837      4.179185     -1.320564
  O      -1.860072      2.047716     -1.690044
  C      -2.279326      0.769961     -1.821547
  O      -2.134292      0.224250     -2.893363
  C      -4.662315     -1.747117     -0.972949
  C      -5.478423     -1.461513      0.282545
  O      -4.924125     -2.006606      1.377759
  C      -5.642406     -1.821557      2.593958
  H      -5.067263     -2.334873      3.360199
  H      -5.726571     -0.760431      2.832185
  H      -6.643875     -2.244772      2.519339
  O      -6.505821     -0.838237      0.321297
  C      -4.716403     -3.261342     -1.223772
  H      -4.227835     -3.815328     -0.421613
  H      -5.749648     -3.605672     -1.301641
  H      -4.210983     -3.492512     -2.162861
  C      -5.273806     -0.998618     -2.153307
  H      -5.329062      0.073589     -1.961003
  H      -6.286971     -1.348061     -2.351328
  H      -4.660379     -1.150245     -3.042178
  H      -2.619756     -1.740281     -1.621531
41
Coordinates from ORCA-job orca E -848.342195950444
  C      -3.170437     -1.351868     -0.765341
  H      -2.812489     -1.847622      0.142088
  C      -2.891953      0.107846     -0.667648
  C      -3.224422      0.867141      0.571409
  H      -2.568990      0.514305      1.380760
  H      -4.241129      0.631590      0.899972
  C      -3.066369      2.368725      0.383841
  H      -3.040240      2.871904      1.351295
  H      -3.914925      2.774838     -0.174701
  C      -1.796763      2.656699     -0.390364
  H      -0.940029      2.214106      0.137598
  C      -1.522094      4.128225     -0.639752
  C      -1.189913      4.919778      0.620278
  H      -2.037264      4.898195      1.311989
  H      -0.355107      4.439250      1.141909
  C      -0.832842      6.368312      0.313421
  H      -0.603202      6.923532      1.224259
  H      -1.658719      6.877792     -0.188310
  H       0.039190      6.427892     -0.341760
  H      -2.389734      4.566351     -1.143829
  H      -0.688216      4.193707     -1.344038
  O      -1.869520      2.045708     -1.686954
  C      -2.281897      0.765289     -1.814632
  O      -2.147643      0.222557     -2.889318
  C      -4.660447     -1.743173     -0.975873
  C      -5.476139     -1.440209      0.275898
  O      -4.965258     -2.035281      1.365979
  C      -5.682074     -1.826737      2.579351
  H      -5.147210     -2.388042      3.341100
  H      -5.703363     -0.766610      2.835101
  H      -6.706756     -2.186196      2.488101
  O      -6.468371     -0.762295      0.316482
  C      -4.725049     -3.256790     -1.224036
  H      -4.247639     -3.813956     -0.417606
  H      -5.760482     -3.592802     -1.309268
  H      -4.214899     -3.493716     -2.159149
  C      -5.258060     -0.991416     -2.160931
  H      -5.299482      0.082036     -1.973661
  H      -6.275400     -1.328571     -2.359683
  H      -4.645043     -1.155395     -3.047712
  H      -2.614689     -1.751711     -1.613806
41
Coordinates from ORCA-job orca E -848.342194836790
  C      -3.174035     -1.332973     -0.761966
  H      -2.808359     -1.812669      0.151085
  C      -2.919937      0.132375     -0.680080
  C      -3.281802      0.901221      0.544502
  H      -2.657652      0.541787      1.375341
  H      -4.311628      0.679260      0.840896
  C      -3.100850      2.400115      0.358472
  H      -3.083034      2.903294      1.326065
  H      -3.934762      2.818133     -0.213149
  C      -1.817808      2.669283     -0.400170
  H      -0.974592      2.207143      0.132930
  C      -1.512430      4.136386     -0.638880
  C      -1.169451      4.913582      0.627093
  H      -2.019571      4.905190      1.315585
  H      -0.346501      4.413283      1.148915
  C      -0.781545      6.356312      0.330091
  H      -0.544495      6.901670      1.244972
  H      -1.594875      6.885336     -0.171896
  H       0.093874      6.401879     -0.321639
  H      -2.369058      4.594724     -1.143932
  H      -0.674890      4.189523     -1.339866
  O      -1.893050      2.065882     -1.700090
  C      -2.301861      0.784123     -1.826307
  O      -2.159896      0.236806     -2.897590
  C      -4.656351     -1.751854     -0.969339
  C      -5.478376     -1.465735      0.282362
  O      -4.948426     -2.040629      1.374214
  C      -5.669585     -1.846847      2.587443
  H      -5.119258     -2.390510      3.350988
  H      -5.720702     -0.786693      2.838490
  H      -6.683731     -2.235401      2.497845
  O      -6.493521     -0.822601      0.320958
  C      -4.694316     -3.267053     -1.214417
  H      -4.203374     -3.813008     -0.408460
  H      -5.723818     -3.622106     -1.294599
  H      -4.183636     -3.496772     -2.151048
  C      -5.268713     -1.012717     -2.154553
  H      -5.326186      0.060512     -1.969605
  H      -6.281181     -1.365616     -2.350308
  H      -4.655148     -1.169445     -3.042288
  H      -2.610537     -1.731799     -1.605604
41
Coordinates from ORCA-job orca E -848.342205262397
  C      -3.172980     -1.341242     -0.766325
  H      -2.808457     -1.828828      0.142991
  C      -2.908218      0.121541     -0.676687
  C      -3.262310      0.887269      0.552232
  H      -2.628526      0.531012      1.377121
  H      -4.288280      0.660509      0.858030
  C      -3.089326      2.387298      0.365230
  H      -3.071781      2.891066      1.332521
  H      -3.926883      2.800274     -0.204746
  C      -1.808442      2.663205     -0.394566
  H      -0.962177      2.209601      0.140982
  C      -1.513852      4.131692     -0.638294
  C      -1.183948      4.917266      0.625999
  H      -2.039339      4.908531      1.307962
  H      -0.362524      4.423815      1.156704
  C      -0.800848      6.360214      0.323877
  H      -0.574948      6.912099      1.237655
  H      -1.612139      6.882137     -0.188722
  H       0.080535      6.406158     -0.319733
  H      -2.371234      4.581069     -1.149993
  H      -0.672760      4.188096     -1.334767
  O      -1.876350      2.055204     -1.692770
  C      -2.289525      0.775174     -1.821438
  O      -2.149247      0.230038     -2.894031
  C      -4.658964     -1.747654     -0.971974
  C      -5.476335     -1.456121      0.281480
  O      -4.949232     -2.035884      1.372031
  C      -5.666966     -1.837950      2.586666
  H      -5.115422     -2.380542      3.350079
  H      -5.715515     -0.777170      2.835514
  H      -6.681998     -2.225122      2.500913
  O      -6.485073     -0.803032      0.322289
  C      -4.709694     -3.262032     -1.219720
  H      -4.224121     -3.813913     -0.414543
  H      -5.742125     -3.608077     -1.301344
  H      -4.200440     -3.494504     -2.156443
  C      -5.266945     -1.001665     -2.155219
  H      -5.316895      0.071535     -1.968103
  H      -6.281953     -1.347312     -2.350931
  H      -4.655161     -1.160779     -3.043787
  H      -2.614674     -1.739587     -1.613683
41
Coordinates from ORCA-job orca E -848.342204976190
  C      -3.172714     -1.342027     -0.766941
  H      -2.808501     -1.830702      0.141939
  C      -2.906892      0.120461     -0.676154
  C      -3.258998      0.885208      0.553917
  H      -2.622918      0.529498      1.377285
  H      -4.284078      0.657331      0.861766
  C      -3.087816      2.385508      0.367096
  H      -3.069776      2.889023      1.334500
  H      -3.926518      2.797596     -0.201869
  C      -1.808108      2.662834     -0.394138
  H      -0.960822      2.209989      0.140463
  C      -1.515058      4.131573     -0.637994
  C      -1.185717      4.917699      0.626095
  H      -2.041584      4.909527      1.307458
  H      -0.364666      4.424439      1.157562
  C      -0.802210      6.360431      0.323313
  H      -0.577828      6.913158      1.236956
  H      -1.612753      6.881834     -0.191004
  H       0.080151      6.405762     -0.318990
  H      -2.372950      4.580072     -1.149610
  H      -0.674178      4.188641     -1.334684
  O      -1.876656      2.054982     -1.692374
  C      -2.289627      0.774930     -1.821309
  O      -2.150299      0.230382     -2.894279
  C      -4.659076     -1.747486     -0.972562
  C      -5.475879     -1.454439      0.280893
  O      -4.950907     -2.036748      1.371056
  C      -5.667498     -1.836215      2.585994
  H      -5.115907     -2.378242      3.349765
  H      -5.715063     -0.775033      2.833169
  H      -6.682833     -2.222929      2.501546
  O      -6.482324     -0.797792      0.322042
  C      -4.710710     -3.261892     -1.219780
  H      -4.225906     -3.813862     -0.414224
  H      -5.743344     -3.607278     -1.301733
  H      -4.201335     -3.495122     -2.156250
  C      -5.266489     -1.001474     -2.156058
  H      -5.314779      0.071939     -1.969791
  H      -6.282117     -1.345750     -2.351065
  H      -4.655415     -1.162191     -3.044814
  H      -2.614973     -1.740246     -1.614731
