31
Coordinates from ORCA-job orca E -692.271343319990
  C      -0.146700     -2.101750     -0.173760
  H       0.624760     -2.319020     -0.927560
  H       0.364520     -2.052860      0.806550
  C      -0.836250     -0.815090     -0.467950
  C      -0.085350      0.340790     -1.043570
  H      -0.792210      1.077900     -1.447720
  H       0.545490     -0.016110     -1.873770
  C       0.835650      1.091180     -0.033670
  C      -2.237670     -0.702440     -0.074740
  O      -2.885270     -1.597940      0.427170
  O      -2.764940      0.514660     -0.322640
  C       1.950670      0.160150      0.439340
  O       2.195850     -0.111930      1.585610
  O       2.657200     -0.335200     -0.586120
  C       0.039080      1.570270      1.179880
  H       0.677980      2.147060      1.863170
  H      -0.797750      2.203230      0.851540
  H      -0.371020      0.725030      1.750910
  C       1.480410      2.284960     -0.757310
  H       0.700120      2.993960     -1.072750
  H       2.174670      2.819710     -0.091280
  H       2.036430      1.959860     -1.647660
  C      -4.117530      0.691570      0.049840
  H      -4.379930      1.720810     -0.220570
  H      -4.769500     -0.017460     -0.481420
  H      -4.251850      0.538540      1.130920
  C       3.708450     -1.226140     -0.254390
  H       3.315010     -2.119890      0.252050
  H       4.184380     -1.506930     -1.200500
  H       4.437830     -0.742450      0.410740
  H      -0.866100     -2.929150     -0.116760
31
Coordinates from ORCA-job orca E -692.272359704817
  C      -0.177023     -2.107543     -0.181801
  H       0.574347     -2.323389     -0.944095
  H       0.343190     -2.081569      0.785061
  C      -0.850122     -0.809887     -0.448013
  C      -0.093976      0.339282     -1.025306
  H      -0.791829      1.077544     -1.420249
  H       0.520309     -0.019424     -1.855903
  C       0.842860      1.083212     -0.028226
  C      -2.250639     -0.697054     -0.066878
  O      -2.901881     -1.594506      0.424242
  O      -2.777617      0.519468     -0.320085
  C       1.959028      0.152961      0.439340
  O       2.217678     -0.104897      1.584545
  O       2.671775     -0.331330     -0.587730
  C       0.064669      1.575440      1.188024
  H       0.710865      2.145289      1.855967
  H      -0.761271      2.211526      0.866311
  H      -0.346393      0.744860      1.762890
  C       1.484663      2.267899     -0.761828
  H       0.710579      2.975469     -1.065312
  H       2.185302      2.795593     -0.111206
  H       2.022085      1.940802     -1.652252
  C      -4.139126      0.684411      0.037598
  H      -4.400237      1.706347     -0.227322
  H      -4.773663     -0.018681     -0.504185
  H      -4.283661      0.524538      1.107270
  C       3.738851     -1.205808     -0.248626
  H       3.360711     -2.095497      0.257627
  H       4.214437     -1.481177     -1.186580
  H       4.454224     -0.710387      0.408421
  H      -0.901703     -2.918172     -0.128122
31
Coordinates from ORCA-job orca E -692.272178077633
  C      -0.132738     -2.087142     -0.202085
  H       0.614397     -2.288407     -0.970486
  H       0.393380     -2.060791      0.759700
  C      -0.823511     -0.797295     -0.456617
  C      -0.083168      0.362484     -1.029775
  H      -0.788285      1.093889     -1.420135
  H       0.532828      0.014093     -1.861604
  C       0.845816      1.111585     -0.032119
  C      -2.224591     -0.707116     -0.078926
  O      -2.860917     -1.614356      0.413594
  O      -2.764849      0.508474     -0.311148
  C       1.962750      0.187782      0.444013
  O       2.201598     -0.081656      1.590403
  O       2.635346     -0.356291     -0.580958
  C       0.060138      1.605286      1.177808
  H       0.700707      2.176530      1.847197
  H      -0.762149      2.240208      0.849361
  H      -0.354525      0.777168      1.750550
  C       1.486824      2.296230     -0.765153
  H       0.712493      3.000983     -1.068666
  H       2.184290      2.824561     -0.114391
  H       2.024963      1.971052     -1.653736
  C      -4.129009      0.649536      0.057500
  H      -4.400528      1.672717     -0.184804
  H      -4.755430     -0.047992     -0.496899
  H      -4.264261      0.465876      1.122532
  C       3.669879     -1.268265     -0.228559
  H       3.260452     -2.121064      0.311512
  H       4.114261     -1.593512     -1.164021
  H       4.415845     -0.783359      0.398487
  H      -0.845576     -2.905887     -0.148992
31
Coordinates from ORCA-job orca E -692.272441644164
  C      -0.159588     -2.099676     -0.199494
  H       0.583361     -2.308759     -0.971459
  H       0.371341     -2.076289      0.761013
  C      -0.840465     -0.803976     -0.453626
  C      -0.091669      0.349817     -1.028582
  H      -0.792569      1.087023     -1.418925
  H       0.521618     -0.003986     -1.861634
  C       0.842722      1.093538     -0.031951
  C      -2.239966     -0.701293     -0.072620
  O      -2.885386     -1.604889      0.415248
  O      -2.771533      0.517438     -0.309422
  C       1.955020      0.163010      0.442346
  O       2.206337     -0.093689      1.589135
  O       2.656424     -0.344388     -0.582306
  C       0.060217      1.591132      1.178987
  H       0.705091      2.158648      1.849446
  H      -0.759077      2.232084      0.850757
  H      -0.359965      0.764104      1.751614
  C       1.489563      2.274927     -0.766488
  H       0.717937      2.984510     -1.070102
  H       2.191142      2.800422     -0.115827
  H       2.025977      1.946009     -1.656315
  C      -4.135967      0.668634      0.055580
  H      -4.399418      1.694497     -0.189652
  H      -4.766015     -0.026225     -0.500345
  H      -4.274934      0.487484      1.121721
  C       3.714417     -1.229833     -0.230507
  H       3.324076     -2.102841      0.293469
  H       4.178899     -1.528409     -1.166505
  H       4.438951     -0.730588      0.412224
  H      -0.880114     -2.913115     -0.142199
31
Coordinates from ORCA-job orca E -692.272442899500
  C      -0.162550     -2.099837     -0.194589
  H       0.575750     -2.311403     -0.970631
  H       0.373896     -2.076426      0.763010
  C      -0.842289     -0.803062     -0.447131
  C      -0.092645      0.349716     -1.023542
  H      -0.793312      1.088192     -1.412558
  H       0.518188     -0.005293     -1.858160
  C       0.844887      1.092893     -0.029277
  C      -2.241789     -0.699299     -0.067190
  O      -2.890193     -1.604353      0.414284
  O      -2.774122      0.518043     -0.310638
  C       1.958889      0.162941      0.441752
  O       2.214183     -0.092952      1.587824
  O       2.656665     -0.344829     -0.585396
  C       0.065749      1.590739      1.183887
  H       0.713061      2.156823      1.853547
  H      -0.752955      2.233749      0.857631
  H      -0.355095      0.763865      1.756543
  C       1.489858      2.274793     -0.764976
  H       0.717166      2.984912     -1.065392
  H       2.193665      2.799626     -0.115836
  H       2.023545      1.946549     -1.656907
  C      -4.141819      0.666853      0.046528
  H      -4.404204      1.692669     -0.200780
  H      -4.766482     -0.029070     -0.514314
  H      -4.285973      0.485379      1.111973
  C       3.717692     -1.228789     -0.235370
  H       3.329906     -2.099333      0.294687
  H       4.176089     -1.530877     -1.173423
  H       4.445249     -0.725048      0.400565
  H      -0.884579     -2.911851     -0.132543
31
Coordinates from ORCA-job orca E -692.272450453360
  C      -0.165703     -2.102105     -0.194802
  H       0.567069     -2.317430     -0.975365
  H       0.377467     -2.076914      0.759087
  C      -0.844680     -0.804830     -0.447796
  C      -0.092997      0.347166     -1.023679
  H      -0.792561      1.086791     -1.413121
  H       0.517453     -0.008994     -1.858352
  C       0.844614      1.090263     -0.029457
  C      -2.245162     -0.700446     -0.072769
  O      -2.895238     -1.604418      0.408899
  O      -2.773889      0.520021     -0.310184
  C       1.959403      0.161697      0.441908
  O       2.217613     -0.090108      1.588198
  O       2.657185     -0.345854     -0.585640
  C       0.064956      1.588745      1.183328
  H       0.712595      2.153253      1.854302
  H      -0.751630      2.234273      0.856092
  H      -0.359006      0.762276      1.754544
  C       1.489582      2.272705     -0.764796
  H       0.716493      2.983214     -1.064025
  H       2.193766      2.796987     -0.115275
  H       2.023008      1.945160     -1.657338
  C      -4.142545      0.669478      0.048654
  H      -4.399354      1.699195     -0.188714
  H      -4.767800     -0.018419     -0.521414
  H      -4.286197      0.477174      1.112208
  C       3.723372     -1.224894     -0.233112
  H       3.339425     -2.091090      0.306700
  H       4.175924     -1.533391     -1.172064
  H       4.452366     -0.711607      0.393528
  H      -0.889098     -2.912577     -0.125966
31
Coordinates from ORCA-job orca E -692.272455127001
  C      -0.161625     -2.098767     -0.192477
  H       0.570000     -2.314914     -0.973842
  H       0.383670     -2.069847      0.759996
  C      -0.843207     -0.803401     -0.447799
  C      -0.092776      0.349529     -1.023207
  H      -0.792870      1.088906     -1.411819
  H       0.517563     -0.005678     -1.858237
  C       0.844746      1.091808     -0.028684
  C      -2.244185     -0.700879     -0.073614
  O      -2.893503     -1.605714      0.407354
  O      -2.774435      0.518638     -0.311936
  C       1.959444      0.162562      0.441798
  O       2.219878     -0.087728      1.587937
  O       2.653073     -0.349191     -0.586398
  C       0.065255      1.589417      1.184559
  H       0.712960      2.153236      1.855850
  H      -0.751309      2.235183      0.857989
  H      -0.358600      0.762563      1.755176
  C       1.489992      2.274526     -0.763353
  H       0.717226      2.985387     -1.062149
  H       2.194272      2.798123     -0.113553
  H       2.023331      1.947336     -1.655970
  C      -4.143387      0.666776      0.046113
  H      -4.400771      1.696423     -0.190499
  H      -4.767625     -0.021004     -0.525051
  H      -4.287512      0.473298      1.109279
  C       3.718405     -1.229718     -0.235109
  H       3.334875     -2.091672      0.311531
  H       4.164669     -1.544594     -1.174839
  H       4.452347     -0.715143      0.384530
  H      -0.883469     -2.910141     -0.119998
31
Coordinates from ORCA-job orca E -692.272467389523
  C      -0.159366     -2.095259     -0.182421
  H       0.567163     -2.318227     -0.966597
  H       0.393090     -2.057199      0.765447
  C      -0.842805     -0.802511     -0.445149
  C      -0.091967      0.350279     -1.020335
  H      -0.791855      1.089581     -1.408901
  H       0.518229     -0.004935     -1.855305
  C       0.845504      1.091550     -0.025462
  C      -2.245580     -0.700748     -0.076341
  O      -2.896287     -1.605490      0.402733
  O      -2.775644      0.517753     -0.318674
  C       1.963982      0.164496      0.440839
  O       2.233401     -0.080344      1.586146
  O       2.647754     -0.354580     -0.590017
  C       0.066884      1.584162      1.190333
  H       0.714272      2.147599      1.861954
  H      -0.751915      2.228552      0.866971
  H      -0.353727      0.754750      1.759543
  C       1.487269      2.277460     -0.758028
  H       0.712873      2.987339     -1.054285
  H       2.191104      2.800780     -0.107753
  H       2.020338      1.953375     -1.651823
  C      -4.145501      0.666941      0.034768
  H      -4.400587      1.697390     -0.200190
  H      -4.768451     -0.018384     -0.540567
  H      -4.293618      0.470672      1.096726
  C       3.715995     -1.233347     -0.243742
  H       3.339946     -2.084391      0.324448
  H       4.143595     -1.565440     -1.186065
  H       4.462917     -0.710755      0.353165
  H      -0.880583     -2.905747     -0.097837
31
Coordinates from ORCA-job orca E -692.272464539654
  C      -0.159518     -2.091954     -0.169235
  H       0.558890     -2.324977     -0.958081
  H       0.403728     -2.043224      0.771719
  C      -0.843736     -0.801493     -0.440344
  C      -0.091462      0.350549     -1.015278
  H      -0.790715      1.090389     -1.403586
  H       0.517965     -0.005078     -1.850583
  C       0.846864      1.090058     -0.020367
  C      -2.249033     -0.700159     -0.080042
  O      -2.902224     -1.604487      0.396325
  O      -2.778202      0.517392     -0.327656
  C       1.970914      0.166442      0.439653
  O       2.255479     -0.067655      1.583611
  O       2.641382     -0.361833     -0.594950
  C       0.070452      1.576480      1.199314
  H       0.717909      2.140081      1.870585
  H      -0.751843      2.218647      0.880538
  H      -0.345177      0.743837      1.767516
  C       1.484150      2.279956     -0.750510
  H       0.707574      2.988884     -1.043004
  H       2.188120      2.802743     -0.100017
  H       2.016138      1.959723     -1.646359
  C      -4.149725      0.667639      0.017951
  H      -4.401828      1.699343     -0.214503
  H      -4.770356     -0.014207     -0.564009
  H      -4.304765      0.467110      1.078059
  C       3.715775     -1.235505     -0.255681
  H       3.353750     -2.070493      0.344331
  H       4.116695     -1.592670     -1.200520
  H       4.480345     -0.700228      0.306749
  H      -0.881116     -2.899992     -0.068045
31
Coordinates from ORCA-job orca E -692.272470850270
  C      -0.162402     -2.093469     -0.168373
  H       0.556129     -2.327458     -0.956852
  H       0.400356     -2.045654      0.772996
  C      -0.844833     -0.802052     -0.439600
  C      -0.091513      0.349069     -1.015077
  H      -0.790300      1.089140     -1.403974
  H       0.517956     -0.007296     -1.850116
  C       0.846902      1.088684     -0.020244
  C      -2.250024     -0.699390     -0.079585
  O      -2.903759     -1.602809      0.397831
  O      -2.778437      0.518366     -0.328155
  C       1.971832      0.166037      0.439309
  O       2.256745     -0.067884      1.583201
  O       2.644203     -0.359460     -0.595504
  C       0.070597      1.574578      1.199687
  H       0.717720      2.139242      1.870495
  H      -0.752754      2.215586      0.881125
  H      -0.343745      0.741581      1.768405
  C       1.483689      2.278962     -0.750256
  H       0.706772      2.987683     -1.042626
  H       2.187645      2.801979     -0.099840
  H       2.015545      1.959013     -1.646364
  C      -4.149774      0.669523      0.016947
  H      -4.402177      1.700785     -0.217468
  H      -4.770936     -0.013434     -0.563304
  H      -4.305380      0.471261      1.077512
  C       3.719015     -1.232363     -0.256703
  H       3.357542     -2.069671      0.340536
  H       4.122756     -1.586441     -1.201590
  H       4.482230     -0.698192      0.308800
  H      -0.885168     -2.900593     -0.067632
