31
Coordinates from ORCA-job orca E -692.272470850270
  C          -0.16240184268120     -2.09346947057200     -0.16837256311190
  H           0.55612932492455     -2.32745800578035     -0.95685237668371
  H           0.40035578430809     -2.04565410123037      0.77299561276719
  C          -0.84483348436247     -0.80205199690530     -0.43959987017389
  C          -0.09151255986464      0.34906899838889     -1.01507670963636
  H          -0.79029999186112      1.08913970602823     -1.40397388899276
  H           0.51795556130905     -0.00729591903350     -1.85011639195674
  C           0.84690167248684      1.08868362079150     -0.02024430703063
  C          -2.25002441919428     -0.69938996419790     -0.07958522161604
  O          -2.90375915493907     -1.60280853623733      0.39783117153015
  O          -2.77843682457267      0.51836625832190     -0.32815540918152
  C           1.97183185492290      0.16603745287392      0.43930895615992
  O           2.25674519280686     -0.06788389343566      1.58320058220389
  O           2.64420271921378     -0.35946016460981     -0.59550403030290
  C           0.07059712302294      1.57457767207870      1.19968684246414
  H           0.71771989915399      2.13924197745628      1.87049493835625
  H          -0.75275354674313      2.21558574987107      0.88112548968577
  H          -0.34374491091963      0.74158081491517      1.76840500851889
  C           1.48368919896522      2.27896209226965     -0.75025649374504
  H           0.70677153485342      2.98768252756044     -1.04262585242548
  H           2.18764499083676      2.80197871702533     -0.09983962002028
  H           2.01554491540429      1.95901267412111     -1.64636435271170
  C          -4.14977431504879      0.66952345349742      0.01694680009407
  H          -4.40217744755434      1.70078483439188     -0.21746765919987
  H          -4.77093604222345     -0.01343385334630     -0.56330367933509
  H          -4.30537982624782      0.47126063734969      1.07751178129800
  C           3.71901483410309     -1.23236317824831     -0.25670292721327
  H           3.35754238645109     -2.06967105210355      0.34053590680015
  H           4.12275611732524     -1.58644135669188     -1.20159004609544
  H           4.48222952954055     -0.69819229614399      0.30880020145154
  H          -0.88516827341605     -2.90059339840492     -0.06763189189736
