31
./bde_1/rad_2.out	Energy: -433907.0886341
C         -0.14670       -2.10175       -0.17376
H          0.62476       -2.31902       -0.92756
H          0.36452       -2.05286        0.80655
C         -0.83625       -0.81509       -0.46795
C         -0.08535        0.34079       -1.04357
H         -0.79221        1.07790       -1.44772
H          0.54549       -0.01611       -1.87377
C          0.83565        1.09118       -0.03367
C         -2.23767       -0.70244       -0.07474
O         -2.88527       -1.59794        0.42717
O         -2.76494        0.51466       -0.32264
C          1.95067        0.16015        0.43934
O          2.19585       -0.11193        1.58561
O          2.65720       -0.33520       -0.58612
C          0.03908        1.57027        1.17988
H          0.67798        2.14706        1.86317
H         -0.79775        2.20323        0.85154
H         -0.37102        0.72503        1.75091
C          1.48041        2.28496       -0.75731
H          0.70012        2.99396       -1.07275
H          2.17467        2.81971       -0.09128
H          2.03643        1.95986       -1.64766
C         -4.11753        0.69157        0.04984
H         -4.37993        1.72081       -0.22057
H         -4.76950       -0.01746       -0.48142
H         -4.25185        0.53854        1.13092
C          3.70845       -1.22614       -0.25439
H          3.31501       -2.11989        0.25205
H          4.18438       -1.50693       -1.20050
H          4.43783       -0.74245        0.41074
H         -0.86610       -2.92915       -0.11676
