64
Coordinates from ORCA-job orca E -1423.250935318886
  C           1.63926039878663      0.49495007693748     -1.06628091476408
  H           1.78575947960887      1.52730623137168     -0.74477611621185
  H           2.50492356003113      0.18435805002977     -1.65045966896678
  C           1.43154144495535     -0.40412307643261      0.14892577131861
  C           2.64287642149640     -0.36033944513172      1.12037866348264
  H           2.45169426196232     -1.08089451939187      1.91940839093006
  H           2.63554332686132      0.62646896094842      1.58663493961057
  C           4.08032322614964     -0.61959330091799      0.62054959698594
  C           1.20453945791141     -1.83536193442533     -0.33649957292592
  O           1.18743624650095     -2.18816913876146     -1.48476471208477
  O           1.01698597037417     -2.69009326663271      0.68122186306177
  C           4.59569826011151      0.50278403765646     -0.27599725811743
  O           5.19892526840341      0.34749210334437     -1.30345870311985
  O           4.35370322902211      1.71620756511826      0.24375935497857
  C           4.23941480119551     -1.95134208280273     -0.10896461615219
  H           5.29068614766077     -2.14811291360268     -0.31719667580575
  H           3.85491630568940     -2.76062989782589      0.51571526587436
  H           3.71492527178021     -1.96514663919524     -1.06287634926339
  C           4.99174034683538     -0.61837908984812      1.86308939193763
  H           4.73370111408627     -1.46014705771897      2.50845321006042
  H           6.03953291273631     -0.72296588681317      1.57454320004549
  H           4.88209044579307      0.30301558462327      2.43578453609909
  C           0.79501696256220     -4.04727340210236      0.30887117366174
  H           0.66832359861509     -4.59370711996553      1.23989180317883
  H          -0.09886418034219     -4.13160725232092     -0.30964813242575
  H           1.64723491793542     -4.43542958009395     -0.24925286406824
  C           4.82564807290288      2.81998210262479     -0.52373290001132
  H           4.35317251329159      2.82969052479657     -1.50644189661482
  H           4.55357495898465      3.70983773082262      0.03828883247353
  H           5.90639444533631      2.76512859308505     -0.65235504421181
  H           0.78796900529747      0.45289136296971     -1.74344381611735
  C           0.23179227727903      0.05332296315418      1.02262021569912
  C          -1.18358500726668      0.25762442303627      0.42838732329602
  H           0.52613567896861      0.99840402322876      1.48306007294372
  H           0.12939087226799     -0.66875792730669      1.83576754128777
  C          -2.08602757309208      0.58552018025676      1.65550491046436
  C          -1.20321677353504      1.44389021237831     -0.53181461522152
  C          -1.72166554012229     -0.97100412616398     -0.29554816304498
  C          -3.56174323778135      0.77887298975453      1.40857039067544
  H          -1.96122766915050     -0.23965769286104      2.36027251866784
  H          -1.68625136154242      1.48167891669521      2.13871600834658
  O          -1.60740902455651      1.41732484858844     -1.66309238354254
  O          -0.72830395111248      2.56122745067092      0.03887910690287
  H          -1.14891048849230     -1.20233027725223     -1.19147718939874
  H          -1.70277166737613     -1.83414631206988      0.37393372535467
  H          -2.75133407711655     -0.79931307687620     -0.60406524344651
  C          -4.00216597638542      2.02877694690587      0.69941271893921
  C          -6.17856317674959      0.35538467425235     -1.46968291947256
  C          -0.72556025783725      3.72059537057184     -0.78959747029258
  H          -3.53231781151967      2.91079498321534      1.14276155146014
  H          -3.72255646246909      2.00914376547522     -0.35696405451140
  H          -5.08357180938208      2.14892459347979      0.75405077462984
  O          -7.02765847166714      0.19300708014999     -0.65960813558242
  O          -5.29364042030768     -0.46880054716579     -1.95936416674700
  H          -1.74157171937543      3.97819163539832     -1.08951053964800
  H          -0.29407308657010      4.51560032708016     -0.18691183820703
  H          -0.12639206912886      3.54917347014804     -1.68402911139315
  C          -5.31875067132785     -1.81785669365822     -1.43177000596867
  H          -4.57523210614224     -2.36629108858640     -2.00198908307432
  H          -5.05686924810979     -1.79609731526099     -0.37437256274674
  H          -6.30977500898622     -2.24892947332143     -1.56680973123317
  C          -4.44272549354083     -0.11156239318322      1.85309800066356
  H          -4.12394623838308     -1.00651617293657      2.37662578325045
  H          -5.50901062202443      0.03151692185711      1.71898981811161
