85
Coordinates from ORCA-job orca E -1736.088764010334
  C           2.26476762825176     -4.12664921489277     -0.70722561608558
  C           2.18910154286744     -2.63058008566497     -0.33443111092980
  H           1.67877577188936     -4.71117886682088      0.00515692926299
  H           1.87987138671465     -4.29932049119068     -1.71142364688219
  C           3.04959673368971     -1.93445724946129     -1.39110363807272
  C           2.72628223957466     -2.47551453258637      1.10265046388556
  O           2.73830232943118     -1.93198461019547     -2.55259927768707
  O           4.20332164276904     -1.34479530823286     -1.05130774246590
  H           3.35588257539317     -3.34097280063658      1.33055025221319
  H           1.89645800494226     -2.49813330989281      1.80738800110206
  C           3.57073321485713     -1.23225449125868      1.30182905981673
  C           4.70058432520477     -1.22353888473823      0.29839551464826
  H           3.98882965030112     -1.22823834548209      2.30949781807331
  H           2.98305676348065     -0.31790844261959      1.20680933470635
  H           5.34504934258117     -2.09434896084703      0.47315858475860
  C           5.54686454493382      0.03813790085922      0.29953851670680
  H           4.90473564638460      0.88440391233327      0.03197077620435
  H           6.28683478670531     -0.05105969790209     -0.50068477646750
  C           6.24644545103174      0.31673723677422      1.62413508678676
  H           5.50356081837911      0.46571855929623      2.41274996212593
  H           6.83667086133735     -0.55799712979702      1.91807786221922
  C           7.14854238101637      1.54181648705586      1.55141196325761
  H           7.63736816920527      1.73263866792426      2.50785839431146
  H           7.92758965530862      1.41390563043137      0.79645472429275
  H           6.57528920586186      2.43377663800919      1.28656815831581
  C           0.68998574673636     -2.25791867407109     -0.49928778911896
  C           0.06746817744354     -0.83007557498152     -0.37763575453892
  H           0.39672841423158     -2.60463939562425     -1.49198052540837
  H           0.16876740324843     -2.88709336859445      0.22485466189806
  C          -1.45930255241019     -1.13184785604048     -0.46375667081011
  C           0.34807356310961     -0.29050101776583      1.02698601697367
  C           0.53119124599704      0.09742811537317     -1.51751681810385
  C          -2.56860730064546     -0.04511396599004     -0.33435756750651
  H          -1.61878855452730     -1.64709952760231     -1.41432191784551
  H          -1.66822526733260     -1.85406494684773      0.32670436852829
  O           0.09283509281793     -0.93991583380289      2.00733242747999
  O           0.90295042967446      0.91436735085454      1.19901173030364
  H          -0.29583724044231      0.71787472780009     -1.85227296914240
  H           0.83376252591987     -0.50696865100249     -2.37127930491865
  C           1.63972147531184      1.05007491703222     -1.11026082312961
  C          -2.51187393841799      0.91269443660490     -1.52083443913606
  C          -2.45581143163963      0.76575485486600      0.95298876580370
  C           1.21035666156809      1.82096160295139      0.11559735374791
  H           1.83631890613301      1.74858174205944     -1.92473873024170
  H           2.58078941514759      0.53427046528867     -0.91048820600439
  O          -2.28924915726551      2.09385064968975     -1.45234914081326
  O          -2.71823846699583      0.28732081663959     -2.68757160574943
  H          -1.54687744899017      1.36211393911309      0.97721449086969
  H          -2.45362828609135      0.10389079921559      1.81851404946247
  H          -3.27831127032929      1.47424594525285      1.04487400624419
  H           0.29001839498768      2.37475873044055     -0.10938643476413
  C           2.25189531630773      2.77011779837387      0.67973302198120
  C          -2.66294165447883      1.10990327258443     -3.85002700868737
  H           3.13392829961444      2.18758352729709      0.96880697796351
  H           1.85082626066510      3.19814202737592      1.60267527903966
  C           2.65636289588433      3.88642668770565     -0.27503508887405
  H          -2.86720686849122      0.45070674599752     -4.68943578208165
  H          -3.40968631641199      1.90186590510241     -3.79178197689836
  H          -1.67583666951709      1.56169631191854     -3.95277520826791
  H           3.11758272328020      3.46076338677492     -1.17064459822560
  H           1.76146015022073      4.41882335793383     -0.61379942802376
  C           3.62608169734310      4.86972665034104      0.36688239581242
  H           3.91717710900955      5.65455486914627     -0.33273885546322
  H           3.18034011246362      5.34914645698165      1.24128682194404
  H           4.53687772447552      4.36353661747400      0.69688402901861
  C          -3.88606190250531     -0.86892728062264     -0.37771421095405
  C          -5.25347101328747     -0.19358405494899     -0.13988584167822
  H          -3.93888544478226     -1.35964711675440     -1.35206773275380
  H          -3.78306363735196     -1.66231233735940      0.36391199693102
  C          -5.51327249773533      0.99884436498567     -1.05701833590338
  C          -5.44041031214228      0.24638609315866      1.31031466631431
  C          -6.33183889440195     -1.26424385211537     -0.39407010038364
  H          -5.38221755221754      0.69802169097773     -2.09831306679971
  H          -4.84756745536300      1.83522602343423     -0.84689861209751
  H          -6.53227060394184      1.36229645986075     -0.92860821628398
  O          -5.90713777278603      1.29768075253205      1.65947462204719
  O          -5.07638875375295     -0.70821174444397      2.17732885577026
  H          -6.15941796827051     -2.15306711612846      0.21355166247872
  H          -6.31916150274906     -1.55640163773050     -1.44585404195441
  H          -7.32558683489519     -0.87545101542477     -0.16316516600301
  C          -5.23007089549474     -0.38350944036736      3.55651307984466
  H          -4.89011569556981     -1.25723663913359      4.10617424189374
  H          -4.62348768053473      0.48561759736235      3.81205581460798
  H          -6.27323620194240     -0.16742360454069      3.78641887507131
  H           3.29613063000763     -4.48340364907142     -0.66929383756168
