85
Coordinates from ORCA-job orca E -1736.085714938513
  C       2.253710     -4.283060     -0.507070
  C       2.190280     -2.763440     -0.228890
  H       1.675040     -4.823730      0.257360
  H       1.846720     -4.519470     -1.499160
  C       3.030870     -2.128910     -1.346270
  C       2.759200     -2.517830      1.187160
  O       2.725350     -2.247970     -2.504110
  O       4.144490     -1.446300     -1.051500
  H       3.433120     -3.353600      1.438830
  H       1.943780     -2.538050      1.921580
  C       3.560240     -1.233220      1.310130
  C       4.660720     -1.208470      0.268510
  H       4.013400     -1.173790      2.310240
  H       2.927980     -0.340920      1.208190
  H       5.373510     -2.027310      0.480260
  C       5.423250      0.106310      0.174520
  H       4.718250      0.892450     -0.146190
  H       6.163380      0.010590     -0.636210
  C       6.114750      0.532700      1.465800
  H       5.363020      0.696470      2.255570
  H       6.763260     -0.285500      1.825010
  C       6.939450      1.803200      1.291170
  H       7.423350      2.101640      2.232490
  H       7.728060      1.666790      0.534920
  H       6.305810      2.641380      0.960300
  C       0.686720     -2.389350     -0.392200
  C       0.095000     -0.944350     -0.332620
  H       0.375630     -2.788260     -1.369310
  H       0.164710     -2.977960      0.376240
  C      -1.443940     -1.191620     -0.428460
  C       0.375230     -0.369120      1.061110
  C       0.596890     -0.072020     -1.508460
  C      -2.514830     -0.065710     -0.260100
  H      -1.619880     -1.671210     -1.404520
  H      -1.688450     -1.937900      0.341240
  O       0.136030     -1.003920      2.056110
  O       0.899730      0.852940      1.193660
  H      -0.237080      0.485340     -1.944230
  H       0.968730     -0.721560     -2.310280
  C       1.657690      0.941350     -1.111580
  C      -2.351580      0.988880     -1.352240
  C      -2.432840      0.630890      1.099970
  C       1.196270      1.735180      0.093710
  H       1.840430      1.628730     -1.949860
  H       2.620560      0.459340     -0.891850
  O      -2.014030      2.132990     -1.173670
  O      -2.604440      0.502420     -2.573090
  H      -1.503920      1.198990      1.214630
  H      -2.487690     -0.107880      1.909780
  H      -3.245350      1.359530      1.219610
  H       0.259800      2.264250     -0.158010
  C       2.215840      2.722490      0.640800
  C      -2.461120      1.406580     -3.655000
  H       3.109740      2.159610      0.962970
  H       1.790870      3.171810      1.552750
  C       2.618150      3.820980     -0.338650
  H      -2.698890      0.840760     -4.562280
  H      -3.148230      2.257680     -3.542750
  H      -1.432340      1.792540     -3.707440
  H       3.113260      3.376190     -1.217900
  H       1.711240      4.322180     -0.718630
  C       3.549530      4.850830      0.291140
  H       3.836980      5.628760     -0.431100
  H       3.071450      5.348180      1.149330
  H       4.473830      4.376250      0.657370
  C      -3.867090     -0.814390     -0.438650
  C      -5.207750     -0.083490     -0.193170
  H      -3.897580     -1.211030     -1.464430
  H      -3.843220     -1.684080      0.233680
  C      -5.352080      1.210840     -0.996400
  C      -5.428630      0.226830      1.287690
  C      -6.336170     -1.057810     -0.594750
  H      -5.206830      1.003730     -2.066550
  H      -4.628040      1.975650     -0.684530
  H      -6.352640      1.641220     -0.854340
  O      -5.850300      1.266310      1.724100
  O      -5.147870     -0.823400      2.068800
  H      -6.251650     -2.010790     -0.053350
  H      -6.283930     -1.265290     -1.674320
  H      -7.323910     -0.622730     -0.379480
  C      -5.313920     -0.633500      3.463540
  H      -5.056980     -1.587670      3.936620
  H      -4.645660      0.160850      3.827060
  H      -6.350360     -0.354930      3.701420
  H       3.291980     -4.646290     -0.467420
85
Coordinates from ORCA-job orca E -1736.087902623909
  C       2.220448     -4.178062     -0.621832
  C       2.185824     -2.678687     -0.261689
  H       1.620348     -4.741604      0.096210
  H       1.830238     -4.348926     -1.624422
  C       3.068601     -2.009265     -1.320604
  C       2.733282     -2.541862      1.173469
  O       2.789156     -2.052028     -2.489009
  O       4.208887     -1.402085     -0.969064
  H       3.360167     -3.415174      1.381274
  H       1.909594     -2.572375      1.885305
  C       3.589359     -1.310632      1.391497
  C       4.708426     -1.277354      0.375706
  H       4.021390     -1.336115      2.393580
  H       3.007771     -0.390524      1.334597
  H       5.370638     -2.137284      0.543192
  C       5.533258     -0.000629      0.385136
  H       4.876190      0.837235      0.122023
  H       6.273663     -0.072425     -0.417127
  C       6.228319      0.287245      1.709144
  H       5.482280      0.428621      2.497189
  H       6.826253     -0.581642      2.006864
  C       7.117238      1.520731      1.635688
  H       7.601091      1.721759      2.592793
  H       7.900247      1.400556      0.883036
  H       6.535444      2.406012      1.365508
  C       0.691566     -2.274003     -0.435375
  C       0.103438     -0.827804     -0.374034
  H       0.383610     -2.657489     -1.410765
  H       0.160404     -2.857482      0.319370
  C      -1.432410     -1.102089     -0.432509
  C       0.414239     -0.225550      0.998870
  C       0.557827      0.028226     -1.575984
  C      -2.536903     -0.010396     -0.268842
  H      -1.613401     -1.604643     -1.387118
  H      -1.641728     -1.832921      0.350952
  O       0.205601     -0.840081      2.011755
  O       0.941633      0.998270      1.097783
  H      -0.288898      0.569675     -1.987301
  H       0.903256     -0.627447     -2.373564
  C       1.623518      1.051963     -1.233858
  C      -2.439934      1.019994     -1.390402
  C      -2.453903      0.718580      1.070788
  C       1.201724      1.862321     -0.029503
  H       1.771555      1.721359     -2.082889
  H       2.589267      0.582246     -1.041410
  O      -2.150652      2.180577     -1.248088
  O      -2.692851      0.489295     -2.593470
  H      -1.552497      1.319187      1.152920
  H      -2.463755      0.002106      1.891732
  H      -3.284166      1.413670      1.191232
  H       0.265074      2.385895     -0.254724
  C       2.241305      2.853068      0.462874
  C      -2.607749      1.376348     -3.699717
  H       3.142922      2.297848      0.752237
  H       1.857101      3.313107      1.378090
  C       2.598458      3.934321     -0.548440
  H      -2.835915      0.782552     -4.581056
  H      -3.323805      2.192509     -3.593922
  H      -1.605592      1.800919     -3.780224
  H       3.056640      3.480190     -1.432494
  H       1.682016      4.422925     -0.897122
  C       3.547748      4.975322      0.027917
  H       3.802692      5.735557     -0.712179
  H       3.103495      5.481934      0.888077
  H       4.479837      4.513843      0.364959
  C      -3.857773     -0.820034     -0.400046
  C      -5.230076     -0.161146     -0.132766
  H      -3.893468     -1.228406     -1.412263
  H      -3.773465     -1.675005      0.273047
  C      -5.459095      1.119122     -0.933021
  C      -5.458731      0.134349      1.348672
  C      -6.305261     -1.191611     -0.524961
  H      -5.314993      0.920625     -1.996721
  H      -4.784925      1.920844     -0.631975
  H      -6.474320      1.485392     -0.782940
  O      -5.941561      1.144805      1.786278
  O      -5.125974     -0.903209      2.127093
  H      -6.164815     -2.133654      0.006659
  H      -6.253206     -1.389442     -1.597548
  H      -7.304864     -0.814087     -0.299292
  C      -5.316161     -0.722120      3.523251
  H      -5.009331     -1.653161      3.993159
  H      -4.703337      0.103435      3.888754
  H      -6.361272     -0.508066      3.749408
  H       3.241809     -4.563221     -0.583465
85
Coordinates from ORCA-job orca E -1736.088327812513
  C       2.225452     -4.229465     -0.572975
  C       2.180854     -2.719139     -0.263138
  H       1.642372     -4.772182      0.170861
  H       1.824013     -4.438118     -1.561040
  C       3.036849     -2.075133     -1.356482
  C       2.741574     -2.512925      1.156083
  O       2.727831     -2.140732     -2.516157
  O       4.160639     -1.417830     -1.045367
  H       3.397322     -3.354443      1.390712
  H       1.927342     -2.539584      1.875485
  C       3.553254     -1.243256      1.311269
  C       4.666336     -1.226359      0.290468
  H       3.988530     -1.205499      2.308786
  H       2.940434     -0.347445      1.208067
  H       5.347490     -2.061337      0.487710
  C       5.462954      0.065280      0.239397
  H       4.787317      0.875728     -0.045268
  H       6.193959     -0.021778     -0.566618
  C       6.167666      0.414456      1.542882
  H       5.430578      0.568184      2.333075
  H       6.787461     -0.427915      1.861958
  C       7.027735      1.663180      1.412443
  H       7.518656      1.907956      2.352745
  H       7.801248      1.532286      0.655473
  H       6.424256      2.523416      1.119941
  C       0.685194     -2.328473     -0.419226
  C       0.094281     -0.886753     -0.341631
  H       0.371983     -2.707052     -1.391677
  H       0.167521     -2.919801      0.335090
  C      -1.440232     -1.149798     -0.434518
  C       0.380712     -0.317621      1.048586
  C       0.586754     -0.007556     -1.508880
  C      -2.529647     -0.044982     -0.285470
  H      -1.606519     -1.643115     -1.393806
  H      -1.672600     -1.879021      0.340149
  O       0.136896     -0.949123      2.042773
  O       0.911603      0.899832      1.190968
  H      -0.241031      0.558307     -1.922013
  H       0.940164     -0.647978     -2.312358
  C       1.660374      0.988821     -1.114597
  C      -2.405299      0.981174     -1.407391
  C      -2.444476      0.682540      1.053019
  C       1.206780      1.783260      0.086653
  H       1.846359      1.669293     -1.943823
  H       2.610837      0.499839     -0.895021
  O      -2.096870      2.135724     -1.263465
  O      -2.650530      0.450805     -2.613098
  H      -1.534230      1.265966      1.141365
  H      -2.472216     -0.032404      1.872034
  H      -3.262741      1.389562      1.167659
  H       0.280510      2.312648     -0.156217
  C       2.229291      2.764232      0.628078
  C      -2.535148      1.339182     -3.718813
  H       3.120020      2.207015      0.930664
  H       1.819148      3.205198      1.538467
  C       2.610914      3.865030     -0.352064
  H      -2.762163      0.749751     -4.600327
  H      -3.237211      2.164671     -3.620616
  H      -1.527131      1.744622     -3.785245
  H       3.095445      3.430605     -1.228389
  H       1.705505      4.357090     -0.716448
  C       3.539250      4.896033      0.273081
  H       3.813489      5.669163     -0.442645
  H       3.067900      5.383580      1.126559
  H       4.459844      4.431279      0.628642
  C      -3.861374     -0.831755     -0.421376
  C      -5.217805     -0.138434     -0.175608
  H      -3.896992     -1.252831     -1.425628
  H      -3.800855     -1.675193      0.264551
  C      -5.418973      1.121433     -1.013040
  C      -5.438102      0.205981      1.295527
  C      -6.314401     -1.156335     -0.536431
  H      -5.280344      0.887941     -2.067988
  H      -4.728766      1.915364     -0.737210
  H      -6.423744      1.512493     -0.875093
  O      -5.892376      1.241497      1.702499
  O      -5.084430     -0.798397      2.108498
  H      -6.191464     -2.085028      0.017249
  H      -6.270120     -1.381510     -1.601233
  H      -7.302754     -0.753620     -0.317317
  C      -5.249592     -0.556342      3.501333
  H      -4.923534     -1.461376      4.002289
  H      -4.639742      0.288472      3.815622
  H      -6.290109     -0.344229      3.736813
  H       3.248684     -4.602227     -0.535466
85
Coordinates from ORCA-job orca E -1736.088522438829
  C       2.246570     -4.216007     -0.589576
  C       2.191737     -2.707589     -0.268732
  H       1.664976     -4.768833      0.150871
  H       1.846859     -4.420201     -1.581607
  C       3.046169     -2.050203     -1.355592
  C       2.747817     -2.508217      1.154261
  O       2.752287     -2.130042     -2.518748
  O       4.178177     -1.408584     -1.039609
  H       3.401770     -3.353609      1.388413
  H       1.929575     -2.535603      1.872181
  C       3.564120     -1.241462      1.315805
  C       4.681992     -1.228398      0.299255
  H       3.995829     -1.207322      2.317004
  H       2.955112     -0.341988      1.210909
  H       5.356292     -2.071596      0.494718
  C       5.489464      0.057541      0.255872
  H       4.819422      0.876565     -0.025286
  H       6.222038     -0.031081     -0.550969
  C       6.195683      0.393551      1.563072
  H       5.457518      0.548058      2.354752
  H       6.810088     -0.456818      1.877542
  C       7.065575      1.637449      1.441924
  H       7.558424      1.872314      2.386146
  H       7.840172      1.505415      0.683425
  H       6.467620      2.505689      1.154444
  C       0.693588     -2.324917     -0.426452
  C       0.095453     -0.885451     -0.347464
  H       0.382174     -2.704864     -1.401096
  H       0.177736     -2.920447      0.328573
  C      -1.438284     -1.154552     -0.425852
  C       0.388285     -0.311319      1.039505
  C       0.571383     -0.004070     -1.520717
  C      -2.525364     -0.047963     -0.272047
  H      -1.611764     -1.652287     -1.383577
  H      -1.662728     -1.882095      0.355307
  O       0.161324     -0.945049      2.036849
  O       0.918375      0.907712      1.175375
  H      -0.263966      0.562768     -1.921934
  H       0.916477     -0.643778     -2.330899
  C       1.647364      0.994607     -1.137608
  C      -2.401777      0.975690     -1.396224
  C      -2.429835      0.683294      1.064319
  C       1.201603      1.790352      0.066473
  H       1.825197      1.675002     -1.971169
  H       2.601431      0.507132     -0.924762
  O      -2.096693      2.131606     -1.254417
  O      -2.646897      0.441856     -2.600610
  H      -1.514206      1.263162      1.145848
  H      -2.456694     -0.030287      1.886808
  H      -3.245294      1.396154      1.181458
  H       0.269780      2.317348     -0.169552
  C       2.225997      2.775622      0.598577
  C      -2.533701      1.328900     -3.708386
  H       3.122618      2.220461      0.894960
  H       1.821510      3.217602      1.513157
  C       2.596560      3.876471     -0.387178
  H      -2.761903      0.736032     -4.589804
  H      -3.238061      2.154945     -3.609676
  H      -1.524131      1.735320     -3.776185
  H       3.075260      3.440848     -1.268495
  H       1.685367      4.366923     -0.744735
  C       3.529030      4.910861      0.228167
  H       3.796446      5.684176     -0.493084
  H       3.063030      5.400508      1.085918
  H       4.454960      4.447403      0.577526
  C      -3.860738     -0.830646     -0.402617
  C      -5.213557     -0.128927     -0.159941
  H      -3.899494     -1.256037     -1.407150
  H      -3.803368     -1.672663      0.288221
  C      -5.400626      1.135440     -0.995043
  C      -5.438387      0.211908      1.311567
  C      -6.315961     -1.139270     -0.529049
  H      -5.257473      0.903268     -2.051704
  H      -4.704381      1.924569     -0.712518
  H      -6.405127      1.534488     -0.861374
  O      -5.904995      1.242408      1.717959
  O      -5.149961     -0.818652      2.117744
  H      -6.200812     -2.072530      0.022786
  H      -6.268823     -1.361281     -1.596536
  H      -7.304400     -0.730249     -0.311910
  C      -5.362875     -0.596278      3.508048
  H      -5.082777     -1.521518      4.004286
  H      -4.739942      0.225765      3.861333
  H      -6.407298     -0.356789      3.706125
  H       3.274120     -4.582909     -0.553248
85
Coordinates from ORCA-job orca E -1736.088519379074
  C       2.237048     -4.186127     -0.615706
  C       2.184640     -2.683389     -0.268816
  H       1.651427     -4.750947      0.114488
  H       1.838986     -4.371968     -1.613551
  C       3.047708     -2.011920     -1.340617
  C       2.736740     -2.515499      1.160964
  O       2.751676     -2.059913     -2.505310
  O       4.187315     -1.390525     -1.009870
  H       3.379891     -3.374242      1.382384
  H       1.914838     -2.545979      1.876455
  C       3.570966     -1.263425      1.348274
  C       4.691436     -1.244866      0.333865
  H       4.000928     -1.254093      2.352196
  H       2.974773     -0.353842      1.259851
  H       5.354679     -2.102053      0.512898
  C       5.515122      0.032177      0.317383
  H       4.854352      0.866656      0.052654
  H       6.248138     -0.048840     -0.491567
  C       6.224537      0.332359      1.632312
  H       5.486614      0.478475      2.427790
  H       6.829767     -0.532615      1.928712
  C       7.109104      1.568990      1.538832
  H       7.604871      1.777417      2.489376
  H       7.883472      1.444375      0.776853
  H       6.520557      2.451294      1.270172
  C       0.686493     -2.296254     -0.431970
  C       0.087344     -0.855588     -0.361935
  H       0.377389     -2.678571     -1.408129
  H       0.165459     -2.889305      0.323495
  C      -1.445982     -1.133031     -0.438830
  C       0.376892     -0.269141      1.021111
  C       0.562047      0.017564     -1.542713
  C      -2.545759     -0.036869     -0.284102
  H      -1.616348     -1.633769     -1.396963
  H      -1.663464     -1.864116      0.342988
  O       0.145016     -0.893030      2.023919
  O       0.908879      0.950758      1.147039
  H      -0.272813      0.585275     -1.944887
  H       0.904161     -0.628529     -2.351028
  C       1.640270      1.017168     -1.167658
  C      -2.438680      0.987009     -1.410008
  C      -2.460147      0.697628      1.051893
  C       1.196281      1.823763      0.030592
  H       1.819916      1.690959     -2.007963
  H       2.593485      0.529445     -0.951142
  O      -2.159847      2.149959     -1.269502
  O      -2.672749      0.446149     -2.613506
  H      -1.551050      1.289407      1.133469
  H      -2.479314     -0.015857      1.876473
  H      -3.285224      1.401671      1.167513
  H       0.265312      2.352839     -0.210396
  C       2.225028      2.808889      0.556397
  C      -2.577840      1.333957     -3.722840
  H       3.120212      2.250947      0.859411
  H       1.820946      3.261423      1.467510
  C       2.603073      3.899350     -0.438999
  H      -2.795498      0.734241     -4.603997
  H      -3.299348      2.146870     -3.623815
  H      -1.574966      1.759951     -3.791472
  H       3.079951      3.452247     -1.317343
  H       1.694081      4.393101     -0.801525
  C       3.542724      4.933400      0.167366
  H       3.816385      5.698798     -0.562123
  H       3.078915      5.435199      1.021058
  H       4.466277      4.466111      0.522156
  C      -3.871444     -0.837243     -0.410886
  C      -5.233551     -0.156704     -0.155341
  H      -3.910237     -1.259736     -1.418224
  H      -3.796934     -1.682552      0.276648
  C      -5.448229      1.107582     -0.984782
  C      -5.451155      0.175824      1.319315
  C      -6.324574     -1.182721     -0.517527
  H      -5.308238      0.881203     -2.044473
  H      -4.762985      1.908521     -0.703748
  H      -6.459937      1.489213     -0.842716
  O      -5.916110      1.203609      1.735071
  O      -5.089911     -0.833267      2.123552
  H      -6.189383     -2.117513      0.029826
  H      -6.284669     -1.399695     -1.587842
  H      -7.318163     -0.789121     -0.288504
  C      -5.255901     -0.602743      3.519304
  H      -4.915410     -1.510159      4.013717
  H      -4.654789      0.250980      3.837632
  H      -6.302522     -0.406058      3.756633
  H       3.265113     -4.556135     -0.582874
85
Coordinates from ORCA-job orca E -1736.088664277716
  C       2.233998     -4.196576     -0.603794
  C       2.184754     -2.690182     -0.273506
  H       1.644844     -4.750984      0.129908
  H       1.839194     -4.392067     -1.599791
  C       3.051623     -2.033304     -1.350757
  C       2.733103     -2.505458      1.155042
  O       2.749957     -2.079951     -2.513915
  O       4.186773     -1.401724     -1.024306
  H       3.377420     -3.358893      1.388141
  H       1.909811     -2.529559      1.867601
  C       3.561566     -1.248051      1.329573
  C       4.685716     -1.239311      0.319766
  H       3.986919     -1.223949      2.334081
  H       2.962546     -0.342224      1.226171
  H       5.349007     -2.092512      0.510900
  C       5.507561      0.038164      0.291344
  H       4.847402      0.867908      0.015626
  H       6.242623     -0.050956     -0.513494
  C       6.212382      0.353105      1.604962
  H       5.472610      0.506462      2.395803
  H       6.817458     -0.506996      1.911845
  C       7.095416      1.589632      1.501097
  H       7.587614      1.808242      2.449906
  H       7.871424      1.458031      0.743540
  H       6.507133      2.467416      1.221840
  C       0.688375     -2.300070     -0.439045
  C       0.091306     -0.859588     -0.359795
  H       0.380646     -2.676182     -1.416792
  H       0.165708     -2.896384      0.311184
  C      -1.442412     -1.134277     -0.437293
  C       0.385476     -0.284850      1.026867
  C       0.566216      0.021690     -1.533626
  C      -2.539684     -0.035816     -0.285929
  H      -1.613087     -1.635635     -1.393906
  H      -1.661628     -1.862577      0.345130
  O       0.153595     -0.915685      2.025144
  O       0.919252      0.933143      1.162082
  H      -0.266930      0.596400     -1.927390
  H       0.903274     -0.617949     -2.347637
  C       1.648313      1.014479     -1.151985
  C      -2.432329      0.982027     -1.417206
  C      -2.450317      0.704690      1.046091
  C       1.205880      1.813696      0.051210
  H       1.829880      1.692790     -1.986840
  H       2.599593      0.522967     -0.938429
  O      -2.145412      2.143614     -1.283733
  O      -2.668317      0.434995     -2.617672
  H      -1.541037      1.294928      1.122982
  H      -2.468861     -0.004160      1.873283
  H      -3.273210      1.409794      1.159986
  H       0.275622      2.344039     -0.185170
  C       2.234212      2.795333      0.583014
  C      -2.569559      1.317008     -3.731874
  H       3.128731      2.236486      0.881498
  H       1.830762      3.241248      1.496429
  C       2.610854      3.892293     -0.405272
  H      -2.790426      0.714092     -4.608632
  H      -3.286462      2.132859     -3.636469
  H      -1.565617      1.737119     -3.802924
  H       3.086918      3.451752     -1.285984
  H       1.702210      4.387596     -0.763375
  C       3.550124      4.922516      0.207381
  H       3.822651      5.692058     -0.516457
  H       3.086862      5.417893      1.063704
  H       4.473197      4.453846      0.558138
  C      -3.866470     -0.835150     -0.406862
  C      -5.228209     -0.153075     -0.154597
  H      -3.906386     -1.262923     -1.410764
  H      -3.791859     -1.675920      0.284432
  C      -5.443439      1.106147     -0.990873
  C      -5.447197      0.186876      1.318051
  C      -6.318525     -1.181042     -0.511660
  H      -5.301933      0.874280     -2.048148
  H      -4.760493      1.908759     -0.713678
  H      -6.454888      1.486544     -0.852633
  O      -5.919707      1.213678      1.727206
  O      -5.105963     -0.825826      2.126548
  H      -6.182918     -2.112273      0.039435
  H      -6.278721     -1.402712     -1.579862
  H      -7.311207     -0.787193     -0.284513
  C      -5.289723     -0.593628      3.520294
  H      -4.962284     -1.502443      4.018413
  H      -4.687912      0.255296      3.846035
  H      -6.337176     -0.390324      3.742542
  H       3.259845     -4.568712     -0.563285
85
Coordinates from ORCA-job orca E -1736.088669301337
  C       2.247374     -4.191022     -0.608205
  C       2.187928     -2.684865     -0.277751
  H       1.665841     -4.749753      0.127552
  H       1.850084     -4.389495     -1.602122
  C       3.044114     -2.020469     -1.358475
  C       2.739808     -2.493782      1.148385
  O       2.746120     -2.083551     -2.521756
  O       4.182863     -1.391916     -1.038863
  H       3.388276     -3.343251      1.382281
  H       1.919130     -2.518829      1.863060
  C       3.563517     -1.232339      1.315196
  C       4.685723     -1.226485      0.303726
  H       3.989941     -1.201100      2.318521
  H       2.961448     -0.329164      1.206665
  H       5.348721     -2.079162      0.495421
  C       5.507609      0.050458      0.269688
  H       4.846838      0.879509     -0.004292
  H       6.239144     -0.040092     -0.537555
  C       6.217861      0.366539      1.579992
  H       5.481833      0.519519      2.373648
  H       6.824905     -0.492524      1.884168
  C       7.099250      1.603755      1.471852
  H       7.595594      1.822418      2.417899
  H       7.871375      1.472719      0.710952
  H       6.509132      2.480659      1.195680
  C       0.689221     -2.304738     -0.437656
  C       0.085552     -0.867553     -0.353872
  H       0.381390     -2.679967     -1.415099
  H       0.172582     -2.905633      0.312346
  C      -1.446739     -1.144783     -0.438196
  C       0.371446     -0.297660      1.036330
  C       0.564671      0.020324     -1.520173
  C      -2.542471     -0.045649     -0.289933
  H      -1.613744     -1.645350     -1.395308
  H      -1.668175     -1.872619      0.343250
  O       0.129455     -0.930222      2.031036
  O       0.907421      0.918414      1.179806
  H      -0.265040      0.603209     -1.908828
  H       0.899250     -0.614586     -2.338318
  C       1.651100      1.004456     -1.129026
  C      -2.434939      0.967783     -1.425036
  C      -2.448745      0.699285      1.038960
  C       1.204561      1.801647      0.073571
  H       1.841759      1.684220     -1.960030
  H       2.598072      0.506790     -0.910554
  O      -2.147404      2.129571     -1.295898
  O      -2.678633      0.417871     -2.622740
  H      -1.538099      1.287611      1.111471
  H      -2.466674     -0.006288      1.868400
  H      -3.269656      1.406105      1.152288
  H       0.278066      2.336109     -0.166702
  C       2.232740      2.777459      0.615638
  C      -2.583813      1.297538     -3.739734
  H       3.122935      2.214634      0.917112
  H       1.825356      3.220928      1.527926
  C       2.619140      3.877006     -0.365802
  H      -2.812566      0.693501     -4.613054
  H      -3.296905      2.115587     -3.641045
  H      -1.579180      1.713282     -3.817821
  H       3.098205      3.438556     -1.245259
  H       1.714899      4.377401     -0.726501
  C       3.559033      4.900607      0.256642
  H       3.838767      5.671627     -0.462082
  H       3.092937      5.394090      1.111877
  H       4.477687      4.426779      0.610511
  C      -3.870688     -0.842891     -0.405479
  C      -5.229493     -0.153142     -0.162247
  H      -3.910678     -1.280067     -1.404781
  H      -3.799765     -1.676206      0.294323
  C      -5.439090      1.095755     -1.014919
  C      -5.447152      0.206523      1.305752
  C      -6.323575     -1.181560     -0.505895
  H      -5.297325      0.849552     -2.068495
  H      -4.753556      1.898950     -0.747668
  H      -6.448811      1.481433     -0.883030
  O      -5.916551      1.239937      1.701363
  O      -5.111852     -0.797873      2.127061
  H      -6.190503     -2.106185      0.055817
  H      -6.285653     -1.415860     -1.570941
  H      -7.314176     -0.781838     -0.282450
  C      -5.296931     -0.547126      3.517932
  H      -4.971217     -1.449655      4.027341
  H      -4.694588      0.304817      3.832701
  H      -6.343988     -0.339860      3.735658
  H       3.275762     -4.555025     -0.571862
85
Coordinates from ORCA-job orca E -1736.088710100664
  C       2.247547     -4.183561     -0.626649
  C       2.187865     -2.679825     -0.285111
  H       1.664679     -4.747749      0.104425
  H       1.851421     -4.374558     -1.622923
  C       3.046594     -2.008677     -1.359732
  C       2.737620     -2.500542      1.143733
  O       2.743889     -2.052692     -2.522740
  O       4.186151     -1.384542     -1.033904
  H       3.383294     -3.353898      1.372718
  H       1.915450     -2.528422      1.857151
  C       3.565291     -1.243008      1.321138
  C       4.688545     -1.232083      0.310598
  H       3.990709     -1.220676      2.325517
  H       2.965894     -0.337235      1.219131
  H       5.348959     -2.088688      0.495506
  C       5.513967      0.043003      0.287769
  H       4.855370      0.876318      0.019777
  H       6.246292     -0.042912     -0.519733
  C       6.223746      0.346657      1.601449
  H       5.487043      0.494339      2.396014
  H       6.829072     -0.516445      1.898824
  C       7.107728      1.583153      1.504850
  H       7.603866      1.792544      2.453553
  H       7.880533      1.457134      0.743248
  H       6.519353      2.463893      1.235750
  C       0.689205     -2.298768     -0.445626
  C       0.084311     -0.861908     -0.359086
  H       0.382193     -2.671581     -1.424683
  H       0.171478     -2.901790      0.302498
  C      -1.447616     -1.142023     -0.438708
  C       0.373138     -0.291430      1.030440
  C       0.556737      0.027677     -1.526972
  C      -2.544784     -0.044023     -0.290967
  H      -1.616155     -1.645224     -1.394555
  H      -1.665719     -1.868762      0.345199
  O       0.137654     -0.925457      2.025855
  O       0.907411      0.925777      1.172059
  H      -0.275710      0.610985     -1.910074
  H       0.887904     -0.605870     -2.348096
  C       1.642980      1.013605     -1.139616
  C      -2.440506      0.965957     -1.429514
  C      -2.449976      0.705820      1.035211
  C       1.198763      1.809785      0.064701
  H       1.829702      1.693877     -1.971594
  H       2.591753      0.517873     -0.924390
  O      -2.156743      2.129161     -1.304147
  O      -2.669526      0.408359     -2.626506
  H      -1.539588      1.295634      1.104099
  H      -2.465921      0.003141      1.867577
  H      -3.271721      1.412501      1.147110
  H       0.269725      2.342074     -0.172516
  C       2.226544      2.788199      0.603326
  C      -2.570153      1.283019     -3.747140
  H       3.119063      2.227168      0.902830
  H       1.820732      3.231600      1.516765
  C       2.608393      3.887870     -0.379975
  H      -2.787837      0.672944     -4.619576
  H      -3.289217      2.097494     -3.658513
  H      -1.566919      1.704279     -3.818405
  H       3.085075      3.449347     -1.261172
  H       1.702086      4.387332     -0.737850
  C       3.549525      4.912829      0.238709
  H       3.826232      5.683888     -0.481738
  H       3.085704      5.406618      1.095488
  H       4.470115      4.439814      0.589825
  C      -3.872187     -0.843761     -0.401217
  C      -5.231783     -0.156192     -0.155206
  H      -3.914226     -1.283452     -1.399748
  H      -3.797461     -1.675633      0.300485
  C      -5.447083      1.090559     -1.009776
  C      -5.445427      0.205929      1.312793
  C      -6.324987     -1.187867     -0.492779
  H      -5.307626      0.842551     -2.063582
  H      -4.762631      1.896306     -0.745886
  H      -6.457802      1.474022     -0.875682
  O      -5.914574      1.239668      1.708042
  O      -5.103636     -0.795535      2.134978
  H      -6.187522     -2.111413      0.070386
  H      -6.290626     -1.424183     -1.557918
  H      -7.315981     -0.789806     -0.266222
  C      -5.282389     -0.541677      3.526211
  H      -4.950077     -1.441822      4.036389
  H      -4.681751      0.314002      3.835338
  H      -6.329593     -0.338159      3.748658
  H       3.276213     -4.548054     -0.591549
85
Coordinates from ORCA-job orca E -1736.088685632251
  C       2.244602     -4.172374     -0.632560
  C       2.187330     -2.668796     -0.289558
  H       1.654386     -4.735643      0.093901
  H       1.854784     -4.360778     -1.632259
  C       3.056190     -2.000845     -1.358138
  C       2.728152     -2.493660      1.143581
  O       2.753035     -2.029775     -2.521566
  O       4.197819     -1.384306     -1.024654
  H       3.366536     -3.351687      1.377148
  H       1.900611     -2.516118      1.851582
  C       3.563468     -1.241852      1.326821
  C       4.693328     -1.237869      0.323335
  H       3.982186     -1.222256      2.334470
  H       2.970633     -0.332063      1.220831
  H       5.346108     -2.100193      0.510838
  C       5.528331      0.031269      0.307224
  H       4.877412      0.869882      0.035203
  H       6.265757     -0.059392     -0.495591
  C       6.231210      0.328937      1.626183
  H       5.489835      0.480526      2.416204
  H       6.829145     -0.538733      1.926602
  C       7.124009      1.559863      1.537399
  H       7.615081      1.764618      2.490218
  H       7.901567      1.429601      0.780792
  H       6.543109      2.445112      1.265288
  C       0.690513     -2.283379     -0.459229
  C       0.085804     -0.846090     -0.370759
  H       0.388945     -2.652275     -1.441893
  H       0.166306     -2.888561      0.283296
  C      -1.445997     -1.129786     -0.450272
  C       0.374750     -0.278376      1.020182
  C       0.558046      0.046472     -1.536647
  C      -2.549388     -0.037119     -0.302050
  H      -1.613356     -1.634215     -1.406029
  H      -1.660509     -1.858049      0.333795
  O       0.138608     -0.914211      2.014376
  O       0.913840      0.936668      1.164047
  H      -0.272287      0.637246     -1.912640
  H       0.882840     -0.584674     -2.362575
  C       1.649430      1.026316     -1.147852
  C      -2.461265      0.966108     -1.447974
  C      -2.452745      0.722412      1.018636
  C       1.208574      1.821865      0.058310
  H       1.839341      1.707440     -1.978928
  H       2.596154      0.526302     -0.933595
  O      -2.198842      2.135304     -1.331133
  O      -2.703336      0.400361     -2.638470
  H      -1.545772      1.318918      1.078433
  H      -2.459740      0.025425      1.856347
  H      -3.278610      1.424945      1.129818
  H       0.281056      2.358148     -0.177946
  C       2.240048      2.795487      0.599015
  C      -2.632367      1.270955     -3.764590
  H       3.130277      2.230120      0.898804
  H       1.835274      3.239708      1.512969
  C       2.627934      3.894630     -0.382717
  H      -2.859630      0.654482     -4.630560
  H      -3.357940      2.079052     -3.666429
  H      -1.634165      1.701356     -3.855162
  H       3.101929      3.454520     -1.265074
  H       1.724124      4.400156     -0.739532
  C       3.575465      4.913187      0.237174
  H       3.856725      5.683770     -0.482643
  H       3.114705      5.408821      1.095052
  H       4.493610      4.433864      0.587395
  C      -3.871519     -0.847774     -0.399110
  C      -5.235767     -0.170183     -0.149545
  H      -3.915744     -1.294333     -1.395025
  H      -3.785473     -1.674893      0.307521
  C      -5.465441      1.070996     -1.008587
  C      -5.446303      0.196166      1.317903
  C      -6.322056     -1.212552     -0.477557
  H      -5.326416      0.819917     -2.062138
  H      -4.787798      1.884577     -0.749656
  H      -6.479834      1.445446     -0.873223
  O      -5.920775      1.228359      1.711068
  O      -5.094447     -0.799791      2.142449
  H      -6.173656     -2.132917      0.088780
  H      -6.291189     -1.452921     -1.542348
  H      -7.315600     -0.821821     -0.247438
  C      -5.268587     -0.541574      3.533616
  H      -4.925393     -1.436905      4.045890
  H      -4.674108      0.321280      3.835979
  H      -6.317024     -0.346739      3.760016
  H       3.272219     -4.540308     -0.590486
85
Coordinates from ORCA-job orca E -1736.088727983435
  C       2.248309     -4.166321     -0.642585
  C       2.186685     -2.663570     -0.296375
  H       1.661266     -4.732961      0.083486
  H       1.857473     -4.353885     -1.641818
  C       3.050698     -1.990439     -1.365444
  C       2.729451     -2.488740      1.135990
  O       2.747226     -2.021752     -2.528691
  O       4.194673     -1.377120     -1.034177
  H       3.368711     -3.346153      1.368431
  H       1.903120     -2.511924      1.844991
  C       3.564066     -1.236344      1.317969
  C       4.692627     -1.232569      0.313216
  H       3.983636     -1.215960      2.325002
  H       2.970624     -0.327000      1.211755
  H       5.344552     -2.095655      0.498937
  C       5.528831      0.035639      0.296848
  H       4.878375      0.875013      0.027071
  H       6.264482     -0.054893     -0.507322
  C       6.234604      0.330909      1.614732
  H       5.495179      0.481635      2.406409
  H       6.832664     -0.537344      1.912428
  C       7.127826      1.561459      1.525987
  H       7.621038      1.764167      2.477873
  H       7.903458      1.432037      0.767584
  H       6.546918      2.447294      1.256763
  C       0.688809     -2.282163     -0.462304
  C       0.080700     -0.846732     -0.367765
  H       0.386973     -2.648073     -1.445725
  H       0.167425     -2.891411      0.278552
  C      -1.450394     -1.132449     -0.448924
  C       0.368480     -0.284181      1.025528
  C       0.551978      0.051805     -1.529003
  C      -2.553719     -0.039635     -0.305076
  H      -1.616206     -1.638682     -1.403748
  H      -1.665269     -1.858921      0.336366
  O       0.127130     -0.921801      2.017273
  O       0.908421      0.929869      1.174700
  H      -0.277607      0.647788     -1.898500
  H       0.873208     -0.574795     -2.359475
  C       1.646290      1.026592     -1.136010
  C      -2.466180      0.957361     -1.456493
  C      -2.455785      0.726820      1.011334
  C       1.205970      1.818565      0.072534
  H       1.838850      1.710125     -1.964202
  H       2.591399      0.523313     -0.922480
  O      -2.201953      2.126747     -1.346241
  O      -2.692438      0.381684     -2.645305
  H      -1.548410      1.322860      1.067173
  H      -2.462761      0.034595      1.852749
  H      -3.280805      1.430506      1.119125
  H       0.279740      2.357277     -0.162664
  C       2.238379      2.788394      0.617934
  C      -2.611286      1.244202     -3.777105
  H       3.127131      2.220531      0.916367
  H       1.833509      3.229702      1.533009
  C       2.629131      3.890595     -0.359096
  H      -2.827475      0.620794     -4.640656
  H      -3.339784      2.050901     -3.692761
  H      -1.613386      1.676258     -3.859791
  H       3.102448      3.453140     -1.242836
  H       1.726823      4.399594     -0.714113
  C       3.578616      4.904393      0.265443
  H       3.861904      5.677098     -0.450937
  H       3.118648      5.397439      1.124945
  H       4.495307      4.421603      0.613988
  C      -3.875961     -0.850819     -0.396232
  C      -5.240096     -0.172029     -0.149748
  H      -3.920922     -1.303904     -1.388924
  H      -3.789073     -1.672962      0.315711
  C      -5.472921      1.061477     -1.018747
  C      -5.447724      0.206524      1.314973
  C      -6.326141     -1.218151     -0.466177
  H      -5.335158      0.801797     -2.070161
  H      -4.796311      1.878040     -0.767723
  H      -6.487490      1.435375     -0.885058
  O      -5.921219      1.242024      1.700464
  O      -5.094103     -0.782503      2.147054
  H      -6.175124     -2.133443      0.107183
  H      -6.298027     -1.467180     -1.528818
  H      -7.319240     -0.826662     -0.236523
  C      -5.265291     -0.512514      3.536494
  H      -4.919828     -1.402899      4.055312
  H      -4.671330      0.353454      3.829926
  H      -6.313270     -0.317173      3.763443
  H       3.276989     -4.530880     -0.602972
85
Coordinates from ORCA-job orca E -1736.088735903447
  C       2.261750     -4.154226     -0.677083
  C       2.191833     -2.655769     -0.313823
  H       1.680064     -4.732526      0.043761
  H       1.869547     -4.332849     -1.677225
  C       3.048426     -1.965872     -1.377904
  C       2.736908     -2.493213      1.119182
  O       2.737763     -1.980001     -2.539537
  O       4.194482     -1.357634     -1.044546
  H       3.377094     -3.351932      1.343107
  H       1.912106     -2.523252      1.829319
  C       3.570925     -1.241845      1.310396
  C       4.696811     -1.228145      0.302856
  H       3.992496     -1.229796      2.316489
  H       2.976334     -0.332346      1.213253
  H       5.348424     -2.093550      0.477371
  C       5.533543      0.039672      0.297340
  H       4.882888      0.881807      0.037688
  H       6.266983     -0.042965     -0.509436
  C       6.242799      0.321035      1.616319
  H       5.505721      0.462587      2.411574
  H       6.842217     -0.549821      1.902759
  C       7.134907      1.553070      1.538563
  H       7.630719      1.745279      2.491034
  H       7.908210      1.432636      0.776609
  H       6.552717      2.441274      1.281037
  C       0.692120     -2.281051     -0.473154
  C       0.077342     -0.849105     -0.367700
  H       0.390331     -2.640815     -1.458597
  H       0.175071     -2.898117      0.263985
  C      -1.452010     -1.139857     -0.449855
  C       0.361866     -0.293735      1.029272
  C       0.544062      0.060070     -1.521864
  C      -2.554764     -0.046837     -0.311628
  H      -1.616414     -1.649493     -1.402811
  H      -1.665746     -1.863255      0.338201
  O       0.118591     -0.936496      2.017144
  O       0.900848      0.919848      1.186265
  H      -0.286257      0.662348     -1.880006
  H       0.860650     -0.558364     -2.360099
  C       1.640266      1.030252     -1.123134
  C      -2.473130      0.936702     -1.474945
  C      -2.449007      0.734529      0.995034
  C       1.199088      1.814972      0.089643
  H       1.834184      1.718350     -1.946951
  H       2.584698      0.524987     -0.911664
  O      -2.214856      2.108636     -1.378902
  O      -2.699386      0.345893     -2.656216
  H      -1.539760      1.328801      1.039120
  H      -2.453556      0.052602      1.844629
  H      -3.271465      1.441577      1.098181
  H       0.272673      2.354320     -0.143358
  C       2.229911      2.782704      0.641512
  C      -2.624356      1.195419     -3.798372
  H       3.118380      2.214014      0.938158
  H       1.823587      3.218741      1.558246
  C       2.621592      3.890316     -0.328851
  H      -2.842377      0.561584     -4.653569
  H      -3.354094      2.001338     -3.720578
  H      -1.627797      1.628262     -3.889598
  H       3.094641      3.457876     -1.214921
  H       1.719947      4.402169     -0.680852
  C       3.571684      4.899558      0.301968
  H       3.855622      5.676166     -0.409578
  H       3.112085      5.387645      1.164223
  H       4.487762      4.413932      0.647530
  C      -3.877708     -0.858511     -0.386468
  C      -5.240211     -0.174118     -0.148381
  H      -3.925432     -1.328124     -1.371158
  H      -3.789755     -1.668030      0.339301
  C      -5.475540      1.041654     -1.041146
  C      -5.441258      0.233951      1.309274
  C      -6.327961     -1.226018     -0.438834
  H      -5.340495      0.761089     -2.087400
  H      -4.798540      1.862977     -0.808269
  H      -6.489667      1.417862     -0.912377
  O      -5.910199      1.278297      1.675951
  O      -5.090632     -0.740841      2.159158
  H      -6.173980     -2.129637      0.151564
  H      -6.305381     -1.495878     -1.496300
  H      -7.319649     -0.829998     -0.211875
  C      -5.257532     -0.443944      3.543729
  H      -4.914330     -1.325639      4.078184
  H      -4.659798      0.424945      3.819446
  H      -6.304115     -0.240530      3.769025
  H       3.292548     -4.512806     -0.644086
85
Coordinates from ORCA-job orca E -1736.088755826563
  C       2.265472     -4.138304     -0.699486
  C       2.191283     -2.641482     -0.329710
  H       1.679510     -4.720673      0.014548
  H       1.880133     -4.312626     -1.703076
  C       3.052846     -1.946803     -1.386497
  C       2.727780     -2.484250      1.107256
  O       2.746090     -1.952698     -2.549206
  O       4.202650     -1.349662     -1.046060
  H       3.361984     -3.346508      1.334337
  H       1.898266     -2.511109      1.811983
  C       3.566904     -1.237379      1.305531
  C       4.698665     -1.227854      0.304488
  H       3.982128     -1.228643      2.314249
  H       2.977068     -0.324989      1.205751
  H       5.343442     -2.098154      0.479925
  C       5.543515      0.034547      0.306934
  H       4.900003      0.881063      0.043860
  H       6.281932     -0.051496     -0.494910
  C       6.245332      0.309453      1.631233
  H       5.503760      0.453606      2.421791
  H       6.837998     -0.565220      1.920044
  C       7.144819      1.536631      1.562032
  H       7.635049      1.724001      2.518331
  H       7.922704      1.413291      0.805251
  H       6.569420      2.428548      1.302214
  C       0.692250     -2.267911     -0.495057
  C       0.072752     -0.838463     -0.379430
  H       0.396971     -2.619221     -1.485438
  H       0.171798     -2.892840      0.233080
  C      -1.455091     -1.135481     -0.462897
  C       0.354926     -0.292499      1.022007
  C       0.536434      0.082014     -1.525384
  C      -2.562086     -0.046873     -0.325730
  H      -1.617553     -1.646076     -1.415538
  H      -1.665199     -1.859783      0.325241
  O       0.109918     -0.941809      2.005119
  O       0.899824      0.917406      1.188124
  H      -0.292380      0.694834     -1.869128
  H       0.844536     -0.527498     -2.373241
  C       1.638833      1.042703     -1.120738
  C      -2.497015      0.924533     -1.500278
  C      -2.449851      0.749034      0.971280
  C       1.201839      1.819590      0.098537
  H       1.835624      1.736183     -1.939317
  H       2.581079      0.531737     -0.913788
  O      -2.257275      2.101469     -1.417890
  O      -2.711745      0.315915     -2.674461
  H      -1.542004      1.346477      1.001832
  H      -2.446325      0.076975      1.828734
  H      -3.273451      1.455045      1.071956
  H       0.277410      2.364501     -0.130260
  C       2.236213      2.779252      0.657769
  C      -2.648806      1.152822     -3.826699
  H       3.121978      2.204763      0.951005
  H       1.831248      3.210411      1.577410
  C       2.633671      3.892060     -0.304172
  H      -2.858399      0.505941     -4.674183
  H      -3.389391      1.949576     -3.757977
  H      -1.658173      1.597832     -3.923284
  H       3.102950      3.463761     -1.194202
  H       1.734952      4.412530     -0.650944
  C       3.590848      4.890170      0.333629
  H       3.878797      5.670659     -0.371991
  H       3.135519      5.374117      1.200446
  H       4.504243      4.395838      0.673873
  C      -3.881274     -0.866517     -0.380227
  C      -5.246119     -0.187097     -0.141405
  H      -3.933300     -1.350009     -1.358030
  H      -3.783053     -1.665164      0.356154
  C      -5.498089      1.011989     -1.051874
  C      -5.436479      0.243615      1.311137
  C      -6.329024     -1.251361     -0.404047
  H      -5.368039      0.715764     -2.094461
  H      -4.826704      1.842678     -0.836990
  H      -6.514526      1.381524     -0.921948
  O      -5.904325      1.292812      1.665203
  O      -5.074406     -0.715988      2.173321
  H      -6.162199     -2.144098      0.199185
  H      -6.315269     -1.538070     -1.457224
  H      -7.321263     -0.858939     -0.173338
  C      -5.229050     -0.397497      3.554528
  H      -4.877438     -1.269313      4.099568
  H      -4.632175      0.477881      3.810734
  H      -6.274284     -0.194576      3.786416
  H       3.296454     -4.495819     -0.661181
85
Coordinates from ORCA-job orca E -1736.088756834122
  C       2.259592     -4.134207     -0.690553
  C       2.187565     -2.636288     -0.324640
  H       1.672432     -4.713978      0.024806
  H       1.874122     -4.310546     -1.693913
  C       3.049492     -1.946188     -1.384156
  C       2.725146     -2.475817      1.111670
  O       2.739884     -1.951440     -2.546119
  O       4.201493     -1.351899     -1.046351
  H       3.356559     -3.339467      1.341774
  H       1.895654     -2.497433      1.816801
  C       3.568218     -1.230827      1.305686
  C       4.698919     -1.226728      0.303191
  H       3.984696     -1.220749      2.314002
  H       2.980484     -0.317094      1.204512
  H       5.342233     -2.097822      0.480895
  C       5.546452      0.033994      0.300163
  H       4.904633      0.880616      0.032883
  H       6.284680     -0.057290     -0.501456
  C       6.249034      0.313885      1.623017
  H       5.507874      0.463936      2.413048
  H       6.839658     -0.560809      1.916405
  C       7.151536      1.538513      1.547338
  H       7.642310      1.729776      2.502745
  H       7.929164      1.409347      0.791074
  H       6.578231      2.430545      1.282780
  C       0.689060     -2.260860     -0.490516
  C       0.070795     -0.830763     -0.376277
  H       0.393883     -2.612423     -1.480983
  H       0.167169     -2.884809      0.237658
  C      -1.457244     -1.128170     -0.461555
  C       0.352907     -0.284759      1.025427
  C       0.538209      0.088516     -1.521629
  C      -2.566319     -0.040929     -0.327527
  H      -1.618169     -1.640213     -1.413745
  H      -1.667483     -1.852425      0.326782
  O       0.097106     -0.929274      2.008939
  O       0.902673      0.923066      1.191485
  H      -0.287780      0.705687     -1.864586
  H       0.843835     -0.521960     -2.369924
  C       1.644726      1.044498     -1.116697
  C      -2.503880      0.926547     -1.505565
  C      -2.457415      0.759503      0.966952
  C       1.210371      1.823385      0.102317
  H       1.844820      1.737172     -1.935328
  H       2.584945      0.529906     -0.909317
  O      -2.274385      2.105814     -1.426829
  O      -2.710564      0.311868     -2.677911
  H      -1.550018      1.357682      0.997362
  H      -2.455474      0.090571      1.827013
  H      -3.281462      1.465696      1.063135
  H       0.288841      2.372924     -0.128019
  C       2.248491      2.778446      0.662562
  C      -2.650377      1.144360     -3.833276
  H       3.131173      2.199757      0.957333
  H       1.844333      3.211826      1.581682
  C       2.652637      3.889146     -0.299008
  H      -2.853762      0.492730     -4.678816
  H      -3.396149      1.936901     -3.769765
  H      -1.662218      1.595311     -3.929392
  H       3.119698      3.458308     -1.189136
  H       1.756981      4.415008     -0.645993
  C       3.615406      4.881557      0.339346
  H       3.907746      5.660930     -0.365906
  H       3.162923      5.367592      1.206658
  H       4.526130      4.381768      0.679214
  C      -3.883620     -0.864208     -0.381218
  C      -5.251688     -0.191030     -0.141000
  H      -3.934267     -1.347084     -1.359624
  H      -3.781957     -1.663621      0.354121
  C      -5.508398      1.010816     -1.046526
  C      -5.445318      0.232798      1.313163
  C      -6.329530     -1.258901     -0.409940
  H      -5.374341      0.720327     -2.090353
  H      -4.842591      1.844567     -0.826019
  H      -6.527454      1.373774     -0.917205
  O      -5.915706      1.279456      1.671429
  O      -5.085282     -0.731164      2.171269
  H      -6.159486     -2.153654      0.189634
  H      -6.313097     -1.540889     -1.464502
  H      -7.323987     -0.871931     -0.178890
  C      -5.244302     -0.420878      3.553560
  H      -4.897082     -1.296957      4.094873
  H      -4.646200      0.451431      3.817936
  H      -6.290000     -0.216727      3.783008
  H       3.290145     -4.493246     -0.651136
85
Coordinates from ORCA-job orca E -1736.088760267851
  C       2.261978     -4.134075     -0.695474
  C       2.189155     -2.636748     -0.327436
  H       1.674919     -4.715201      0.018863
  H       1.876815     -4.309183     -1.699161
  C       3.050897     -1.944898     -1.386002
  C       2.726697     -2.478221      1.109105
  O       2.741703     -1.948974     -2.548070
  O       4.202817     -1.351099     -1.047193
  H       3.357849     -3.342334      1.338109
  H       1.897132     -2.500712      1.814166
  C       3.569826     -1.233603      1.305327
  C       4.700124     -1.227053      0.302356
  H       3.986990     -1.225918      2.313384
  H       2.981825     -0.319765      1.206874
  H       5.344440     -2.097642      0.478932
  C       5.546461      0.034522      0.300843
  H       4.903988      0.880678      0.033676
  H       6.285188     -0.055491     -0.500465
  C       6.248115      0.314313      1.624158
  H       5.506434      0.463610      2.413859
  H       6.839113     -0.560085      1.917658
  C       7.149807      1.539575      1.549262
  H       7.639951      1.731056      2.504940
  H       7.927888      1.411228      0.793333
  H       6.576003      2.431265      1.284615
  C       0.690367     -2.262023     -0.492702
  C       0.070785     -0.832721     -0.375377
  H       0.395465     -2.611861     -1.483866
  H       0.168933     -2.887817      0.234211
  C      -1.456989     -1.131309     -0.459127
  C       0.354432     -0.288687      1.026798
  C       0.534478      0.089312     -1.520005
  C      -2.565278     -0.043258     -0.327250
  H      -1.618321     -1.645168     -1.410234
  H      -1.666721     -1.853894      0.330845
  O       0.103888     -0.936348      2.009568
  O       0.904809      0.918742      1.193840
  H      -0.293621      0.705252     -1.860448
  H       0.839669     -0.519249     -2.369827
  C       1.640122      1.046832     -1.116233
  C      -2.501600      0.921635     -1.507412
  C      -2.456385      0.759574      0.965699
  C       1.208477      1.821949      0.106186
  H       1.835881      1.742013     -1.933780
  H       2.582185      0.533876     -0.913535
  O      -2.270520      2.100743     -1.431343
  O      -2.714078      0.305564     -2.678002
  H      -1.548033      1.356358      0.996067
  H      -2.456430      0.092307      1.827057
  H      -3.279470      1.467184      1.059634
  H       0.285877      2.371317     -0.120221
  C       2.247274      2.776660      0.665789
  C      -2.655178      1.135566     -3.835061
  H       3.131395      2.198105      0.956599
  H       1.845348      3.207256      1.587190
  C       2.647442      3.890262     -0.294034
  H      -2.863605      0.483073     -4.678703
  H      -3.397933      1.930870     -3.770754
  H      -1.665853      1.583035     -3.935571
  H       3.112020      3.462294     -1.186846
  H       1.750264      4.416322     -0.636758
  C       3.611337      4.881743      0.344034
  H       3.900452      5.663603     -0.359784
  H       3.161393      5.364597      1.214430
  H       4.523735      4.381852      0.679235
  C      -3.883521     -0.864956     -0.380515
  C      -5.250659     -0.189363     -0.142138
  H      -3.934134     -1.349009     -1.358349
  H      -3.783635     -1.663553      0.355976
  C      -5.505026      1.011231     -1.050018
  C      -5.443286      0.238017      1.311117
  C      -6.330023     -1.255996     -0.409588
  H      -5.371194      0.718680     -2.093317
  H      -4.837970      1.844304     -0.830843
  H      -6.523546      1.376068     -0.921690
  O      -5.910671      1.286689      1.667360
  O      -5.081950     -0.723594      2.171339
  H      -6.161668     -2.149988      0.191598
  H      -6.313585     -1.539811     -1.463644
  H      -7.323990     -0.867130     -0.179620
  C      -5.238341     -0.409557      3.552874
  H      -4.893353     -1.285319      4.096149
  H      -4.637158      0.461427      3.814719
  H      -6.283040     -0.201451      3.783349
  H       3.292681     -4.492696     -0.656379
85
Coordinates from ORCA-job orca E -1736.088760406719
  C       2.266430     -4.130520     -0.706802
  C       2.190569     -2.634553     -0.333922
  H       1.679760     -4.715048      0.004974
  H       1.882524     -4.303018     -1.711357
  C       3.052178     -1.937941     -1.389434
  C       2.726264     -2.479814      1.103726
  O       2.742735     -1.936255     -2.551425
  O       4.204063     -1.345703     -1.047873
  H       3.356887     -3.344580      1.331340
  H       1.895856     -2.504092      1.807659
  C       3.569154     -1.235781      1.304552
  C       4.700117     -1.225623      0.302430
  H       3.985802     -1.231587      2.312787
  H       2.980966     -0.321834      1.209027
  H       5.344703     -2.096362      0.476903
  C       5.545864      0.036335      0.305727
  H       4.903500      0.882779      0.039456
  H       6.286046     -0.051284     -0.494429
  C       6.244953      0.313088      1.630969
  H       5.501793      0.460047      2.419654
  H       6.835782     -0.561700      1.923412
  C       7.146124      1.538984      1.560711
  H       7.634454      1.728405      2.517649
  H       7.925534      1.412989      0.805852
  H       6.572325      2.430968      1.297279
  C       0.691520     -2.261902     -0.500120
  C       0.069632     -0.833724     -0.380934
  H       0.398556     -2.610085     -1.492367
  H       0.169998     -2.889850      0.224802
  C      -1.457413     -1.134125     -0.466726
  C       0.349505     -0.291761      1.022797
  C       0.534052      0.091372     -1.522662
  C      -2.565684     -0.046702     -0.333231
  H      -1.618018     -1.646808     -1.418490
  H      -1.666580     -1.857926      0.322177
  O       0.098459     -0.941697      2.003896
  O       0.900902      0.914807      1.193056
  H      -0.293638      0.708401     -1.861772
  H       0.839970     -0.514922     -2.373816
  C       1.639353      1.047887     -1.115723
  C      -2.508263      0.915922     -1.515680
  C      -2.451330      0.758669      0.957499
  C       1.206346      1.820228      0.107947
  H       1.835649      1.744993     -1.931421
  H       2.581325      0.534699     -0.913396
  O      -2.278946      2.095550     -1.442878
  O      -2.720630      0.296512     -2.684541
  H      -1.542267      1.354758      0.983290
  H      -2.448443      0.093112      1.820142
  H      -3.273613      1.466886      1.053233
  H       0.284346      2.370465     -0.118674
  C       2.244512      2.773574      0.671055
  C      -2.664686      1.123761     -3.843667
  H       3.128024      2.194268      0.961991
  H       1.841347      3.202232      1.592744
  C       2.646329      3.889158     -0.285698
  H      -2.873427      0.468962     -4.685361
  H      -3.408284      1.918249     -3.780315
  H      -1.676159      1.572260     -3.946796
  H       3.111183      3.463103     -1.179205
  H       1.749931      4.416862     -0.627735
  C       3.610553      4.878176      0.355651
  H       3.900444      5.661872     -0.345692
  H       3.160615      5.358683      1.227261
  H       4.522426      4.376691      0.689714
  C      -3.884049     -0.868519     -0.378794
  C      -5.249682     -0.190671     -0.139310
  H      -3.937941     -1.356888     -1.354200
  H      -3.782409     -1.663567      0.361178
  C      -5.507087      1.003358     -1.054966
  C      -5.434558      0.248048      1.311558
  C      -6.330751     -1.258655     -0.393733
  H      -5.378395      0.702983     -2.096649
  H      -4.838271      1.837358     -0.845158
  H      -6.524639      1.370054     -0.924718
  O      -5.899815      1.299533      1.662133
  O      -5.071859     -0.708156      2.177269
  H      -6.159923     -2.148328      0.213033
  H      -6.319537     -1.550029     -1.445713
  H      -7.323377     -0.867729     -0.161777
  C      -5.223549     -0.384439      3.556991
  H      -4.880884     -1.257884      4.105336
  H      -4.618173      0.485688      3.811750
  H      -6.266696     -0.170482      3.788827
  H       3.297678     -4.487382     -0.667928
85
Coordinates from ORCA-job orca E -1736.088763200853
  C       2.265411     -4.128587     -0.706845
  C       2.189864     -2.632537     -0.334075
  H       1.679316     -4.713047      0.005494
  H       1.880622     -4.301210     -1.711074
  C       3.050485     -1.936259     -1.390585
  C       2.726893     -2.477503      1.103058
  O       2.739692     -1.934398     -2.552217
  O       4.203448     -1.345302     -1.050446
  H       3.357134     -3.342571      1.330658
  H       1.897054     -2.500867      1.807722
  C       3.570612     -1.233807      1.302518
  C       4.700683     -1.224654      0.299361
  H       3.988244     -1.229402      2.310366
  H       2.982669     -0.319664      1.207114
  H       5.345099     -2.095556      0.473793
  C       5.546913      0.037006      0.301132
  H       4.904671      0.883478      0.034535
  H       6.286568     -0.051541     -0.499439
  C       6.246969      0.314561      1.625701
  H       5.504373      0.462490      2.414766
  H       6.837636     -0.560244      1.918499
  C       7.148601      1.540035      1.553839
  H       7.637700      1.730030      2.510301
  H       7.927429      1.413123      0.798502
  H       6.574958      2.432057      1.290097
  C       0.690731     -2.259777     -0.498931
  C       0.068727     -0.831728     -0.378061
  H       0.397156     -2.607079     -1.491322
  H       0.169625     -2.888405      0.225742
  C      -1.458263     -1.132650     -0.463549
  C       0.349797     -0.291203      1.026049
  C       0.532490      0.094581     -1.518977
  C      -2.567159     -0.045575     -0.332367
  H      -1.618487     -1.646864     -1.414570
  H      -1.667222     -1.855446      0.326359
  O       0.096167     -0.940592      2.006845
  O       0.902626      0.914665      1.197087
  H      -0.294879      0.713537     -1.855531
  H       0.836308     -0.510729     -2.371610
  C       1.639645      1.048968     -1.112096
  C      -2.509562      0.914590     -1.516827
  C      -2.454213      0.762731      0.956627
  C       1.208670      1.820665      0.112685
  H       1.836143      1.746687     -1.927254
  H       2.581115      0.534319     -0.911079
  O      -2.283933      2.095055     -1.446073
  O      -2.718165      0.292115     -2.684716
  H      -1.545408      1.359207      0.981845
  H      -2.451823      0.099160      1.820815
  H      -3.276770      1.470938      1.050039
  H       0.287340      2.372531     -0.112929
  C       2.248543      2.772084      0.675962
  C      -2.662182      1.117051     -3.845488
  H       3.131419      2.191261      0.965864
  H       1.846588      3.200546      1.598300
  C       2.651422      3.887888     -0.280082
  H      -2.868125      0.460003     -4.686152
  H      -3.407601      1.910085     -3.785018
  H      -1.674424      1.567448     -3.947929
  H       3.114372      3.461867     -1.174618
  H       1.755657      4.417767     -0.620476
  C       3.618397      4.874295      0.361181
  H       3.908818      5.658338     -0.339588
  H       3.170583      5.354550      1.234053
  H       4.529786      4.370611      0.693333
  C      -3.884943     -0.868673     -0.377444
  C      -5.251936     -0.192450     -0.140220
  H      -3.937419     -1.358675     -1.352147
  H      -3.782977     -1.662539      0.363783
  C      -5.510016      1.000583     -1.057013
  C      -5.439777      0.246840      1.310094
  C      -6.331001     -1.262167     -0.395628
  H      -5.378837      0.699929     -2.098327
  H      -4.843339      1.836084     -0.846379
  H      -6.528592      1.365252     -0.928858
  O      -5.906257      1.298213      1.659382
  O      -5.077031     -0.708366      2.176913
  H      -6.159695     -2.151294      0.211839
  H      -6.317812     -1.554027     -1.447476
  H      -7.324579     -0.872631     -0.165305
  C      -5.231121     -0.384025      3.556198
  H      -4.889423     -1.257208      4.105612
  H      -4.626173      0.486234      3.811658
  H      -6.274686     -0.169956      3.786148
  H       3.296719     -4.485449     -0.668805
85
Coordinates from ORCA-job orca E -1736.088764010334
  C       2.264768     -4.126649     -0.707226
  C       2.189102     -2.630580     -0.334431
  H       1.678776     -4.711179      0.005157
  H       1.879871     -4.299320     -1.711424
  C       3.049597     -1.934457     -1.391104
  C       2.726282     -2.475515      1.102650
  O       2.738302     -1.931985     -2.552599
  O       4.203322     -1.344795     -1.051308
  H       3.355883     -3.340973      1.330550
  H       1.896458     -2.498133      1.807388
  C       3.570733     -1.232254      1.301829
  C       4.700584     -1.223539      0.298396
  H       3.988830     -1.228238      2.309498
  H       2.983057     -0.317908      1.206809
  H       5.345049     -2.094349      0.473159
  C       5.546865      0.038138      0.299539
  H       4.904736      0.884404      0.031971
  H       6.286835     -0.051060     -0.500685
  C       6.246445      0.316737      1.624135
  H       5.503561      0.465719      2.412750
  H       6.836671     -0.557997      1.918078
  C       7.148542      1.541816      1.551412
  H       7.637368      1.732639      2.507858
  H       7.927590      1.413906      0.796455
  H       6.575289      2.433777      1.286568
  C       0.689986     -2.257919     -0.499288
  C       0.067468     -0.830076     -0.377636
  H       0.396728     -2.604639     -1.491981
  H       0.168767     -2.887093      0.224855
  C      -1.459303     -1.131848     -0.463757
  C       0.348074     -0.290501      1.026986
  C       0.531191      0.097428     -1.517517
  C      -2.568607     -0.045114     -0.334358
  H      -1.618789     -1.647100     -1.414322
  H      -1.668225     -1.854065      0.326704
  O       0.092835     -0.939916      2.007332
  O       0.902950      0.914367      1.199012
  H      -0.295837      0.717875     -1.852273
  H       0.833763     -0.506969     -2.371279
  C       1.639721      1.050075     -1.110261
  C      -2.511874      0.912694     -1.520834
  C      -2.455811      0.765755      0.952989
  C       1.210357      1.820962      0.115597
  H       1.836319      1.748582     -1.924739
  H       2.580789      0.534270     -0.910488
  O      -2.289249      2.093851     -1.452349
  O      -2.718238      0.287321     -2.687572
  H      -1.546877      1.362114      0.977214
  H      -2.453628      0.103891      1.818514
  H      -3.278311      1.474246      1.044874
  H       0.290018      2.374759     -0.109386
  C       2.251895      2.770118      0.679733
  C      -2.662942      1.109903     -3.850027
  H       3.133928      2.187584      0.968807
  H       1.850826      3.198142      1.602675
  C       2.656363      3.886427     -0.275035
  H      -2.867207      0.450707     -4.689436
  H      -3.409686      1.901866     -3.791782
  H      -1.675837      1.561696     -3.952775
  H       3.117583      3.460763     -1.170645
  H       1.761460      4.418823     -0.613799
  C       3.626082      4.869727      0.366882
  H       3.917177      5.654555     -0.332739
  H       3.180340      5.349146      1.241287
  H       4.536878      4.363537      0.696884
  C      -3.886062     -0.868927     -0.377714
  C      -5.253471     -0.193584     -0.139886
  H      -3.938885     -1.359647     -1.352068
  H      -3.783064     -1.662312      0.363912
  C      -5.513272      0.998844     -1.057018
  C      -5.440410      0.246386      1.310315
  C      -6.331839     -1.264244     -0.394070
  H      -5.382218      0.698022     -2.098313
  H      -4.847567      1.835226     -0.846899
  H      -6.532271      1.362296     -0.928608
  O      -5.907138      1.297681      1.659475
  O      -5.076389     -0.708212      2.177329
  H      -6.159418     -2.153067      0.213552
  H      -6.319162     -1.556402     -1.445854
  H      -7.325587     -0.875451     -0.163165
  C      -5.230071     -0.383509      3.556513
  H      -4.890116     -1.257237      4.106174
  H      -4.623488      0.485618      3.812056
  H      -6.273236     -0.167424      3.786419
  H       3.296131     -4.483404     -0.669294
