61
Coordinates from ORCA-job orca E -1383.962983400084
  C       1.740630      0.738800     -1.057330
  H       1.847480      1.697020     -0.529720
  H       2.694580      0.492170     -1.541730
  C       1.315710     -0.352780     -0.074390
  C       2.357670     -0.552600      1.064190
  H       2.015620     -1.396320      1.683450
  H       2.307600      0.342150      1.701920
  C       3.849560     -0.802670      0.743890
  C       1.139180     -1.660910     -0.846030
  O       1.313350     -1.805550     -2.028060
  O       0.757170     -2.668640     -0.049310
  C       4.521380      0.432760      0.146230
  O       5.268080      0.432000     -0.797190
  O       4.228810      1.546900      0.832340
  C       4.079800     -1.992990     -0.189650
  H       5.152530     -2.215720     -0.271630
  H       3.568240     -2.882170      0.208690
  H       3.710770     -1.801270     -1.204840
  C       4.561810     -1.067160      2.088150
  H       4.178730     -1.996710      2.535910
  H       5.646180     -1.183590      1.940220
  H       4.395000     -0.244770      2.798310
  C       0.554310     -3.920450     -0.681060
  H       0.256650     -4.619500      0.108490
  H      -0.235060     -3.846950     -1.443410
  H       1.477640     -4.265480     -1.168490
  C       4.809900      2.747350      0.355060
  H       4.467250      2.963590     -0.667770
  H       4.484920      3.540060      1.038300
  H       5.906970      2.677710      0.346330
  H       1.010220      0.854460     -1.867100
  C      -0.000030     -0.000230      0.676350
  C      -1.315740      0.352670     -0.074290
  H       0.232960      0.849310      1.335610
  H      -0.233040     -0.850040      1.335250
  C      -2.357690      0.552220      1.064350
  C      -1.139080      1.661030     -0.845510
  C      -1.740740     -0.738550     -1.057590
  C      -3.849560      0.802530      0.744120
  H      -2.307700     -0.342750      1.701790
  H      -2.015560      1.395700      1.683880
  O      -1.313130      1.806040     -2.027510
  O      -0.756890      2.668440     -0.048470
  H      -1.010360     -0.853990     -1.867410
  H      -1.847650     -1.696950     -0.530300
  H      -2.694680     -0.491700     -1.541900
  C      -4.079670      1.993140     -0.189090
  C      -4.521520     -0.432660      0.146130
  C      -0.553790      3.920410     -0.679840
  H      -3.568010      2.882150      0.209490
  H      -3.710670      1.801640     -1.204330
  H      -5.152380      2.216010     -0.271000
  O      -5.268230     -0.431560     -0.797270
  O      -4.229140     -1.547010      0.831990
  H      -1.477060      4.265760     -1.167170
  H      -0.256010      4.619160      0.109920
  H       0.235560      3.847000     -1.442210
  C      -4.810410     -2.747250      0.354420
  H      -4.485570     -3.540170      1.037490
  H      -5.907470     -2.677440      0.345680
  H      -4.467770     -2.963310     -0.668450
61
Coordinates from ORCA-job orca E -1383.974106362127
  C       1.763976      0.735886     -1.073202
  H       1.873056      1.686400     -0.545592
  H       2.713266      0.485945     -1.548743
  C       1.325208     -0.353376     -0.097265
  C       2.354590     -0.558734      1.050139
  H       2.007054     -1.398395      1.660053
  H       2.296123      0.329093      1.685261
  C       3.851589     -0.803116      0.754769
  C       1.140687     -1.657879     -0.872137
  O       1.316961     -1.800555     -2.052401
  O       0.734229     -2.660398     -0.079903
  C       4.532198      0.435268      0.176172
  O       5.297032      0.438577     -0.750929
  O       4.224155      1.546496      0.861300
  C       4.106140     -1.987683     -0.175481
  H       5.174273     -2.203485     -0.234296
  H       3.594475     -2.875120      0.207951
  H       3.761163     -1.796565     -1.191586
  C       4.536680     -1.071522      2.108659
  H       4.149664     -1.998839      2.539717
  H       5.617050     -1.183197      1.982182
  H       4.353766     -0.259634      2.815967
  C       0.502562     -3.904683     -0.723263
  H       0.191911     -4.597010      0.057320
  H      -0.281961     -3.806893     -1.478113
  H       1.411400     -4.264722     -1.210724
  C       4.815209      2.749692      0.394544
  H       4.491981      2.965796     -0.627051
  H       4.479257      3.534813      1.069880
  H       5.904857      2.680162      0.405985
  H       1.045244      0.858474     -1.882996
  C       0.007652      0.002639      0.644221
  C      -1.297974      0.360848     -0.116696
  H       0.236440      0.842782      1.305738
  H      -0.233562     -0.844711      1.291944
  C      -2.350560      0.546707      1.017888
  C      -1.115877      1.674101     -0.877806
  C      -1.709645     -0.723353     -1.109572
  C      -3.821865      0.776824      0.678691
  H      -2.299215     -0.346537      1.645879
  H      -2.024294      1.380186      1.648926
  O      -1.280894      1.824636     -2.058774
  O      -0.736239      2.675678     -0.071929
  H      -0.974951     -0.831283     -1.906941
  H      -1.818721     -1.679458     -0.592488
  H      -2.652498     -0.478249     -1.599953
  C      -4.137637      1.984187     -0.175851
  C      -4.540288     -0.452394      0.182831
  C      -0.522087      3.930412     -0.701243
  H      -3.641138      2.873841      0.221567
  H      -3.811240      1.829936     -1.207014
  H      -5.214171      2.164435     -0.212467
  O      -5.335935     -0.470209     -0.720063
  O      -4.199809     -1.550746      0.875592
  H      -1.433612      4.278701     -1.192208
  H      -0.230316      4.620508      0.088480
  H       0.269114      3.854603     -1.451186
  C      -4.799210     -2.765028      0.451620
  H      -4.435863     -3.535497      1.129604
  H      -5.888400     -2.700461      0.499224
  H      -4.509351     -2.999557     -0.576328
61
Coordinates from ORCA-job orca E -1383.980759136613
  C       1.772892      0.725023     -1.067297
  H       1.878135      1.674129     -0.542764
  H       2.722448      0.475480     -1.535401
  C       1.330676     -0.360913     -0.091673
  C       2.356349     -0.561578      1.055907
  H       2.013596     -1.399418      1.665225
  H       2.297494      0.324220      1.688192
  C       3.849235     -0.803289      0.752671
  C       1.153470     -1.669250     -0.861572
  O       1.341059     -1.817368     -2.038226
  O       0.751398     -2.670598     -0.063818
  C       4.524263      0.436034      0.171170
  O       5.280996      0.440483     -0.761462
  O       4.219228      1.546767      0.860226
  C       4.094116     -1.985777     -0.180380
  H       5.158081     -2.201770     -0.249011
  H       3.587249     -2.870582      0.206748
  H       3.739741     -1.794247     -1.190356
  C       4.542701     -1.074142      2.100201
  H       4.159598     -2.000335      2.528537
  H       5.618825     -1.184468      1.966314
  H       4.363885     -0.267746      2.809585
  C       0.515742     -3.917114     -0.709724
  H       0.214465     -4.606941      0.072135
  H      -0.275320     -3.816979     -1.452582
  H       1.417934     -4.273190     -1.203731
  C       4.805916      2.752151      0.382276
  H       4.469766      2.964244     -0.632134
  H       4.476717      3.533565      1.059889
  H       5.891803      2.682101      0.382637
  H       1.060873      0.845502     -1.879072
  C       0.012181     -0.002476      0.646656
  C      -1.291821      0.361992     -0.113893
  H       0.241074      0.833032      1.308370
  H      -0.232317     -0.848619      1.288611
  C      -2.350896      0.541684      1.011374
  C      -1.122538      1.681542     -0.865083
  C      -1.725875     -0.712899     -1.104261
  C      -3.773156      0.758741      0.593610
  H      -2.314564     -0.351368      1.633489
  H      -2.044968      1.372039      1.652208
  O      -1.306421      1.840168     -2.041081
  O      -0.750030      2.680473     -0.051451
  H      -1.007336     -0.825098     -1.910664
  H      -1.836739     -1.666594     -0.589661
  H      -2.674013     -0.458954     -1.574761
  C      -4.104611      1.980363     -0.194859
  C      -4.512739     -0.445714      0.155132
  C      -0.547966      3.942817     -0.678471
  H      -3.631174      2.864624      0.230870
  H      -3.757855      1.858751     -1.225396
  H      -5.180606      2.134806     -0.253612
  O      -5.326502     -0.460699     -0.734489
  O      -4.180591     -1.540380      0.863075
  H      -1.460606      4.282871     -1.164595
  H      -0.262919      4.628045      0.113342
  H       0.241839      3.875169     -1.425540
  C      -4.801356     -2.752396      0.452970
  H      -4.450066     -3.515137      1.140738
  H      -5.885569     -2.668626      0.500663
  H      -4.513539     -3.003815     -0.567899
61
Coordinates from ORCA-job orca E -1383.986022473843
  C       1.770377      0.725731     -1.089991
  H       1.885009      1.677614     -0.569461
  H       2.712392      0.473844     -1.574451
  C       1.342251     -0.356332     -0.103811
  C       2.372461     -0.553804      1.043234
  H       2.034114     -1.396477      1.650566
  H       2.305871      0.329885      1.680001
  C       3.870283     -0.786125      0.748031
  C       1.149029     -1.666800     -0.866923
  O       1.310118     -1.816749     -2.047096
  O       0.726904     -2.656782     -0.063849
  C       4.551324      0.461105      0.190258
  O       5.322631      0.476491     -0.730299
  O       4.247876      1.561031      0.898480
  C       4.131025     -1.959144     -0.193487
  H       5.198310     -2.170348     -0.250898
  H       3.623569     -2.850690      0.180914
  H       3.787956     -1.760214     -1.207046
  C       4.551396     -1.070308      2.099786
  H       4.167485     -2.005408      2.511687
  H       5.630828     -1.173724      1.975337
  H       4.360297     -0.273417      2.818968
  C       0.433826     -3.891796     -0.714776
  H       0.130931     -4.576774      0.072830
  H      -0.375231     -3.756377     -1.433798
  H       1.312675     -4.271403     -1.234888
  C       4.854078      2.770204      0.446396
  H       4.528597      3.001535     -0.568349
  H       4.523883      3.541849      1.137022
  H       5.940005      2.685578      0.458584
  H       1.042941      0.845398     -1.891015
  C       0.025843      0.006440      0.632651
  C      -1.268593      0.360228     -0.142816
  H       0.250706      0.848984      1.288992
  H      -0.221892     -0.837452      1.278651
  C      -2.357575      0.520927      0.966505
  C      -1.103691      1.686716     -0.881642
  C      -1.669873     -0.714898     -1.147478
  C      -3.753741      0.699092      0.487669
  H      -2.313629     -0.371632      1.589855
  H      -2.080980      1.360276      1.610901
  O      -1.268998      1.849616     -2.059840
  O      -0.718975      2.676067     -0.061027
  H      -0.931086     -0.816951     -1.939802
  H      -1.781978     -1.673219     -0.638578
  H      -2.611736     -0.468945     -1.636871
  C      -4.153950      1.941356     -0.211934
  C      -4.548005     -0.483243      0.167749
  C      -0.495234      3.938722     -0.687088
  H      -3.694624      2.823566      0.234396
  H      -3.834438      1.880676     -1.261055
  H      -5.236643      2.058031     -0.240382
  O      -5.450000     -0.496374     -0.638576
  O      -4.187327     -1.574181      0.874033
  H      -1.403267      4.292391     -1.174583
  H      -0.201871      4.616507      0.110153
  H       0.297247      3.856878     -1.431252
  C      -4.866400     -2.777431      0.527992
  H      -4.491239     -3.535135      1.211329
  H      -5.943692     -2.660779      0.641835
  H      -4.645923     -3.055484     -0.503846
61
Coordinates from ORCA-job orca E -1383.987851601784
  C       1.799772      0.658200     -1.096123
  H       1.916258      1.625977     -0.602767
  H       2.747526      0.385059     -1.561510
  C       1.351747     -0.389669     -0.081636
  C       2.378252     -0.558440      1.070495
  H       2.036797     -1.381415      1.705108
  H       2.320417      0.346367      1.680410
  C       3.870384     -0.811369      0.768286
  C       1.158123     -1.724956     -0.802375
  O       1.365390     -1.924843     -1.968283
  O       0.785158     -2.700210      0.042452
  C       4.545012      0.407884      0.144887
  O       5.293590      0.382012     -0.794444
  O       4.211489      1.546479      0.774415
  C       4.110791     -2.025283     -0.126657
  H       5.177685     -2.242256     -0.195810
  H       3.608670     -2.899307      0.297037
  H       3.746810     -1.870258     -1.142039
  C       4.572304     -1.038434      2.121458
  H       4.194619     -1.956655      2.578391
  H       5.651180     -1.147277      1.985056
  H       4.391403     -0.211018      2.810102
  C       0.529415     -3.969069     -0.559132
  H       0.278330     -4.638225      0.261377
  H      -0.306409     -3.891372     -1.257957
  H       1.411326     -4.327182     -1.091402
  C       4.787581      2.736569      0.237593
  H       4.456844      2.885707     -0.791930
  H       4.434784      3.545871      0.873757
  H       5.876423      2.679180      0.257345
  H       1.082203      0.759692     -1.909642
  C       0.035313      0.010748      0.640562
  C      -1.249830      0.388202     -0.140713
  H       0.275337      0.855571      1.290677
  H      -0.235121     -0.821369      1.294985
  C      -2.356747      0.533925      0.961480
  C      -1.081542      1.731282     -0.848852
  C      -1.664569     -0.661054     -1.168181
  C      -3.740050      0.712574      0.441282
  H      -2.316492     -0.373754      1.565150
  H      -2.085115      1.366494      1.617965
  O      -1.301121      1.933784     -2.012532
  O      -0.746769      2.711382      0.004315
  H      -0.929894     -0.755917     -1.965932
  H      -1.788729     -1.629392     -0.678429
  H      -2.606633     -0.393517     -1.647957
  C      -4.200144      2.019136     -0.087752
  C      -4.578221     -0.437613      0.153349
  C      -0.583158      4.003006     -0.581961
  H      -3.746593      2.857449      0.444285
  H      -3.915152      2.104626     -1.147167
  H      -5.286748      2.105055     -0.069521
  O      -5.561745     -0.399892     -0.556931
  O      -4.108402     -1.593641      0.672748
  H      -1.508470      4.326708     -1.060405
  H      -0.323470      4.668088      0.239034
  H       0.214725      3.980011     -1.326228
  C      -4.785265     -2.771401      0.244851
  H      -4.328247     -3.590295      0.797557
  H      -5.851548     -2.708490      0.465067
  H      -4.647826     -2.915123     -0.829310
61
Coordinates from ORCA-job orca E -1383.989189369333
  C       1.789108      0.646839     -1.114516
  H       1.891141      1.621475     -0.633574
  H       2.739515      0.383759     -1.578165
  C       1.359013     -0.395286     -0.086453
  C       2.389429     -0.535312      1.065159
  H       2.061578     -1.356465      1.707760
  H       2.319372      0.373676      1.665602
  C       3.883483     -0.772552      0.762042
  C       1.186802     -1.743399     -0.788885
  O       1.380385     -1.952116     -1.955767
  O       0.745708     -2.693780      0.050864
  C       4.545676      0.451024      0.133679
  O       5.308984      0.425998     -0.793807
  O       4.250969      1.580774      0.796815
  C       4.133726     -1.986847     -0.129126
  H       5.201657     -2.191790     -0.202318
  H       3.643822     -2.864076      0.299927
  H       3.763098     -1.840461     -1.142471
  C       4.588170     -0.988451      2.115672
  H       4.221870     -1.908973      2.574852
  H       5.667284     -1.084957      1.979534
  H       4.398171     -0.161881      2.801442
  C       0.449795     -3.954579     -0.547617
  H       0.155450     -4.606717      0.270829
  H      -0.367984     -3.847610     -1.262514
  H       1.325591     -4.351595     -1.060061
  C       4.853347      2.768424      0.285734
  H       4.514872      2.954802     -0.734235
  H       4.531740      3.568855      0.947397
  H       5.939395      2.680376      0.289760
  H       1.068800      0.728173     -1.926602
  C       0.039056     -0.004410      0.634714
  C      -1.248710      0.358525     -0.148725
  H       0.272177      0.846058      1.278716
  H      -0.221791     -0.833378      1.295786
  C      -2.365433      0.493840      0.944132
  C      -1.106644      1.707811     -0.850848
  C      -1.654450     -0.690595     -1.179281
  C      -3.738057      0.679069      0.397445
  H      -2.330716     -0.419518      1.538012
  H      -2.100376      1.325700      1.601335
  O      -1.347656      1.916281     -2.009438
  O      -0.692030      2.671892     -0.014615
  H      -0.926439     -0.770715     -1.982962
  H      -1.762223     -1.662195     -0.694574
  H      -2.604794     -0.433825     -1.647237
  C      -4.209110      2.012562     -0.057017
  C      -4.596076     -0.458675      0.120099
  C      -0.510877      3.958999     -0.604158
  H      -3.753993      2.819375      0.519763
  H      -3.930912      2.168613     -1.109208
  H      -5.294982      2.090716     -0.021538
  O      -5.655210     -0.385388     -0.469870
  O      -4.121491     -1.627887      0.606660
  H      -1.446667      4.319223     -1.031266
  H      -0.183510      4.608974      0.203247
  H       0.244346      3.910517     -1.389217
  C      -4.850783     -2.788027      0.222516
  H      -4.387285     -3.616319      0.753556
  H      -5.901355     -2.697197      0.496616
  H      -4.772332     -2.939010     -0.855702
61
Coordinates from ORCA-job orca E -1383.989627744147
  C       1.769298      0.675168     -1.097481
  H       1.896437      1.637836     -0.599738
  H       2.701198      0.412220     -1.595701
  C       1.357783     -0.383627     -0.078972
  C       2.400021     -0.545721      1.061987
  H       2.075827     -1.379198      1.690073
  H       2.331081      0.350001      1.681249
  C       3.895967     -0.773886      0.755024
  C       1.162018     -1.715717     -0.804417
  O       1.330093     -1.901950     -1.979042
  O       0.750760     -2.684802      0.028337
  C       4.563563      0.465547      0.164644
  O       5.323781      0.467196     -0.765790
  O       4.239166      1.582362      0.835208
  C       4.154469     -1.964564     -0.164898
  H       5.222808     -2.166671     -0.233565
  H       3.661596     -2.852834      0.236497
  H       3.793874     -1.792321     -1.177052
  C       4.594274     -1.026723      2.104978
  H       4.227442     -1.960163      2.535633
  H       5.673877     -1.117444      1.971811
  H       4.399314     -0.220343      2.812367
  C       0.451153     -3.937454     -0.582969
  H       0.189259     -4.608006      0.231175
  H      -0.389284     -3.827604     -1.270547
  H       1.314212     -4.315467     -1.129630
  C       4.826181      2.786181      0.346997
  H       4.500555      2.978431     -0.675793
  H       4.480495      3.573589      1.011601
  H       5.913290      2.718960      0.365998
  H       1.024484      0.782402     -1.884764
  C       0.044138     -0.004981      0.652043
  C      -1.236798      0.335230     -0.144395
  H       0.269627      0.851179      1.290252
  H      -0.206777     -0.832689      1.317602
  C      -2.368735      0.479595      0.930563
  C      -1.105281      1.678098     -0.859846
  C      -1.607768     -0.731526     -1.169472
  C      -3.730757      0.680020      0.365949
  H      -2.350346     -0.429116      1.531457
  H      -2.107578      1.317182      1.580643
  O      -1.359380      1.875306     -2.017595
  O      -0.674548      2.649052     -0.039961
  H      -0.860964     -0.811846     -1.956699
  H      -1.713318     -1.697960     -0.675936
  H      -2.551093     -0.491671     -1.659259
  C      -4.166362      2.012319     -0.125419
  C      -4.621802     -0.444911      0.138125
  C      -0.507983      3.932272     -0.640018
  H      -3.687978      2.817512      0.434420
  H      -3.884592      2.140225     -1.179454
  H      -5.249396      2.118327     -0.083496
  O      -5.678442     -0.370952     -0.454072
  O      -4.157442     -1.608291      0.647112
  H      -1.453082      4.290203     -1.047439
  H      -0.162644      4.587437      0.155184
  H       0.228294      3.881204     -1.442261
  C      -4.907041     -2.768954      0.309362
  H      -4.450277     -3.586893      0.861191
  H      -5.953328     -2.655326      0.589774
  H      -4.841693     -2.957103     -0.763672
61
Coordinates from ORCA-job orca E -1383.989943879441
  C       1.776734      0.655859     -1.113898
  H       1.897316      1.622173     -0.621392
  H       2.714350      0.390965     -1.601050
  C       1.356884     -0.396889     -0.092285
  C       2.391398     -0.549328      1.056298
  H       2.065533     -1.380113      1.687542
  H       2.315827      0.350438      1.669428
  C       3.889527     -0.774453      0.759130
  C       1.173194     -1.735274     -0.809525
  O       1.365241     -1.932705     -1.978662
  O       0.759674     -2.700218      0.026472
  C       4.552802      0.462226      0.158548
  O       5.322333      0.457123     -0.764181
  O       4.238300      1.580603      0.830976
  C       4.157506     -1.973136     -0.147705
  H       5.227404     -2.170744     -0.210031
  H       3.667079     -2.859929      0.260627
  H       3.800131     -1.812836     -1.163308
  C       4.582488     -1.009404      2.115197
  H       4.217853     -1.940133      2.554270
  H       5.663485     -1.096361      1.988377
  H       4.380219     -0.195976      2.813003
  C       0.481338     -3.961400     -0.576452
  H       0.219630     -4.628834      0.240779
  H      -0.353916     -3.868286     -1.273360
  H       1.354024     -4.333835     -1.112250
  C       4.833478      2.780586      0.344252
  H       4.507364      2.978206     -0.677735
  H       4.495776      3.569871      1.011308
  H       5.920481      2.705270      0.360276
  H       1.039740      0.756805     -1.909824
  C       0.039153     -0.012671      0.631190
  C      -1.237131      0.342131     -0.166695
  H       0.267954      0.838838      1.274743
  H      -0.221048     -0.841209      1.292717
  C      -2.366388      0.486280      0.912722
  C      -1.095772      1.689758     -0.871715
  C      -1.618770     -0.713826     -1.199266
  C      -3.737487      0.687983      0.366720
  H      -2.344213     -0.424459      1.510360
  H      -2.101183      1.322924      1.563521
  O      -1.364171      1.901570     -2.023665
  O      -0.670066      2.653975     -0.041592
  H      -0.875783     -0.792575     -1.990194
  H      -1.730228     -1.683771     -0.713358
  H      -2.562166     -0.462766     -1.683186
  C      -4.192544      2.024069     -0.094451
  C      -4.631081     -0.437225      0.148742
  C      -0.510677      3.944240     -0.627169
  H      -3.707271      2.822061      0.470581
  H      -3.935897      2.173497     -1.151284
  H      -5.275295      2.119787     -0.022242
  O      -5.695692     -0.364914     -0.427673
  O      -4.148766     -1.601623      0.637481
  H      -1.457431      4.301588     -1.032412
  H      -0.170237      4.593572      0.175394
  H       0.227008      3.906937     -1.429346
  C      -4.897995     -2.764868      0.309596
  H      -4.428763     -3.582615      0.851818
  H      -5.940742     -2.657193      0.606514
  H      -4.848867     -2.951426     -0.764779
61
Coordinates from ORCA-job orca E -1383.990006078403
  C       1.806904      0.665692     -1.101165
  H       1.917408      1.630429     -0.603299
  H       2.753875      0.403255     -1.571748
  C       1.370008     -0.391207     -0.090891
  C       2.390770     -0.546764      1.067924
  H       2.053461     -1.373367      1.698583
  H       2.316409      0.355841      1.677162
  C       3.888257     -0.784373      0.781442
  C       1.204184     -1.728291     -0.814546
  O       1.416823     -1.921518     -1.980828
  O       0.763773     -2.692929      0.007530
  C       4.559963      0.441158      0.168023
  O       5.322068      0.422615     -0.760619
  O       4.220482      1.574207      0.802594
  C       4.152133     -1.994978     -0.110561
  H       5.221102     -2.199355     -0.167271
  H       3.655230     -2.874171      0.306299
  H       3.798506     -1.844507     -1.129135
  C       4.574565     -1.007081      2.142968
  H       4.203273     -1.930930      2.590935
  H       5.655661     -1.100918      2.021784
  H       4.373643     -0.184669      2.830528
  C       0.501217     -3.952728     -0.604342
  H       0.219873     -4.622771      0.204222
  H      -0.316461     -3.859463     -1.321643
  H       1.386552     -4.323761     -1.120096
  C       4.806512      2.767648      0.290651
  H       4.496500      2.930944     -0.742351
  H       4.446398      3.571708      0.927720
  H       5.894169      2.709516      0.327139
  H       1.085197      0.769009     -1.910558
  C       0.043425     -0.011032      0.621747
  C      -1.229857      0.343844     -0.181264
  H       0.266477      0.838039      1.270429
  H      -0.219587     -0.841529      1.279881
  C      -2.360666      0.481070      0.897526
  C      -1.095853      1.695093     -0.881177
  C      -1.611616     -0.710226     -1.215696
  C      -3.736735      0.686677      0.363467
  H      -2.337437     -0.434439      1.487122
  H      -2.095715      1.313492      1.554729
  O      -1.375184      1.911852     -2.029624
  O      -0.661918      2.655883     -0.051500
  H      -0.870423     -0.786213     -2.008344
  H      -1.721766     -1.681744     -0.731976
  H      -2.556367     -0.458469     -1.696241
  C      -4.210813      2.030124     -0.053656
  C      -4.634890     -0.436038      0.148823
  C      -0.516929      3.950071     -0.630700
  H      -3.721596      2.814450      0.527430
  H      -3.976066      2.213741     -1.109228
  H      -5.292550      2.112162      0.046960
  O      -5.721460     -0.353727     -0.381724
  O      -4.135438     -1.606878      0.603280
  H      -1.470840      4.306619     -1.019916
  H      -0.167446      4.596506      0.170397
  H       0.208455      3.922254     -1.444414
  C      -4.903484     -2.764121      0.300982
  H      -4.420003     -3.587285      0.822160
  H      -5.933914     -2.651147      0.636780
  H      -4.896612     -2.948931     -0.774801
61
Coordinates from ORCA-job orca E -1383.990221406106
  C       1.787344      0.657476     -1.108688
  H       1.899889      1.623783     -0.615090
  H       2.730103      0.395555     -1.587362
  C       1.362256     -0.397439     -0.091405
  C       2.391356     -0.545056      1.061818
  H       2.062363     -1.372823      1.695098
  H       2.314125      0.357499      1.670356
  C       3.889580     -0.773110      0.770223
  C       1.195640     -1.736858     -0.809860
  O       1.399221     -1.932568     -1.977358
  O       0.781152     -2.704225      0.022339
  C       4.553590      0.458127      0.159844
  O       5.318078      0.446068     -0.766884
  O       4.233875      1.583031      0.818599
  C       4.158719     -1.979377     -0.125944
  H       5.228459     -2.178223     -0.183764
  H       3.666466     -2.862297      0.288047
  H       3.804238     -1.827167     -1.143691
  C       4.579790     -0.996707      2.129644
  H       4.214206     -1.923672      2.575376
  H       5.660906     -1.084623      2.006071
  H       4.376248     -0.177570      2.820009
  C       0.533540     -3.971871     -0.578715
  H       0.277502     -4.643089      0.236951
  H      -0.296533     -3.898404     -1.283776
  H       1.417252     -4.328980     -1.106571
  C       4.828768      2.778704      0.323413
  H       4.511074      2.965590     -0.703083
  H       4.484925      3.574945      0.978681
  H       5.915845      2.707648      0.347595
  H       1.057958      0.756609     -1.911590
  C       0.038195     -0.020813      0.626411
  C      -1.235215      0.329513     -0.176701
  H       0.261077      0.829233      1.273557
  H      -0.221125     -0.851354      1.285598
  C      -2.366047      0.473485      0.899359
  C      -1.105600      1.677115     -0.883886
  C      -1.619236     -0.730603     -1.203746
  C      -3.738173      0.696526      0.363952
  H      -2.354266     -0.444355      1.485231
  H      -2.095493      1.301300      1.560105
  O      -1.392814      1.888073     -2.031460
  O      -0.657557      2.640039     -0.064211
  H      -0.878990     -0.812677     -1.996700
  H      -1.730237     -1.698784     -0.713809
  H      -2.564366     -0.480203     -1.683991
  C      -4.202351      2.048482     -0.037261
  C      -4.650248     -0.416086      0.150115
  C      -0.512561      3.930239     -0.651199
  H      -3.705627      2.820533      0.553828
  H      -3.968792      2.244517     -1.090442
  H      -5.282780      2.136781      0.070435
  O      -5.743988     -0.318807     -0.361825
  O      -4.145043     -1.598666      0.566542
  H      -1.468065      4.289236     -1.033755
  H      -0.153222      4.579663      0.142822
  H       0.204899      3.896072     -1.471459
  C      -4.928859     -2.745502      0.267153
  H      -4.439865     -3.579911      0.764333
  H      -5.949822     -2.629809      0.629388
  H      -4.950114     -2.915872     -0.810767
61
Coordinates from ORCA-job orca E -1383.990268100806
  C       1.790580      0.643120     -1.117038
  H       1.905048      1.608416     -0.622625
  H       2.729766      0.382431     -1.602593
  C       1.373397     -0.414438     -0.099426
  C       2.406022     -0.558979      1.052224
  H       2.086998     -1.394381      1.680277
  H       2.317455      0.338494      1.666389
  C       3.908393     -0.763861      0.762448
  C       1.205908     -1.751974     -0.820670
  O       1.398488     -1.942562     -1.990886
  O       0.797839     -2.722512      0.010968
  C       4.556028      0.481536      0.163270
  O       5.328623      0.486822     -0.756723
  O       4.236063      1.593055      0.844194
  C       4.199257     -1.959561     -0.141001
  H       5.271841     -2.142599     -0.194342
  H       3.717740     -2.852320      0.263786
  H       3.848617     -1.804781     -1.159382
  C       4.597263     -0.986988      2.122632
  H       4.243509     -1.921879      2.560787
  H       5.679718     -1.058728      2.002162
  H       4.380028     -0.175647      2.817655
  C       0.549611     -3.988641     -0.592180
  H       0.306569     -4.664915      0.222980
  H      -0.288682     -3.917027     -1.287264
  H       1.428379     -4.339172     -1.132294
  C       4.824363      2.799308      0.368477
  H       4.500926      3.005077     -0.652484
  H       4.482170      3.582230      1.040115
  H       5.911672      2.731714      0.385157
  H       1.055814      0.742728     -1.914918
  C       0.049343     -0.044014      0.619676
  C      -1.220334      0.304535     -0.187801
  H       0.269427      0.804141      1.269972
  H      -0.209425     -0.877945      1.274511
  C      -2.358621      0.446796      0.878783
  C      -1.094014      1.654051     -0.890662
  C      -1.595392     -0.754175     -1.219310
  C      -3.722644      0.697629      0.335383
  H      -2.364933     -0.476798      1.455879
  H      -2.085595      1.264403      1.551005
  O      -1.395023      1.869858     -2.033736
  O      -0.682243      2.622451     -0.058440
  H      -0.851050     -0.830928     -2.009132
  H      -1.704325     -1.723836     -0.732813
  H      -2.539717     -0.505924     -1.701901
  C      -4.151928      2.058456     -0.077660
  C      -4.667350     -0.392913      0.136816
  C      -0.565818      3.920356     -0.633433
  H      -3.639150      2.820829      0.512258
  H      -3.909734      2.242502     -1.130924
  H      -5.229882      2.173057      0.028242
  O      -5.761519     -0.270081     -0.367863
  O      -4.202786     -1.580913      0.584001
  H      -1.524538      4.254520     -1.029695
  H      -0.239046      4.574465      0.170471
  H       0.165460      3.914442     -1.442002
  C      -5.035747     -2.704184      0.334013
  H      -4.580311     -3.538466      0.861901
  H      -6.048311     -2.530783      0.696368
  H      -5.072546     -2.917153     -0.735701
61
Coordinates from ORCA-job orca E -1383.990513444665
  C       1.783574      0.661771     -1.113284
  H       1.889012      1.626311     -0.615023
  H       2.726195      0.409471     -1.596727
  C       1.371015     -0.402803     -0.101093
  C       2.401291     -0.545257      1.052880
  H       2.078135     -1.377664      1.682893
  H       2.315249      0.354558      1.664239
  C       3.902708     -0.759625      0.765627
  C       1.217570     -1.739176     -0.827847
  O       1.421253     -1.924851     -1.996970
  O       0.822917     -2.718425      0.000132
  C       4.561900      0.481380      0.169716
  O       5.332575      0.482516     -0.751901
  O       4.244039      1.595770      0.847075
  C       4.185002     -1.956260     -0.139380
  H       5.256281     -2.147390     -0.192764
  H       3.696578     -2.845946      0.264100
  H       3.835450     -1.797383     -1.157768
  C       4.587355     -0.991300      2.126527
  H       4.224888     -1.924175      2.562082
  H       5.669462     -1.071952      2.007694
  H       4.375801     -0.179578      2.822953
  C       0.600463     -3.987458     -0.606910
  H       0.368376     -4.670704      0.205761
  H      -0.237152     -3.930340     -1.304243
  H       1.487209     -4.319519     -1.145892
  C       4.842384      2.797684      0.373108
  H       4.529501      3.002304     -0.651410
  H       4.498220      3.584387      1.039484
  H       5.929277      2.724793      0.399691
  H       1.050793      0.758600     -1.913514
  C       0.042537     -0.044195      0.616382
  C      -1.229371      0.298118     -0.190149
  H       0.256149      0.803829      1.269265
  H      -0.211133     -0.881612      1.269028
  C      -2.366057      0.435769      0.878372
  C      -1.109263      1.647215     -0.894724
  C      -1.602871     -0.763680     -1.219226
  C      -3.731826      0.693555      0.341246
  H      -2.373318     -0.491313      1.450309
  H      -2.091192      1.248141      1.556349
  O      -1.402972      1.858714     -2.040480
  O      -0.669589      2.611874     -0.072342
  H      -0.862141     -0.836696     -2.012770
  H      -1.703536     -1.733620     -0.731396
  H      -2.551497     -0.521450     -1.696531
  C      -4.158225      2.057824     -0.064829
  C      -4.684400     -0.391106      0.145601
  C      -0.540245      3.905375     -0.654248
  H      -3.642947      2.816020      0.528321
  H      -3.917749      2.245547     -1.117919
  H      -5.235711      2.174390      0.044108
  O      -5.777067     -0.261927     -0.360820
  O      -4.223749     -1.583866      0.584107
  H      -1.498926      4.253765     -1.038424
  H      -0.191424      4.557462      0.142136
  H       0.178995      3.884882     -1.473387
  C      -5.070541     -2.699075      0.345227
  H      -4.617757     -3.537115      0.869644
  H      -6.077015     -2.514461      0.719211
  H      -5.122829     -2.913764     -0.723395
61
Coordinates from ORCA-job orca E -1383.990674054276
  C       1.785232      0.668550     -1.105383
  H       1.881480      1.631753     -0.602315
  H       2.732044      0.424914     -1.585659
  C       1.376223     -0.403669     -0.099766
  C       2.404304     -0.542647      1.056381
  H       2.081240     -1.374744      1.686902
  H       2.314671      0.358123      1.666083
  C       3.907262     -0.754711      0.774018
  C       1.235747     -1.738233     -0.832717
  O       1.430455     -1.913811     -2.004881
  O       0.842333     -2.723780     -0.011358
  C       4.566493      0.485134      0.175829
  O       5.335132      0.484943     -0.747461
  O       4.233835      1.603859      0.839104
  C       4.196253     -1.954050     -0.125444
  H       5.268423     -2.142069     -0.174424
  H       3.709407     -2.843728      0.280051
  H       3.849825     -1.800086     -1.145696
  C       4.588411     -0.979416      2.137828
  H       4.226869     -1.911689      2.575707
  H       5.671177     -1.057820      2.022412
  H       4.372689     -0.165657      2.830787
  C       0.639686     -3.993243     -0.625114
  H       0.404573     -4.681478      0.182629
  H      -0.189454     -3.942295     -1.332769
  H       1.536409     -4.314295     -1.154353
  C       4.832082      2.804548      0.361131
  H       4.536743      2.994655     -0.671280
  H       4.470488      3.596568      1.012012
  H       5.918891      2.739492      0.408323
  H       1.055496      0.763416     -1.908759
  C       0.043951     -0.057089      0.617448
  C      -1.232325      0.276764     -0.185839
  H       0.251363      0.792061      1.271001
  H      -0.203020     -0.896932      1.269999
  C      -2.361348      0.421715      0.889400
  C      -1.115217      1.617623     -0.906767
  C      -1.614751     -0.798391     -1.197942
  C      -3.726704      0.704023      0.364247
  H      -2.378056     -0.510516      1.452827
  H      -2.071732      1.222335      1.575711
  O      -1.408578      1.814327     -2.055164
  O      -0.672370      2.592188     -0.097787
  H      -0.882310     -0.880920     -1.998360
  H      -1.708648     -1.762610     -0.696431
  H      -2.569351     -0.563735     -1.667416
  C      -4.142585      2.080300     -0.010014
  C      -4.695095     -0.362162      0.159078
  C      -0.550380      3.879378     -0.695664
  H      -3.620829      2.821757      0.598331
  H      -3.902832      2.287612     -1.059721
  H      -5.219035      2.203031      0.102177
  O      -5.797226     -0.204245     -0.318805
  O      -4.233659     -1.576312      0.533419
  H      -1.512862      4.221051     -1.076672
  H      -0.197045      4.541458      0.090584
  H       0.162388      3.851106     -1.520221
  C      -5.111044     -2.668467      0.297048
  H      -4.646671     -3.532552      0.766376
  H      -6.093488     -2.481530      0.729606
  H      -5.223306     -2.841463     -0.774369
61
Coordinates from ORCA-job orca E -1383.990770102679
  C       1.788719      0.679884     -1.098451
  H       1.882554      1.640874     -0.590923
  H       2.737927      0.438437     -1.575404
  C       1.376311     -0.396954     -0.099262
  C       2.401732     -0.539459      1.058291
  H       2.074834     -1.369834      1.689070
  H       2.315140      0.362324      1.666883
  C       3.903824     -0.757578      0.776993
  C       1.238051     -1.727422     -0.839570
  O       1.434399     -1.896162     -2.012427
  O       0.876227     -2.724791     -0.017679
  C       4.567193      0.478423      0.175670
  O       5.334329      0.473466     -0.748835
  O       4.235361      1.600586      0.833763
  C       4.189178     -1.959960     -0.119618
  H       5.260795     -2.150658     -0.169027
  H       3.700744     -2.847382      0.288777
  H       3.842441     -1.807598     -1.140049
  C       4.584192     -0.980904      2.141484
  H       4.219333     -1.910652      2.581904
  H       5.666628     -1.063502      2.026160
  H       4.371386     -0.164597      2.832282
  C       0.704964     -3.998231     -0.633462
  H       0.490821     -4.693733      0.173824
  H      -0.127155     -3.967657     -1.338537
  H       1.608319     -4.294041     -1.166067
  C       4.840249      2.797522      0.353769
  H       4.555335      2.981661     -0.682481
  H       4.473953      3.593854      0.996637
  H       5.926368      2.730322      0.412111
  H       1.062818      0.777196     -1.904837
  C       0.041194     -0.056400      0.615323
  C      -1.235402      0.271611     -0.189569
  H       0.243221      0.793146      1.270053
  H      -0.203908     -0.898043      1.266424
  C      -2.366116      0.407603      0.884241
  C      -1.121555      1.611627     -0.912043
  C      -1.609395     -0.807863     -1.200310
  C      -3.728731      0.703870      0.360293
  H      -2.388096     -0.532370      1.434791
  H      -2.075130      1.196408      1.583664
  O      -1.402908      1.803559     -2.064152
  O      -0.689167      2.589705     -0.101522
  H      -0.874863     -0.887281     -1.999372
  H      -1.697231     -1.771709     -0.696702
  H      -2.565056     -0.580801     -1.671104
  C      -4.136545      2.086542      0.000957
  C      -4.704697     -0.352319      0.148450
  C      -0.568518      3.876267     -0.701728
  H      -3.616153      2.819623      0.620204
  H      -3.889751      2.302960     -1.045447
  H      -5.213220      2.212535      0.105163
  O      -5.817678     -0.177238     -0.298753
  O      -4.252850     -1.573267      0.511905
  H      -1.529976      4.212828     -1.089653
  H      -0.222977      4.541377      0.085350
  H       0.149520      3.848801     -1.521660
  C      -5.156995     -2.649838      0.304751
  H      -4.690707     -3.522243      0.756250
  H      -6.119650     -2.446420      0.773022
  H      -5.311981     -2.817764     -0.761914
61
Coordinates from ORCA-job orca E -1383.990907439397
  C       1.793491      0.681346     -1.101268
  H       1.876866      1.642211     -0.591569
  H       2.747556      0.448207     -1.572992
  C       1.384410     -0.400769     -0.106370
  C       2.406296     -0.538459      1.054545
  H       2.081818     -1.370979      1.683908
  H       2.313439      0.362865      1.663159
  C       3.909967     -0.749132      0.777001
  C       1.260051     -1.729881     -0.851149
  O       1.458312     -1.892291     -2.024634
  O       0.893959     -2.731175     -0.036057
  C       4.570692      0.492338      0.183998
  O       5.342572      0.494489     -0.736637
  O       4.238183      1.608940      0.851089
  C       4.202056     -1.945823     -0.125091
  H       5.274757     -2.131108     -0.174424
  H       3.717399     -2.837549      0.278650
  H       3.855620     -1.789906     -1.145430
  C       4.587008     -0.977318      2.142517
  H       4.223867     -1.910617      2.577204
  H       5.670188     -1.055812      2.029961
  H       4.369426     -0.165183      2.836910
  C       0.735393     -4.003201     -0.658345
  H       0.510073     -4.701542      0.143591
  H      -0.084735     -3.972635     -1.377156
  H       1.648427     -4.294819     -1.176993
  C       4.845001      2.809603      0.382562
  H       4.566086      3.000460     -0.654203
  H       4.474432      3.601246      1.028963
  H       5.930926      2.742147      0.447173
  H       1.071698      0.773561     -1.911960
  C       0.044472     -0.071540      0.605297
  C      -1.234765      0.252225     -0.198693
  H       0.239994      0.777297      1.263316
  H      -0.196675     -0.917039      1.253312
  C      -2.364708      0.385412      0.875552
  C      -1.125185      1.592442     -0.920332
  C      -1.605230     -0.827933     -1.210054
  C      -3.725358      0.700213      0.355114
  H      -2.393537     -0.559252      1.418307
  H      -2.067286      1.166110      1.581409
  O      -1.404558      1.783956     -2.072999
  O      -0.703899      2.572447     -0.106225
  H      -0.870974     -0.903055     -2.009983
  H      -1.687860     -1.792561     -0.707018
  H      -2.562770     -0.605244     -1.679344
  C      -4.106137      2.087846     -0.017069
  C      -4.725083     -0.338409      0.160608
  C      -0.588149      3.860635     -0.704178
  H      -3.570378      2.817064      0.593667
  H      -3.856457      2.288224     -1.066429
  H      -5.180151      2.236283      0.085418
  O      -5.832577     -0.147147     -0.294596
  O      -4.299813     -1.564481      0.537600
  H      -1.550390      4.192294     -1.094709
  H      -0.248896      4.526296      0.085326
  H       0.132922      3.837988     -1.521759
  C      -5.233713     -2.620174      0.354229
  H      -4.780972     -3.500021      0.805276
  H      -6.182652     -2.388965      0.837891
  H      -5.412798     -2.791784     -0.707986
61
Coordinates from ORCA-job orca E -1383.990972301938
  C       1.797290      0.679291     -1.107970
  H       1.874237      1.638298     -0.593653
  H       2.754284      0.453593     -1.577135
  C       1.390552     -0.409388     -0.119102
  C       2.407637     -0.546510      1.046617
  H       2.085114     -1.384124      1.670161
  H       2.304547      0.351100      1.659068
  C       3.915469     -0.744776      0.779414
  C       1.275350     -1.735622     -0.870449
  O       1.476120     -1.890893     -2.044532
  O       0.909474     -2.742487     -0.062540
  C       4.574241      0.505401      0.202524
  O       5.356394      0.519014     -0.709375
  O       4.226990      1.615102      0.873286
  C       4.225190     -1.932654     -0.128421
  H       5.299740     -2.109130     -0.168785
  H       3.743665     -2.830954      0.264222
  H       3.888105     -1.771741     -1.150960
  C       4.582323     -0.978628      2.148934
  H       4.222157     -1.917725      2.573436
  H       5.666966     -1.048576      2.045170
  H       4.352901     -0.173339      2.847458
  C       0.763463     -4.012383     -0.692659
  H       0.523141     -4.713447      0.102472
  H      -0.041354     -3.979947     -1.427943
  H       1.687247     -4.301242     -1.193670
  C       4.832883      2.822627      0.420718
  H       4.570442      3.016163     -0.619738
  H       4.445513      3.608171      1.064645
  H       5.917940      2.762120      0.504028
  H       1.077881      0.770912     -1.920811
  C       0.047539     -0.086978      0.590486
  C      -1.234553      0.238221     -0.210408
  H       0.240808      0.760323      1.251165
  H      -0.191865     -0.934890      1.236051
  C      -2.359362      0.378905      0.868452
  C      -1.121384      1.575058     -0.937451
  C      -1.613520     -0.843906     -1.216316
  C      -3.721315      0.702758      0.355525
  H      -2.390530     -0.565375      1.411389
  H      -2.052794      1.159196      1.570906
  O      -1.399566      1.762991     -2.090978
  O      -0.708371      2.559295     -0.124220
  H      -0.884895     -0.922143     -2.020848
  H      -1.694045     -1.806940     -0.709894
  H      -2.574289     -0.621665     -1.679643
  C      -4.087472      2.091594     -0.025735
  C      -4.737010     -0.323805      0.180737
  C      -0.596245      3.846652     -0.725204
  H      -3.537271      2.819542      0.573392
  H      -3.843238      2.279653     -1.078755
  H      -5.158936      2.254266      0.081870
  O      -5.846521     -0.120477     -0.264645
  O      -4.328724     -1.552294      0.567135
  H      -1.560485      4.175570     -1.113173
  H      -0.255925      4.514058      0.062332
  H       0.122473      3.822986     -1.544636
  C      -5.285830     -2.591542      0.406368
  H      -4.835855     -3.480048      0.842822
  H      -6.216425     -2.344850      0.917406
  H      -5.498646     -2.756039     -0.650640
61
Coordinates from ORCA-job orca E -1383.991006289384
  C       1.801950      0.691146     -1.094120
  H       1.874173      1.646554     -0.572482
  H       2.762542      0.471420     -1.558969
  C       1.392289     -0.405285     -0.114967
  C       2.406244     -0.549332      1.052121
  H       2.082561     -1.389851      1.671048
  H       2.303540      0.345443      1.668627
  C       3.913406     -0.747758      0.783463
  C       1.282635     -1.725738     -0.876797
  O       1.485339     -1.870610     -2.051920
  O       0.918436     -2.740271     -0.078027
  C       4.569726      0.501901      0.202800
  O       5.353736      0.513512     -0.707565
  O       4.225452      1.612156      0.873874
  C       4.221642     -1.936887     -0.123253
  H       5.296250     -2.112071     -0.166777
  H       3.742369     -2.834993      0.272509
  H       3.881213     -1.778128     -1.145048
  C       4.583307     -0.977820      2.152242
  H       4.224927     -1.916084      2.580022
  H       5.667745     -1.047078      2.046305
  H       4.354753     -0.170892      2.849194
  C       0.784373     -4.006727     -0.718116
  H       0.526329     -4.711381      0.068183
  H      -0.003223     -3.969763     -1.471219
  H       1.719038     -4.293951     -1.199623
  C       4.833124      2.818700      0.420420
  H       4.572045      3.010841     -0.620558
  H       4.445687      3.605257      1.063007
  H       5.917953      2.756888      0.505375
  H       1.087033      0.786629     -1.910359
  C       0.046435     -0.089118      0.592193
  C      -1.235619      0.233081     -0.210141
  H       0.235387      0.757972      1.254327
  H      -0.191450     -0.938748      1.236105
  C      -2.360836      0.377644      0.868453
  C      -1.120460      1.566687     -0.942830
  C      -1.612796     -0.853563     -1.211708
  C      -3.722574      0.702769      0.355597
  H      -2.392745     -0.565876      1.412502
  H      -2.052234      1.159396      1.568343
  O      -1.392899      1.749149     -2.098605
  O      -0.715552      2.555807     -0.131493
  H      -0.883430     -0.934287     -2.015464
  H      -1.692489     -1.814591     -0.701183
  H      -2.573551     -0.634660     -1.676847
  C      -4.084143      2.090508     -0.032980
  C      -4.743421     -0.319581      0.190780
  C      -0.602676      3.840652     -0.738103
  H      -3.529207      2.819842      0.559899
  H      -3.841265      2.271977     -1.087461
  H      -5.154837      2.257953      0.074872
  O      -5.855105     -0.111510     -0.247064
  O      -4.338840     -1.549540      0.575665
  H      -1.567283      4.168287     -1.126307
  H      -0.261392      4.510853      0.046593
  H       0.115362      3.812538     -1.557885
  C      -5.304370     -2.582656      0.421327
  H      -4.847458     -3.479604      0.832428
  H      -6.220466     -2.340160      0.959894
  H      -5.545025     -2.728705     -0.632401
61
Coordinates from ORCA-job orca E -1383.991023619967
  C       1.801752      0.689880     -1.096942
  H       1.873919      1.645819     -0.576528
  H       2.762494      0.469678     -1.561186
  C       1.391332     -0.405294     -0.116575
  C       2.405363     -0.550330      1.050588
  H       2.081805     -1.391970      1.668044
  H       2.302167      0.343323      1.668645
  C       3.912746     -0.748029      0.782394
  C       1.280609     -1.725954     -0.877544
  O       1.483695     -1.871603     -2.052548
  O       0.918451     -2.740206     -0.077686
  C       4.570815      0.503672      0.208175
  O       5.354944      0.518714     -0.702081
  O       4.224446      1.611604      0.881795
  C       4.221011     -1.933513     -0.129017
  H       5.295452     -2.109723     -0.171516
  H       3.739916     -2.832744      0.261898
  H       3.882675     -1.769753     -1.150700
  C       4.581361     -0.984640      2.150648
  H       4.221612     -1.924192      2.574408
  H       5.665744     -1.054738      2.045133
  H       4.353368     -0.180255      2.850673
  C       0.786589     -4.007631     -0.716377
  H       0.514228     -4.708733      0.068220
  H       0.010459     -3.968947     -1.481078
  H       1.726787     -4.301041     -1.183310
  C       4.829572      2.820461      0.431097
  H       4.567596      3.014462     -0.609305
  H       4.440747      3.604670      1.075660
  H       5.914520      2.760641      0.515483
  H       1.087321      0.784144     -1.913605
  C       0.046036     -0.087287      0.591042
  C      -1.236869      0.234477     -0.210060
  H       0.236189      0.760609      1.251873
  H      -0.191839     -0.936007      1.236197
  C      -2.360501      0.382453      0.870074
  C      -1.121783      1.566478     -0.945787
  C      -1.616350     -0.853944     -1.208721
  C      -3.722945      0.705037      0.357933
  H      -2.391178     -0.559603      1.416800
  H      -2.050763      1.166829      1.566391
  O      -1.394519      1.746346     -2.101923
  O      -0.714837      2.557136     -0.137385
  H      -0.888532     -0.936520     -2.013750
  H      -1.695736     -1.813911     -0.696201
  H      -2.577646     -0.635418     -1.672845
  C      -4.087450      2.091418     -0.032930
  C      -4.742204     -0.319195      0.195527
  C      -0.597667      3.839526     -0.748399
  H      -3.533422      2.822657      0.558447
  H      -3.845311      2.272536     -1.087579
  H      -5.158356      2.256922      0.075332
  O      -5.855690     -0.112286     -0.238144
  O      -4.334769     -1.548366      0.579849
  H      -1.562352      4.170961     -1.133185
  H      -0.249527      4.510270      0.032781
  H       0.116549      3.805042     -1.571218
  C      -5.298062     -2.583472      0.423071
  H      -4.832723     -3.483952      0.816527
  H      -6.208057     -2.351940      0.976663
  H      -5.551532     -2.716231     -0.629343
61
Coordinates from ORCA-job orca E -1383.991032931083
  C       1.801107      0.687240     -1.097846
  H       1.874078      1.643707     -0.578421
  H       2.761400      0.466075     -1.562440
  C       1.390178     -0.406704     -0.116294
  C       2.405155     -0.552860      1.050160
  H       2.082771     -1.396202      1.665866
  H       2.301070      0.339211      1.670385
  C       3.912815     -0.748034      0.781310
  C       1.276660     -1.727922     -0.876059
  O       1.480866     -1.875398     -2.050667
  O       0.913811     -2.740890     -0.075012
  C       4.568949      0.505293      0.208473
  O       5.353458      0.522378     -0.701453
  O       4.219849      1.612089      0.882377
  C       4.222753     -1.932193     -0.131250
  H       5.297376     -2.107451     -0.173173
  H       3.742130     -2.832261      0.258285
  H       3.884996     -1.767654     -1.152939
  C       4.582128     -0.984898      2.149167
  H       4.223656     -1.925082      2.572585
  H       5.666551     -1.053684      2.043173
  H       4.353567     -0.181180      2.849775
  C       0.777711     -4.008340     -0.712542
  H       0.484155     -4.704026      0.069220
  H       0.015914     -3.963090     -1.491092
  H       1.722637     -4.314441     -1.161763
  C       4.821880      2.822611      0.432329
  H       4.558237      3.017088     -0.607588
  H       4.432059      3.605424      1.077975
  H       5.907059      2.765366      0.515220
  H       1.086317      0.780939     -1.914291
  C       0.046203     -0.086028      0.592432
  C      -1.236626      0.236185     -0.208091
  H       0.238352      0.762183      1.252300
  H      -0.192220     -0.933980      1.238359
  C      -2.359864      0.385915      0.872427
  C      -1.122482      1.568015     -0.944368
  C      -1.617474     -0.852211     -1.206155
  C      -3.722222      0.706481      0.359455
  H      -2.390162     -0.555042      1.421071
  H      -2.050217      1.172105      1.566639
  O      -1.396449      1.747194     -2.100349
  O      -0.710357      2.558310     -0.138156
  H      -0.890352     -0.935162     -2.011784
  H      -1.697270     -1.812069     -0.693639
  H      -2.578704     -0.632845     -1.669948
  C      -4.089823      2.091965     -0.031909
  C      -4.739375     -0.320161      0.196054
  C      -0.588995      3.839132     -0.751499
  H      -3.537878      2.824166      0.560452
  H      -3.847268      2.274976     -1.086032
  H      -5.161060      2.254678      0.076947
  O      -5.852286     -0.115672     -0.239900
  O      -4.329911     -1.548066      0.582463
  H      -1.554325      4.176846     -1.129175
  H      -0.230341      4.508563      0.026052
  H       0.118416      3.798973     -1.579888
  C      -5.288085     -2.586666      0.417802
  H      -4.814719     -3.490109      0.794564
  H      -6.194758     -2.368908      0.982515
  H      -5.549396     -2.705538     -0.634211
61
Coordinates from ORCA-job orca E -1383.991038875594
  C       1.798136      0.686093     -1.098066
  H       1.870648      1.643342     -0.580097
  H       2.757771      0.465400     -1.564174
  C       1.390086     -0.407052     -0.114504
  C       2.406538     -0.551118      1.051008
  H       2.085184     -1.394068      1.667791
  H       2.302892      0.341412      1.670613
  C       3.913742     -0.746548      0.780393
  C       1.277618     -1.729473     -0.872407
  O       1.481819     -1.878475     -2.046808
  O       0.914728     -2.741423     -0.070043
  C       4.569545      0.506585      0.206694
  O       5.352532      0.523550     -0.704529
  O       4.221173      1.613560      0.880741
  C       4.221548     -1.930929     -0.132612
  H       5.295978     -2.106873     -0.176427
  H       3.741103     -2.830697      0.257903
  H       3.881764     -1.766446     -1.153677
  C       4.584602     -0.983941      2.147396
  H       4.225903     -1.923813      2.571280
  H       5.668825     -1.053617      2.040005
  H       4.357599     -0.180066      2.848304
  C       0.774735     -4.008863     -0.706547
  H       0.471249     -4.701511      0.074127
  H       0.018965     -3.959884     -1.490674
  H       1.720872     -4.322161     -1.148320
  C       4.821655      2.824124      0.429039
  H       4.554486      3.018991     -0.609939
  H       4.434039      3.606842      1.076137
  H       5.907122      2.767062      0.508104
  H       1.081709      0.777839     -1.913385
  C       0.046287     -0.087141      0.594660
  C      -1.235698      0.234744     -0.206825
  H       0.238127      0.761040      1.254593
  H      -0.192017     -0.935343      1.240287
  C      -2.360061      0.384216      0.872525
  C      -1.121319      1.566890     -0.942434
  C      -1.615705     -0.853432     -1.205492
  C      -3.721438      0.706625      0.358279
  H      -2.392058     -0.557112      1.420404
  H      -2.050714      1.169262      1.568199
  O      -1.395293      1.746538     -2.098340
  O      -0.710882      2.557096     -0.135241
  H      -0.887779     -0.936259     -2.010400
  H      -1.696237     -1.813422     -0.693385
  H      -2.576324     -0.633578     -1.670232
  C      -4.088385      2.093069     -0.030402
  C      -4.738943     -0.319381      0.192008
  C      -0.588917      3.838102     -0.747919
  H      -3.536869      2.823660      0.564459
  H      -3.844982      2.278591     -1.083823
  H      -5.159595      2.255637      0.078791
  O      -5.850979     -0.114167     -0.245697
  O      -4.330517     -1.547704      0.578340
  H      -1.553934      4.176479     -1.125831
  H      -0.230296      4.507226      0.029905
  H       0.118630      3.798281     -1.576215
  C      -5.288112     -2.586162      0.410703
  H      -4.812984     -3.491347      0.781023
  H      -6.193188     -2.372616      0.979664
  H      -5.552735     -2.699293     -0.641028
61
Coordinates from ORCA-job orca E -1383.991039183277
  C       1.799284      0.684312     -1.098503
  H       1.871947      1.641748     -0.580906
  H       2.758860      0.463119     -1.564566
  C       1.391020     -0.408396     -0.114583
  C       2.407502     -0.551708      1.050967
  H       2.086641     -1.394752      1.667936
  H       2.303037      0.340887      1.670338
  C       3.914977     -0.745680      0.780708
  C       1.278503     -1.731242     -0.871874
  O       1.482494     -1.880879     -2.046209
  O       0.915279     -2.742752     -0.069002
  C       4.568944      0.507602      0.205249
  O       5.352116      0.524520     -0.705787
  O       4.219100      1.614961      0.878036
  C       4.224589     -1.930833     -0.130695
  H       5.299267     -2.105406     -0.174129
  H       3.745392     -2.830777      0.261021
  H       3.884561     -1.768281     -1.151975
  C       4.585922     -0.980316      2.148135
  H       4.228349     -1.920125      2.573146
  H       5.670268     -1.048696      2.041035
  H       4.357670     -0.175850      2.847984
  C       0.772123     -4.009809     -0.705432
  H       0.463951     -4.701188      0.074563
  H       0.018604     -3.958085     -1.491537
  H       1.718205     -4.327074     -1.144559
  C       4.818352      2.825663      0.425240
  H       4.550331      3.019877     -0.613671
  H       4.430653      3.608507      1.072171
  H       5.903944      2.769538      0.503488
  H       1.082956      0.776035     -1.913904
  C       0.047133     -0.088464      0.594570
  C      -1.234799      0.233175     -0.207120
  H       0.238886      0.759768      1.254443
  H      -0.191041     -0.936526      1.240432
  C      -2.359497      0.381105      0.871940
  C      -1.121557      1.566064     -0.941518
  C      -1.614232     -0.854535     -1.206584
  C      -3.720373      0.706344      0.358027
  H      -2.392814     -0.561271      1.417962
  H      -2.049864      1.164029      1.569937
  O      -1.396524      1.746728     -2.097019
  O      -0.710536      2.555488     -0.133660
  H      -0.886151     -0.936661     -2.011422
  H      -1.694504     -1.814894     -0.695103
  H      -2.574897     -0.634616     -1.671202
  C      -4.085599      2.094268     -0.027064
  C      -4.739387     -0.317887      0.189894
  C      -0.589551      3.837173     -0.744951
  H      -3.533180      2.822577      0.569742
  H      -3.842303      2.281893     -1.080141
  H      -5.156563      2.257868      0.083158
  O      -5.850800     -0.110864     -0.248527
  O      -4.332752     -1.547314      0.574746
  H      -1.554869      4.175672     -1.122057
  H      -0.230767      4.505682      0.033342
  H       0.117506      3.798726     -1.573767
  C      -5.291999     -2.584085      0.407337
  H      -4.817575     -3.490475      0.775656
  H      -6.195845     -2.370207      0.978201
  H      -5.558735     -2.695339     -0.644039
61
Coordinates from ORCA-job orca E -1383.991040754420
  C       1.799457      0.683123     -1.098786
  H       1.872453      1.640709     -0.581491
  H       2.758827      0.461527     -1.565076
  C       1.391360     -0.409207     -0.114416
  C       2.407969     -0.551614      1.051095
  H       2.087469     -1.394374      1.668642
  H       2.303252      0.341355      1.669883
  C       3.915489     -0.745046      0.780688
  C       1.278970     -1.732450     -0.871137
  O       1.482535     -1.882574     -2.045469
  O       0.915872     -2.743685     -0.067766
  C       4.568547      0.508256      0.204260
  O       5.351377      0.525182     -0.707042
  O       4.218401      1.615790      0.876732
  C       4.225535     -1.930470     -0.130192
  H       5.300314     -2.104292     -0.174088
  H       3.747252     -2.830542      0.262325
  H       3.884729     -1.768824     -1.151347
  C       4.586778     -0.978686      2.148109
  H       4.229551     -1.918424      2.573571
  H       5.671136     -1.046754      2.040885
  H       4.358313     -0.173979      2.847618
  C       0.771512     -4.010731     -0.703927
  H       0.462247     -4.701640      0.076067
  H       0.018212     -3.958206     -1.490196
  H       1.717321     -4.329293     -1.142685
  C       4.816970      2.826555      0.423243
  H       4.547554      3.020897     -0.615293
  H       4.430076      3.609322      1.070758
  H       5.902672      2.770516      0.500031
  H       1.082934      0.774917     -1.914004
  C       0.047454     -0.089192      0.594700
  C      -1.234434      0.232568     -0.207115
  H       0.239190      0.759104      1.254464
  H      -0.190708     -0.937068      1.240791
  C      -2.359399      0.379789      0.871699
  C      -1.121063      1.565718     -0.941043
  C      -1.613661     -0.854857     -1.206984
  C      -3.720189      0.706180      0.357988
  H      -2.393237     -0.563060      1.416869
  H      -2.049775      1.161708      1.570858
  O      -1.397115      1.747122     -2.096151
  O      -0.709165      2.554577     -0.132934
  H      -0.885326     -0.937049     -2.011591
  H      -1.694197     -1.815294     -0.695659
  H      -2.574228     -0.634725     -1.671719
  C      -4.084865      2.094985     -0.024543
  C      -4.739609     -0.317311      0.188224
  C      -0.588965      3.836724     -0.743332
  H      -3.532099      2.822024      0.573410
  H      -3.841864      2.283912     -1.077471
  H      -5.155759      2.258926      0.086106
  O      -5.850734     -0.109420     -0.250548
  O      -4.333897     -1.547383      0.572089
  H      -1.554326      4.174740     -1.120756
  H      -0.231055      4.505014      0.035555
  H       0.118552      3.799398     -1.571833
  C      -5.293991     -2.583244      0.404541
  H      -4.821093     -3.489701      0.774668
  H      -6.198525     -2.367767      0.973733
  H      -5.559350     -2.695435     -0.647109
