61
Coordinates from ORCA-job orca E -1383.991040754420
  C           1.79945732715939      0.68312265052817     -1.09878605086621
  H           1.87245321737226      1.64070897959488     -0.58149052039742
  H           2.75882664169899      0.46152732578059     -1.56507593264232
  C           1.39135966922463     -0.40920716751590     -0.11441583296164
  C           2.40796928443600     -0.55161399216346      1.05109492768723
  H           2.08746893368120     -1.39437399534240      1.66864201913914
  H           2.30325179598093      0.34135537536042      1.66988277649000
  C           3.91548852882802     -0.74504641252786      0.78068755141407
  C           1.27897030558473     -1.73245002984155     -0.87113746313915
  O           1.48253518483904     -1.88257419137907     -2.04546937220022
  O           0.91587223958916     -2.74368519030136     -0.06776550209263
  C           4.56854653291245      0.50825615116235      0.20426022344490
  O           5.35137734856344      0.52518249049193     -0.70704177998357
  O           4.21840070568210      1.61578977155102      0.87673160191125
  C           4.22553480210452     -1.93046957645580     -0.13019179952351
  H           5.30031419090183     -2.10429214364371     -0.17408759656018
  H           3.74725161312031     -2.83054187349288      0.26232507266580
  H           3.88472910896326     -1.76882363181287     -1.15134724749584
  C           4.58677809999626     -0.97868569190247      2.14810889531208
  H           4.22955100740784     -1.91842408356950      2.57357104468529
  H           5.67113560189729     -1.04675353403720      2.04088519638490
  H           4.35831329743797     -0.17397943054306      2.84761829386676
  C           0.77151191832576     -4.01073128099494     -0.70392662725121
  H           0.46224741717569     -4.70163996854989      0.07606746044188
  H           0.01821165463761     -3.95820603877764     -1.49019636641294
  H           1.71732123945103     -4.32929262217846     -1.14268543137668
  C           4.81697019260693      2.82655541046752      0.42324348775433
  H           4.54755413203145      3.02089693584080     -0.61529266656132
  H           4.43007601093249      3.60932166325669      1.07075785708038
  H           5.90267232872050      2.77051552757557      0.50003060424543
  H           1.08293411509121      0.77491660498679     -1.91400385353076
  C           0.04745358386606     -0.08919162788254      0.59469974750199
  C          -1.23443372748192      0.23256781591418     -0.20711514960418
  H           0.23919017398318      0.75910350555641      1.25446406562143
  H          -0.19070765484047     -0.93706761677686      1.24079114792953
  C          -2.35939906516607      0.37978863528003      0.87169949708945
  C          -1.12106325909128      1.56571794068031     -0.94104298749581
  C          -1.61366124248519     -0.85485692406562     -1.20698436828551
  C          -3.72018863215934      0.70618020222283      0.35798761569947
  H          -2.39323661279485     -0.56305996651694      1.41686929373746
  H          -2.04977512614611      1.16170809040355      1.57085821153650
  O          -1.39711527956286      1.74712172254547     -2.09615127654983
  O          -0.70916542616790      2.55457706103141     -0.13293417462316
  H          -0.88532643277963     -0.93704929945754     -2.01159141652323
  H          -1.69419722596215     -1.81529424634259     -0.69565922395493
  H          -2.57422840887254     -0.63472501364910     -1.67171863977504
  C          -4.08486545765975      2.09498482233158     -0.02454317595104
  C          -4.73960905230506     -0.31731052153345      0.18822373644961
  C          -0.58896498200862      3.83672376186823     -0.74333164356016
  H          -3.53209930169024      2.82202366523384      0.57341031216727
  H          -3.84186400816572      2.28391219485207     -1.07747147730084
  H          -5.15575938274723      2.25892617742725      0.08610649217048
  O          -5.85073362381692     -0.10942023150634     -0.25054777413836
  O          -4.33389735067238     -1.54738305000471      0.57208932154363
  H          -1.55432569640358      4.17473980640801     -1.12075601452651
  H          -0.23105476894406      4.50501362781275      0.03555544190682
  H           0.11855237738024      3.79939779482448     -1.57183268614522
  C          -5.29399145378598     -2.58324394953659      0.40454082012425
  H          -4.82109268905453     -3.48970108426480      0.77466777808896
  H          -6.19852471977144     -2.36776652421891      0.97373290185602
  H          -5.55935000104796     -2.69543480020312     -0.64710934451688
