101
Coordinates from ORCA-job orca E -2008.224788849499
  C           0.27443390157165     -0.09981202136994     -1.25700760274107
  C           1.13811522433316     -0.16219937693298     -0.05323593611227
  O           1.67208480157136     -1.18449542762284      0.31573993740551
  O           1.44377390132050      0.97239320488201      0.58180853237951
  C          -0.51277100081314      1.15785777626080     -1.48986398980350
  H          -1.46189490585309      1.05319565225655     -0.95533939034498
  H          -0.75564454530354      1.25923313475166     -2.55138054186883
  C           0.64557645159152      2.17375240122979      0.46125339012708
  H          -0.22712345131890      2.02400953526948      1.10826999089160
  C           0.19259971822017      2.39589427146958     -0.96601180578699
  H          -0.49630354299656      3.24231853468703     -0.98389041817314
  H           1.04601974078886      2.66125610355559     -1.59069101531271
  C          -0.29148408659330     -1.42997005878743     -1.69903159941231
  H           0.47159272724981     -2.17836070881069     -1.49150352967265
  H          -0.43718974532100     -1.41181265673772     -2.78366236948893
  C           1.91807366761684      0.04269850251708     -2.68026058487212
  C           3.13885446876388      0.39435369720134     -2.14489837930565
  H           1.39724014958845      0.77496824448317     -3.28400745939260
  H           1.77183823636004     -0.99951371082886     -2.93300847172749
  C           3.51976604844837      1.82483731864414     -2.12235788733353
  C           4.07866662346410     -0.60052312657892     -1.54006905510175
  O           2.91316341692593      2.68034481871395     -2.72259001271113
  O           4.57901724704917      2.19887176945307     -1.39116817675763
  H           4.85068780602720     -0.86137620042317     -2.27637215381939
  H           3.54400089934075     -1.51595302728836     -1.28958846298810
  C           4.73756765836958      0.00082643034427     -0.30800420115522
  C           5.44364354706421      1.28719038072805     -0.67860032128630
  H           5.46604693765930     -0.69487377791739      0.11129951622858
  H           3.98292777148368      0.19228572529290      0.45924612187680
  H           6.27155726836824      1.06126430341258     -1.36321354526632
  C           1.52314235252302      3.28138707329289      1.01428226203188
  H           2.41006560280617      3.36749716475487      0.37709970019121
  H           1.87186571192627      2.96900063058613      2.00304407437212
  C           5.97386643267220      2.07461629587189      0.50640660840716
  H           5.13548359159787      2.30230659315608      1.17323905849703
  H           6.34619762857724      3.03220561269005      0.13158605049824
  C          -4.30976604619800     -1.50896028367589     -1.58982171155084
  C          -4.56315428582236     -1.90819667692935     -0.13325582837680
  O          -4.24204184947024     -2.99534404649403      0.27574455618224
  O          -5.21020118860632     -1.09139843546195      0.69220389499501
  C          -5.04636070457340     -0.20613810719659     -1.93291501248286
  H          -6.11177007227712     -0.41623182222931     -2.07394316728099
  H          -4.67591298048425      0.17383666950049     -2.88870444169267
  C          -5.52037121878017      0.29601677372473      0.44250449464266
  H          -6.61084252060719      0.32500027408188      0.32770459128744
  C          -4.88025063728502      0.81710396332097     -0.82769828498625
  H          -5.35889282990905      1.76012303837840     -1.09653208001303
  H          -3.82343372537822      1.02236081654377     -0.64070488290942
  C          -4.90038060072717     -2.63167823621893     -2.45651916647650
  H          -4.42736232968260     -3.59206776050268     -2.26943773850228
  H          -4.77823041344487     -2.37897392459998     -3.51237300790612
  C          -2.79401459784287     -1.29660323509422     -1.90490062992067
  C          -1.65458474343404     -1.95741550196213     -1.10013173149745
  H          -2.61516800944515     -0.22531764124942     -1.89377648113889
  H          -2.65453487074504     -1.60996135545336     -2.94470632772505
  C          -1.69763216954794     -1.49781864402942      0.35697720798993
  C          -1.65478769504749     -3.50058519453492     -1.25528483465653
  O          -2.20109100513390     -0.44498386033972      0.67663501232346
  O          -1.09971308333303     -2.22525226540131      1.28234404928781
  H          -0.93338716440917     -3.75913175530621     -2.03483228110784
  H          -2.62641095468852     -3.82780279600187     -1.61014260874997
  C          -1.34046835040078     -4.26283130540761      0.03090033680024
  C          -0.44076142524198     -3.46836170712099      0.94981815971251
  H          -0.86821767853118     -5.21741478103901     -0.20623692859270
  H          -2.26872613009452     -4.47185482588214      0.56606281136029
  H           0.50325707187459     -3.20764733353021      0.46313136544899
  C          -5.12126092638563      1.05000245030954      1.69926967911272
  H          -4.04060839871205      0.94241120164560      1.82815783954155
  H          -5.59103278806133      0.55240974958121      2.55230242190291
  C          -0.14122737673444     -4.13011422584677      2.28049285668288
  H          -1.08633544082977     -4.35765537965777      2.78398980678038
  H           0.37951151520165     -3.39536400687232      2.90077724329665
  H          -5.96763551529256     -2.74936566222320     -2.25859729808203
  C          -5.51836437169258      2.52170123338222      1.68247200395558
  H          -6.59124954267173      2.61182440030245      1.47742296596994
  H          -5.00612769357695      3.03809412389124      0.86510286949661
  C           0.71234930348759     -5.38702385637745      2.15811619259113
  H           0.16797039927003     -6.15829834188266      1.60532902251365
  H           1.60805198160186     -5.15989849347314      1.56984048550757
  C           0.82450554271523      4.63154245612496      1.11946164306121
  H          -0.10409457683417      4.52045060996083      1.69017366212169
  H           0.53569926411162      4.97777591541797      0.12330112961657
  C           7.07994352082903      1.36062677164909      1.27509138894837
  H           6.69567948832311      0.43215698532890      1.70663558951524
  H           7.87634889618675      1.07158856987006      0.58047632557868
  C           7.66179091492449      2.22656154849458      2.38488454552342
  H           8.45637562297359      1.70531147211252      2.92115739617057
  H           8.08149390564624      3.15164178405206      1.98294228763600
  H           6.89367090116261      2.50062240905402      3.11171465421661
  C           1.70710198225681      5.68388721884230      1.77779944638481
  H           2.63368371563198      5.82181104845972      1.21596692701976
  H           1.20229950196912      6.64983465024145      1.83099836713085
  H           1.97666613229731      5.39178478577453      2.79549823815282
  C          -5.19157800878934      3.22000522714557      2.99625060157280
  H          -5.47978302435607      4.27232280045263      2.97212507122978
  H          -5.71361851641924      2.74895797728849      3.83221374233889
  H          -4.12108009770793      3.17065909441112      3.20838295817765
  C           1.12282243141956     -5.94025751198301      3.51654621406226
  H           0.24659206280098     -6.18879919446110      4.12000031519596
  H           1.72315115948802     -6.84583657429785      3.41377664740010
  H           1.71212198995334     -5.21025635881349      4.07605909274033
