101
Coordinates from ORCA-job orca E -2008.218596676710
  C       0.188447      0.203660     -1.344263
  C       0.997326      0.233247     -0.092955
  O       1.628039     -0.732697      0.296992
  O       1.133520      1.393821      0.558218
  C      -0.696497      1.384574     -1.647213
  H      -1.674407      1.188442     -1.178156
  H      -0.876524      1.455994     -2.733568
  C       0.208928      2.502043      0.389046
  H      -0.698280      2.229780      0.959683
  C      -0.148688      2.689297     -1.077894
  H      -0.911848      3.478430     -1.161444
  H       0.746210      3.026127     -1.620101
  C      -0.229727     -1.182012     -1.781617
  H       0.612475     -1.851988     -1.571994
  H      -0.389994     -1.191822     -2.872262
  C       1.888008      0.556994     -2.714123
  C       3.101029      0.615773     -2.037117
  H       1.476043      1.489530     -3.099429
  H       1.657898     -0.353095     -3.270854
  C       3.552427      1.939540     -1.538514
  C       3.913346     -0.610611     -1.728263
  O       2.951471      2.972873     -1.759778
  O       4.672761      1.999106     -0.793635
  H       4.604930     -0.806875     -2.573061
  H       3.252772     -1.486201     -1.649771
  C       4.720820     -0.420644     -0.446436
  C       5.528348      0.863657     -0.531018
  H       5.402543     -1.271085     -0.292308
  H       4.035512     -0.377069      0.415026
  H       6.235085      0.794968     -1.381871
  C       0.889776      3.700406      1.035397
  H       1.792205      3.944603      0.449340
  H       1.234346      3.385587      2.035253
  C       6.306637      1.217501      0.730629
  H       5.597777      1.264330      1.576093
  H       6.701588      2.239211      0.599275
  C      -4.232459     -1.651499     -1.589334
  C      -4.398647     -2.001105     -0.100250
  O      -3.961112     -3.035221      0.350084
  O      -5.102828     -1.198399      0.702147
  C      -5.108509     -0.436992     -1.961383
  H      -6.163868     -0.754413     -2.032426
  H      -4.825598     -0.076149     -2.964205
  C      -5.505383      0.165010      0.422410
  H      -6.609997      0.128120      0.380187
  C      -4.983365      0.664120     -0.917979
  H      -5.563979      1.551809     -1.212753
  H      -3.934108      0.977194     -0.809769
  C      -4.735852     -2.879386     -2.377150
  H      -4.160551     -3.782795     -2.141532
  H      -4.663936     -2.683729     -3.459351
  C      -2.746663     -1.316507     -1.968486
  C      -1.537395     -1.831319     -1.149120
  H      -2.662615     -0.227176     -2.017809
  H      -2.599569     -1.673093     -3.001593
  C      -1.624712     -1.306514      0.290578
  C      -1.382130     -3.379627     -1.238953
  O      -2.213572     -0.274764      0.552300
  O      -0.974055     -1.942207      1.252068
  H      -0.607755     -3.601228     -1.991621
  H      -2.309521     -3.820792     -1.616699
  C      -1.035472     -4.056443      0.092550
  C      -0.213162     -3.151118      0.992380
  H      -0.485138     -4.991847     -0.092056
  H      -1.964255     -4.307890      0.625074
  H       0.722398     -2.833722      0.504998
  C      -5.068515      0.992799      1.627276
  H      -3.971781      0.919371      1.702881
  H      -5.478874      0.510646      2.530886
  C       0.116618     -3.722958      2.363405
  H      -0.822623     -4.027326      2.858477
  H       0.538293     -2.900559      2.965311
  H      -5.790827     -3.089365     -2.139794
  C      -5.511585      2.456253      1.575352
  H      -6.607873      2.510117      1.436330
  H      -5.069971      2.951866      0.692751
  C       1.104448     -4.890693      2.327501
  H       0.672502     -5.734260      1.760570
  H       2.010429     -4.583634      1.773182
  C      -0.011261      4.930179      1.166890
  H      -0.943016      4.650273      1.693363
  H      -0.320815      5.278594      0.165924
  C       7.454653      0.257741      1.050675
  H       7.059285     -0.757793      1.227657
  H       8.118489      0.176161      0.169997
  C       8.270033      0.698215      2.266621
  H       9.089394     -0.006472      2.480667
  H       8.716742      1.694208      2.108739
  H       7.638048      0.760465      3.168374
  C       0.671614      6.079968      1.907723
  H       1.591580      6.394501      1.387314
  H       0.012975      6.959827      1.987051
  H       0.957593      5.781715      2.930467
  C      -5.116178      3.231572      2.832511
  H      -5.436969      4.284345      2.778354
  H      -5.570113      2.788343      3.734698
  H      -4.022691      3.219946      2.976627
  C       1.497982     -5.372706      3.723939
  H       0.615859     -5.715159      4.290749
  H       2.211138     -6.211418      3.677253
  H       1.969007     -4.563214      4.306425
101
Coordinates from ORCA-job orca E -2008.219128722606
  C       0.191019      0.205777     -1.293899
  C       1.031258      0.189385     -0.064584
  O       1.676477     -0.786014      0.270153
  O       1.177189      1.321304      0.630003
  C      -0.707208      1.391775     -1.525225
  H      -1.669931      1.172053     -1.039614
  H      -0.915848      1.505734     -2.600879
  C       0.241620      2.427734      0.528339
  H      -0.650585      2.126626      1.109652
  C      -0.152187      2.673597     -0.918889
  H      -0.919645      3.459661     -0.950925
  H       0.726356      3.036701     -1.468173
  C      -0.235739     -1.159580     -1.778085
  H       0.609008     -1.840171     -1.623036
  H      -0.426567     -1.125774     -2.861694
  C       1.849296      0.624393     -2.693329
  C       3.078134      0.663090     -2.051588
  H       1.423717      1.568085     -3.028844
  H       1.607548     -0.263281     -3.279507
  C       3.539240      1.968165     -1.515354
  C       3.901358     -0.569537     -1.816838
  O       2.930604      3.006460     -1.679650
  O       4.680200      2.004615     -0.803805
  H       4.567165     -0.729597     -2.686815
  H       3.245052     -1.448642     -1.754156
  C       4.744662     -0.424873     -0.553606
  C       5.545418      0.863477     -0.612346
  H       5.431811     -1.276410     -0.452419
  H       4.086700     -0.413767      0.327296
  H       6.225635      0.830714     -1.484226
  C       0.933729      3.602059      1.202380
  H       1.818743      3.871393      0.603124
  H       1.304080      3.251946      2.178896
  C       6.359303      1.170029      0.637669
  H       5.677134      1.181421      1.503582
  H       6.748534      2.195192      0.535279
  C      -4.218335     -1.693600     -1.589954
  C      -4.403138     -1.988185     -0.092576
  O      -3.941640     -2.986989      0.407936
  O      -5.145286     -1.177024      0.663857
  C      -5.127450     -0.530039     -2.030507
  H      -6.167299     -0.887620     -2.110367
  H      -4.836022     -0.199625     -3.039262
  C      -5.582949      0.159487      0.316732
  H      -6.683295      0.086740      0.261348
  C      -5.055202      0.615646     -1.034037
  H      -5.656551      1.469809     -1.375413
  H      -4.019789      0.965874     -0.922731
  C      -4.660304     -2.967504     -2.337963
  H      -4.060177     -3.838330     -2.055620
  H      -4.571619     -2.811487     -3.423380
  C      -2.742048     -1.308432     -1.944007
  C      -1.529906     -1.805139     -1.120739
  H      -2.694777     -0.217562     -1.964547
  H      -2.570510     -1.630204     -2.983056
  C      -1.605156     -1.250624      0.307763
  C      -1.372369     -3.353623     -1.178074
  O      -2.193411     -0.215956      0.554107
  O      -0.946934     -1.865749      1.277110
  H      -0.605912     -3.589584     -1.931814
  H      -2.301269     -3.802928     -1.536746
  C      -1.015405     -4.002117      0.163282
  C      -0.187300     -3.078870      1.035825
  H      -0.466300     -4.938979     -0.005381
  H      -1.938334     -4.242333      0.707371
  H       0.742461     -2.772412      0.534182
  C      -5.184304      1.056018      1.484291
  H      -4.086274      1.019113      1.574688
  H      -5.591329      0.608224      2.404585
  C       0.149633     -3.622597      2.415970
  H      -0.785883     -3.914054      2.921517
  H       0.576215     -2.789949      2.996506
  H      -5.710393     -3.205307     -2.114631
  C      -5.666983      2.500524      1.354992
  H      -6.760761      2.516950      1.203437
  H      -5.229803      2.963379      0.455045
  C       1.128233     -4.797589      2.400770
  H       0.686984     -5.649342      1.857665
  H       2.031344     -4.512543      1.836186
  C       0.032225      4.820649      1.402267
  H      -0.882915      4.517639      1.940706
  H      -0.303151      5.204235      0.424981
  C       7.516143      0.201262      0.884287
  H       7.127721     -0.819413      1.032121
  H       8.152604      0.156661     -0.016481
  C       8.365665      0.594593      2.091414
  H       9.190130     -0.114921      2.252284
  H       8.805437      1.595265      1.960615
  H       7.761484      0.618813      3.011295
  C       0.729879      5.943673      2.167423
  H       1.633446      6.280447      1.636739
  H       0.071850      6.815448      2.295919
  H       1.041992      5.609091      3.168791
  C      -5.305588      3.345672      2.575131
  H      -5.652813      4.383517      2.466702
  H      -5.756123      2.935459      3.491943
  H      -4.215617      3.369800      2.728615
  C       1.525718     -5.247924      3.805268
  H       0.645783     -5.568188      4.384231
  H       2.230170     -6.091900      3.774834
  H       2.006306     -4.429824      4.363427
101
Coordinates from ORCA-job orca E -2008.222997002512
  C       0.175325      0.185286     -1.265238
  C       1.002949      0.202387     -0.029207
  O       1.648508     -0.758896      0.333296
  O       1.137523      1.347003      0.641226
  C      -0.726818      1.359130     -1.527587
  H      -1.687558      1.147974     -1.043758
  H      -0.928555      1.448003     -2.602009
  C       0.199180      2.443463      0.505128
  H      -0.691721      2.155826      1.084630
  C      -0.181168      2.654189     -0.947846
  H      -0.947318      3.433356     -1.004579
  H       0.698454      3.005308     -1.494997
  C      -0.238504     -1.194925     -1.720317
  H       0.604442     -1.861506     -1.529709
  H      -0.408379     -1.188599     -2.803681
  C       1.839849      0.581000     -2.658943
  C       3.061603      0.642520     -2.014558
  H       1.412821      1.509330     -3.019419
  H       1.610341     -0.317676     -3.223208
  C       3.515767      1.961127     -1.511359
  C       3.889457     -0.577728     -1.746392
  O       2.911105      2.991403     -1.711461
  O       4.652630      2.022586     -0.800750
  H       4.556216     -0.755226     -2.605349
  H       3.240383     -1.453790     -1.662616
  C       4.723674     -0.397207     -0.486321
  C       5.518023      0.889655     -0.578870
  H       5.411332     -1.238725     -0.360526
  H       4.063882     -0.366903      0.387710
  H       6.196571      0.836707     -1.444936
  C       0.883621      3.633296      1.151762
  H       1.770491      3.884673      0.555562
  H       1.242213      3.313744      2.137623
  C       6.326212      1.229526      0.662363
  H       5.645860      1.259238      1.523121
  H       6.712679      2.247973      0.536747
  C      -4.232592     -1.661806     -1.573695
  C      -4.459070     -1.962235     -0.086104
  O      -4.063103     -2.988013      0.409661
  O      -5.180554     -1.131812      0.664257
  C      -5.079219     -0.456403     -2.013195
  H      -6.128633     -0.763939     -2.110695
  H      -4.757853     -0.132918     -3.009725
  C      -5.549783      0.224573      0.325232
  H      -6.646122      0.202983      0.246707
  C      -4.974461      0.672714     -1.005433
  H      -5.528486      1.552413     -1.346388
  H      -3.930966      0.973378     -0.868686
  C      -4.723828     -2.901070     -2.341826
  H      -4.168905     -3.798054     -2.068026
  H      -4.617962     -2.734168     -3.419058
  C      -2.738030     -1.345989     -1.920114
  C      -1.535119     -1.853249     -1.089696
  H      -2.650784     -0.263429     -1.984054
  H      -2.578125     -1.710770     -2.942409
  C      -1.615761     -1.336421      0.349608
  C      -1.367843     -3.394409     -1.187356
  O      -2.186596     -0.300967      0.618073
  O      -0.956971     -1.969693      1.302497
  H      -0.599508     -3.602757     -1.940635
  H      -2.288650     -3.838343     -1.560220
  C      -1.007956     -4.073764      0.134076
  C      -0.188919     -3.166521      1.026453
  H      -0.452849     -4.996641     -0.058517
  H      -1.924288     -4.335900      0.670030
  H       0.733612     -2.838963      0.533412
  C      -5.136427      1.084782      1.509868
  H      -4.049951      0.991803      1.625449
  H      -5.586854      0.652719      2.411453
  C       0.157998     -3.741831      2.387187
  H      -0.767235     -4.056299      2.887294
  H       0.578552     -2.925651      2.986200
  H      -5.780935     -3.092840     -2.132021
  C      -5.538840      2.550159      1.381051
  H      -6.622054      2.626586      1.210509
  H      -5.061048      2.992169      0.497548
  C       1.150500     -4.898841      2.328205
  H       0.718303     -5.737443      1.767961
  H       2.040237     -4.583699      1.766666
  C      -0.020152      4.853101      1.303689
  H      -0.936425      4.567058      1.838989
  H      -0.342497      5.205381      0.316027
  C       7.481216      0.269509      0.930806
  H       7.095377     -0.743212      1.100512
  H       8.116530      0.206593      0.036630
  C       8.325460      0.690752      2.128146
  H       9.147179     -0.009888      2.304106
  H       8.760619      1.684712      1.977016
  H       7.722227      0.732053      3.041648
  C       0.668659      5.995802      2.040901
  H       1.574044      6.314016      1.512869
  H       0.012801      6.866817      2.134076
  H       0.966634      5.692918      3.050763
  C      -5.154138      3.362839      2.611885
  H      -5.437371      4.414448      2.505086
  H      -5.643107      2.974628      3.512023
  H      -4.072788      3.322084      2.784438
  C       1.566649     -5.380838      3.713183
  H       0.700900     -5.728041      4.287853
  H       2.279152     -6.209152      3.652196
  H       2.039096     -4.575281      4.285844
101
Coordinates from ORCA-job orca E -2008.223790285192
  C       0.181668      0.215499     -1.262346
  C       0.992381      0.253974     -0.016815
  O       1.625956     -0.702261      0.374973
  O       1.124409      1.409819      0.631964
  C      -0.702487      1.392185     -1.566222
  H      -1.671284      1.204299     -1.094721
  H      -0.884051      1.458808     -2.643994
  C       0.198841      2.510292      0.455054
  H      -0.703243      2.245413      1.023310
  C      -0.151234      2.692547     -1.007660
  H      -0.905139      3.477698     -1.096281
  H       0.741367      3.019653     -1.544874
  C      -0.240050     -1.170259     -1.698180
  H       0.597495     -1.837820     -1.498625
  H      -0.401148     -1.171049     -2.780867
  C       1.866318      0.566549     -2.642389
  C       3.082247      0.625162     -1.991940
  H       1.454512      1.490502     -3.025517
  H       1.631188     -0.338355     -3.190124
  C       3.557421      1.947607     -1.520639
  C       3.892307     -0.599409     -1.694522
  O       2.973952      2.981845     -1.751485
  O       4.688699      2.008134     -0.803781
  H       4.559818     -0.803376     -2.543912
  H       3.232085     -1.462474     -1.595273
  C       4.720189     -0.404147     -0.434322
  C       5.533462      0.867229     -0.550417
  H       5.393927     -1.250693     -0.286728
  H       4.057251     -0.345777      0.433742
  H       6.216121      0.785350     -1.408379
  C       0.885329      3.706969      1.084390
  H       1.786032      3.929606      0.501065
  H       1.217648      3.411054      2.084430
  C       6.335351      1.221733      0.689362
  H       5.648546      1.286068      1.540483
  H       6.744944      2.226158      0.543603
  C      -4.226812     -1.655991     -1.554533
  C      -4.435287     -1.973997     -0.070117
  O      -4.017769     -2.997351      0.410492
  O      -5.156016     -1.161009      0.697798
  C      -5.092989     -0.459692     -1.975100
  H      -6.136867     -0.780344     -2.066069
  H      -4.784705     -0.122635     -2.969168
  C      -5.547263      0.191731      0.374555
  H      -6.641939      0.154663      0.309706
  C      -4.994364      0.660025     -0.957383
  H      -5.563755      1.533082     -1.282880
  H      -3.955504      0.975034     -0.828490
  C      -4.702200     -2.893891     -2.331886
  H      -4.136099     -3.784483     -2.069365
  H      -4.602271     -2.714826     -3.405695
  C      -2.741548     -1.311895     -1.895588
  C      -1.540906     -1.834889     -1.077059
  H      -2.665024     -0.228161     -1.917983
  H      -2.577790     -1.640075     -2.927850
  C      -1.637222     -1.355919      0.373524
  C      -1.379966     -3.373011     -1.207132
  O      -2.251001     -0.355376      0.671977
  O      -0.991972     -2.014317      1.317197
  H      -0.612657     -3.567599     -1.962122
  H      -2.300366     -3.803851     -1.590347
  C      -1.026549     -4.082797      0.098394
  C      -0.213044     -3.194833      1.011746
  H      -0.470528     -4.998427     -0.113091
  H      -1.943397     -4.358413      0.624115
  H       0.704153     -2.847939      0.526651
  C      -5.131545      1.047855      1.560113
  H      -4.043377      0.977872      1.657464
  H      -5.557997      0.599277      2.462710
  C       0.141091     -3.800575      2.355792
  H      -0.776891     -4.143208      2.846307
  H       0.549331     -2.996226      2.975249
  H      -5.753999     -3.101153     -2.120936
  C      -5.569204      2.503926      1.452102
  H      -6.654078      2.555416      1.298156
  H      -5.115175      2.966003      0.569035
  C       1.152727     -4.936653      2.263168
  H       0.732461     -5.768372      1.688078
  H       2.031699     -4.591867      1.705439
  C      -0.004273      4.941046      1.182457
  H      -0.932919      4.683085      1.706045
  H      -0.300058      5.269047      0.180700
  C       7.464487      0.243572      0.992937
  H       7.054794     -0.754147      1.180577
  H       8.108599      0.147430      0.110733
  C       8.300780      0.673766      2.191058
  H       9.102959     -0.038930      2.393361
  H       8.758286      1.652543      2.023721
  H       7.687227      0.748027      3.092895
  C       0.685516      6.093460      1.900872
  H       1.604271      6.382680      1.383926
  H       0.041786      6.974047      1.954885
  H       0.956934      5.815673      2.922950
  C      -5.189455      3.311552      2.686710
  H      -5.500981      4.354273      2.595475
  H      -5.655633      2.901127      3.586378
  H      -4.107565      3.298052      2.844252
  C       1.585715     -5.440993      3.633601
  H       0.730980     -5.812236      4.205549
  H       2.308423     -6.255449      3.549572
  H       2.049994     -4.642008      4.217768
101
Coordinates from ORCA-job orca E -2008.223548502005
  C       0.200732      0.205213     -1.315440
  C       0.966017      0.278973     -0.043825
  O       1.578585     -0.668209      0.398426
  O       1.074967      1.451550      0.578437
  C      -0.673984      1.369925     -1.679100
  H      -1.656661      1.196076     -1.228417
  H      -0.823766      1.404538     -2.762516
  C       0.158929      2.546486      0.335462
  H      -0.762851      2.299043      0.878524
  C      -0.137796      2.684960     -1.143381
  H      -0.884900      3.468302     -1.283391
  H       0.773661      2.991526     -1.659357
  C      -0.207174     -1.191452     -1.716797
  H       0.620787     -1.850693     -1.461145
  H      -0.336365     -1.238600     -2.802541
  C       1.917077      0.509136     -2.648042
  C       3.118098      0.577418     -1.974533
  H       1.519316      1.424264     -3.066743
  H       1.687976     -0.409977     -3.174393
  C       3.605008      1.910633     -1.546804
  C       3.913250     -0.643305     -1.625829
  O       3.040557      2.942139     -1.828087
  O       4.719800      1.983715     -0.806898
  H       4.594471     -0.877318     -2.455354
  H       3.244527     -1.497401     -1.511859
  C       4.717673     -0.415024     -0.356728
  C       5.546069      0.843158     -0.497589
  H       5.379756     -1.261962     -0.168494
  H       4.039120     -0.322195      0.495310
  H       6.244980      0.726829     -1.337475
  C       0.823057      3.761968      0.953063
  H       1.753074      3.955396      0.407998
  H       1.101317      3.504100      1.979089
  C       6.325540      1.228296      0.747202
  H       5.621393      1.333369      1.579135
  H       6.757190      2.218878      0.576746
  C      -4.202694     -1.588166     -1.571805
  C      -4.397357     -1.987680     -0.106747
  O      -3.974803     -3.036539      0.310543
  O      -5.105176     -1.216143      0.713457
  C      -5.059065     -0.361824     -1.917052
  H      -6.106266     -0.667167     -2.016030
  H      -4.755255      0.027352     -2.892799
  C      -5.493972      0.153508      0.468397
  H      -6.588577      0.122688      0.407132
  C      -4.946367      0.695868     -0.837270
  H      -5.513083      1.588607     -1.107595
  H      -3.905400      0.996924     -0.696365
  C      -4.699856     -2.778375     -2.406201
  H      -4.139835     -3.686595     -2.195892
  H      -4.609443     -2.544613     -3.469823
  C      -2.716421     -1.257059     -1.916493
  C      -1.525489     -1.809320     -1.105855
  H      -2.619792     -0.175752     -1.941949
  H      -2.564479     -1.594920     -2.947080
  C      -1.588656     -1.310615      0.336537
  C      -1.431663     -3.352635     -1.221824
  O      -2.145898     -0.274365      0.620325
  O      -0.965751     -1.984389      1.283938
  H      -0.682429     -3.589910     -1.982105
  H      -2.375610     -3.745251     -1.590269
  C      -1.095682     -4.059702      0.089506
  C      -0.233841     -3.192708      0.978408
  H      -0.582409     -5.001176     -0.114099
  H      -2.017115     -4.286732      0.630388
  H       0.685708     -2.882792      0.471981
  C      -5.072197      0.942893      1.697043
  H      -3.983530      0.876692      1.779579
  H      -5.486482      0.441297      2.576387
  C       0.126221     -3.799205      2.320291
  H      -0.791612     -4.114229      2.827635
  H       0.567447     -3.004107      2.927989
  H      -5.750775     -2.985832     -2.193840
  C      -5.522010      2.399168      1.675875
  H      -6.608145      2.450346      1.535559
  H      -5.079345      2.914294      0.817465
  C       1.105468     -4.962174      2.214695
  H       0.647692     -5.790715      1.665367
  H       1.975523     -4.647137      1.627709
  C      -0.058319      5.005580      0.955860
  H      -1.014309      4.776652      1.441089
  H      -0.297695      5.295959     -0.071484
  C       7.429768      0.241809      1.109277
  H       6.998902     -0.742675      1.314639
  H       8.095769      0.110810      0.248874
  C       8.239783      0.693258      2.317266
  H       9.025233     -0.024763      2.559867
  H       8.715576      1.660108      2.135940
  H       7.603496      0.799787      3.199202
  C       0.606106      6.179200      1.663285
  H       1.554105      6.437121      1.185220
  H      -0.028419      7.067333      1.645974
  H       0.817928      5.941020      2.708559
  C      -5.137680      3.138088      2.951352
  H      -5.458257      4.181189      2.922266
  H      -5.592387      2.672801      3.829202
  H      -4.054883      3.124815      3.098273
  C       1.566099     -5.457822      3.579042
  H       0.719096     -5.792567      4.183001
  H       2.259973     -6.295385      3.485631
  H       2.073189     -4.664623      4.133656
101
Coordinates from ORCA-job orca E -2008.224103363765
  C       0.188009      0.218997     -1.263877
  C       0.960561      0.292916      0.004994
  O       1.576971     -0.654017      0.441047
  O       1.070852      1.463132      0.631170
  C      -0.694322      1.384334     -1.611823
  H      -1.667192      1.211759     -1.144620
  H      -0.861552      1.422435     -2.692569
  C       0.152899      2.557062      0.397692
  H      -0.764177      2.304914      0.945349
  C      -0.153188      2.698790     -1.078763
  H      -0.901114      3.482249     -1.212757
  H       0.753781      3.005988     -1.601585
  C      -0.211145     -1.186729     -1.661019
  H       0.622668     -1.831440     -1.385871
  H      -0.323010     -1.247195     -2.748076
  C       1.878453      0.529296     -2.604713
  C       3.093436      0.595905     -1.956421
  H       1.473808      1.444832     -3.014767
  H       1.642029     -0.387733     -3.129806
  C       3.600762      1.929531     -1.554413
  C       3.895769     -0.625039     -1.626254
  O       3.038883      2.961934     -1.835972
  O       4.732280      2.002291     -0.840698
  H       4.556963     -0.859944     -2.471404
  H       3.229309     -1.478860     -1.495314
  C       4.730401     -0.393278     -0.377342
  C       5.560622      0.860061     -0.544435
  H       5.393158     -1.241820     -0.199592
  H       4.073260     -0.290610      0.489903
  H       6.238905      0.736226     -1.399893
  C       0.817137      3.771485      1.018351
  H       1.753437      3.959322      0.482840
  H       1.083422      3.515159      2.047839
  C       6.371302      1.247993      0.679555
  H       5.687246      1.364784      1.526420
  H       6.807557      2.233400      0.492179
  C      -4.212484     -1.611507     -1.592602
  C      -4.440909     -1.997133     -0.127819
  O      -4.038227     -3.044872      0.310227
  O      -5.141878     -1.203851      0.676820
  C      -5.036423     -0.369234     -1.957051
  H      -6.088495     -0.651014     -2.073686
  H      -4.705420      0.007263     -2.928638
  C      -5.499966      0.170917      0.414523
  H      -6.593523      0.161014      0.331801
  C      -4.916152      0.692173     -0.883073
  H      -5.457245      1.595979     -1.168380
  H      -3.870765      0.968189     -0.724817
  C      -4.722993     -2.791216     -2.435726
  H      -4.183056     -3.710272     -2.221597
  H      -4.615055     -2.556534     -3.497348
  C      -2.714736     -1.303624     -1.916521
  C      -1.530827     -1.835825     -1.078784
  H      -2.620846     -0.225440     -1.973036
  H      -2.545604     -1.663443     -2.937034
  C      -1.638562     -1.361896      0.370774
  C      -1.381024     -3.373170     -1.220172
  O      -2.220721     -0.339454      0.656746
  O      -1.039274     -2.045968      1.326441
  H      -0.603062     -3.569013     -1.963956
  H      -2.299926     -3.789266     -1.620484
  C      -1.059589     -4.097071      0.085281
  C      -0.257410     -3.222296      1.019998
  H      -0.509806     -5.017254     -0.120562
  H      -1.988595     -4.365654      0.591154
  H       0.667714     -2.871167      0.551928
  C      -5.086763      0.961535      1.644626
  H      -4.000740      0.880353      1.744389
  H      -5.522498      0.473288      2.521073
  C       0.076116     -3.849025      2.359641
  H      -0.849059     -4.201352      2.827295
  H       0.474166     -3.057084      3.000258
  H      -5.780173     -2.979340     -2.236544
  C      -5.510842      2.424823      1.605156
  H      -6.593515      2.494616      1.448111
  H      -5.044903      2.924903      0.750418
  C       1.086402     -4.986512      2.261420
  H       0.659874     -5.819937      1.694881
  H       1.960044     -4.645111      1.696083
  C      -0.056790      5.020447      1.011838
  H      -1.019188      4.797403      1.486789
  H      -0.282040      5.313374     -0.017738
  C       7.476529      0.255768      1.023115
  H       7.044395     -0.725796      1.238525
  H       8.126100      0.120120      0.151100
  C       8.311503      0.704769      2.215011
  H       9.099516     -0.015678      2.441468
  H       8.786220      1.670275      2.024431
  H       7.692794      0.812348      3.109139
  C       0.607910      6.188407      1.728641
  H       1.564259      6.437974      1.263124
  H      -0.018590      7.082040      1.703033
  H       0.803625      5.947855      2.776434
  C      -5.131107      3.165431      2.880787
  H      -5.428822      4.214779      2.838764
  H      -5.609388      2.716467      3.754532
  H      -4.051181      3.129133      3.043928
  C       1.531413     -5.485808      3.629769
  H       0.679635     -5.840332      4.215344
  H       2.241609     -6.310155      3.541793
  H       2.014243     -4.688208      4.199363
101
Coordinates from ORCA-job orca E -2008.224287040097
  C       0.197656      0.215724     -1.260658
  C       0.959648      0.292467      0.014998
  O       1.573720     -0.653230      0.456779
  O       1.062192      1.463180      0.641689
  C      -0.689953      1.376501     -1.610321
  H      -1.662605      1.200154     -1.142364
  H      -0.857373      1.413140     -2.690912
  C       0.142127      2.553783      0.401444
  H      -0.777926      2.297544      0.941873
  C      -0.154461      2.693590     -1.076969
  H      -0.903485      3.474810     -1.216929
  H       0.754580      3.002636     -1.595569
  C      -0.196468     -1.191527     -1.652929
  H       0.634999     -1.833297     -1.364636
  H      -0.297277     -1.260562     -2.740426
  C       1.872174      0.523874     -2.587188
  C       3.092520      0.589402     -1.945982
  H       1.469570      1.439868     -2.998354
  H       1.634065     -0.392548     -3.112986
  C       3.608810      1.923401     -1.558455
  C       3.894652     -0.631868     -1.616612
  O       3.050823      2.955612     -1.848002
  O       4.746543      1.997192     -0.854591
  H       4.548602     -0.871358     -2.466028
  H       3.228121     -1.484067     -1.476907
  C       4.740777     -0.395280     -0.376215
  C       5.573768      0.854304     -0.557997
  H       5.401921     -1.244971     -0.198817
  H       4.092596     -0.284280      0.496668
  H       6.244977      0.723436     -1.417874
  C       0.794935      3.770591      1.029731
  H       1.738285      3.960685      0.508343
  H       1.046843      3.516011      2.063249
  C       6.394278      1.247836      0.657660
  H       5.716424      1.373585      1.508135
  H       6.833410      2.229912      0.460251
  C      -4.197817     -1.595773     -1.596253
  C      -4.428051     -1.982149     -0.132859
  O      -4.043355     -3.039708      0.297940
  O      -5.143826     -1.197384      0.666915
  C      -5.020203     -0.352491     -1.963115
  H      -6.070958     -0.634951     -2.088339
  H      -4.682559      0.027200     -2.931210
  C      -5.506333      0.176314      0.405845
  H      -6.598991      0.163036      0.312353
  C      -4.911156      0.704760     -0.883836
  H      -5.451417      1.608759     -1.169905
  H      -3.868175      0.981251     -0.713801
  C      -4.708236     -2.775637     -2.438207
  H      -4.165929     -3.693957     -2.224994
  H      -4.602017     -2.540502     -3.499804
  C      -2.697458     -1.297715     -1.919244
  C      -1.519893     -1.832300     -1.076311
  H      -2.595835     -0.219847     -1.987521
  H      -2.528424     -1.669756     -2.935354
  C      -1.628527     -1.356161      0.372104
  C      -1.382335     -3.371110     -1.214778
  O      -2.193903     -0.323202      0.653297
  O      -1.035979     -2.042441      1.330452
  H      -0.606522     -3.574236     -1.958289
  H      -2.305799     -3.780666     -1.613755
  C      -1.064192     -4.094751      0.091698
  C      -0.258321     -3.221946      1.025786
  H      -0.518856     -5.017734     -0.112873
  H      -1.994360     -4.358584      0.598083
  H       0.668751     -2.875962      0.558015
  C      -5.106003      0.961955      1.642863
  H      -4.021256      0.880501      1.751917
  H      -5.549197      0.470927      2.513862
  C       0.070707     -3.849630      2.366010
  H      -0.857658     -4.192091      2.834618
  H       0.477847     -3.061826      3.005763
  H      -5.764648     -2.965280     -2.237122
  C      -5.526512      2.426037      1.604810
  H      -6.608361      2.500415      1.444777
  H      -5.055254      2.926559      0.753331
  C       1.067240     -4.999220      2.267285
  H       0.623819     -5.833292      1.715100
  H       1.938206     -4.674334      1.688085
  C      -0.081462      5.017762      1.012009
  H      -1.050240      4.792124      1.472335
  H      -0.291339      5.312194     -0.020236
  C       7.498635      0.254517      1.001127
  H       7.065593     -0.725050      1.223107
  H       8.144564      0.113933      0.127315
  C       8.339302      0.707608      2.187550
  H       9.128246     -0.012165      2.412458
  H       8.813082      1.672345      1.991354
  H       7.724717      0.818072      3.084047
  C       0.570688      6.185270      1.741161
  H       1.533334      6.437046      1.290213
  H      -0.056624      7.077938      1.708291
  H       0.751491      5.942485      2.791011
  C      -5.144780      3.160298      2.883208
  H      -5.434082      4.212011      2.843620
  H      -5.628389      2.712199      3.754337
  H      -4.065342      3.113747      3.047680
  C       1.522458     -5.489641      3.635608
  H       0.672761     -5.821702      4.237029
  H       2.216676     -6.327388      3.547975
  H       2.027073     -4.693673      4.188125
101
Coordinates from ORCA-job orca E -2008.224588851455
  C       0.205211      0.219563     -1.257448
  C       0.962109      0.295629      0.022360
  O       1.575426     -0.649911      0.465195
  O       1.061977      1.465732      0.650641
  C      -0.686686      1.379085     -1.603208
  H      -1.657538      1.199883     -1.132895
  H      -0.857064      1.417325     -2.683219
  C       0.140156      2.554823      0.410544
  H      -0.780574      2.294948      0.947782
  C      -0.153543      2.696628     -1.068131
  H      -0.903546      3.476856     -1.208434
  H       0.755549      3.007893     -1.585377
  C      -0.190497     -1.188969     -1.647001
  H       0.639603     -1.830661     -1.354559
  H      -0.287471     -1.260841     -2.734565
  C       1.860202      0.525333     -2.572415
  C       3.087533      0.588487     -1.938930
  H       1.461438      1.442745     -2.984248
  H       1.621369     -0.388903     -3.101672
  C       3.611677      1.921435     -1.560582
  C       3.889373     -0.634055     -1.614389
  O       3.054464      2.954368     -1.849209
  O       4.755141      1.993981     -0.865628
  H       4.535778     -0.875914     -2.469000
  H       3.222747     -1.484985     -1.468382
  C       4.746795     -0.397248     -0.381764
  C       5.581715      0.849676     -0.573094
  H       5.406860     -1.248521     -0.208107
  H       4.107086     -0.282061      0.496783
  H       6.245832      0.715284     -1.437871
  C       0.786947      3.771624      1.044925
  H       1.732333      3.966263      0.529360
  H       1.034428      3.514884      2.079001
  C       6.412241      1.243894      0.635518
  H       5.740942      1.373514      1.490574
  H       6.852494      2.224297      0.432497
  C      -4.192761     -1.596357     -1.607153
  C      -4.431636     -1.986903     -0.146118
  O      -4.039203     -3.040589      0.287285
  O      -5.146200     -1.201631      0.654349
  C      -5.012309     -0.351617     -1.974524
  H      -6.062738     -0.632441     -2.105705
  H      -4.669354      0.030195     -2.939868
  C      -5.506794      0.172719      0.394131
  H      -6.598965      0.159801      0.295787
  C      -4.905768      0.702920     -0.892226
  H      -5.443266      1.608536     -1.178284
  H      -3.862795      0.976865     -0.717296
  C      -4.700515     -2.773206     -2.455071
  H      -4.158955     -3.692203     -2.244173
  H      -4.591064     -2.533603     -3.515347
  C      -2.690528     -1.296861     -1.922447
  C      -1.515440     -1.828853     -1.073854
  H      -2.590482     -0.218861     -1.991907
  H      -2.515638     -1.669557     -2.937312
  C      -1.630014     -1.351375      0.373591
  C      -1.375526     -3.367979     -1.209460
  O      -2.196408     -0.317946      0.651017
  O      -1.042280     -2.036622      1.335745
  H      -0.597395     -3.571016     -1.950558
  H      -2.297242     -3.779022     -1.610188
  C      -1.060482     -4.090194      0.098584
  C      -0.261111     -3.215208      1.036306
  H      -0.511982     -5.011832     -0.103442
  H      -1.991945     -4.356456      0.601242
  H       0.668262     -2.868639      0.573750
  C      -5.112032      0.956164      1.634531
  H      -4.027875      0.873799      1.749129
  H      -5.559884      0.463860      2.502359
  C       0.059866     -3.841644      2.379049
  H      -0.872185     -4.178727      2.844197
  H       0.468210     -3.054898      3.019285
  H      -5.757501     -2.963662     -2.257962
  C      -5.531765      2.420787      1.597644
  H      -6.612841      2.495625      1.433194
  H      -5.056753      2.922922      0.749240
  C       1.049872     -4.997527      2.286780
  H       0.599947     -5.832988      1.742109
  H       1.921739     -4.682837      1.703337
  C      -0.092884      5.016402      1.027720
  H      -1.063245      4.786202      1.482367
  H      -0.298318      5.314445     -0.004367
  C       7.516851      0.248933      0.973471
  H       7.083631     -0.729638      1.199377
  H       8.157364      0.106387      0.096038
  C       8.365357      0.702251      2.154286
  H       9.155297     -0.017848      2.374484
  H       8.838378      1.666588      1.954450
  H       7.756499      0.813559      3.054543
  C       0.552644      6.182657      1.764821
  H       1.516524      6.439086      1.319202
  H      -0.077050      7.073631      1.733086
  H       0.729645      5.935756      2.814336
  C      -5.155940      3.152561      2.879552
  H      -5.444702      4.204407      2.840663
  H      -5.643901      2.702922      3.747437
  H      -4.077409      3.105470      3.049001
  C       1.504550     -5.480461      3.658018
  H       0.653433     -5.798998      4.264696
  H       2.190371     -6.325595      3.575737
  H       2.018217     -4.684477      4.202044
101
Coordinates from ORCA-job orca E -2008.225246903320
  C       0.216482      0.221540     -1.258054
  C       0.966379      0.296583      0.027269
  O       1.579578     -0.648275      0.471320
  O       1.061969      1.465903      0.657516
  C      -0.681963      1.378566     -1.598494
  H      -1.650746      1.194453     -1.126292
  H      -0.855029      1.419005     -2.677927
  C       0.137204      2.552571      0.418129
  H      -0.784046      2.287964      0.952053
  C      -0.153533      2.696932     -1.060607
  H      -0.905786      3.475043     -1.200738
  H       0.755330      3.012408     -1.575919
  C      -0.183036     -1.187959     -1.644045
  H       0.645558     -1.830856     -1.350043
  H      -0.278730     -1.261468     -2.731525
  C       1.847281      0.525375     -2.556123
  C       3.082931      0.587047     -1.929276
  H       1.454763      1.444029     -2.970861
  H       1.611567     -0.385698     -3.092205
  C       3.612951      1.918508     -1.558322
  C       3.885165     -0.636294     -1.611719
  O       3.055740      2.952086     -1.845702
  O       4.762239      1.990168     -0.872496
  H       4.524142     -0.878659     -2.471962
  H       3.219132     -1.486857     -1.460893
  C       4.753394     -0.400581     -0.386557
  C       5.589085      0.844738     -0.585515
  H       5.413054     -1.253172     -0.217991
  H       4.121677     -0.283481      0.497551
  H       6.246259      0.708524     -1.455262
  C       0.776944      3.769727      1.058630
  H       1.723910      3.969936      0.548226
  H       1.020932      3.510874      2.093027
  C       6.429216      1.238498      0.616575
  H       5.764376      1.370183      1.476334
  H       6.869742      2.217887      0.409381
  C      -4.185678     -1.592921     -1.613731
  C      -4.429924     -1.983688     -0.153730
  O      -4.045676     -3.040791      0.278617
  O      -5.150476     -1.200434      0.643216
  C      -5.002793     -0.347203     -1.983837
  H      -6.052603     -0.627372     -2.121080
  H      -4.654577      0.035773     -2.946837
  C      -5.510812      0.173831      0.382297
  H      -6.602341      0.160442      0.277007
  C      -4.901793      0.705795     -0.899506
  H      -5.437055      1.612206     -1.187200
  H      -3.859684      0.978496     -0.717888
  C      -4.692084     -2.768816     -2.463949
  H      -4.151829     -3.688523     -2.252840
  H      -4.579808     -2.528210     -3.523713
  C      -2.682048     -1.294391     -1.923602
  C      -1.508995     -1.825531     -1.071433
  H      -2.581989     -0.216401     -1.992657
  H      -2.503657     -1.666841     -2.937936
  C      -1.626952     -1.346147      0.375133
  C      -1.368893     -3.365047     -1.204287
  O      -2.194544     -0.312726      0.650263
  O      -1.042294     -2.030529      1.339825
  H      -0.589808     -3.569011     -1.944145
  H      -2.290050     -3.776685     -1.605371
  C      -1.055503     -4.085796      0.104957
  C      -0.259771     -3.209306      1.044441
  H      -0.505170     -5.006689     -0.095340
  H      -1.987625     -4.353370      0.605616
  H       0.671338     -2.863310      0.585077
  C      -5.123782      0.955177      1.626302
  H      -4.040452      0.871951      1.747644
  H      -5.577280      0.461787      2.490576
  C       0.055224     -3.834061      2.389359
  H      -0.879759     -4.165313      2.852779
  H       0.465898     -3.048046      3.028987
  H      -5.749745     -2.958482     -2.269738
  C      -5.542216      2.420119      1.589328
  H      -6.622410      2.496065      1.419799
  H      -5.062573      2.923118      0.744085
  C       1.038756     -4.995983      2.302697
  H       0.582544     -5.832314      1.764703
  H       1.911459     -4.690839      1.715412
  C      -0.107742      5.011085      1.042004
  H      -1.079111      4.775270      1.491515
  H      -0.309801      5.312122      0.010119
  C       7.534631      0.242114      0.947653
  H       7.101770     -0.735943      1.176462
  H       8.169571      0.098851      0.066325
  C       8.390870      0.694776      2.123176
  H       9.181923     -0.025684      2.338098
  H       8.862931      1.658979      1.920518
  H       7.787754      0.806096      3.027271
  C       0.529998      6.177170      1.786136
  H       1.494570      6.439311      1.345388
  H      -0.103242      7.065637      1.755293
  H       0.703875      5.926962      2.835381
  C      -5.171698      3.149310      2.874237
  H      -5.458961      4.201561      2.835712
  H      -5.664318      2.698791      3.739007
  H      -4.093994      3.100508      3.048495
  C       1.492773     -5.472588      3.676425
  H       0.640326     -5.779213      4.287354
  H       2.171049     -6.324224      3.599029
  H       2.014210     -4.676865      4.213371
101
Coordinates from ORCA-job orca E -2008.226387385116
  C       0.228810      0.219790     -1.251315
  C       0.969156      0.298243      0.041658
  O       1.582469     -0.643906      0.490640
  O       1.058363      1.468747      0.670389
  C      -0.677169      1.373223     -1.590519
  H      -1.644557      1.186026     -1.117041
  H      -0.851245      1.412265     -2.669775
  C       0.131005      2.552156      0.426322
  H      -0.791538      2.284468      0.956211
  C      -0.154482      2.694064     -1.053526
  H      -0.908826      3.469583     -1.197092
  H       0.754617      3.011939     -1.566882
  C      -0.178387     -1.191398     -1.630534
  H       0.650135     -1.837021     -1.342490
  H      -0.280299     -1.264736     -2.717373
  C       1.827564      0.516057     -2.527549
  C       3.075761      0.576126     -1.909380
  H       1.446535      1.436000     -2.951110
  H       1.598201     -0.391630     -3.072808
  C       3.616492      1.905399     -1.553446
  C       3.877317     -0.648429     -1.599821
  O       3.061909      2.940208     -1.843248
  O       4.773520      1.975951     -0.880058
  H       4.505638     -0.893686     -2.467415
  H       3.211380     -1.497592     -1.440870
  C       4.760314     -0.412830     -0.385300
  C       5.598796      0.828588     -0.596980
  H       5.418282     -1.267733     -0.221748
  H       4.139158     -0.289913      0.505520
  H       6.247053      0.686747     -1.472512
  C       0.762752      3.771941      1.069751
  H       1.712867      3.974562      0.566246
  H       1.000038      3.515345      2.106302
  C       6.451563      1.223521      0.595851
  H       5.794643      1.364373      1.460261
  H       6.896928      2.198749      0.379503
  C      -4.187583     -1.582349     -1.619830
  C      -4.468375     -1.977735     -0.166840
  O      -4.104609     -3.040405      0.269313
  O      -5.195511     -1.190267      0.619762
  C      -4.988276     -0.329024     -2.000490
  H      -6.037257     -0.600418     -2.159885
  H      -4.617815      0.055328     -2.954647
  C      -5.537792      0.188162      0.357536
  H      -6.627193      0.185174      0.231432
  C      -4.899574      0.719173     -0.910168
  H      -5.421333      1.631425     -1.204296
  H      -3.858861      0.982386     -0.707088
  C      -4.688078     -2.748333     -2.487443
  H      -4.165028     -3.676084     -2.271431
  H      -4.550469     -2.502598     -3.543117
  C      -2.676370     -1.282352     -1.900466
  C      -1.503248     -1.824485     -1.051384
  H      -2.578109     -0.203131     -1.940296
  H      -2.486320     -1.627480     -2.922302
  C      -1.614867     -1.346098      0.396148
  C      -1.363447     -3.364459     -1.185141
  O      -2.183299     -0.314252      0.675615
  O      -1.022588     -2.029842      1.356794
  H      -0.589388     -3.567743     -1.930566
  H      -2.286092     -3.776867     -1.578925
  C      -1.039116     -4.085175      0.121506
  C      -0.238901     -3.206766      1.055366
  H      -0.487421     -5.004526     -0.082729
  H      -1.966895     -4.354988      0.628301
  H       0.687831     -2.858622      0.588754
  C      -5.167042      0.960739      1.611905
  H      -4.086506      0.870174      1.750971
  H      -5.637866      0.465648      2.465934
  C       0.085690     -3.831279      2.398198
  H      -0.846604     -4.161766      2.867543
  H       0.501302     -3.045616      3.035141
  H      -5.752080     -2.925600     -2.317418
  C      -5.576421      2.428313      1.576126
  H      -6.653077      2.511102      1.388004
  H      -5.078991      2.933718      0.742663
  C       1.065408     -4.996243      2.305841
  H       0.599954     -5.834102      1.778194
  H       1.932087     -4.697789      1.706686
  C      -0.125457      5.010756      1.045665
  H      -1.099110      4.772341      1.488855
  H      -0.321229      5.310201      0.012086
  C       7.553172      0.221805      0.923806
  H       7.116048     -0.752637      1.159905
  H       8.181603      0.071150      0.039045
  C       8.419583      0.674816      2.091814
  H       9.208090     -0.049081      2.304736
  H       8.895523      1.635574      1.881816
  H       7.822848      0.793317      2.999251
  C       0.503698      6.179529      1.792980
  H       1.470379      6.444348      1.358415
  H      -0.132106      7.066016      1.757019
  H       0.671351      5.930813      2.843634
  C      -5.224923      3.147436      2.872042
  H      -5.507275      4.201141      2.835520
  H      -5.734284      2.693291      3.725165
  H      -4.150490      3.093162      3.064338
  C       1.533622     -5.466802      3.676957
  H       0.686681     -5.763742      4.300293
  H       2.205260     -6.323513      3.597042
  H       2.066462     -4.670802      4.202247
101
Coordinates from ORCA-job orca E -2008.226089211690
  C       0.228855      0.223359     -1.247035
  C       0.972888      0.299674      0.043814
  O       1.586261     -0.643653      0.490106
  O       1.065126      1.469466      0.673436
  C      -0.672653      1.380369     -1.586608
  H      -1.641189      1.197359     -1.113706
  H      -0.845721      1.419850     -2.665978
  C       0.140705      2.555674      0.430233
  H      -0.782377      2.290474      0.960455
  C      -0.145171      2.699061     -1.049495
  H      -0.896854      3.477291     -1.192147
  H       0.764587      3.013767     -1.563399
  C      -0.181959     -1.185640     -1.631417
  H       0.647920     -1.834436     -1.354605
  H      -0.291255     -1.251115     -2.717982
  C       1.830836      0.518398     -2.528999
  C       3.079492      0.573922     -1.912021
  H       1.451637      1.440262     -2.950598
  H       1.598657     -0.388031     -3.075403
  C       3.625019      1.901114     -1.555231
  C       3.878202     -0.653341     -1.605588
  O       3.074096      2.938143     -1.843880
  O       4.782854      1.967167     -0.882897
  H       4.505076     -0.898714     -2.474145
  H       3.210218     -1.501034     -1.447602
  C       4.762856     -0.422221     -0.391342
  C       5.604832      0.817024     -0.601559
  H       5.418517     -1.279239     -0.229783
  H       4.142770     -0.298473      0.500044
  H       6.252575      0.674510     -1.477350
  C       0.776879      3.773374      1.073375
  H       1.726826      3.973116      0.568458
  H       1.014830      3.515734      2.109486
  C       6.458846      1.208149      0.591653
  H       5.802019      1.352841      1.455484
  H       6.909478      2.180893      0.375115
  C      -4.191324     -1.585771     -1.622204
  C      -4.478967     -1.982853     -0.170630
  O      -4.123656     -3.049144      0.263508
  O      -5.212741     -1.198161      0.612648
  C      -4.993041     -0.333676     -2.005600
  H      -6.040380     -0.607535     -2.171042
  H      -4.618397      0.053118     -2.957166
  C      -5.556762      0.179634      0.350396
  H      -6.645458      0.174048      0.218609
  C      -4.913136      0.713506     -0.913214
  H      -5.435568      1.624834     -1.209003
  H      -3.874291      0.979712     -0.703887
  C      -4.685432     -2.750936     -2.494611
  H      -4.168870     -3.680763     -2.273877
  H      -4.536715     -2.505675     -3.548913
  C      -2.680550     -1.274777     -1.892509
  C      -1.504985     -1.819438     -1.047696
  H      -2.589757     -0.194851     -1.909349
  H      -2.485246     -1.598957     -2.920167
  C      -1.616221     -1.338408      0.399017
  C      -1.363155     -3.359485     -1.178028
  O      -2.189570     -0.309085      0.677349
  O      -1.017899     -2.017283      1.359542
  H      -0.590709     -3.563689     -1.924877
  H      -2.285624     -3.774427     -1.567915
  C      -1.034248     -4.075802      0.129950
  C      -0.232070     -3.192901      1.057896
  H      -0.481685     -4.995001     -0.072729
  H      -1.960253     -4.344844      0.640311
  H       0.691218     -2.843690      0.585426
  C      -5.194706      0.952024      1.607473
  H      -4.113793      0.869685      1.749393
  H      -5.664001      0.451265      2.459005
  C       0.100348     -3.812871      2.400921
  H      -0.828629     -4.147443      2.873921
  H       0.513954     -3.023681      3.034760
  H      -5.751776     -2.924175     -2.335474
  C      -5.616935      2.416113      1.573903
  H      -6.693000      2.489165      1.378543
  H      -5.118674      2.929063      0.745573
  C       1.085063     -4.973610      2.307716
  H       0.621887     -5.814340      1.782635
  H       1.948824     -4.672455      1.705947
  C      -0.107557      5.014907      1.050943
  H      -1.080893      4.779570      1.496412
  H      -0.304682      5.314720      0.017741
  C       7.554934      0.200847      0.921111
  H       7.112402     -0.770912      1.158032
  H       8.183076      0.045926      0.036892
  C       8.423089      0.650572      2.089105
  H       9.207084     -0.077650      2.303885
  H       8.904917      1.608119      1.877945
  H       7.826303      0.774105      2.995819
  C       0.526761      6.181931      1.796621
  H       1.493094      6.443958      1.359637
  H      -0.106621      7.070188      1.762138
  H       0.696296      5.932796      2.846852
  C      -5.282302      3.134333      2.874851
  H      -5.577509      4.184573      2.840421
  H      -5.791672      2.670755      3.722860
  H      -4.208652      3.093072      3.074255
  C       1.558842     -5.439928      3.678381
  H       0.714819     -5.739358      4.304447
  H       2.233840     -6.293945      3.598070
  H       2.089755     -4.640853      4.200908
101
Coordinates from ORCA-job orca E -2008.225806235534
  C       0.224091      0.216723     -1.249581
  C       0.968732      0.294345      0.040752
  O       1.582603     -0.648435      0.487668
  O       1.060124      1.464508      0.669802
  C      -0.678759      1.372225     -1.589730
  H      -1.647066      1.187273     -1.117141
  H      -0.851806      1.411491     -2.669147
  C       0.133867      2.549222      0.426847
  H      -0.788424      2.283031      0.958004
  C      -0.153343      2.691835     -1.052748
  H      -0.906494      3.468707     -1.195055
  H       0.755616      3.008107     -1.567120
  C      -0.183208     -1.193300     -1.632922
  H       0.646665     -1.840203     -1.351512
  H      -0.289894     -1.261798     -2.719582
  C       1.831767      0.515579     -2.535578
  C       3.077741      0.575881     -1.915947
  H       1.448200      1.435673     -2.957053
  H       1.600970     -0.392864     -3.079066
  C       3.616198      1.905481     -1.556156
  C       3.879137     -0.648559     -1.604448
  O       3.060550      2.940180     -1.843790
  O       4.771297      1.976079     -0.879713
  H       4.509947     -0.893589     -2.470199
  H       3.212913     -1.497758     -1.447340
  C       4.758442     -0.412941     -0.387234
  C       5.596680      0.829075     -0.595722
  H       5.416579     -1.267400     -0.222200
  H       4.134522     -0.290588      0.501687
  H       6.247262      0.688439     -1.469707
  C       0.768989      3.768053      1.068766
  H       1.717469      3.969724      0.561822
  H       1.009643      3.510699      2.104320
  C       6.446137      1.223557      0.599595
  H       5.786928      1.363076      1.462459
  H       6.891336      2.199295      0.385321
  C      -4.193698     -1.584212     -1.620565
  C      -4.480141     -1.978784     -0.168283
  O      -4.130338     -3.047028      0.265525
  O      -5.208136     -1.189613      0.615738
  C      -4.989711     -0.328459     -2.002770
  H      -6.039157     -0.596583     -2.164282
  H      -4.616092      0.054899     -2.956109
  C      -5.543017      0.190612      0.354104
  H      -6.632118      0.192838      0.225714
  C      -4.899787      0.719351     -0.911945
  H      -5.417342      1.633654     -1.207040
  H      -3.858542      0.978792     -0.706259
  C      -4.696220     -2.747869     -2.490478
  H      -4.178606     -3.678115     -2.273904
  H      -4.554575     -2.501994     -3.545582
  C      -2.681333     -1.283435     -1.896430
  C      -1.506314     -1.827411     -1.050174
  H      -2.584565     -0.204016     -1.926553
  H      -2.489716     -1.619566     -2.920942
  C      -1.614971     -1.346817      0.396676
  C      -1.364421     -3.367419     -1.181730
  O      -2.186817     -0.316880      0.675976
  O      -1.017906     -2.027418      1.356643
  H      -0.591897     -3.570730     -1.928745
  H      -2.286776     -3.782063     -1.572328
  C      -1.035362     -4.085296      0.125310
  C      -0.233493     -3.203906      1.054896
  H      -0.482754     -5.004160     -0.078730
  H      -1.961219     -4.355322      0.635301
  H       0.691171     -2.855532      0.584369
  C      -5.171136      0.960550      1.609866
  H      -4.090971      0.866664      1.750283
  H      -5.644559      0.465745      2.462578
  C       0.096020     -3.825458      2.397936
  H      -0.834472     -4.155963      2.870782
  H       0.512791     -3.038092      3.031975
  H      -5.761562     -2.920336     -2.323969
  C      -5.577109      2.429190      1.575565
  H      -6.653107      2.514359      1.384897
  H      -5.076761      2.935040      0.744146
  C       1.076012     -4.990171      2.304941
  H       0.610051     -5.828657      1.778762
  H       1.941531     -4.692025      1.704207
  C      -0.118058      5.007735      1.048267
  H      -1.090272      4.770174      1.495034
  H      -0.317411      5.307559      0.015500
  C       7.547486      0.222197      0.929471
  H       7.110218     -0.752521      1.164032
  H       8.177985      0.072275      0.046074
  C       8.410999      0.674969      2.099696
  H       9.198991     -0.048927      2.314412
  H       8.887403      1.635782      1.891121
  H       7.812044      0.793227      3.005674
  C       0.514934      6.175755      1.793484
  H       1.480117      6.439906      1.355263
  H      -0.120280      7.062737      1.760264
  H       0.686464      5.926569      2.843370
  C      -5.227992      3.145665      2.873665
  H      -5.509309      4.199655      2.838242
  H      -5.739924      2.690600      3.724729
  H      -4.154160      3.090353      3.068669
  C       1.546723     -5.459273      3.675684
  H       0.701096     -5.756800      4.300473
  H       2.219256     -6.315210      3.595299
  H       2.079484     -4.662357      4.199611
101
Coordinates from ORCA-job orca E -2008.225521606029
  C       0.223083      0.217104     -1.242524
  C       0.972013      0.295264      0.044930
  O       1.587713     -0.647142      0.490140
  O       1.064896      1.465598      0.673523
  C      -0.678610      1.373177     -1.583040
  H      -1.647150      1.189945     -1.109605
  H      -0.852310      1.411287     -2.662370
  C       0.139264      2.551032      0.431303
  H      -0.782222      2.286220      0.964425
  C      -0.150765      2.692657     -1.047941
  H      -0.903291      3.470258     -1.189395
  H       0.757574      3.007482     -1.564388
  C      -0.184658     -1.191735     -1.628068
  H       0.646620     -1.839581     -1.353028
  H      -0.296014     -1.256138     -2.714515
  C       1.833295      0.515657     -2.535591
  C       3.079399      0.573601     -1.918135
  H       1.449083      1.436533     -2.954860
  H       1.599448     -0.392620     -3.078143
  C       3.620624      1.902350     -1.558696
  C       3.879469     -0.652195     -1.608420
  O       3.065128      2.937934     -1.843100
  O       4.775486      1.970635     -0.881782
  H       4.509290     -0.897224     -2.474858
  H       3.212141     -1.500678     -1.451679
  C       4.760044     -0.419082     -0.391552
  C       5.599479      0.822428     -0.598569
  H       5.417508     -1.274425     -0.228488
  H       4.137064     -0.297416      0.498120
  H       6.250253      0.682063     -1.472444
  C       0.776887      3.769790      1.071070
  H       1.724567      3.970000      0.562140
  H       1.019315      3.513026      2.106355
  C       6.448895      1.215287      0.597347
  H       5.789243      1.357100      1.459485
  H       6.896875      2.189719      0.382884
  C      -4.193929     -1.582820     -1.616139
  C      -4.487515     -1.976010     -0.164709
  O      -4.135719     -3.041775      0.273465
  O      -5.219683     -1.186575      0.615159
  C      -4.990337     -0.328892     -2.004246
  H      -6.038342     -0.599194     -2.171334
  H      -4.612105      0.054189     -2.955869
  C      -5.557580      0.191898      0.348941
  H      -6.645951      0.190460      0.214370
  C      -4.908727      0.720447     -0.914208
  H      -5.426869      1.633133     -1.213331
  H      -3.869312      0.982979     -0.703013
  C      -4.689823     -2.748290     -2.487043
  H      -4.176094     -3.679000     -2.263213
  H      -4.538501     -2.505801     -3.541587
  C      -2.681389     -1.277249     -1.885312
  C      -1.506144     -1.826219     -1.042524
  H      -2.586481     -0.197230     -1.901316
  H      -2.487685     -1.600810     -2.913424
  C      -1.611680     -1.347010      0.405385
  C      -1.365343     -3.366137     -1.176490
  O      -2.185507     -0.319015      0.687820
  O      -1.011772     -2.028849      1.362896
  H      -0.594949     -3.568911     -1.925805
  H      -2.288909     -3.780161     -1.564912
  C      -1.032703     -4.085225      0.129026
  C      -0.227557     -3.204477      1.056439
  H      -0.481016     -5.004170     -0.077202
  H      -1.957140     -4.355133      0.641541
  H       0.694500     -2.854735      0.581993
  C      -5.195606      0.965420      1.605226
  H      -4.115912      0.876163      1.751752
  H      -5.671701      0.470399      2.456319
  C       0.108880     -3.827472      2.397085
  H      -0.818212     -4.165834      2.871073
  H       0.521777     -3.038981      3.032254
  H      -5.756894     -2.918406     -2.329331
  C      -5.606960      2.432346      1.565438
  H      -6.681587      2.512954      1.365190
  H      -5.101290      2.938965      0.737711
  C       1.096462     -4.985319      2.298389
  H       0.635655     -5.824507      1.768775
  H       1.959562     -4.678801      1.698496
  C      -0.108677      5.010538      1.051347
  H      -1.079887      4.774917      1.501252
  H      -0.310541      5.309227      0.018744
  C       7.547453      0.211393      0.928881
  H       7.107456     -0.761646      1.165228
  H       8.177526      0.058143      0.045743
  C       8.412324      0.663980      2.098186
  H       9.197869     -0.062042      2.314703
  H       8.892008      1.622685      1.887411
  H       7.813635      0.786395      3.003789
  C       0.527995      6.178756      1.793120
  H       1.492186      6.441084      1.351622
  H      -0.106239      7.066473      1.760602
  H       0.702346      5.930750      2.842823
  C      -5.271977      3.151739      2.865547
  H      -5.558007      4.204354      2.826666
  H      -5.789019      2.695140      3.712697
  H      -4.199578      3.101668      3.069794
  C       1.571196     -5.457412      3.666734
  H       0.728014     -5.763319      4.290787
  H       2.249362     -6.308487      3.582008
  H       2.099090     -4.659333      4.193807
101
Coordinates from ORCA-job orca E -2008.225091590230
  C       0.215939      0.217439     -1.242016
  C       0.971498      0.292045      0.040715
  O       1.587552     -0.652344      0.481519
  O       1.069113      1.461090      0.671039
  C      -0.680628      1.376828     -1.581853
  H      -1.650060      1.196048     -1.109207
  H      -0.853886      1.416772     -2.661197
  C       0.145456      2.549193      0.432962
  H      -0.775348      2.286346      0.968369
  C      -0.148015      2.693876     -1.045338
  H      -0.898699      3.473793     -1.183665
  H       0.760173      3.007054     -1.563132
  C      -0.190442     -1.189309     -1.633418
  H       0.641312     -1.837812     -1.361491
  H      -0.302648     -1.249229     -2.720017
  C       1.841705      0.520751     -2.549294
  C       3.082448      0.578871     -1.928323
  H       1.452004      1.441481     -2.963223
  H       1.603866     -0.388607     -3.087893
  C       3.617157      1.908232     -1.558321
  C       3.882273     -0.646731     -1.615149
  O       3.061011      2.943474     -1.842000
  O       4.769502      1.976640     -0.877415
  H       4.517002     -0.890593     -2.478169
  H       3.214521     -1.495567     -1.462424
  C       4.756007     -0.414233     -0.393299
  C       5.594353      0.829014     -0.594100
  H       5.414076     -1.268707     -0.228240
  H       4.128147     -0.295308      0.493331
  H       6.248591      0.691810     -1.465874
  C       0.788805      3.765358      1.071812
  H       1.733552      3.965191      0.557243
  H       1.037330      3.505625      2.104892
  C       6.438778      1.220143      0.605868
  H       5.776125      1.356013      1.466647
  H       6.883705      2.197098      0.396715
  C      -4.197470     -1.591148     -1.613067
  C      -4.479933     -1.980158     -0.158562
  O      -4.116772     -3.041046      0.282275
  O      -5.208772     -1.189890      0.623687
  C      -5.002531     -0.342778     -2.001341
  H      -6.050356     -0.618951     -2.159552
  H      -4.633183      0.037676     -2.957475
  C      -5.553808      0.186327      0.354433
  H      -6.643295      0.180251      0.229611
  C      -4.918235      0.712058     -0.916769
  H      -5.443551      1.620513     -1.216160
  H      -3.878719      0.981332     -0.715358
  C      -4.691714     -2.762916     -2.476125
  H      -4.170172     -3.689300     -2.251855
  H      -4.548841     -2.523632     -3.532556
  C      -2.687819     -1.282112     -1.890781
  C      -1.511257     -1.826730     -1.048065
  H      -2.594372     -0.201962     -1.912852
  H      -2.496998     -1.611249     -2.917655
  C      -1.618240     -1.347511      0.399677
  C      -1.369524     -3.366402     -1.180801
  O      -2.189609     -0.317947      0.681071
  O      -1.014788     -2.026283      1.357011
  H      -0.599038     -3.569330     -1.929886
  H      -2.293147     -3.781242     -1.569153
  C      -1.036552     -4.084130      0.125361
  C      -0.231158     -3.202577      1.051867
  H      -0.484802     -5.003047     -0.080448
  H      -1.960827     -4.354012      0.638457
  H       0.691129     -2.853863      0.577293
  C      -5.183736      0.966967      1.604034
  H      -4.102635      0.881395      1.742391
  H      -5.651716      0.474732      2.461202
  C       0.105303     -3.823823      2.393272
  H      -0.821836     -4.159461      2.869102
  H       0.520396     -3.034884      3.026397
  H      -5.756519     -2.939412     -2.310690
  C      -5.599884      2.432464      1.560528
  H      -6.676435      2.508765      1.369259
  H      -5.103186      2.936452      0.725808
  C       1.091251     -4.983006      2.295570
  H       0.630157     -5.821323      1.764880
  H       1.955614     -4.677193      1.696960
  C      -0.094976      5.007446      1.060339
  H      -1.063725      4.772361      1.515759
  H      -0.302953      5.308583      0.029671
  C       7.539937      0.218855      0.936479
  H       7.102636     -0.756404      1.168606
  H       8.172289      0.070502      0.054159
  C       8.400866      0.670293      2.109083
  H       9.188122     -0.054010      2.324979
  H       8.878090      1.631101      1.902479
  H       7.799898      0.787984      3.013778
  C       0.548084      6.173191      1.800445
  H       1.509581      6.435362      1.353075
  H      -0.085269      7.061706      1.774265
  H       0.729237      5.922579      2.848352
  C      -5.256057      3.159694      2.853964
  H      -5.545706      4.211168      2.812022
  H      -5.764368      2.705997      3.707898
  H      -4.181856      3.114133      3.049363
  C       1.563570     -5.456208      3.664331
  H       0.719440     -5.762969      4.286627
  H       2.242168     -6.306932      3.579995
  H       2.090377     -4.658527      4.193045
101
Coordinates from ORCA-job orca E -2008.224928138579
  C       0.214480      0.223128     -1.240763
  C       0.977691      0.291250      0.036760
  O       1.594520     -0.656051      0.470434
  O       1.081116      1.457690      0.671079
  C      -0.677323      1.386835     -1.575954
  H      -1.646959      1.208420     -1.102577
  H      -0.852030      1.430406     -2.654913
  C       0.160240      2.549670      0.439994
  H      -0.759544      2.288615      0.978038
  C      -0.138127      2.700174     -1.036732
  H      -0.886410      3.483273     -1.169782
  H       0.769515      3.011819     -1.556518
  C      -0.193404     -1.180008     -1.640360
  H       0.638837     -1.831059     -1.376327
  H      -0.309093     -1.231511     -2.726990
  C       1.849098      0.530338     -2.560973
  C       3.087566      0.584035     -1.940565
  H       1.456713      1.452947     -2.967574
  H       1.605175     -0.377669     -3.098809
  C       3.621413      1.911647     -1.561050
  C       3.884992     -0.644019     -1.629702
  O       3.065433      2.948473     -1.838722
  O       4.772921      1.975740     -0.878545
  H       4.521068     -0.886140     -2.492100
  H       3.215352     -1.492042     -1.481016
  C       4.756669     -0.417458     -0.405301
  C       5.596334      0.826027     -0.599207
  H       5.413826     -1.273118     -0.242888
  H       4.127382     -0.302177      0.480789
  H       6.251859      0.692256     -1.470514
  C       0.810556      3.761546      1.079795
  H       1.752228      3.961479      0.559666
  H       1.065512      3.496779      2.109991
  C       6.439087      1.211115      0.603817
  H       5.775211      1.342921      1.464240
  H       6.884382      2.189025      0.400072
  C      -4.195638     -1.600750     -1.613418
  C      -4.464603     -1.986726     -0.155716
  O      -4.090215     -3.043578      0.285460
  O      -5.197310     -1.201217      0.627841
  C      -5.012933     -0.360254     -2.001665
  H      -6.058957     -0.645915     -2.154499
  H      -4.651232      0.020945     -2.960398
  C      -5.558955      0.169980      0.355171
  H      -6.648711      0.151155      0.234244
  C      -4.933598      0.698167     -0.920083
  H      -5.468369      1.600924     -1.219816
  H      -3.895719      0.977637     -0.723674
  C      -4.683869     -2.780221     -2.469133
  H      -4.155934     -3.702066     -2.240903
  H      -4.544966     -2.545897     -3.527166
  C      -2.690843     -1.281047     -1.897624
  C      -1.513153     -1.820458     -1.054874
  H      -2.603088     -0.200303     -1.916503
  H      -2.500773     -1.608150     -2.925218
  C      -1.625466     -1.337532      0.391206
  C      -1.368397     -3.359933     -1.182860
  O      -2.203027     -0.310435      0.668457
  O      -1.021190     -2.011071      1.351757
  H      -0.596066     -3.563883     -1.929646
  H      -2.290616     -3.777593     -1.571967
  C      -1.037472     -4.072889      0.126460
  C      -0.235436     -3.187357      1.052191
  H      -0.483917     -4.991542     -0.075338
  H      -1.962606     -4.342811      0.638298
  H       0.687515     -2.839093      0.578812
  C      -5.194021      0.959331      1.600888
  H      -4.111585      0.886847      1.736850
  H      -5.653995      0.464680      2.460930
  C       0.099184     -3.803615      2.396269
  H      -0.828018     -4.140229      2.871261
  H       0.510864     -3.011580      3.027674
  H      -5.747083     -2.962728     -2.300182
  C      -5.628337      2.419552      1.553354
  H      -6.705546      2.481388      1.360761
  H      -5.137534      2.927600      0.717649
  C       1.088929     -4.959879      2.304086
  H       0.632928     -5.799807      1.771579
  H       1.955222     -4.651636      1.709426
  C      -0.070408      5.005633      1.079243
  H      -1.036178      4.771329      1.541225
  H      -0.285615      5.310631      0.051214
  C       7.539529      0.208052      0.931162
  H       7.101518     -0.767553      1.160353
  H       8.171596      0.061839      0.048306
  C       8.400947      0.655331      2.104961
  H       9.187212     -0.070509      2.319078
  H       8.879456      1.615990      1.900831
  H       7.800122      0.771571      3.009898
  C       0.581045      6.167508      1.818034
  H       1.539154      6.429544      1.363457
  H      -0.050881      7.057199      1.800444
  H       0.770643      5.912822      2.863425
  C      -5.296179      3.155022      2.845277
  H      -5.600919      4.202046      2.800221
  H      -5.798983      2.696409      3.699804
  H      -4.221832      3.125835      3.042351
  C       1.556158     -5.430923      3.675304
  H       0.710210     -5.740913      4.293452
  H       2.238579     -6.278879      3.594532
  H       2.077155     -4.631093      4.206453
101
Coordinates from ORCA-job orca E -2008.224714689826
  C       0.211392      0.222068     -1.236442
  C       0.983541      0.286290      0.034894
  O       1.603950     -0.662042      0.461460
  O       1.090729      1.450860      0.672151
  C      -0.678994      1.387306     -1.567173
  H      -1.648463      1.208081     -1.092959
  H      -0.855559      1.433549     -2.645740
  C       0.169143      2.543964      0.448674
  H      -0.748141      2.282352      0.990599
  C      -0.136449      2.698731     -1.026212
  H      -0.884768      3.482726     -1.153583
  H       0.769194      3.011304     -1.549136
  C      -0.196579     -1.178042     -1.642294
  H       0.636541     -1.831055     -1.386437
  H      -0.317341     -1.221759     -2.728733
  C       1.853796      0.535693     -2.572414
  C       3.089895      0.588655     -1.952884
  H       1.455847      1.458713     -2.972279
  H       1.605075     -0.372382     -3.107657
  C       3.617980      1.915878     -1.562009
  C       3.887460     -0.639966     -1.643029
  O       3.055342      2.952211     -1.827254
  O       4.766839      1.978745     -0.875236
  H       4.525822     -0.879701     -2.504302
  H       3.217385     -1.488255     -1.498071
  C       4.755742     -0.417430     -0.415563
  C       5.592534      0.829418     -0.600670
  H       5.414861     -1.272171     -0.256269
  H       4.124095     -0.309478      0.469830
  H       6.250243      0.702458     -1.471327
  C       0.823410      3.753897      1.088083
  H       1.759761      3.957967      0.560019
  H       1.088564      3.484931      2.114599
  C       6.431673      1.209576      0.606392
  H       5.766177      1.329759      1.467269
  H       6.870889      2.192037      0.411559
  C      -4.195839     -1.605445     -1.607143
  C      -4.460946     -1.983246     -0.146579
  O      -4.075929     -3.032957      0.302510
  O      -5.195558     -1.195997      0.633310
  C      -5.019249     -0.371096     -2.002366
  H      -6.064085     -0.662546     -2.152448
  H      -4.660243      0.005828     -2.963780
  C      -5.565327      0.171181      0.351857
  H      -6.655118      0.145557      0.232453
  C      -4.944176      0.694455     -0.927500
  H      -5.483719      1.592635     -1.232384
  H      -3.907600      0.980434     -0.734012
  C      -4.679323     -2.793055     -2.453905
  H      -4.146353     -3.710645     -2.219595
  H      -4.542785     -2.565644     -3.513735
  C      -2.692648     -1.283440     -1.896094
  C      -1.513887     -1.821210     -1.054335
  H      -2.604671     -0.202150     -1.916820
  H      -2.504870     -1.612804     -2.923335
  C      -1.625556     -1.337718      0.391804
  C      -1.367356     -3.360307     -1.182253
  O      -2.204585     -0.311730      0.670054
  O      -1.017463     -2.009064      1.351371
  H      -0.595149     -3.563413     -1.929306
  H      -2.289349     -3.779331     -1.571131
  C      -1.034792     -4.072461      0.127078
  C      -0.232733     -3.186218      1.052234
  H      -0.480329     -4.990344     -0.075447
  H      -1.959183     -4.343805      0.639714
  H       0.690396     -2.838792      0.578986
  C      -5.203305      0.970218      1.592139
  H      -4.121045      0.900240      1.730148
  H      -5.663661      0.481068      2.455135
  C       0.102841     -3.801058      2.396593
  H      -0.823731     -4.136274      2.873812
  H       0.516217     -3.008382      3.026090
  H      -5.741365     -2.979649     -2.282161
  C      -5.639746      2.429330      1.533501
  H      -6.716647      2.488179      1.338195
  H      -5.148009      2.932247      0.695262
  C       1.093260     -4.956524      2.304176
  H       0.638920     -5.795566      1.768905
  H       1.960630     -4.646055      1.711844
  C      -0.059596      4.996464      1.100663
  H      -1.020362      4.758972      1.571295
  H      -0.285594      5.304556      0.075873
  C       7.538058      0.210621      0.926044
  H       7.105770     -0.769064      1.148669
  H       8.170273      0.074079      0.041751
  C       8.397655      0.654574      2.102425
  H       9.187897     -0.068463      2.311293
  H       8.870923      1.619130      1.904572
  H       7.796691      0.761493      3.008412
  C       0.597206      6.157082      1.836661
  H       1.549493      6.423318      1.372412
  H      -0.037110      7.045210      1.829565
  H       0.799092      5.898919      2.878895
  C      -5.311303      3.174261      2.820852
  H      -5.617695      4.220436      2.767961
  H      -5.815087      2.720733      3.677505
  H      -4.237308      3.148265      3.020388
  C       1.558006     -5.430129      3.675323
  H       0.711195     -5.743788      4.290423
  H       2.242651     -6.276230      3.594086
  H       2.075705     -4.630511      4.209996
101
Coordinates from ORCA-job orca E -2008.224599692558
  C       0.209606      0.225611     -1.236714
  C       0.987760      0.284516      0.030298
  O       1.609174     -0.666001      0.450859
  O       1.099618      1.446885      0.670758
  C      -0.676780      1.394366     -1.564039
  H      -1.646690      1.216942     -1.090077
  H      -0.853687      1.443659     -2.642449
  C       0.180852      2.543460      0.452637
  H      -0.735674      2.284524      0.997305
  C      -0.128862      2.702685     -1.020854
  H      -0.875037      3.489355     -1.144164
  H       0.776493      3.013893     -1.545204
  C      -0.200097     -1.171438     -1.648995
  H       0.633264     -1.826861     -1.400365
  H      -0.324407     -1.207645     -2.735316
  C       1.860621      0.542767     -2.583490
  C       3.093616      0.593119     -1.962250
  H       1.460203      1.466860     -2.977831
  H       1.607363     -0.364647     -3.117503
  C       3.616071      1.918864     -1.557054
  C       3.889396     -0.637114     -1.653313
  O       3.055293      2.956269     -1.821805
  O       4.764971      1.979192     -0.870390
  H       4.530204     -0.875207     -2.513127
  H       3.217741     -1.484819     -1.512498
  C       4.754054     -0.419314     -0.422626
  C       5.590718      0.828688     -0.600476
  H       5.413326     -1.274321     -0.265300
  H       4.119854     -0.315942      0.461524
  H       6.249659      0.706179     -1.470821
  C       0.842358      3.749772      1.091106
  H       1.775431      3.953174      0.556697
  H       1.114224      3.477319      2.114909
  C       6.428056      1.202788      0.609659
  H       5.761880      1.313792      1.471223
  H       6.863774      2.188315      0.422710
  C      -4.196568     -1.612677     -1.608055
  C      -4.453275     -1.988877     -0.145755
  O      -4.060302     -3.035632      0.303422
  O      -5.189474     -1.204459      0.635487
  C      -5.027225     -0.383080     -2.002659
  H      -6.071064     -0.679805     -2.149157
  H      -4.672993     -0.005613     -2.965606
  C      -5.569502      0.159506      0.352158
  H      -6.659287      0.125812      0.234755
  C      -4.954171      0.684266     -0.929371
  H      -5.498609      1.579508     -1.234078
  H      -3.918298      0.975232     -0.738875
  C      -4.676437     -2.804970     -2.450344
  H      -4.138242     -3.719206     -2.214836
  H      -4.543950     -2.579948     -3.511168
  C      -2.696489     -1.283849     -1.901409
  C      -1.516109     -1.817191     -1.059642
  H      -2.612070     -0.202175     -1.921163
  H      -2.509436     -1.612934     -2.928812
  C      -1.630309     -1.330256      0.385099
  C      -1.366796     -3.356135     -1.183057
  O      -2.213311     -0.305924      0.660631
  O      -1.018411     -1.995873      1.346235
  H      -0.593847     -3.560170     -1.928981
  H      -2.287824     -3.778032     -1.571340
  C      -1.033859     -4.063652      0.128719
  C      -0.233212     -3.173831      1.051679
  H      -0.477929     -4.981179     -0.071174
  H      -1.958025     -4.335158      0.641852
  H       0.690490     -2.827909      0.578539
  C      -5.211609      0.963584      1.590571
  H      -4.128689      0.901470      1.728254
  H      -5.668027      0.472636      2.454616
  C       0.101776     -3.783522      2.398518
  H      -0.824826     -4.115745      2.877703
  H       0.516224     -2.988543      3.024402
  H      -5.737028     -2.996442     -2.275049
  C      -5.659908      2.419197      1.530079
  H      -6.736658      2.468363      1.331410
  H      -5.170279      2.925948      0.692968
  C       1.092127     -4.939320      2.310576
  H       0.639348     -5.778936      1.774894
  H       1.961241     -4.629365      1.720481
  C      -0.037526      4.994433      1.112477
  H      -0.995298      4.758560      1.589921
  H      -0.270558      5.304655      0.089914
  C       7.537707      0.205141      0.921870
  H       7.108531     -0.777318      1.138264
  H       8.169599      0.076342      0.036213
  C       8.396634      0.643821      2.100696
  H       9.188905     -0.078392      2.304573
  H       8.867166      1.610916      1.908901
  H       7.795801      0.743198      3.007612
  C       0.627627      6.152433      1.845051
  H       1.576338      6.417930      1.373170
  H      -0.005182      7.041646      1.844966
  H       0.837847      5.892043      2.885060
  C      -5.343218      3.168138      2.818199
  H      -5.660532      4.210938      2.763721
  H      -5.845099      2.709820      3.673399
  H      -4.269857      3.154152      3.021646
  C       1.552829     -5.411288      3.683638
  H       0.704379     -5.725772      4.296019
  H       2.239005     -6.256391      3.605372
  H       2.067481     -4.610543      4.219537
101
Coordinates from ORCA-job orca E -2008.224569897210
  C       0.210942      0.230289     -1.234729
  C       0.994273      0.286394      0.028729
  O       1.616925     -0.665256      0.445071
  O       1.109370      1.447536      0.670874
  C      -0.673509      1.401148     -1.559187
  H      -1.643148      1.225271     -1.084045
  H      -0.851961      1.451811     -2.637297
  C       0.192232      2.546307      0.456543
  H      -0.723202      2.288982      1.003723
  C      -0.121592      2.707738     -1.015905
  H      -0.866589      3.495956     -1.136225
  H       0.782882      3.017827     -1.542389
  C      -0.201587     -1.164829     -1.650021
  H       0.632094     -1.822221     -1.407948
  H      -0.330048     -1.195742     -2.736027
  C       1.863695      0.547299     -2.589239
  C       3.096960      0.594247     -1.969976
  H       1.462890      1.472628     -2.980196
  H       1.606121     -0.359226     -3.122593
  C       3.621054      1.918274     -1.560527
  C       3.890347     -0.638284     -1.663604
  O       3.055729      2.956410     -1.812228
  O       4.767561      1.974678     -0.869749
  H       4.530826     -0.876049     -2.523694
  H       3.216514     -1.484570     -1.524637
  C       4.754629     -0.425846     -0.431717
  C       5.592116      0.822496     -0.603164
  H       5.413427     -1.281808     -0.277598
  H       4.119934     -0.326368      0.452479
  H       6.252464      0.703440     -1.472901
  C       0.858205      3.750694      1.094107
  H       1.788801      3.954205      0.555487
  H       1.134836      3.476154      2.116054
  C       6.427391      1.190850      0.610135
  H       5.760053      1.295160      1.471635
  H       6.861502      2.178320      0.429900
  C      -4.196372     -1.616166     -1.605600
  C      -4.450774     -1.990396     -0.142400
  O      -4.051577     -3.033803      0.309104
  O      -5.190395     -1.207972      0.637585
  C      -5.032638     -0.391159     -2.003115
  H      -6.074909     -0.693074     -2.150162
  H      -4.679306     -0.013504     -2.966302
  C      -5.580355      0.152265      0.349957
  H      -6.669615      0.110038      0.230291
  C      -4.966064      0.678308     -0.931445
  H      -5.514510      1.570406     -1.238237
  H      -3.931950      0.974719     -0.740009
  C      -4.670327     -2.812808     -2.444866
  H      -4.128698     -3.724189     -2.205880
  H      -4.537595     -2.590565     -3.506232
  C      -2.698001     -1.281406     -1.899409
  C      -1.516156     -1.812428     -1.058359
  H      -2.616563     -0.199407     -1.915994
  H      -2.510635     -1.607828     -2.927555
  C      -1.630909     -1.324734      0.386235
  C      -1.365081     -3.351154     -1.180187
  O      -2.215946     -0.301679      0.662013
  O      -1.013394     -1.986459      1.346508
  H      -0.592974     -3.555190     -1.926912
  H      -2.286227     -3.774807     -1.566599
  C      -1.029192     -4.056338      0.132095
  C      -0.227883     -3.164379      1.052395
  H      -0.472353     -4.973305     -0.067678
  H      -1.952149     -4.328545      0.647121
  H       0.694862     -2.818614      0.577442
  C      -5.231740      0.961892      1.587319
  H      -4.148780      0.908576      1.728135
  H      -5.686629      0.469263      2.451227
  C       0.110197     -3.771383      2.399677
  H      -0.815083     -4.102477      2.882184
  H       0.526470     -2.975077      3.022658
  H      -5.730292     -3.008046     -2.269973
  C      -5.692020      2.413563      1.522373
  H      -6.767789      2.452912      1.316267
  H      -5.201238      2.923728      0.688023
  C       1.100927     -4.926778      2.311517
  H       0.648399     -5.766632      1.776001
  H       1.969640     -4.616162      1.721101
  C      -0.020122      4.996349      1.121455
  H      -0.975687      4.761129      1.603572
  H      -0.258075      5.307919      0.100446
  C       7.538375      0.193165      0.917450
  H       7.110528     -0.791188      1.127806
  H       8.171133      0.070461      0.031564
  C       8.395479      0.626351      2.099628
  H       9.188473     -0.095942      2.300365
  H       8.864912      1.595126      1.913782
  H       7.793523      0.719807      3.006419
  C       0.650098      6.152882      1.851718
  H       1.596181      6.418414      1.374635
  H       0.017861      7.042483      1.856429
  H       0.866092      5.891048      2.890167
  C      -5.391280      3.166555      2.811910
  H      -5.719053      4.205957      2.754509
  H      -5.894145      2.703711      3.664084
  H      -4.319275      3.164101      3.022718
  C       1.562400     -5.398407      3.684435
  H       0.714435     -5.714183      4.296809
  H       2.249728     -6.242534      3.605942
  H       2.075988     -4.597070      4.220459
101
Coordinates from ORCA-job orca E -2008.224460325144
  C       0.207839      0.227780     -1.234755
  C       0.996857      0.281347      0.024411
  O       1.622030     -0.670978      0.435758
  O       1.114486      1.441066      0.668571
  C      -0.675150      1.399520     -1.557095
  H      -1.645160      1.223494     -1.081954
  H      -0.853986      1.451619     -2.635106
  C       0.198807      2.541751      0.457875
  H      -0.714985      2.286877      1.008860
  C      -0.120348      2.704785     -1.013280
  H      -0.864834      3.493980     -1.130338
  H       0.783017      3.014620     -1.541979
  C      -0.203989     -1.164969     -1.654734
  H       0.630103     -1.823611     -1.417410
  H      -0.335368     -1.190713     -2.740562
  C       1.870167      0.550202     -2.600842
  C       3.099629      0.597306     -1.979017
  H       1.464676      1.475359     -2.987068
  H       1.609708     -0.356906     -3.131641
  C       3.615732      1.920855     -1.555976
  C       3.893455     -0.635330     -1.672943
  O       3.049776      2.958815     -1.806719
  O       4.761024      1.976981     -0.863480
  H       4.537257     -0.870548     -2.531137
  H       3.219280     -1.482067     -1.538113
  C       4.752719     -0.425787     -0.437222
  C       5.587719      0.825315     -0.600639
  H       5.413250     -1.280657     -0.284353
  H       4.114415     -0.332126      0.445078
  H       6.250343      0.712059     -1.469419
  C       0.870841      3.744596      1.091815
  H       1.798038      3.946795      0.546550
  H       1.154030      3.469266      2.111729
  C       6.419381      1.189008      0.616535
  H       5.750586      1.281669      1.478246
  H       6.847644      2.180612      0.445326
  C      -4.197460     -1.616557     -1.606699
  C      -4.449773     -1.991338     -0.143288
  O      -4.050303     -3.035278      0.306847
  O      -5.189069     -1.209953      0.637898
  C      -5.033745     -0.391175     -2.002849
  H      -6.076070     -0.692960     -2.149828
  H      -4.680700     -0.012697     -2.965813
  C      -5.582101      0.149431      0.350426
  H      -6.671142      0.104771      0.229472
  C      -4.967432      0.677225     -0.930036
  H      -5.515877      1.569612     -1.235960
  H      -3.933371      0.973379     -0.737844
  C      -4.672888     -2.812949     -2.445534
  H      -4.130341     -3.724171     -2.207992
  H      -4.542352     -2.590189     -3.507058
  C      -2.699183     -1.283408     -1.903003
  C      -1.517042     -1.813085     -1.061648
  H      -2.615982     -0.201126     -1.922710
  H      -2.513230     -1.613408     -2.930252
  C      -1.630517     -1.321166      0.381266
  C      -1.364680     -3.351874     -1.179966
  O      -2.223542     -0.302487      0.655977
  O      -1.011884     -1.980051      1.342788
  H      -0.592959     -3.556955     -1.926817
  H      -2.285691     -3.777389     -1.564647
  C      -1.026701     -4.053590      0.133659
  C      -0.226281     -3.158620      1.051859
  H      -0.468359     -4.969854     -0.064997
  H      -1.948710     -4.326832      0.649829
  H       0.696670     -2.813599      0.576776
  C      -5.237273      0.958966      1.588863
  H      -4.154614      0.907380      1.732150
  H      -5.693307      0.465024      2.451436
  C       0.112248     -3.761298      2.400971
  H      -0.812674     -4.089954      2.885790
  H       0.529672     -2.962873      3.020518
  H      -5.732426     -3.008623     -2.268550
  C      -5.700749      2.409685      1.523825
  H      -6.775628      2.446376      1.312564
  H      -5.207360      2.922306      0.692523
  C       1.103817     -4.916172      2.316223
  H       0.653527     -5.756679      1.779899
  H       1.973919     -4.604794      1.728052
  C      -0.005279      4.991704      1.124674
  H      -0.958148      4.758219      1.612926
  H      -0.249240      5.303385      0.105116
  C       7.535934      0.195245      0.916462
  H       7.113641     -0.793522      1.117219
  H       8.170537      0.084386      0.030352
  C       8.388622      0.622573      2.103965
  H       9.185516     -0.096895      2.299355
  H       8.852583      1.595801      1.927925
  H       7.784645      0.703923      3.010585
  C       0.671411      6.147435      1.850222
  H       1.614518      6.411724      1.366606
  H       0.040300      7.037827      1.858996
  H       0.893982      5.885546      2.887262
  C      -5.408640      3.161765      2.815884
  H      -5.740197      4.199969      2.758449
  H      -5.913820      2.695717      3.664937
  H      -4.337684      3.163395      3.031915
  C       1.561940     -5.386587      3.690684
  H       0.712765     -5.705044      4.299977
  H       2.252111     -6.228609      3.614521
  H       2.071152     -4.583739      4.228634
101
Coordinates from ORCA-job orca E -2008.224444780783
  C       0.207878      0.233567     -1.233057
  C       1.001302      0.284389      0.022911
  O       1.626901     -0.669308      0.430760
  O       1.122926      1.442990      0.668190
  C      -0.671646      1.408146     -1.553769
  H      -1.641714      1.234924     -1.078078
  H      -0.851303      1.461230     -2.631630
  C       0.211264      2.547439      0.459542
  H      -0.701877      2.297130      1.013673
  C      -0.111701      2.711491     -1.010620
  H      -0.854076      3.502963     -1.125463
  H       0.791333      3.018859     -1.541305
  C      -0.206920     -1.157450     -1.655988
  H       0.626684     -1.818178     -1.422840
  H      -0.339862     -1.178609     -2.741716
  C       1.875446      0.555089     -2.606244
  C       3.103291      0.599308     -1.983676
  H       1.469512      1.481034     -2.989706
  H       1.611120     -0.351565     -3.135649
  C       3.618449      1.921274     -1.553438
  C       3.894545     -0.635348     -1.678355
  O       3.051941      2.960152     -1.798968
  O       4.762155      1.974251     -0.858354
  H       4.539378     -0.870568     -2.535659
  H       3.218136     -1.480647     -1.545891
  C       4.751448     -0.430060     -0.440332
  C       5.587583      0.821052     -0.597894
  H       5.411236     -1.285727     -0.288765
  H       4.111157     -0.339125      0.440813
  H       6.251753      0.710438     -1.465804
  C       0.890995      3.747774      1.089982
  H       1.815829      3.946632      0.539365
  H       1.178831      3.471427      2.108284
  C       6.417078      1.179805      0.622209
  H       5.747368      1.264966      1.483969
  H       6.842645      2.173658      0.457702
  C      -4.198085     -1.622222     -1.603057
  C      -4.440567     -1.994602     -0.137495
  O      -4.027305     -3.032331      0.314645
  O      -5.181174     -1.216162      0.645430
  C      -5.044449     -0.403902     -1.999692
  H      -6.084949     -0.713656     -2.142888
  H      -4.697107     -0.025150     -2.964594
  C      -5.589657      0.137825      0.353844
  H      -6.678411      0.081086      0.235260
  C      -4.983025      0.667531     -0.929612
  H      -5.539242      1.554929     -1.235975
  H      -3.950709      0.972024     -0.741216
  C      -4.667315     -2.824758     -2.436480
  H      -4.116145     -3.730775     -2.198426
  H      -4.542923     -2.604095     -3.499165
  C      -2.703369     -1.281371     -1.904194
  C      -1.520254     -1.807669     -1.063053
  H      -2.624110     -0.198862     -1.924050
  H      -2.517942     -1.611503     -2.931471
  C      -1.637976     -1.318069      0.380346
  C      -1.367535     -3.346188     -1.180870
  O      -2.228396     -0.298069      0.655347
  O      -1.011336     -1.972145      1.339986
  H      -0.597270     -3.551283     -1.929124
  H      -2.289401     -3.772355     -1.563325
  C      -1.026291     -4.046625      0.132597
  C      -0.224929     -3.150051      1.048333
  H      -0.467031     -4.962082     -0.066929
  H      -1.946889     -4.321137      0.650883
  H       0.696637     -2.804566      0.571100
  C      -5.251573      0.955238      1.588959
  H      -4.168268      0.915298      1.731517
  H      -5.701765      0.459602      2.453616
  C       0.117768     -3.750623      2.397335
  H      -0.805576     -4.077106      2.886576
  H       0.538592     -2.951345      3.013469
  H      -5.724427     -3.028584     -2.254442
  C      -5.731013      2.400640      1.519417
  H      -6.805636      2.424293      1.305107
  H      -5.241379      2.916876      0.688167
  C       1.108519     -4.906020      2.311245
  H       0.657488     -5.746086      1.774889
  H       1.978222     -4.594496      1.722517
  C       0.019434      4.997942      1.127133
  H      -0.931949      4.767817      1.619824
  H      -0.228223      5.310479      0.108748
  C       7.536007      0.187166      0.917012
  H       7.116205     -0.804147      1.110259
  H       8.172175      0.084285      0.031088
  C       8.385543      0.608690      2.108827
  H       9.184045     -0.109909      2.300696
  H       8.847091      1.584369      1.940314
  H       7.779796      0.682094      3.014926
  C       0.703411      6.151361      1.849499
  H       1.644817      6.412883      1.361133
  H       0.075062      7.043642      1.861592
  H       0.930296      5.888608      2.885359
  C      -5.451858      3.159201      2.810589
  H      -5.796780      4.192839      2.749911
  H      -5.953342      2.688550      3.659277
  H      -4.381739      3.175570      3.029740
  C       1.567578     -5.377197      3.685121
  H       0.718950     -5.697255      4.294300
  H       2.258705     -6.218303      3.607978
  H       2.075978     -4.574282      4.223707
101
Coordinates from ORCA-job orca E -2008.224430756051
  C       0.209463      0.232946     -1.231500
  C       1.003899      0.283564      0.023850
  O       1.630003     -0.670173      0.430837
  O       1.126180      1.441866      0.669369
  C      -0.670289      1.407611     -1.551235
  H      -1.640027      1.235027     -1.074217
  H      -0.851284      1.460242     -2.628901
  C       0.216949      2.548126      0.460128
  H      -0.695687      2.301134      1.016475
  C      -0.108422      2.710870     -1.009676
  H      -0.850194      3.503007     -1.123924
  H       0.794190      3.017033     -1.541956
  C      -0.206632     -1.157396     -1.654580
  H       0.627097     -1.818871     -1.424031
  H      -0.341947     -1.177285     -2.740055
  C       1.875055      0.553205     -2.605270
  C       3.103482      0.595937     -1.983075
  H       1.470230      1.479791     -2.988535
  H       1.610184     -0.352939     -3.135468
  C       3.619453      1.916996     -1.551364
  C       3.893870     -0.639637     -1.679454
  O       3.055216      2.956775     -1.798622
  O       4.764139      1.968549     -0.857869
  H       4.538063     -0.874604     -2.537323
  H       3.216749     -1.484478     -1.547475
  C       4.751426     -0.436240     -0.441595
  C       5.588589      0.814312     -0.598542
  H       5.410715     -1.292530     -0.291250
  H       4.111398     -0.345656      0.439829
  H       6.252335      0.703651     -1.466787
  C       0.901038      3.747883      1.086982
  H       1.825335      3.943032      0.534035
  H       1.190074      3.472819      2.105305
  C       6.418906      1.171552      0.621451
  H       5.749719      1.256264      1.483681
  H       6.845046      2.165275      0.457626
  C      -4.199204     -1.618125     -1.604354
  C      -4.449557     -1.994081     -0.140839
  O      -4.041276     -3.034199      0.310308
  O      -5.192610     -1.216818      0.640873
  C      -5.040809     -0.396683     -2.001717
  H      -6.081008     -0.703849     -2.152533
  H      -4.686681     -0.015218     -2.963083
  C      -5.601263      0.137018      0.349426
  H      -6.688902      0.078872      0.221258
  C      -4.984472      0.670769     -0.927303
  H      -5.536992      1.560379     -1.234044
  H      -3.952943      0.972616     -0.730293
  C      -4.668487     -2.817073     -2.443006
  H      -4.121933     -3.725767     -2.204886
  H      -4.538432     -2.594140     -3.504538
  C      -2.702532     -1.278056     -1.899831
  C      -1.518963     -1.806147     -1.059669
  H      -2.622657     -0.195356     -1.914404
  H      -2.515804     -1.603613     -2.928324
  C      -1.633034     -1.313855      0.383042
  C      -1.365946     -3.344808     -1.175975
  O      -2.229213     -0.297447      0.658856
  O      -1.004549     -1.967003      1.342342
  H      -0.598050     -3.550571     -1.926535
  H      -2.288728     -3.771884     -1.554562
  C      -1.019956     -4.043276      0.137388
  C      -0.217536     -3.144449      1.050037
  H      -0.459853     -4.958174     -0.062542
  H      -1.938711     -4.318613      0.658324
  H       0.702269     -2.798146      0.570027
  C      -5.275622      0.951330      1.589810
  H      -4.193442      0.914321      1.741240
  H      -5.731348      0.451445      2.449111
  C       0.129910     -3.742825      2.398761
  H      -0.791295     -4.071249      2.890744
  H       0.550359     -2.941801      3.012916
  H      -5.727204     -3.017520     -2.266401
  C      -5.759502      2.395333      1.520908
  H      -6.831327      2.415707      1.292620
  H      -5.261065      2.917292      0.698505
  C       1.123752     -4.895429      2.311065
  H       0.674458     -5.736610      1.774971
  H       1.991826     -4.581078      1.721374
  C       0.032880      5.000463      1.123117
  H      -0.918517      4.773780      1.617390
  H      -0.215126      5.311960      0.104489
  C       7.537311      0.177899      0.914983
  H       7.116962     -0.813407      1.107145
  H       8.173337      0.075765      0.028869
  C       8.387182      0.597762      2.107171
  H       9.185083     -0.121666      2.298540
  H       8.849575      1.573196      1.939427
  H       7.781421      0.670972      3.013300
  C       0.720733      6.153270      1.842809
  H       1.662271      6.411490      1.352918
  H       0.094697      7.047215      1.854081
  H       0.948001      5.891636      2.878875
  C      -5.500556      3.148766      2.819255
  H      -5.850143      4.180895      2.759237
  H      -6.010519      2.671325      3.659074
  H      -4.433473      3.169698      3.052351
  C       1.585917     -5.365761      3.684202
  H       0.739019     -5.688973      4.294150
  H       2.279804     -6.204504      3.605827
  H       2.092232     -4.561393      4.222616
101
Coordinates from ORCA-job orca E -2008.224430716304
  C       0.206750      0.228207     -1.234524
  C       0.999991      0.279256      0.021540
  O       1.626089     -0.674206      0.429169
  O       1.120598      1.437663      0.667287
  C      -0.674064      1.401812     -1.554864
  H      -1.644127      1.227295     -1.079221
  H      -0.853753      1.454989     -2.632728
  C       0.208604      2.541780      0.458571
  H      -0.704191      2.291469      1.013256
  C      -0.115078      2.705525     -1.011513
  H      -0.858109      3.496447     -1.126051
  H       0.787646      3.013664     -1.542400
  C      -0.207054     -1.162654     -1.657524
  H       0.626903     -1.823126     -1.424877
  H      -0.341229     -1.183977     -2.743118
  C       1.874351      0.551655     -2.607954
  C       3.101816      0.597741     -1.984601
  H       1.467142      1.477064     -2.991613
  H       1.611438     -0.355555     -3.137297
  C       3.614545      1.920500     -1.553963
  C       3.894548     -0.635777     -1.678451
  O       3.046332      2.958450     -1.799611
  O       4.757590      1.975261     -0.857973
  H       4.540393     -0.870360     -2.535172
  H       3.219098     -1.481917     -1.546287
  C       4.749982     -0.429002     -0.439664
  C       5.584506      0.823260     -0.596802
  H       5.410857     -1.283696     -0.287234
  H       4.108607     -0.338714      0.440804
  H       6.249434      0.713440     -1.464254
  C       0.888547      3.742449      1.088138
  H       1.812772      3.941371      0.536455
  H       1.177468      3.466437      2.106240
  C       6.412667      1.183382      0.623824
  H       5.742436      1.266570      1.485395
  H       6.836075      2.178269      0.459970
  C      -4.200263     -1.618487     -1.604262
  C      -4.449618     -1.992162     -0.140058
  O      -4.046246     -3.034317      0.310841
  O      -5.189295     -1.211670      0.641581
  C      -5.038972     -0.394959     -2.001047
  H      -6.080652     -0.698978     -2.147971
  H      -4.686671     -0.016310     -2.964207
  C      -5.589779      0.144930      0.351307
  H      -6.678334      0.093998      0.228234
  C      -4.975453      0.674065     -0.928654
  H      -5.525793      1.565111     -1.235088
  H      -3.942189      0.972530     -0.735811
  C      -4.674892     -2.816809     -2.440835
  H      -4.129028     -3.726333     -2.204295
  H      -4.548046     -2.594396     -3.502865
  C      -2.702785     -1.284163     -1.903360
  C      -1.519069     -1.811440     -1.062721
  H      -2.619908     -0.201757     -1.925112
  H      -2.518208     -1.616207     -2.930186
  C      -1.631509     -1.318327      0.379676
  C      -1.366055     -3.350148     -1.178864
  O      -2.227128     -0.301427      0.655109
  O      -1.005456     -1.972687      1.339616
  H      -0.597392     -3.555940     -1.928644
  H      -2.288467     -3.777040     -1.558672
  C      -1.021574     -4.049083      0.134600
  C      -0.219622     -3.151151      1.048522
  H      -0.461761     -4.964200     -0.065148
  H      -1.940864     -4.324169      0.654628
  H       0.701577     -2.805985      0.570205
  C      -5.252395      0.957751      1.589578
  H      -4.169947      0.911806      1.736267
  H      -5.708544      0.462549      2.451366
  C       0.124128     -3.750165      2.397939
  H      -0.799093     -4.073936      2.889218
  H       0.547547     -2.950659      3.012030
  H      -5.733362     -3.015285     -2.260620
  C      -5.723823      2.405809      1.521503
  H      -6.797537      2.435829      1.303430
  H      -5.228345      2.921243      0.693214
  C       1.112570     -4.907566      2.312280
  H       0.659294     -5.747579      1.777722
  H       1.982154     -4.598529      1.722012
  C       0.016617      4.992362      1.125750
  H      -0.934531      4.761884      1.618747
  H      -0.231476      5.304948      0.107476
  C       7.533674      0.193093      0.918727
  H       7.116047     -0.799410      1.110651
  H       8.170876      0.092610      0.033269
  C       8.381140      0.615553      2.111704
  H       9.181152     -0.101360      2.303684
  H       8.840566      1.592477      1.944488
  H       7.774363      0.686724      3.017315
  C       0.700405      6.145910      1.848109
  H       1.641587      6.407846      1.359506
  H       0.071721      7.037976      1.860498
  H       0.927625      5.883070      2.883883
  C      -5.444810      3.159730      2.815360
  H      -5.783831      4.195412      2.756022
  H      -5.951702      2.689800      3.661244
  H      -4.375299      3.169533      3.037995
  C       1.572431     -5.377571      3.686296
  H       0.723953     -5.695605      4.296769
  H       2.262269     -6.219796      3.609555
  H       2.082530     -4.574652      4.223295
101
Coordinates from ORCA-job orca E -2008.224410410230
  C       0.208506      0.231930     -1.234041
  C       1.006750      0.281034      0.018457
  O       1.634565     -0.673096      0.422125
  O       1.129795      1.438265      0.665744
  C      -0.671127      1.406802     -1.551503
  H      -1.640445      1.232951     -1.074043
  H      -0.853112      1.460908     -2.628944
  C       0.220297      2.545016      0.459629
  H      -0.690933      2.297845      1.018172
  C      -0.108808      2.709389     -1.009205
  H      -0.851268      3.501264     -1.120610
  H       0.792367      3.016643     -1.543079
  C      -0.207012     -1.157544     -1.659301
  H       0.626303     -1.819568     -1.429020
  H      -0.342016     -1.175926     -2.744850
  C       1.879906      0.556761     -2.615588
  C       3.106652      0.600587     -1.992987
  H       1.470887      1.482733     -2.995778
  H       1.613710     -0.350024     -3.143774
  C       3.619733      1.921882     -1.557288
  C       3.897962     -0.634698     -1.689344
  O       3.046394      2.959952     -1.789985
  O       4.759788      1.973251     -0.856406
  H       4.544179     -0.868076     -2.546005
  H       3.220899     -1.479925     -1.559641
  C       4.751824     -0.432927     -0.448626
  C       5.586371      0.820156     -0.598663
  H       5.412648     -1.288117     -0.298824
  H       4.108946     -0.347007      0.431117
  H       6.252887      0.714488     -1.465373
  C       0.906233      3.744285      1.085478
  H       1.827662      3.941206      0.528482
  H       1.200168      3.467741      2.101966
  C       6.412129      1.174718      0.625183
  H       5.740970      1.249627      1.486779
  H       6.832485      2.172036      0.468638
  C      -4.198197     -1.620550     -1.606030
  C      -4.440657     -1.995934     -0.141238
  O      -4.031886     -3.037134      0.307092
  O      -5.181737     -1.219626      0.643253
  C      -5.042208     -0.399828     -2.000106
  H      -6.082834     -0.707811     -2.146211
  H      -4.692651     -0.018499     -2.963178
  C      -5.593366      0.133664      0.353042
  H      -6.681393      0.074150      0.228960
  C      -4.982053      0.667811     -0.926183
  H      -5.536249      1.557092     -1.230740
  H      -3.949856      0.969898     -0.733423
  C      -4.670436     -2.820397     -2.441774
  H      -4.118481     -3.727213     -2.208696
  H      -4.549498     -2.596157     -3.504101
  C      -2.702681     -1.282723     -1.908071
  C      -1.519734     -1.806672     -1.065254
  H      -2.621564     -0.200153     -1.933070
  H      -2.517745     -1.617944     -2.933806
  C      -1.636729     -1.312147      0.376189
  C      -1.366736     -3.345494     -1.178430
  O      -2.235858     -0.296871      0.649594
  O      -1.010160     -1.963554      1.337855
  H      -0.598358     -3.552666     -1.928090
  H      -2.289536     -3.772956     -1.556990
  C      -1.022192     -4.042037      0.136395
  C      -0.222676     -3.141651      1.049997
  H      -0.460518     -4.956266     -0.061905
  H      -1.941466     -4.318501      0.655954
  H       0.698820     -2.796354      0.572707
  C      -5.264087      0.948570      1.592106
  H      -4.181453      0.911745      1.740338
  H      -5.717266      0.448876      2.452853
  C       0.120697     -3.737110      2.401033
  H      -0.802235     -4.060671      2.892944
  H       0.542981     -2.935414      3.013050
  H      -5.726986     -3.024685     -2.257047
  C      -5.748950      2.392355      1.524231
  H      -6.821493      2.411918      1.299364
  H      -5.253559      2.914313      0.700013
  C       1.111904     -4.892279      2.318726
  H       0.662634     -5.733353      1.782508
  H       1.982728     -4.580727      1.731515
  C       0.036867      4.995833      1.127457
  H      -0.912833      4.766834      1.623913
  H      -0.214525      5.309575      0.110357
  C       7.535884      0.185799      0.914306
  H       7.121182     -0.809531      1.097692
  H       8.174805      0.094398      0.029124
  C       8.379966      0.601682      2.111970
  H       9.181911     -0.114144      2.299796
  H       8.836539      1.581319      1.953177
  H       7.771424      0.663829      3.017044
  C       0.725433      6.147654      1.848030
  H       1.665121      6.408384      1.355961
  H       0.098262      7.040714      1.863509
  H       0.956143      5.883632      2.882708
  C      -5.486608      3.146659      2.821413
  H      -5.837370      4.178394      2.761901
  H      -5.993466      2.669220      3.663075
  H      -4.418856      3.168839      3.051146
  C       1.568235     -5.361217      3.694266
  H       0.718712     -5.683471      4.301013
  H       2.262117     -6.200277      3.619741
  H       2.072566     -4.556448      4.233893
101
Coordinates from ORCA-job orca E -2008.224402597594
  C       0.208711      0.233108     -1.230529
  C       1.007033      0.282845      0.021924
  O       1.633872     -0.671514      0.426670
  O       1.131331      1.440400      0.668159
  C      -0.669698      1.408657     -1.548979
  H      -1.638952      1.237019     -1.070498
  H      -0.852528      1.461219     -2.626382
  C       0.226084      2.550005      0.459122
  H      -0.685240      2.308490      1.019835
  C      -0.104469      2.711314     -1.009679
  H      -0.845456      3.504467     -1.121881
  H       0.796846      3.015827     -1.545036
  C      -0.208250     -1.156264     -1.654794
  H       0.624643     -1.818914     -1.424658
  H      -0.343461     -1.174838     -2.740320
  C       1.880540      0.554535     -2.612057
  C       3.106902      0.596715     -1.988474
  H       1.473415      1.480963     -2.993058
  H       1.613583     -0.352017     -3.140346
  C       3.620566      1.917182     -1.551136
  C       3.896453     -0.639558     -1.684501
  O       3.053099      2.956757     -1.791669
  O       4.762500      1.967433     -0.853318
  H       4.542695     -0.873829     -2.540910
  H       3.218283     -1.483938     -1.554997
  C       4.750218     -0.438446     -0.443658
  C       5.587090      0.812962     -0.595064
  H       5.409610     -1.294644     -0.293204
  H       4.107073     -0.350584      0.435773
  H       6.252987      0.705078     -1.462007
  C       0.917862      3.748638      1.079687
  H       1.839522      3.939225      0.520696
  H       1.211681      3.474708      2.096925
  C       6.414226      1.167323      0.627901
  H       5.743692      1.245084      1.489736
  H       6.836974      2.163367      0.469672
  C      -4.200589     -1.617708     -1.603697
  C      -4.447291     -1.995173     -0.140023
  O      -4.035963     -3.034861      0.309449
  O      -5.189682     -1.219784      0.644105
  C      -5.043986     -0.396911     -1.999106
  H      -6.083787     -0.705337     -2.150241
  H      -4.690568     -0.013764     -2.960051
  C      -5.605855      0.131641      0.352079
  H      -6.692935      0.067703      0.221599
  C      -4.989309      0.668936     -0.923163
  H      -5.543034      1.558297     -1.228458
  H      -3.958288      0.971509     -0.725107
  C      -4.670072     -2.816644     -2.442309
  H      -4.118042     -3.723532     -2.209611
  H      -4.546994     -2.590597     -3.504023
  C      -2.704310     -1.278418     -1.901982
  C      -1.521178     -1.804380     -1.060303
  H      -2.623739     -0.195667     -1.922771
  H      -2.518229     -1.609514     -2.928850
  C      -1.636385     -1.312008      0.382117
  C      -1.369088     -3.343120     -1.175287
  O      -2.234739     -0.297089      0.658424
  O      -1.004459     -1.962917      1.340777
  H      -0.604126     -3.549765     -1.928589
  H      -2.293720     -3.770134     -1.549650
  C      -1.018299     -4.040338      0.137544
  C      -0.216105     -3.139488      1.048313
  H      -0.456259     -4.953734     -0.063672
  H      -1.935086     -4.318296      0.660612
  H       0.702578     -2.792325      0.566954
  C      -5.287539      0.947000      1.593553
  H      -4.205626      0.915600      1.747807
  H      -5.742944      0.444231      2.451349
  C       0.135011     -3.735618      2.397055
  H      -0.784570     -4.063371      2.892481
  H       0.557115     -2.933291      3.008399
  H      -5.726903     -3.021913     -2.260169
  C      -5.779623      2.388267      1.523824
  H      -6.849835      2.402176      1.287555
  H      -5.278446      2.914697      0.705973
  C       1.130055     -4.887024      2.308406
  H       0.682177     -5.728219      1.771165
  H       1.997836     -4.570538      1.719398
  C       0.053800      5.003998      1.117750
  H      -0.896941      4.780573      1.614787
  H      -0.196081      5.315675      0.099631
  C       7.535628      0.176027      0.918144
  H       7.118513     -0.818002      1.103143
  H       8.174070      0.081801      0.032901
  C       8.381142      0.591854      2.114834
  H       9.181125     -0.125861      2.303926
  H       8.840464      1.569883      1.953956
  H       7.772963      0.657556      3.019921
  C       0.747077      6.155145      1.834911
  H       1.688139      6.410135      1.342430
  H       0.123761      7.050973      1.847153
  H       0.976100      5.893464      2.870572
  C      -5.535440      3.141075      2.825344
  H      -5.892308      4.170662      2.764510
  H      -6.048003      2.658432      3.660583
  H      -4.470302      3.169668      3.066334
  C       1.592528     -5.358211      3.681138
  H       0.746249     -5.685886      4.289537
  H       2.289735     -6.194092      3.601848
  H       2.095255     -4.552966      4.221583
101
Coordinates from ORCA-job orca E -2008.224412422618
  C       0.205823      0.229842     -1.231927
  C       1.002299      0.280171      0.021737
  O       1.628718     -0.673909      0.427769
  O       1.125404      1.438131      0.667572
  C      -0.672749      1.404910     -1.552021
  H      -1.642784      1.232530     -1.075552
  H      -0.853384      1.457669     -2.629790
  C       0.217745      2.545741      0.458405
  H      -0.694280      2.301283      1.016792
  C      -0.109758      2.707857     -1.010964
  H      -0.851241      3.500377     -1.124458
  H       0.792487      3.013442     -1.544184
  C      -0.209685     -1.160086     -1.655947
  H       0.623566     -1.821960     -1.424620
  H      -0.344208     -1.179446     -2.741560
  C       1.878952      0.552510     -2.611455
  C       3.104350      0.597757     -1.986340
  H       1.470669      1.477824     -2.993852
  H       1.613950     -0.355112     -3.138880
  C       3.614720      1.919897     -1.550065
  C       3.895702     -0.636558     -1.679177
  O       3.047274      2.958272     -1.795717
  O       4.756821      1.973601     -0.852715
  H       4.543266     -0.871331     -2.534463
  H       3.218956     -1.481936     -1.548729
  C       4.748066     -0.431286     -0.438092
  C       5.583179      0.820985     -0.592043
  H       5.408567     -1.286172     -0.285020
  H       4.104194     -0.342077      0.440713
  H       6.249330      0.712187     -1.458696
  C       0.905631      3.745070      1.081821
  H       1.827933      3.938471      0.524750
  H       1.198304      3.470452      2.099210
  C       6.409753      1.179063      0.630232
  H       5.739032      1.257620      1.491860
  H       6.831035      2.175424      0.470026
  C      -4.202302     -1.619213     -1.601764
  C      -4.448314     -1.993272     -0.137132
  O      -4.037702     -3.032331      0.314442
  O      -5.188116     -1.214460      0.646005
  C      -5.044919     -0.398304     -1.998359
  H      -6.085677     -0.705547     -2.145292
  H      -4.693857     -0.018595     -2.961537
  C      -5.597466      0.139048      0.353640
  H      -6.685556      0.081074      0.229220
  C      -4.984826      0.670776     -0.925956
  H      -5.538099      1.560099     -1.232168
  H      -3.952620      0.972363     -0.732887
  C      -4.673959     -2.819344     -2.437353
  H      -4.122489     -3.726233     -2.203177
  H      -4.551701     -2.595658     -3.499668
  C      -2.705851     -1.282750     -1.902579
  C      -1.522299     -1.809013     -1.061497
  H      -2.623668     -0.200214     -1.926497
  H      -2.521397     -1.616618     -2.928851
  C      -1.636228     -1.318289      0.381594
  C      -1.370315     -3.347604     -1.178386
  O      -2.230698     -0.301283      0.658897
  O      -1.004269     -1.970524      1.339147
  H      -0.604470     -3.553311     -1.931040
  H      -2.294508     -3.774084     -1.554711
  C      -1.020754     -4.046693      0.133684
  C      -0.217506     -3.147849      1.045479
  H      -0.459794     -4.960541     -0.068516
  H      -1.937892     -4.324078      0.656376
  H       0.701830     -2.801410      0.564631
  C      -5.267174      0.954950      1.591647
  H      -4.184767      0.915984      1.740249
  H      -5.721733      0.457530      2.453014
  C       0.131745     -3.746049      2.393837
  H      -0.789246     -4.069661      2.889372
  H       0.557611     -2.945889      3.005428
  H      -5.730793     -3.023227     -2.253699
  C      -5.748221      2.399768      1.521389
  H      -6.820821      2.422069      1.296894
  H      -5.251549      2.918941      0.696174
  C       1.121017     -4.902425      2.304868
  H       0.668052     -5.741988      1.769342
  H       1.989477     -4.591165      1.714116
  C       0.038919      4.998606      1.120025
  H      -0.911716      4.772867      1.616216
  H      -0.210896      5.310454      0.101941
  C       7.532606      0.190025      0.922494
  H       7.116955     -0.804247      1.109521
  H       8.171163      0.094903      0.037427
  C       8.377525      0.609388      2.118373
  H       9.178700     -0.106688      2.308661
  H       8.835224      1.587897      1.955754
  H       7.769302      0.675680      3.023396
  C       0.729378      6.150674      1.838428
  H       1.670194      6.408012      1.346686
  H       0.104221      7.045226      1.850975
  H       0.958364      5.888732      2.874039
  C      -5.482600      3.155153      2.817152
  H      -5.829915      4.188003      2.756317
  H      -5.990500      2.680648      3.659872
  H      -4.414517      3.173830      3.046014
  C       1.583155     -5.374309      3.677474
  H       0.736028     -5.696447      4.287663
  H       2.275527     -6.214206      3.598263
  H       2.091156     -4.571129      4.216072
101
Coordinates from ORCA-job orca E -2008.224422591116
  C       0.203628      0.226793     -1.235248
  C       0.999695      0.276886      0.018569
  O       1.626551     -0.677058      0.424244
  O       1.121640      1.434633      0.665119
  C      -0.675187      1.401509     -1.555673
  H      -1.645756      1.227942     -1.080746
  H      -0.854235      1.455191     -2.633655
  C       0.211479      2.540456      0.457149
  H      -0.700798      2.292609      1.013777
  C      -0.114217      2.704357     -1.012439
  H      -0.856424      3.496186     -1.125994
  H       0.788399      3.011436     -1.544124
  C      -0.210210     -1.163225     -1.660288
  H       0.623319     -1.824530     -1.428366
  H      -0.344161     -1.182599     -2.745976
  C       1.879645      0.552584     -2.615397
  C       3.103972      0.600728     -1.989220
  H       1.468896      1.476812     -2.997803
  H       1.616070     -0.356073     -3.141700
  C       3.611743      1.924427     -1.554155
  C       3.897319     -0.631833     -1.679765
  O       3.040994      2.961231     -1.798627
  O       4.752320      1.980841     -0.854519
  H       4.546401     -0.866354     -2.533937
  H       3.221943     -1.478271     -1.549124
  C       4.747619     -0.423577     -0.437761
  C       5.580595      0.830050     -0.591942
  H       5.409394     -1.277099     -0.282624
  H       4.102473     -0.334460      0.440092
  H       6.247837      0.721769     -1.457809
  C       0.895727      3.740200      1.083763
  H       1.817989      3.937201      0.527930
  H       1.188286      3.464134      2.100781
  C       6.405282      1.190537      0.630896
  H       5.733602      1.268445      1.491841
  H       6.824864      2.187558      0.470417
  C      -4.202401     -1.621321     -1.603334
  C      -4.445003     -1.994121     -0.137910
  O      -4.036979     -3.034772      0.312402
  O      -5.181860     -1.213605      0.646293
  C      -5.044385     -0.399467     -1.997900
  H      -6.086314     -0.705064     -2.139765
  H      -4.696915     -0.021602     -2.963103
  C      -5.585125      0.142337      0.356282
  H      -6.674189      0.090105      0.238342
  C      -4.977362      0.670845     -0.927131
  H      -5.530217      1.560838     -1.232054
  H      -3.943617      0.970650     -0.739438
  C      -4.678023     -2.821232     -2.437050
  H      -4.126964     -3.728603     -2.203937
  H      -4.558401     -2.598157     -3.499785
  C      -2.706266     -1.287560     -1.907925
  C      -1.522702     -1.812643     -1.066281
  H      -2.622793     -0.205252     -1.936331
  H      -2.523383     -1.625688     -2.933093
  C      -1.636921     -1.320613      0.376174
  C      -1.370634     -3.351345     -1.182184
  O      -2.230842     -0.302805      0.651777
  O      -1.008527     -1.973599      1.335446
  H      -0.602753     -3.557549     -1.932631
  H      -2.293808     -3.777700     -1.561178
  C      -1.025201     -4.050384      0.130998
  C      -0.223087     -3.152378      1.044604
  H      -0.464895     -4.964970     -0.069597
  H      -1.943970     -4.326500      0.651586
  H       0.698254     -2.807675      0.566340
  C      -5.242817      0.956756      1.592133
  H      -4.159800      0.911100      1.734503
  H      -5.695521      0.462521      2.456290
  C       0.120714     -3.750287      2.394502
  H      -0.802892     -4.069039      2.888297
  H       0.548522     -2.951066      3.005960
  H      -5.734589     -3.023772     -2.250465
  C      -5.714905      2.404613      1.524392
  H      -6.789661      2.434046      1.311439
  H      -5.223558      2.919133      0.693097
  C       1.105146     -4.911105      2.309963
  H       0.649445     -5.749972      1.775711
  H       1.976052     -4.605185      1.719973
  C       0.025917      4.991508      1.123987
  H      -0.924285      4.762481      1.619467
  H      -0.224387      5.304621      0.106419
  C       7.529655      0.203755      0.924860
  H       7.115654     -0.791124      1.112267
  H       8.169084      0.109126      0.040381
  C       8.372855      0.625412      2.121119
  H       9.175131     -0.089118      2.312498
  H       8.828942      1.604616      1.958245
  H       7.763799      0.691208      3.025605
  C       0.713354      6.143921      1.844718
  H       1.653658      6.404500      1.353725
  H       0.086029      7.036919      1.858784
  H       0.942709      5.880612      2.879893
  C      -5.429958      3.160252      2.815963
  H      -5.769783      4.195678      2.756996
  H      -5.932533      2.691112      3.664839
  H      -4.359390      3.170851      3.033375
  C       1.562658     -5.381648      3.684572
  H       0.712928     -5.698520      4.293888
  H       2.251388     -6.224837      3.608818
  H       2.073104     -4.579408      4.222245
101
Coordinates from ORCA-job orca E -2008.224427594495
  C       0.200343      0.222712     -1.235820
  C       0.996541      0.272773      0.017671
  O       1.624067     -0.680975      0.422861
  O       1.117429      1.430229      0.664965
  C      -0.678152      1.397299     -1.556879
  H      -1.649149      1.223268     -1.083124
  H      -0.855982      1.451457     -2.635044
  C       0.206307      2.535359      0.457317
  H      -0.706244      2.286084      1.013056
  C      -0.118250      2.700063     -1.012439
  H      -0.860747      3.491593     -1.126112
  H       0.784648      3.007859     -1.543216
  C      -0.211896     -1.167294     -1.661965
  H       0.621711     -1.828176     -1.429076
  H      -0.344658     -1.186636     -2.747816
  C       1.881422      0.551889     -2.618229
  C       3.103950      0.603563     -1.990505
  H       1.467446      1.474664     -3.000605
  H       1.619360     -0.358244     -3.142650
  C       3.608593      1.929259     -1.557156
  C       3.899627     -0.626823     -1.677866
  O       3.035820      2.964406     -1.803680
  O       4.748091      1.989220     -0.856127
  H       4.550616     -0.861262     -2.530571
  H       3.225910     -1.474496     -1.546719
  C       4.747410     -0.414268     -0.434853
  C       5.578347      0.840503     -0.590589
  H       5.410344     -1.266252     -0.276456
  H       4.100595     -0.324199      0.441663
  H       6.246522      0.731805     -1.455658
  C       0.889120      3.735282      1.085246
  H       1.811333      3.933566      0.529846
  H       1.181594      3.458685      2.102155
  C       6.401395      1.204806      0.632199
  H       5.728874      1.284056      1.492351
  H       6.820047      2.201888      0.469675
  C      -4.203673     -1.623359     -1.602802
  C      -4.442560     -1.993787     -0.136290
  O      -4.034705     -3.034451      0.314223
  O      -5.176067     -1.210885      0.648718
  C      -5.046179     -0.401647     -1.996599
  H      -6.088999     -0.706668     -2.133024
  H      -4.702719     -0.026389     -2.964261
  C      -5.575168      0.146542      0.359190
  H      -6.665094      0.098563      0.247901
  C      -4.973070      0.671061     -0.928655
  H      -5.526399      1.560920     -1.233094
  H      -3.938081      0.970131     -0.746792
  C      -4.681776     -2.824188     -2.433752
  H      -4.129696     -3.731202     -2.201404
  H      -4.565350     -2.602071     -3.497056
  C      -2.708011     -1.291849     -1.911001
  C      -1.524957     -1.816947     -1.069083
  H      -2.623288     -0.209801     -1.943393
  H      -2.526550     -1.633507     -2.935253
  C      -1.639783     -1.326049      0.373634
  C      -1.374575     -3.355766     -1.185904
  O      -2.230753     -0.306499      0.649145
  O      -1.013694     -1.980780      1.333116
  H      -0.605907     -3.562324     -1.935433
  H      -2.297944     -3.780510     -1.566586
  C      -1.032225     -4.056506      0.127160
  C      -0.229835     -3.160578      1.042516
  H      -0.473170     -4.971810     -0.073494
  H      -1.952218     -4.331519      0.646306
  H       0.692648     -2.817048      0.565667
  C      -5.221680      0.961559      1.591607
  H      -4.138019      0.910805      1.727492
  H      -5.671640      0.471260      2.459443
  C       0.111084     -3.759648      2.392620
  H      -0.813971     -4.075578      2.885504
  H       0.540580     -2.961617      3.004442
  H      -5.737729     -3.026711     -2.243872
  C      -5.686385      2.411770      1.524169
  H      -6.763238      2.446925      1.323098
  H      -5.201246      2.920815      0.685882
  C       1.092340     -4.923228      2.309417
  H       0.634825     -5.761082      1.775131
  H       1.964710     -4.620050      1.720087
  C       0.018104      4.985709      1.126262
  H      -0.932223      4.755214      1.620832
  H      -0.231784      5.299710      0.108878
  C       7.526628      0.219994      0.929567
  H       7.113545     -0.774793      1.119373
  H       8.166686      0.123664      0.045717
  C       8.368803      0.645663      2.125129
  H       9.171455     -0.067762      2.318993
  H       8.824315      1.624699      1.959693
  H       7.759184      0.713630      3.029069
  C       0.703975      6.137959      1.848740
  H       1.644552      6.399696      1.358902
  H       0.075980      7.030468      1.863041
  H       0.932545      5.873831      2.883875
  C      -5.382277      3.169817      2.809964
  H      -5.715422      4.207427      2.751241
  H      -5.878679      2.706965      3.665889
  H      -4.309289      3.173358      3.015385
  C       1.547150     -5.394398      3.684705
  H       0.695921     -5.709179      4.293003
  H       2.234017     -6.239202      3.610095
  H       2.058678     -4.593175      4.222835
101
Coordinates from ORCA-job orca E -2008.224430680400
  C       0.200408      0.221630     -1.236260
  C       0.996494      0.271129      0.017320
  O       1.623782     -0.682931      0.422173
  O       1.116978      1.428168      0.665472
  C      -0.678018      1.396452     -1.556732
  H      -1.648870      1.222354     -1.082753
  H      -0.856133      1.451093     -2.634824
  C       0.206165      2.533591      0.457987
  H      -0.706569      2.284104      1.013326
  C      -0.118072      2.698950     -1.011777
  H      -0.860518      3.490578     -1.125120
  H       0.784808      3.006955     -1.542425
  C      -0.211914     -1.168308     -1.662676
  H       0.621494     -1.829301     -1.429442
  H      -0.344296     -1.187854     -2.748571
  C       1.881478      0.551470     -2.618433
  C       3.104121      0.603768     -1.990932
  H       1.467106      1.474076     -3.000814
  H       1.619990     -0.358817     -3.142911
  C       3.609246      1.929938     -1.559681
  C       3.900413     -0.626144     -1.677939
  O       3.035907      2.964745     -1.806310
  O       4.748769      1.990620     -0.858732
  H       4.551350     -0.860536     -2.530688
  H       3.227263     -1.474155     -1.546299
  C       4.748456     -0.412440     -0.435251
  C       5.579245      0.842248     -0.592299
  H       5.411415     -1.264265     -0.276145
  H       4.101834     -0.321529      0.441304
  H       6.247224      0.732855     -1.457427
  C       0.888633      3.733247      1.086860
  H       1.811186      3.931849      0.532215
  H       1.180428      3.456162      2.103823
  C       6.402521      1.207946      0.629908
  H       5.730048      1.289338      1.489886
  H       6.821970      2.204395      0.465540
  C      -4.203829     -1.623612     -1.604310
  C      -4.442618     -1.994571     -0.137946
  O      -4.036300     -3.036236      0.311630
  O      -5.175330     -1.211487      0.647644
  C      -5.045733     -0.401233     -1.997341
  H      -6.088762     -0.705632     -2.133472
  H      -4.702461     -0.025842     -2.965009
  C      -5.573421      0.146421      0.358961
  H      -6.663428      0.099399      0.248233
  C      -4.971636      0.671028     -0.928994
  H      -5.524653      1.561255     -1.232867
  H      -3.936415      0.969543     -0.747468
  C      -4.682977     -2.823670     -2.435768
  H      -4.131855     -3.731350     -2.203927
  H      -4.566303     -2.601150     -3.498951
  C      -2.708069     -1.292522     -1.912443
  C      -1.525241     -1.817417     -1.070107
  H      -2.623352     -0.210518     -1.945088
  H      -2.526454     -1.634442     -2.936594
  C      -1.640166     -1.325574      0.372268
  C      -1.374994     -3.356333     -1.186104
  O      -2.232021     -0.306341      0.646983
  O      -1.015624     -1.980491      1.332675
  H      -0.606126     -3.563398     -1.935297
  H      -2.298352     -3.780963     -1.566813
  C      -1.033632     -4.056655      0.127492
  C      -0.231797     -3.160596      1.043245
  H      -0.474633     -4.972188     -0.072323
  H      -1.954116     -4.331216      0.646003
  H       0.691232     -2.817557      0.567038
  C      -5.218549      0.960747      1.591476
  H      -4.134766      0.909381      1.726500
  H      -5.668086      0.470378      2.459465
  C       0.107633     -3.759287      2.393873
  H      -0.818039     -4.074675      2.885944
  H       0.536859     -2.961225      3.005824
  H      -5.739149     -3.025235     -2.246082
  C      -5.682541      2.411266      1.524898
  H      -6.759638      2.447055      1.325328
  H      -5.198300      2.920142      0.685988
  C       1.088260     -4.923472      2.312001
  H       0.630593     -5.761363      1.777906
  H       1.961191     -4.621232      1.723077
  C       0.017442      4.983539      1.128043
  H      -0.933341      4.752530      1.621502
  H      -0.231494      5.298311      0.110658
  C       7.527077      0.222891      0.929070
  H       7.113275     -0.771122      1.121273
  H       8.166752      0.124042      0.045222
  C       8.370102      0.650582      2.123308
  H       9.172139     -0.063148      2.318525
  H       8.826502      1.628768      1.955351
  H       7.760921      0.721281      3.027323
  C       0.702471      6.135304      1.852061
  H       1.643648      6.397317      1.363533
  H       0.074481      7.027806      1.866190
  H       0.929828      5.870494      2.887284
  C      -5.376319      3.169120      2.810358
  H      -5.708836      4.206942      2.752084
  H      -5.871912      2.706608      3.666932
  H      -4.303079      3.171949      3.014372
  C       1.541859     -5.394128      3.687872
  H       0.690030     -5.707999      4.295795
  H       2.228229     -6.239420      3.614226
  H       2.053559     -4.592922      4.225859
101
Coordinates from ORCA-job orca E -2008.224419389163
  C       0.199825      0.214839     -1.232355
  C       0.995729      0.263382      0.021531
  O       1.623649     -0.690699      0.425351
  O       1.114604      1.419386      0.671789
  C      -0.678916      1.389901     -1.551368
  H      -1.649316      1.215240     -1.076830
  H      -0.857950      1.445698     -2.629230
  C       0.204022      2.524995      0.464672
  H      -0.709091      2.274519      1.018918
  C      -0.119280      2.691940     -1.005060
  H      -0.861899      3.483550     -1.117561
  H       0.783465      3.000996     -1.535327
  C      -0.213482     -1.175018     -1.658750
  H       0.618919     -1.836888     -1.424009
  H      -0.344299     -1.195058     -2.744848
  C       1.879485      0.546608     -2.613485
  C       3.102445      0.603855     -1.986812
  H       1.462803      1.467510     -2.997350
  H       1.621293     -0.365217     -3.136966
  C       3.605855      1.932939     -1.562871
  C       3.903124     -0.622559     -1.671332
  O       3.031565      2.965678     -1.815858
  O       4.747477      1.999340     -0.865762
  H       4.553762     -0.856856     -2.524403
  H       3.233485     -1.472729     -1.536290
  C       4.753005     -0.401561     -0.431105
  C       5.580991      0.853899     -0.596016
  H       5.417671     -1.251504     -0.269000
  H       4.107979     -0.307475      0.446325
  H       6.246978      0.741718     -1.462279
  C       0.884806      3.724261      1.096014
  H       1.808108      3.924521      0.543324
  H       1.175070      3.446179      2.113175
  C       6.406487      1.227392      0.622231
  H       5.735478      1.315785      1.482635
  H       6.826532      2.222266      0.449792
  C      -4.205999     -1.623683     -1.603128
  C      -4.446436     -1.990629     -0.136014
  O      -4.041975     -3.031717      0.316518
  O      -5.176544     -1.203270      0.647791
  C      -5.047043     -0.401759     -1.999760
  H      -6.090435     -0.705796     -2.134065
  H      -4.704267     -0.030057     -2.969021
  C      -5.570897      0.155032      0.355813
  H      -6.661386      0.111294      0.248456
  C      -4.971109      0.674159     -0.935356
  H      -5.524194      1.563491     -1.241651
  H      -3.935617      0.973117     -0.756654
  C      -4.685051     -2.825313     -2.432194
  H      -4.134697     -3.732936     -2.198020
  H      -4.567268     -2.605208     -3.495805
  C      -2.709586     -1.295045     -1.910583
  C      -1.528523     -1.822508     -1.067611
  H      -2.623324     -0.213124     -1.943939
  H      -2.527743     -1.637418     -2.934573
  C      -1.644058     -1.333937      0.375934
  C      -1.381361     -3.361503     -1.186537
  O      -2.231730     -0.312738      0.652434
  O      -1.020340     -1.991483      1.335030
  H      -0.613471     -3.568415     -1.936688
  H      -2.306149     -3.783381     -1.567204
  C      -1.040756     -4.065174      0.125475
  C      -0.238017     -3.172151      1.043469
  H      -0.482791     -4.980883     -0.076260
  H      -1.961710     -4.339787      0.643083
  H       0.685745     -2.829832      0.568157
  C      -5.208834      0.972160      1.584293
  H      -4.124810      0.916832      1.715332
  H      -5.657039      0.486767      2.455765
  C       0.099401     -3.774075      2.393126
  H      -0.827417     -4.087474      2.884316
  H       0.530763     -2.978307      3.006546
  H      -5.741494     -3.025777     -2.243040
  C      -5.666231      2.424512      1.514087
  H      -6.744833      2.465100      1.323833
  H      -5.186640      2.926607      0.668450
  C       1.075974     -4.941566      2.309802
  H       0.614724     -5.777657      1.775993
  H       1.949323     -4.642437      1.719910
  C       0.012069      4.973457      1.137382
  H      -0.939700      4.740260      1.627893
  H      -0.234647      5.289817      0.119945
  C       7.530938      0.243849      0.926524
  H       7.116772     -0.748060      1.128580
  H       8.168013      0.136652      0.041754
  C       8.377963      0.680949      2.114498
  H       9.179663     -0.032123      2.313552
  H       8.835128      1.656995      1.936488
  H       7.771578      0.760423      3.019654
  C       0.693886      6.124793      1.865053
  H       1.636356      6.388259      1.379775
  H       0.065089      7.016749      1.878515
  H       0.918497      5.858732      2.900558
  C      -5.343996      3.187246      2.792638
  H      -5.670372      4.226873      2.731752
  H      -5.834645      2.732442      3.656168
  H      -4.268832      3.183957      2.986620
  C       1.529404     -5.414304      3.685051
  H       0.677119     -5.725168      4.293887
  H       2.212467     -6.262176      3.610381
  H       2.044796     -4.615224      4.222691
101
Coordinates from ORCA-job orca E -2008.224426965477
  C       0.200686      0.216711     -1.236087
  C       0.996460      0.265245      0.017800
  O       1.623755     -0.689094      0.421988
  O       1.116014      1.421509      0.667502
  C      -0.677579      1.391927     -1.555690
  H      -1.648294      1.217625     -1.081578
  H      -0.856025      1.447448     -2.633670
  C       0.205741      2.527372      0.460113
  H      -0.707438      2.277611      1.014646
  C      -0.117620      2.693923     -1.009696
  H      -0.859973      3.485712     -1.122575
  H       0.785299      3.002387     -1.539976
  C      -0.212621     -1.172982     -1.662515
  H       0.619815     -1.834815     -1.428172
  H      -0.344002     -1.192922     -2.748529
  C       1.881226      0.547200     -2.617350
  C       3.103993      0.603196     -1.990147
  H       1.465265      1.468480     -3.001202
  H       1.622033     -0.364382     -3.140748
  C       3.607597      1.931482     -1.563733
  C       3.903114     -0.624221     -1.674616
  O       3.032634      2.964666     -1.813369
  O       4.747749      1.996245     -0.864110
  H       4.554312     -0.858883     -2.527128
  H       3.232215     -1.473587     -1.540712
  C       4.751553     -0.405323     -0.433060
  C       5.580321      0.850060     -0.594739
  H       5.415719     -1.255731     -0.271437
  H       4.105400     -0.312430      0.443646
  H       6.247698      0.738988     -1.460102
  C       0.887559      3.726483      1.090703
  H       1.810597      3.926009      0.537257
  H       1.178401      3.448516      2.107709
  C       6.404005      1.221100      0.625557
  H       5.731881      1.305997      1.485455
  H       6.822970      2.217016      0.456668
  C      -4.205285     -1.623057     -1.605507
  C      -4.444721     -1.993533     -0.139109
  O      -4.040867     -3.036235      0.310290
  O      -5.174995     -1.208531      0.646837
  C      -5.045517     -0.399532     -1.998509
  H      -6.089091     -0.702467     -2.133765
  H      -4.702404     -0.025133     -2.966623
  C      -5.570149      0.150231      0.358254
  H      -6.660426      0.105807      0.249204
  C      -4.969064      0.673129     -0.930778
  H      -5.521263      1.563862     -1.234627
  H      -3.933312      0.970544     -0.750514
  C      -4.686216     -2.822311     -2.437090
  H      -4.136394     -3.730875     -2.205732
  H      -4.569432     -2.599671     -3.500249
  C      -2.708953     -1.294126     -1.913515
  C      -1.527088     -1.820326     -1.070649
  H      -2.622905     -0.212236     -1.946943
  H      -2.527459     -1.636838     -2.937428
  C      -1.641873     -1.328652      0.371738
  C      -1.378780     -3.359444     -1.186736
  O      -2.232674     -0.308820      0.646492
  O      -1.018409     -1.984417      1.332275
  H      -0.610531     -3.567362     -1.936300
  H      -2.302948     -3.782703     -1.566921
  C      -1.038236     -4.060491      0.126719
  C      -0.236039     -3.165633      1.043371
  H      -0.479895     -4.976385     -0.073205
  H      -1.959206     -4.334508      0.644675
  H       0.688017     -2.824078      0.568081
  C      -5.211090      0.964211      1.589813
  H      -4.127193      0.909981      1.722805
  H      -5.660290      0.475476      2.458886
  C       0.100770     -3.765025      2.394350
  H      -0.826295     -4.076907      2.886027
  H       0.532456     -2.968246      3.006235
  H      -5.742646     -3.022428     -2.247319
  C      -5.671060      2.416001      1.523374
  H      -6.748888      2.454880      1.328444
  H      -5.188903      2.922413      0.681782
  C       1.076985     -4.933006      2.313594
  H       0.615921     -5.769800      1.780708
  H       1.950886     -4.634998      1.723978
  C       0.015800      4.976378      1.132229
  H      -0.935648      4.744234      1.623862
  H      -0.231697      5.292338      0.114866
  C       7.529254      0.237961      0.928311
  H       7.116061     -0.755206      1.126120
  H       8.167935      0.134780      0.044234
  C       8.373623      0.671944      2.119321
  H       9.176071     -0.040609      2.317126
  H       8.829571      1.649359      1.945768
  H       7.765564      0.747100      3.023722
  C       0.699211      6.127583      1.858639
  H       1.641185      6.390355      1.372052
  H       0.070950      7.019894      1.872574
  H       0.924924      5.861788      2.893972
  C      -5.356809      3.174582      2.806472
  H      -5.685987      4.213462      2.748165
  H      -5.850199      2.714976      3.665871
  H      -4.282653      3.173897      3.005677
  C       1.529186     -5.403707      3.689908
  H       0.676347     -5.713561      4.298473
  H       2.212247     -6.251745      3.617108
  H       2.044152     -4.603845      4.226773
101
Coordinates from ORCA-job orca E -2008.224424374843
  C       0.200972      0.222937     -1.233479
  C       0.998776      0.272680      0.018982
  O       1.626908     -0.681146      0.423082
  O       1.120491      1.429900      0.666500
  C      -0.677342      1.397941     -1.553503
  H      -1.647894      1.224316     -1.078642
  H      -0.856390      1.452144     -2.631459
  C       0.210354      2.536003      0.459424
  H      -0.701641      2.288103      1.016576
  C      -0.116158      2.700500     -1.009911
  H      -0.858484      3.492345     -1.122606
  H       0.786144      3.007840     -1.541969
  C      -0.212149     -1.166829     -1.659852
  H       0.621226     -1.828245     -1.427607
  H      -0.345263     -1.185605     -2.745695
  C       1.881724      0.551732     -2.617657
  C       3.104439      0.603841     -1.990626
  H       1.467051      1.474175     -3.000050
  H       1.619465     -0.358768     -3.141315
  C       3.608797      1.929600     -1.557086
  C       3.900620     -0.626372     -1.678450
  O       3.035840      2.964688     -1.803475
  O       4.748761      1.989793     -0.856865
  H       4.551318     -0.860499     -2.531439
  H       3.227181     -1.474255     -1.547065
  C       4.748876     -0.413763     -0.435796
  C       5.579423      0.841220     -0.591825
  H       5.412138     -1.265581     -0.277802
  H       4.102450     -0.324046      0.441049
  H       6.247182      0.732746     -1.457251
  C       0.895333      3.735545      1.085742
  H       1.817004      3.932494      0.528968
  H       1.188831      3.459262      2.102427
  C       6.403087      1.205422      0.630556
  H       5.731076      1.284058      1.491173
  H       6.821231      2.202735      0.468145
  C      -4.203644     -1.623250     -1.602098
  C      -4.443123     -1.993413     -0.135633
  O      -4.034721     -3.033609      0.315463
  O      -5.177302     -1.210684      0.648901
  C      -5.046944     -0.402397     -1.997048
  H      -6.089335     -0.708388     -2.134626
  H      -4.702771     -0.027038     -2.964406
  C      -5.579058      0.145647      0.357843
  H      -6.668746      0.095431      0.244923
  C      -4.976025      0.670632     -0.929298
  H      -5.529870      1.559918     -1.234483
  H      -3.941575      0.970619     -0.746264
  C      -4.679846     -2.824744     -2.433014
  H      -4.126788     -3.731119     -2.200101
  H      -4.562922     -2.602727     -3.496295
  C      -2.708035     -1.291116     -1.909445
  C      -1.525497     -1.816498     -1.067188
  H      -2.623548     -0.209028     -1.941589
  H      -2.526026     -1.632452     -2.933728
  C      -1.640762     -1.326848      0.376066
  C      -1.375743     -3.355269     -1.185023
  O      -2.231309     -0.307376      0.652678
  O      -1.013887     -1.981951      1.334803
  H      -0.607632     -3.561570     -1.935205
  H      -2.299694     -3.779453     -1.565268
  C      -1.032796     -4.056929      0.127415
  C      -0.230222     -3.161658      1.043268
  H      -0.473577     -4.971933     -0.074159
  H      -1.952545     -4.332651      0.646625
  H       0.692219     -2.817892      0.566549
  C      -5.229150      0.962052      1.590319
  H      -4.145552      0.913741      1.727732
  H      -5.679279      0.471214      2.457777
  C       0.111025     -3.761427      2.392977
  H      -0.813805     -4.078263      2.885727
  H       0.540012     -2.963447      3.005240
  H      -5.735686     -3.028376     -2.243759
  C      -5.697016      2.411158      1.521343
  H      -6.773307      2.443749      1.316712
  H      -5.210298      2.921242      0.684596
  C       1.093386     -4.924033      2.309161
  H       0.637095     -5.761644      1.773471
  H       1.965960     -4.619242      1.720907
  C       0.025707      4.986905      1.127024
  H      -0.924436      4.757677      1.622544
  H      -0.224739      5.300668      0.109679
  C       7.528849      0.220907      0.926839
  H       7.116213     -0.774140      1.116285
  H       8.168491      0.125308      0.042615
  C       8.371455      0.646164      2.122250
  H       9.174457     -0.067095      2.315299
  H       8.826548      1.625465      1.957183
  H       7.762243      0.713359      3.026534
  C       0.713447      6.138766      1.848337
  H       1.653924      6.399203      1.357594
  H       0.086430      7.031954      1.862653
  H       0.942546      5.874941      2.883439
  C      -5.398896      3.169916      2.808075
  H      -5.734495      4.206672      2.748257
  H      -5.896920      2.705829      3.662407
  H      -4.326573      3.176185      3.017022
  C       1.547544     -5.396479      3.684246
  H       0.696161     -5.713345      4.291261
  H       2.235689     -6.240221      3.609126
  H       2.057400     -4.595273      4.224020
101
Coordinates from ORCA-job orca E -2008.224427690100
  C       0.201300      0.219895     -1.235278
  C       0.997994      0.268659      0.017963
  O       1.625324     -0.685707      0.422048
  O       1.118754      1.425227      0.666857
  C      -0.676846      1.395172     -1.554818
  H      -1.647423      1.221340     -1.080139
  H      -0.855792      1.450158     -2.632746
  C       0.209148      2.531669      0.459520
  H      -0.703500      2.283333      1.015469
  C      -0.115899      2.697280     -1.010035
  H      -0.858060      3.489281     -1.122671
  H       0.786682      3.004994     -1.541342
  C      -0.212078     -1.169690     -1.661797
  H       0.620711     -1.831419     -1.428420
  H      -0.344209     -1.189100     -2.747722
  C       1.881851      0.549307     -2.617843
  C       3.104789      0.603102     -1.990932
  H       1.466721      1.471268     -3.000958
  H       1.621067     -0.361650     -3.141517
  C       3.609514      1.930035     -1.561586
  C       3.902232     -0.625871     -1.677221
  O       3.035607      2.964297     -1.809222
  O       4.749540      1.992218     -0.861569
  H       4.553045     -0.860349     -2.530054
  H       3.229950     -1.474374     -1.544534
  C       4.750725     -0.410275     -0.435177
  C       5.580790      0.844627     -0.594156
  H       5.414150     -1.261594     -0.275300
  H       4.104483     -0.318633      0.441593
  H       6.248356      0.734548     -1.459507
  C       0.893127      3.730697      1.087921
  H       1.815683      3.928368      0.532961
  H       1.184946      3.453527      2.104859
  C       6.404504      1.212245      0.627170
  H       5.732386      1.294705      1.487323
  H       6.823605      2.208580      0.461181
  C      -4.204348     -1.622814     -1.604980
  C      -4.443945     -1.994249     -0.138835
  O      -4.038017     -3.036144      0.310567
  O      -5.176190     -1.211009      0.647027
  C      -5.045655     -0.400045     -1.998059
  H      -6.088640     -0.704148     -2.135222
  H      -4.701526     -0.024288     -2.965284
  C      -5.575223      0.146500      0.357996
  H      -6.665076      0.098643      0.245976
  C      -4.972293      0.671716     -0.929161
  H      -5.524999      1.562124     -1.233063
  H      -3.937198      0.970034     -0.746584
  C      -4.683465     -2.822341     -2.437232
  H      -4.132712     -3.730321     -2.205770
  H      -4.566332     -2.599262     -3.500257
  C      -2.708283     -1.292094     -1.912268
  C      -1.526063     -1.817798     -1.069617
  H      -2.623185     -0.210061     -1.944438
  H      -2.526328     -1.633636     -2.936481
  C      -1.641216     -1.326141      0.372772
  C      -1.376727     -3.356795     -1.185598
  O      -2.233101     -0.307006      0.647697
  O      -1.016320     -1.980981      1.333047
  H      -0.608518     -3.564270     -1.935332
  H      -2.300641     -3.780888     -1.565447
  C      -1.035040     -4.057238      0.127860
  C      -0.233017     -3.161484      1.043755
  H      -0.476081     -4.972750     -0.072130
  H      -1.955484     -4.331876      0.646420
  H       0.690328     -2.819008      0.567770
  C      -5.222463      0.960878      1.591077
  H      -4.138776      0.910565      1.727159
  H      -5.672342      0.469783      2.458472
  C       0.105718     -3.760324      2.394499
  H      -0.820315     -4.074757      2.886499
  H       0.535605     -2.962565      3.006383
  H      -5.739767     -3.023709     -2.248069
  C      -5.687983      2.410915      1.524401
  H      -6.764764      2.445512      1.322904
  H      -5.202838      2.920743      0.686594
  C       1.085225     -4.925494      2.313004
  H       0.626869     -5.762974      1.778862
  H       1.958602     -4.624197      1.724272
  C       0.023077      4.981781      1.129057
  H      -0.928012      4.751587      1.622296
  H      -0.225361      5.296793      0.111628
  C       7.529486      0.227964      0.927198
  H       7.116061     -0.765856      1.121226
  H       8.168686      0.127876      0.043149
  C       8.373085      0.657698      2.120290
  H       9.175379     -0.055568      2.316154
  H       8.829183      1.635715      1.950535
  H       7.764396      0.729676      3.024532
  C       0.708991      6.132938      1.853199
  H       1.650574      6.393994      1.364938
  H       0.081849      7.026040      1.867051
  H       0.935811      5.868002      2.888509
  C      -5.385011      3.168538      2.810756
  H      -5.718813      4.205939      2.752335
  H      -5.881514      2.705007      3.666250
  H      -4.312142      3.172723      3.016696
  C       1.538012     -5.396486      3.689025
  H       0.685754     -5.709688      4.296692
  H       2.223724     -6.242330      3.615585
  H       2.050210     -4.595697      4.227157
101
Coordinates from ORCA-job orca E -2008.224421262874
  C       0.201128      0.212932     -1.233843
  C       0.997820      0.261307      0.019537
  O       1.625730     -0.692908      0.423050
  O       1.117170      1.417254      0.669800
  C      -0.677084      1.388452     -1.552676
  H      -1.647398      1.214237     -1.077773
  H      -0.856544      1.444200     -2.630473
  C       0.207306      2.523534      0.462714
  H      -0.705793      2.274005      1.017552
  C      -0.116665      2.690313     -1.006907
  H      -0.859064      3.482176     -1.119142
  H       0.785850      2.998918     -1.537828
  C      -0.213331     -1.176675     -1.659995
  H       0.618270     -1.839304     -1.425054
  H      -0.344155     -1.196763     -2.746112
  C       1.880869      0.543395     -2.615743
  C       3.103806      0.602673     -1.989297
  H       1.463228      1.463351     -3.000928
  H       1.623144     -0.369553     -3.137461
  C       3.605671      1.932728     -1.566404
  C       3.905379     -0.622640     -1.671673
  O       3.029736      2.964559     -1.819345
  O       4.746577      2.000984     -0.868313
  H       4.556743     -0.857495     -2.524024
  H       3.236367     -1.473182     -1.535834
  C       4.754261     -0.399448     -0.431156
  C       5.581064      0.856701     -0.596562
  H       5.419643     -1.248584     -0.267716
  H       4.108652     -0.305302      0.445831
  H       6.248079      0.744424     -1.462064
  C       0.889379      3.722524      1.093338
  H       1.812385      3.922206      0.539904
  H       1.180283      3.444477      2.110321
  C       6.404808      1.232132      0.622294
  H       5.732797      1.319316      1.482057
  H       6.822975      2.227822      0.450121
  C      -4.206418     -1.622262     -1.604312
  C      -4.446949     -1.991361     -0.137766
  O      -4.045107     -3.034492      0.312453
  O      -5.175839     -1.204452      0.647511
  C      -5.045921     -0.398653     -1.998879
  H      -6.089699     -0.701088     -2.133806
  H      -4.702564     -0.025653     -2.967456
  C      -5.569750      0.154333      0.357291
  H      -6.660134      0.110957      0.248798
  C      -4.968732      0.675223     -0.932562
  H      -5.520567      1.565869     -1.237410
  H      -3.932857      0.972353     -0.752881
  C      -4.687009     -2.821913     -2.435309
  H      -4.137057     -3.730410     -2.203387
  H      -4.569907     -2.599796     -3.498555
  C      -2.709678     -1.294797     -1.911688
  C      -1.528884     -1.822898     -1.068692
  H      -2.622464     -0.213042     -1.945169
  H      -2.528188     -1.637498     -2.935630
  C      -1.643431     -1.333440      0.374597
  C      -1.383307     -3.362141     -1.186889
  O      -2.231585     -0.312541      0.651104
  O      -1.020159     -1.991151      1.333903
  H      -0.616167     -3.570271     -1.937517
  H      -2.308831     -3.783265     -1.566712
  C      -1.042821     -4.065618      0.125340
  C      -0.239483     -3.173067      1.043317
  H      -0.485313     -4.981631     -0.076317
  H      -1.963874     -4.339809      0.643096
  H       0.685025     -2.832208      0.568552
  C      -5.208944      0.969556      1.587441
  H      -4.125003      0.914107      1.719623
  H      -5.658106      0.482664      2.457594
  C       0.096419     -3.774547      2.393593
  H      -0.831157     -4.085210      2.885131
  H       0.529661     -2.979144      3.006183
  H      -5.743473     -3.022029     -2.245715
  C      -5.666790      2.421845      1.519099
  H      -6.745021      2.462158      1.326621
  H      -5.185745      2.925743      0.675361
  C       1.070568     -4.944135      2.311621
  H       0.607682     -5.779928      1.778739
  H       1.944612     -4.647420      1.721464
  C       0.017505      4.972388      1.134949
  H      -0.934186      4.739959      1.626001
  H      -0.229513      5.288620      0.117546
  C       7.530949      0.250919      0.927821
  H       7.118618     -0.741832      1.129520
  H       8.169157      0.144970      0.043722
  C       8.375774      0.689765      2.116742
  H       9.178936     -0.021462      2.316420
  H       8.830802      1.666950      1.939452
  H       7.768302      0.767522      3.021333
  C       0.700450      6.123561      1.861890
  H       1.642791      6.386311      1.375972
  H       0.072205      7.015884      1.875392
  H       0.925488      5.857773      2.897391
  C      -5.347922      3.182452      2.799807
  H      -5.675165      4.221876      2.740130
  H      -5.840064      2.725625      3.661411
  H      -4.273204      3.179927      2.996242
  C       1.522929     -5.416140      3.687436
  H       0.669999     -5.724930      4.296427
  H       2.204597     -6.265252      3.613838
  H       2.039512     -4.617328      4.224344
101
Coordinates from ORCA-job orca E -2008.224427983021
  C       0.201416      0.215960     -1.235411
  C       0.997993      0.264151      0.017969
  O       1.625221     -0.690421      0.421728
  O       1.118374      1.420323      0.667650
  C      -0.676463      1.391587     -1.554528
  H      -1.646991      1.217750     -1.079813
  H      -0.855559      1.447081     -2.632404
  C       0.209077      2.527043      0.460423
  H      -0.703855      2.278528      1.015877
  C      -0.115428      2.693372     -1.009162
  H      -0.857491      3.485510     -1.121555
  H       0.787189      3.001287     -1.540282
  C      -0.212741     -1.173448     -1.661902
  H       0.619276     -1.835842     -1.427667
  H      -0.344146     -1.193144     -2.747916
  C       1.881803      0.545467     -2.617522
  C       3.104725      0.602422     -1.990774
  H       1.465319      1.466227     -3.002067
  H       1.622699     -0.366723     -3.139885
  C       3.607840      1.931138     -1.565075
  C       3.904322     -0.624497     -1.674506
  O       3.032653      2.964023     -1.815464
  O       4.748072      1.996739     -0.865677
  H       4.555659     -0.859411     -2.526841
  H       3.233728     -1.474020     -1.540070
  C       4.752562     -0.404546     -0.433033
  C       5.580954      0.850989     -0.595395
  H       5.416980     -1.254650     -0.270811
  H       4.106301     -0.311348      0.443567
  H       6.248521      0.739568     -1.460568
  C       0.892715      3.725724      1.089874
  H       1.815470      3.924056      0.535497
  H       1.184157      3.447927      2.106756
  C       6.404299      1.222989      0.624837
  H       5.732017      1.307661      1.484643
  H       6.822587      2.219148      0.455729
  C      -4.205565     -1.622325     -1.605464
  C      -4.445186     -1.993373     -0.139233
  O      -4.040904     -3.036010      0.309952
  O      -5.175334     -1.208660      0.647088
  C      -5.045675     -0.398645     -1.998293
  H      -6.089139     -0.701563     -2.134444
  H      -4.701933     -0.023676     -2.965967
  C      -5.572136      0.149538      0.358243
  H      -6.662228      0.103702      0.247792
  C      -4.970087      0.673421     -0.929897
  H      -5.522197      1.564260     -1.233611
  H      -3.934511      0.970799     -0.748595
  C      -4.686260     -2.821242     -2.437635
  H      -4.136287     -3.729841     -2.206723
  H      -4.569444     -2.598054     -3.500674
  C      -2.709148     -1.293432     -1.913098
  C      -1.527582     -1.820228     -1.070232
  H      -2.622862     -0.211534     -1.946041
  H      -2.527598     -1.635771     -2.937122
  C      -1.642329     -1.328859      0.372256
  C      -1.379937     -3.359378     -1.186494
  O      -2.233046     -0.309112      0.647433
  O      -1.018117     -1.984508      1.332410
  H      -0.612255     -3.567517     -1.936575
  H      -2.304531     -3.782286     -1.566041
  C      -1.038831     -4.060588      0.126737
  C      -0.236231     -3.165965      1.043253
  H      -0.480530     -4.976431     -0.073555
  H      -1.959582     -4.334764      0.645017
  H       0.687886     -2.824700      0.567869
  C      -5.215857      0.963670      1.590484
  H      -4.132064      0.911073      1.724860
  H      -5.665412      0.473913      2.458803
  C       0.100645     -3.765485      2.394161
  H      -0.826443     -4.076772      2.886175
  H       0.532998     -2.968892      3.005828
  H      -5.742666     -3.021620     -2.248009
  C      -5.678181      2.414703      1.523900
  H      -6.755600      2.451739      1.326301
  H      -5.194851      2.922489      0.683809
  C       1.076245     -4.933962      2.313235
  H       0.614737     -5.770484      1.780307
  H       1.950257     -4.636328      1.723594
  C       0.022322      4.976577      1.131494
  H      -0.929068      4.745670      1.623817
  H      -0.225458      5.292372      0.114148
  C       7.530163      0.240697      0.927997
  H       7.117631     -0.752736      1.125861
  H       8.169109      0.137846      0.044081
  C       8.373933      0.675415      2.119168
  H       9.176920     -0.036478      2.317164
  H       8.829114      1.653203      1.945694
  H       7.765621      0.750079      3.023445
  C       0.707413      6.127365      1.856993
  H       1.649367      6.388914      1.369707
  H       0.080103      7.020342      1.870900
  H       0.933461      5.861812      2.892318
  C      -5.368545      3.172998      2.808269
  H      -5.699710      4.211242      2.749843
  H      -5.863145      2.711823      3.666131
  H      -4.294895      3.174423      3.010192
  C       1.528298     -5.404985      3.689481
  H       0.675363     -5.714681      4.297993
  H       2.211110     -6.253217      3.616568
  H       2.043491     -4.605348      4.226469
101
Coordinates from ORCA-job orca E -2008.224425109741
  C       0.201922      0.221944     -1.232940
  C       1.000001      0.271397      0.019388
  O       1.627681     -0.682737      0.423422
  O       1.122057      1.428449      0.667135
  C      -0.676345      1.397193     -1.552333
  H      -1.646530      1.223949     -1.076616
  H      -0.856336      1.451413     -2.630138
  C       0.212872      2.535289      0.459928
  H      -0.699039      2.288282      1.017636
  C      -0.114333      2.699587     -1.009267
  H      -0.856394      3.491726     -1.121563
  H       0.787671      3.006499     -1.542049
  C      -0.211872     -1.167683     -1.659080
  H       0.621237     -1.829345     -1.426724
  H      -0.344875     -1.186715     -2.744924
  C       1.881744      0.549942     -2.616992
  C       3.105123      0.602507     -1.990846
  H       1.467042      1.472140     -2.999971
  H       1.619779     -0.360860     -3.140319
  C       3.610893      1.928660     -1.560408
  C       3.901614     -0.627416     -1.678313
  O       3.037880      2.963590     -1.807344
  O       4.751124      1.989337     -0.860625
  H       4.551862     -0.861966     -2.531537
  H       3.228465     -1.475337     -1.546015
  C       4.750665     -0.413700     -0.436311
  C       5.581496      0.840880     -0.594155
  H       5.413753     -1.265548     -0.277721
  H       4.104743     -0.322829      0.440790
  H       6.249105      0.731073     -1.459538
  C       0.898826      3.734570      1.085709
  H       1.820881      3.930342      0.529229
  H       1.191610      3.458617      2.102714
  C       6.405402      1.206810      0.627542
  H       5.733411      1.288240      1.487914
  H       6.824690      2.203260      0.462821
  C      -4.203988     -1.621844     -1.603392
  C      -4.445565     -1.993451     -0.137633
  O      -4.040334     -3.035424      0.312210
  O      -5.180017     -1.211034      0.646977
  C      -5.045475     -0.399618     -1.998020
  H      -6.087972     -0.704325     -2.137654
  H      -4.699396     -0.023334     -2.964326
  C      -5.581240      0.145528      0.356521
  H      -6.670649      0.095470      0.240902
  C      -4.975174      0.671814     -0.928640
  H      -5.527481      1.562144     -1.233554
  H      -3.940670      0.970365     -0.743186
  C      -4.680515     -2.821884     -2.436361
  H      -4.129176     -3.729323     -2.203725
  H      -4.561716     -2.598857     -3.499212
  C      -2.707795     -1.289874     -1.908561
  C      -1.525581     -1.816422     -1.066434
  H      -2.623294     -0.207729     -1.938334
  H      -2.525078     -1.629104     -2.933419
  C      -1.640618     -1.326363      0.376706
  C      -1.376293     -3.355326     -1.184109
  O      -2.232147     -0.307449      0.653207
  O      -1.014486     -1.981875      1.335772
  H      -0.608547     -3.561997     -1.934564
  H      -2.300535     -3.779213     -1.563773
  C      -1.033367     -4.056899      0.128447
  C      -0.230843     -3.161661      1.044433
  H      -0.474269     -4.972034     -0.072830
  H      -1.953269     -4.332354      0.647500
  H       0.691654     -2.818060      0.567799
  C      -5.234356      0.960502      1.590798
  H      -4.150973      0.912960      1.730367
  H      -5.685746      0.468020      2.456639
  C       0.110144     -3.761479      2.394202
  H      -0.814646     -4.079690      2.886128
  H       0.537657     -2.963192      3.007053
  H      -5.736934     -3.024246     -2.248954
  C      -5.703560      2.409285      1.522909
  H      -6.779130      2.440931      1.314515
  H      -5.214549      2.921479      0.688803
  C       1.093857     -4.922932      2.310647
  H       0.638776     -5.760925      1.774513
  H       1.966372     -4.617024      1.722896
  C       0.030242      4.986692      1.125962
  H      -0.920605      4.758327      1.620548
  H      -0.218880      5.300558      0.108339
  C       7.530132      0.221815      0.926166
  H       7.116449     -0.772291      1.118225
  H       8.169620      0.123255      0.042138
  C       8.373328      0.649306      2.120344
  H       9.175368     -0.064477      2.315366
  H       8.829742      1.627508      1.952475
  H       7.764234      0.719918      3.024432
  C       0.718212      6.138012      1.847917
  H       1.659562      6.397390      1.358302
  H       0.092069      7.031844      1.861345
  H       0.945799      5.874075      2.883317
  C      -5.411143      3.166120      2.812136
  H      -5.748050      4.202493      2.753004
  H      -5.911584      2.699766      3.663812
  H      -4.339630      3.173654      3.025009
  C       1.547914     -5.395155      3.685864
  H       0.696654     -5.713020      4.292521
  H       2.236991     -6.238134      3.610856
  H       2.056755     -4.593512      4.225926
101
Coordinates from ORCA-job orca E -2008.224429731163
  C       0.201773      0.217667     -1.234914
  C       0.998859      0.265963      0.018094
  O       1.625919     -0.688707      0.421887
  O       1.120115      1.422334      0.667246
  C      -0.675940      1.393400     -1.554002
  H      -1.646355      1.219989     -1.078861
  H      -0.855429      1.448563     -2.631834
  C       0.211352      2.529494      0.459989
  H      -0.701286      2.281944      1.016314
  C      -0.114158      2.695214     -1.009435
  H      -0.856001      3.487568     -1.121691
  H       0.788263      3.002550     -1.541228
  C      -0.212517     -1.171659     -1.661406
  H       0.619678     -1.834007     -1.427679
  H      -0.344307     -1.191102     -2.747377
  C       1.882242      0.546368     -2.617707
  C       3.105255      0.602103     -1.991119
  H       1.466264      1.467483     -3.001929
  H       1.622232     -0.365522     -3.140128
  C       3.609208      1.930131     -1.564270
  C       3.903868     -0.625666     -1.675632
  O       3.034790      2.963613     -1.813974
  O       4.749376      1.994365     -0.864671
  H       4.555017     -0.860626     -2.528084
  H       3.232482     -1.474672     -1.541775
  C       4.752138     -0.407333     -0.433899
  C       5.581378      0.847814     -0.595079
  H       5.416069     -1.257963     -0.272430
  H       4.105813     -0.314564      0.442699
  H       6.249100      0.736604     -1.460164
  C       0.896343      3.728117      1.088080
  H       1.818930      3.925145      0.532953
  H       1.188135      3.450894      2.105017
  C       6.404711      1.218272      0.625633
  H       5.732398      1.302197      1.485491
  H       6.823334      2.214474      0.457647
  C      -4.205143     -1.622015     -1.605175
  C      -4.444919     -1.993733     -0.139140
  O      -4.039556     -3.035998      0.309935
  O      -5.176217     -1.210086      0.647188
  C      -5.045873     -0.398740     -1.998006
  H      -6.088992     -0.702329     -2.135318
  H      -4.701520     -0.022924     -2.965126
  C      -5.575238      0.147414      0.358168
  H      -6.665079      0.099629      0.245968
  C      -4.972107      0.672719     -0.928850
  H      -5.524488      1.563400     -1.232554
  H      -3.936924      0.970613     -0.746161
  C      -4.684691     -2.821046     -2.437860
  H      -4.134260     -3.729346     -2.206826
  H      -4.567474     -2.597572     -3.500793
  C      -2.708869     -1.292013     -1.912208
  C      -1.527145     -1.818749     -1.069544
  H      -2.623179     -0.210031     -1.944096
  H      -2.527000     -1.633376     -2.936501
  C      -1.642039     -1.327481      0.373011
  C      -1.379079     -3.357853     -1.185890
  O      -2.233359     -0.308149      0.648379
  O      -1.017188     -1.982834      1.332989
  H      -0.611476     -3.565765     -1.936121
  H      -2.303617     -3.781092     -1.565225
  C      -1.037360     -4.058859      0.127293
  C      -0.234775     -3.163848      1.043442
  H      -0.478809     -4.974533     -0.073078
  H      -1.957850     -4.333300      0.645894
  H       0.688897     -2.822025      0.567621
  C      -5.222604      0.961687      1.591340
  H      -4.138924      0.911418      1.727495
  H      -5.672499      0.470468      2.458659
  C       0.103290     -3.763219      2.394126
  H      -0.823142     -4.076374      2.886186
  H       0.534300     -2.966052      3.005988
  H      -5.741066     -3.022101     -2.248785
  C      -5.688229      2.411683      1.524745
  H      -6.764997      2.446186      1.323152
  H      -5.203072      2.921618      0.687013
  C       1.081136     -4.929771      2.312589
  H       0.621427     -5.766734      1.778792
  H       1.954758     -4.629881      1.723497
  C       0.027101      4.979776      1.129155
  H      -0.924269      4.750136      1.622117
  H      -0.220861      5.295038      0.111686
  C       7.530193      0.235238      0.927833
  H       7.117291     -0.758344      1.124172
  H       8.169401      0.133437      0.043982
  C       8.373668      0.668108      2.119882
  H       9.176335     -0.044313      2.317274
  H       8.829259      1.645963      1.947862
  H       7.765026      0.741828      3.024014
  C       0.713573      6.130433      1.853558
  H       1.655506      6.390832      1.365617
  H       0.087054      7.023973      1.867228
  H       0.939885      5.865312      2.888934
  C      -5.385463      3.169259      2.811172
  H      -5.719354      4.206633      2.752760
  H      -5.882020      2.705650      3.666593
  H      -4.312614      3.173539      3.017228
  C       1.533693     -5.401053      3.688590
  H       0.681208     -5.713003      4.296583
  H       2.218271     -6.247815      3.615154
  H       2.047101     -4.600816      4.226393
101
Coordinates from ORCA-job orca E -2008.224426062703
  C       0.201783      0.210990     -1.234917
  C       0.998708      0.258758      0.018401
  O       1.626380     -0.695768      0.421515
  O       1.118695      1.414590      0.668779
  C      -0.676406      1.386719     -1.553165
  H      -1.646692      1.212515     -1.078152
  H      -0.855988      1.442787     -2.630923
  C       0.208871      2.521058      0.462296
  H      -0.704075      2.271592      1.017418
  C      -0.115556      2.688292     -1.007190
  H      -0.857854      3.480307     -1.119006
  H       0.786833      2.996787     -1.538371
  C      -0.213369     -1.178354     -1.661144
  H       0.617974     -1.841430     -1.426472
  H      -0.344510     -1.198258     -2.747206
  C       1.880570      0.540745     -2.616531
  C       3.103924      0.602061     -1.990554
  H       1.462177      1.459817     -3.003082
  H       1.623813     -0.373097     -3.137154
  C       3.604809      1.933046     -1.569525
  C       3.906738     -0.622069     -1.671676
  O       3.027323      2.964012     -1.822560
  O       4.745367      2.003204     -0.871043
  H       4.558401     -0.857225     -2.523730
  H       3.238552     -1.473083     -1.534899
  C       4.755113     -0.396718     -0.431217
  C       5.580806      0.860046     -0.597634
  H       5.421300     -1.245005     -0.266687
  H       4.109177     -0.302306      0.445521
  H       6.248261      0.747455     -1.462746
  C       0.891514      3.719659      1.092961
  H       1.814242      3.919390      0.539077
  H       1.182929      3.441232      2.109676
  C       6.403842      1.237355      0.621188
  H       5.731511      1.323965      1.480778
  H       6.820563      2.233595      0.448630
  C      -4.206912     -1.621475     -1.605499
  C      -4.448262     -1.991371     -0.139265
  O      -4.048858     -3.035857      0.309992
  O      -5.176534     -1.204287      0.646357
  C      -5.044450     -0.396329     -1.999174
  H      -6.088608     -0.697100     -2.134851
  H      -4.700085     -0.022924     -2.967226
  C      -5.568845      0.155140      0.357103
  H      -6.659182      0.113006      0.247588
  C      -4.966110      0.676446     -0.931784
  H      -5.516362      1.568234     -1.236099
  H      -3.929808      0.971683     -0.751163
  C      -4.689353     -2.819699     -2.437565
  H      -4.140795     -3.729168     -2.206528
  H      -4.572034     -2.596824     -3.500627
  C      -2.709692     -1.295435     -1.912626
  C      -1.528984     -1.823941     -1.069609
  H      -2.621665     -0.213696     -1.946097
  H      -2.528386     -1.638316     -2.936519
  C      -1.642882     -1.333623      0.373325
  C      -1.383327     -3.363193     -1.187086
  O      -2.231204     -0.312727      0.649459
  O      -1.019483     -1.990909      1.332859
  H      -0.616103     -3.571591     -1.937555
  H      -2.308666     -3.784517     -1.566788
  C      -1.043048     -4.066204      0.125416
  C      -0.239712     -3.173675      1.043356
  H      -0.485599     -4.982329     -0.075838
  H      -1.964186     -4.340116      0.643098
  H       0.685446     -2.833826      0.569080
  C      -5.208335      0.968684      1.588526
  H      -4.124579      0.911853      1.721756
  H      -5.658886      0.481291      2.457665
  C       0.094498     -3.774720      2.394300
  H      -0.834070     -4.082118      2.885983
  H       0.529841     -2.979868      3.006124
  H      -5.746083     -3.018425     -2.248076
  C      -5.664575      2.421567      1.521521
  H      -6.742518      2.463217      1.327778
  H      -5.181988      2.926095      0.679043
  C       1.065264     -4.947276      2.314093
  H       0.600070     -5.782420      1.782239
  H       1.940341     -4.653990      1.723774
  C       0.020041      4.969747      1.135383
  H      -0.931268      4.737609      1.627292
  H      -0.227779      5.286083      0.118213
  C       7.531285      0.257877      0.927485
  H       7.120317     -0.735425      1.129317
  H       8.169979      0.152578      0.043672
  C       8.375017      0.698157      2.116658
  H       9.179207     -0.011801      2.316724
  H       8.828595      1.676028      1.939425
  H       7.767085      0.775099      3.020997
  C       0.704012      6.120637      1.861758
  H       1.645883      6.383235      1.374864
  H       0.075982      7.013111      1.876030
  H       0.930072      5.854671      2.896983
  C      -5.346660      3.180188      2.803654
  H      -5.672974      4.219958      2.744939
  H      -5.840283      2.722640      3.664027
  H      -4.272231      3.176564      3.001485
  C       1.515767     -5.418743      3.690691
  H       0.661679     -5.724207      4.299743
  H       2.194937     -6.269971      3.618551
  H       2.034400     -4.620707      4.226758
101
Coordinates from ORCA-job orca E -2008.224430217049
  C       0.201855      0.214950     -1.235403
  C       0.999039      0.262616      0.017588
  O       1.626017     -0.692296      0.420932
  O       1.120287      1.418666      0.667335
  C      -0.675686      1.390952     -1.553996
  H      -1.646098      1.217455     -1.078906
  H      -0.855203      1.446628     -2.631792
  C       0.211548      2.525956      0.460549
  H      -0.701187      2.278085      1.016622
  C      -0.113789      2.692444     -1.008826
  H      -0.855584      3.484901     -1.120716
  H       0.788622      2.999982     -1.540510
  C      -0.212971     -1.174181     -1.662074
  H       0.618772     -1.836991     -1.428051
  H      -0.344483     -1.193602     -2.748084
  C       1.882250      0.543884     -2.618046
  C       3.105213      0.602137     -1.991544
  H       1.465072      1.464006     -3.003359
  H       1.623545     -0.369004     -3.139361
  C       3.607581      1.931474     -1.566903
  C       3.905551     -0.624044     -1.674260
  O       3.031941      2.963868     -1.818308
  O       4.747767      1.998318     -0.867560
  H       4.557228     -0.859162     -2.526276
  H       3.235468     -1.473880     -1.539289
  C       4.753345     -0.402577     -0.432756
  C       5.581145      0.853231     -0.596015
  H       5.418190     -1.252172     -0.269606
  H       4.106794     -0.308993      0.443601
  H       6.248999      0.741352     -1.460908
  C       0.896364      3.724255      1.089444
  H       1.818922      3.921897      0.534486
  H       1.188190      3.446434      2.106206
  C       6.404040      1.226646      0.624097
  H       5.731565      1.311416      1.483749
  H       6.821648      2.222990      0.454388
  C      -4.205927     -1.621983     -1.605536
  C      -4.445449     -1.993342     -0.139370
  O      -4.041178     -3.036105      0.309554
  O      -5.175234     -1.208670      0.647312
  C      -5.045868     -0.398082     -1.998057
  H      -6.089359     -0.700820     -2.134432
  H      -4.701969     -0.022872     -2.965576
  C      -5.572582      0.149373      0.358505
  H      -6.662620      0.103123      0.247625
  C      -4.970263      0.673662     -0.929327
  H      -5.522219      1.564673     -1.232838
  H      -3.934676      0.970794     -0.747744
  C      -4.686804     -2.820653     -2.437935
  H      -4.136788     -3.729320     -2.207361
  H      -4.570165     -2.597187     -3.500938
  C      -2.709458     -1.293344     -1.913203
  C      -1.528047     -1.820547     -1.070412
  H      -2.622921     -0.211464     -1.946034
  H      -2.528015     -1.635645     -2.937259
  C      -1.642590     -1.329299      0.372127
  C      -1.380910     -3.359726     -1.186796
  O      -2.233133     -0.309525      0.647545
  O      -1.018272     -1.985097      1.332124
  H      -0.613390     -3.568035     -1.936992
  H      -2.305719     -3.782307     -1.566236
  C      -1.039930     -4.061180      0.126337
  C      -0.237060     -3.167008      1.043057
  H      -0.481847     -4.977121     -0.074092
  H      -1.960755     -4.335219      0.644564
  H       0.687390     -2.826278      0.567935
  C      -5.217163      0.963395      1.591067
  H      -4.133404      0.911230      1.725930
  H      -5.666890      0.473231      2.459068
  C       0.099056     -3.766745      2.394089
  H      -0.828465     -4.076770      2.886081
  H       0.532299     -2.970542      3.005640
  H      -5.743177     -3.021059     -2.248174
  C      -5.680135      2.414227      1.524652
  H      -6.757366      2.450774      1.325944
  H      -5.196199      2.922631      0.685284
  C       1.073289     -4.936394      2.313620
  H       0.610949     -5.772477      1.780728
  H       1.947822     -4.639902      1.724160
  C       0.026866      4.975717      1.131276
  H      -0.924477      4.745560      1.624044
  H      -0.221114      5.291534      0.113988
  C       7.530513      0.245315      0.928082
  H       7.118615     -0.748295      1.126401
  H       8.169734      0.142403      0.044369
  C       8.373711      0.681227      2.119224
  H       9.177137     -0.030015      2.317772
  H       8.828265      1.659240      1.945354
  H       7.765131      0.755946      3.023315
  C       0.713074      6.126110      1.856337
  H       1.654985      6.386951      1.368588
  H       0.086383      7.019522      1.870432
  H       0.939401      5.860504      2.891587
  C      -5.372309      3.172100      2.809701
  H      -5.704076      4.210162      2.751406
  H      -5.867543      2.710212      3.666818
  H      -4.298883      3.174136      3.012795
  C       1.524393     -5.407658      3.690098
  H       0.670925     -5.716403      4.298351
  H       2.206365     -6.256600      3.617584
  H       2.040171     -4.608445      4.227152
101
Coordinates from ORCA-job orca E -2008.224428705095
  C       0.203022      0.218777     -1.233703
  C       1.000599      0.267371      0.019056
  O       1.627506     -0.687264      0.423109
  O       1.122660      1.424058      0.667483
  C      -0.674731      1.394561     -1.552640
  H      -1.644849      1.221547     -1.076718
  H      -0.854979      1.449247     -2.630362
  C       0.214187      2.531454      0.460164
  H      -0.698186      2.284478      1.017192
  C      -0.112284      2.696515     -1.009106
  H      -0.854026      3.488991     -1.121215
  H       0.789815      3.003359     -1.541729
  C      -0.211978     -1.170610     -1.659646
  H       0.620214     -1.833095     -1.426278
  H      -0.344156     -1.190102     -2.745582
  C       1.882154      0.546001     -2.616596
  C       3.105846      0.601090     -1.990873
  H       1.466806      1.467255     -3.001245
  H       1.621657     -0.365854     -3.138860
  C       3.611164      1.928754     -1.564753
  C       3.903837     -0.627213     -1.675914
  O       3.037182      2.962602     -1.813973
  O       4.751478      1.992197     -0.865300
  H       4.554397     -0.862498     -2.528726
  H       3.231983     -1.475826     -1.541855
  C       4.752849     -0.409597     -0.434542
  C       5.582769      0.845105     -0.595819
  H       5.416392     -1.260629     -0.273586
  H       4.107005     -0.316675      0.442369
  H       6.250289      0.733517     -1.461010
  C       0.899883      3.730225      1.087222
  H       1.822558      3.926235      0.531914
  H       1.191525      3.453706      2.104399
  C       6.406515      1.214996      0.624789
  H       5.734397      1.299195      1.484776
  H       6.825677      2.210983      0.456836
  C      -4.204760     -1.620992     -1.604653
  C      -4.446277     -1.993275     -0.139030
  O      -4.042149     -3.036051      0.309928
  O      -5.179253     -1.210430      0.646537
  C      -5.045111     -0.397703     -1.998230
  H      -6.087896     -0.701426     -2.137736
  H      -4.699009     -0.021146     -2.964438
  C      -5.579504      0.146565      0.356992
  H      -6.669009      0.097443      0.241905
  C      -4.973612      0.673015     -0.928205
  H      -5.525408      1.563893     -1.232399
  H      -3.938805      0.970783     -0.743002
  C      -4.683058     -2.819808     -2.438365
  H      -4.133005     -3.728193     -2.206689
  H      -4.564242     -2.596111     -3.501069
  C      -2.708286     -1.290152     -1.909875
  C      -1.526673     -1.817605     -1.067511
  H      -2.623033     -0.208064     -1.939556
  H      -2.525687     -1.629436     -2.934727
  C      -1.641673     -1.326983      0.375349
  C      -1.378694     -3.356643     -1.184605
  O      -2.232784     -0.307673      0.651243
  O      -1.016327     -1.982592      1.334849
  H      -0.611288     -3.564187     -1.935137
  H      -2.303308     -3.779821     -1.563817
  C      -1.036363     -4.058075      0.128184
  C      -0.233595     -3.163133      1.044274
  H      -0.477720     -4.973584     -0.072707
  H      -1.956581     -4.332865      0.647020
  H       0.689540     -2.820640      0.567989
  C      -5.231244      0.960732      1.591425
  H      -4.147736      0.912703      1.729986
  H      -5.682027      0.467976      2.457429
  C       0.105749     -3.762970      2.394412
  H      -0.820023     -4.078062      2.886512
  H       0.535655     -2.965574      3.006764
  H      -5.739722     -3.020858     -2.250899
  C      -5.699957      2.409753      1.524655
  H      -6.775975      2.441926      1.318655
  H      -5.212571      2.921779      0.689493
  C       1.085480     -4.927819      2.311583
  H       0.626975     -5.765076      1.777221
  H       1.958410     -4.625922      1.722460
  C       0.031370      4.982435      1.127205
  H      -0.920134      4.753834      1.620408
  H      -0.216408      5.296943      0.109455
  C       7.531498      0.231281      0.926642
  H       7.118073     -0.762141      1.122689
  H       8.170594      0.129414      0.042718
  C       8.375293      0.663337      2.118756
  H       9.177594     -0.049579      2.315870
  H       8.831409      1.640992      1.946991
  H       7.766763      0.737114      3.022957
  C       0.718538      6.133325      1.850611
  H       1.660694      6.392655      1.362514
  H       0.092601      7.027294      1.863408
  H       0.944553      5.868991      2.886256
  C      -5.404330      3.166502      2.813214
  H      -5.740583      4.203110      2.754669
  H      -5.903284      2.700626      3.666020
  H      -4.332367      3.173254      3.023765
  C       1.539269     -5.399480      3.687046
  H       0.687477     -5.713036      4.295194
  H       2.224999     -6.245240      3.612696
  H       2.051839     -4.598926      4.225190
101
Coordinates from ORCA-job orca E -2008.224429801913
  C       0.202540      0.216594     -1.234757
  C       1.000058      0.264382      0.018014
  O       1.626752     -0.690627      0.421566
  O       1.122114      1.420656      0.667202
  C      -0.674814      1.392715     -1.553346
  H      -1.645081      1.219641     -1.077757
  H      -0.854795      1.448009     -2.631085
  C       0.213922      2.528357      0.460274
  H      -0.698607      2.281309      1.017009
  C      -0.112216      2.694257     -1.008991
  H      -0.853794      3.486927     -1.120811
  H       0.790016      3.001249     -1.541297
  C      -0.212598     -1.172494     -1.661254
  H       0.619210     -1.835328     -1.427541
  H      -0.344372     -1.191828     -2.747233
  C       1.882660      0.544538     -2.617790
  C       3.105871      0.601458     -1.991617
  H       1.466218      1.465095     -3.002878
  H       1.623054     -0.367999     -3.139280
  C       3.609451      1.930096     -1.566285
  C       3.905110     -0.625641     -1.675108
  O       3.034733      2.963143     -1.817127
  O       4.749696      1.995504     -0.866911
  H       4.556425     -0.860945     -2.527344
  H       3.234198     -1.474896     -1.540528
  C       4.753234     -0.405721     -0.433555
  C       5.582065      0.849522     -0.596035
  H       5.417436     -1.255952     -0.271112
  H       4.106833     -0.312241      0.442913
  H       6.249842      0.737602     -1.460982
  C       0.899795      3.726612      1.088120
  H       1.822292      3.923197      0.532686
  H       1.191773      3.449252      2.104964
  C       6.405253      1.221501      0.624317
  H       5.732904      1.305971      1.484094
  H       6.823459      2.217722      0.455377
  C      -4.205484     -1.621493     -1.605349
  C      -4.445548     -1.993554     -0.139434
  O      -4.040368     -3.035975      0.309445
  O      -5.176663     -1.209959      0.647111
  C      -5.045876     -0.397938     -1.998038
  H      -6.088985     -0.701312     -2.135906
  H      -4.701070     -0.021817     -2.964877
  C      -5.576217      0.147357      0.358038
  H      -6.665967      0.099100      0.245060
  C      -4.972405      0.673115     -0.928458
  H      -5.524513      1.564001     -1.232067
  H      -3.937255      0.970738     -0.745137
  C      -4.685182     -2.820185     -2.438417
  H      -4.134958     -3.728666     -2.207602
  H      -4.567819     -2.596432     -3.501277
  C      -2.709086     -1.291702     -1.912103
  C      -1.527590     -1.818941     -1.069458
  H      -2.623170     -0.209723     -1.943613
  H      -2.527177     -1.632764     -2.936486
  C      -1.642344     -1.327690      0.373115
  C      -1.380134     -3.358087     -1.185851
  O      -2.233581     -0.308347      0.648598
  O      -1.017540     -1.983202      1.333026
  H      -0.612740     -3.566243     -1.936224
  H      -2.304902     -3.780992     -1.564995
  C      -1.038478     -4.059255      0.127265
  C      -0.235645     -3.164556      1.043519
  H      -0.480129     -4.975030     -0.073206
  H      -1.959016     -4.333559      0.645855
  H       0.688245     -2.823153      0.567828
  C      -5.224876      0.961545      1.591627
  H      -4.141238      0.912029      1.728432
  H      -5.674931      0.469752      2.458541
  C       0.101916     -3.764109      2.394254
  H      -0.824823     -4.076231      2.886401
  H       0.533768     -2.967295      3.005988
  H      -5.741616     -3.021074     -2.249499
  C      -5.691562      2.411216      1.525150
  H      -6.768141      2.444925      1.322405
  H      -5.205909      2.921885      0.688151
  C       1.078529     -4.931703      2.312891
  H       0.617848     -5.768359      1.779457
  H       1.952356     -4.632928      1.723535
  C       0.031192      4.978711      1.129453
  H      -0.920194      4.749529      1.622597
  H      -0.216807      5.294143      0.112048
  C       7.531158      0.239232      0.927417
  H       7.118686     -0.754346      1.124692
  H       8.170383      0.136867      0.043642
  C       8.374509      0.673509      2.119040
  H       9.177507     -0.038387      2.316980
  H       8.829651      1.651420      1.946145
  H       7.765894      0.747719      3.023149
  C       0.718376      6.129001      1.853772
  H       1.660381      6.388901      1.365701
  H       0.092328      7.022869      1.867525
  H       0.944689      5.863762      2.889121
  C      -5.390847      3.168479      2.812235
  H      -5.725534      4.205600      2.753880
  H      -5.887992      2.704104      3.666902
  H      -4.318239      3.173580      3.019518
  C       1.530826     -5.402994      3.688970
  H       0.678100     -5.713800      4.297213
  H       2.214463     -6.250536      3.615737
  H       2.045189     -4.603129      4.226416
101
Coordinates from ORCA-job orca E -2008.224427730772
  C       0.202476      0.211152     -1.234763
  C       0.999847      0.259060      0.018198
  O       1.626867     -0.695728      0.421704
  O       1.121097      1.415267      0.667690
  C      -0.675354      1.387082     -1.553190
  H      -1.645547      1.213529     -1.077752
  H      -0.855258      1.442649     -2.630921
  C       0.211889      2.522244      0.461078
  H      -0.700731      2.273927      1.017181
  C      -0.113590      2.688693     -1.008258
  H      -0.855615      3.480940     -1.120030
  H       0.788573      2.996417     -1.540244
  C      -0.213162     -1.178086     -1.660768
  H       0.618002     -1.841431     -1.426211
  H      -0.344359     -1.197888     -2.746831
  C       1.881412      0.539233     -2.616902
  C       3.104915      0.600994     -1.991205
  H       1.462944      1.457859     -3.004482
  H       1.624496     -0.375227     -3.136371
  C       3.606156      1.932183     -1.571243
  C       3.907415     -0.623083     -1.671299
  O       3.028743      2.963093     -1.824729
  O       4.746399      2.002557     -0.872285
  H       4.559292     -0.858989     -2.522944
  H       3.238949     -1.473807     -1.534132
  C       4.755275     -0.397051     -0.430627
  C       5.581364      0.859391     -0.597557
  H       5.421236     -1.245342     -0.265230
  H       4.108940     -0.301893      0.445702
  H       6.249283      0.745973     -1.462205
  C       0.896135      3.720733      1.090251
  H       1.818427      3.919284      0.535234
  H       1.188356      3.442710      2.106849
  C       6.403880      1.237327      0.621422
  H       5.731264      1.324190      1.480760
  H       6.820558      2.233540      0.448603
  C      -4.206782     -1.620508     -1.605348
  C      -4.447968     -1.991357     -0.139336
  O      -4.047797     -3.035792      0.309349
  O      -5.176821     -1.205259      0.646748
  C      -5.044179     -0.395028     -1.998362
  H      -6.088153     -0.695818     -2.135185
  H      -4.699094     -0.020596     -2.965767
  C      -5.570868      0.153754      0.357883
  H      -6.661005      0.110169      0.246803
  C      -4.967062      0.676708     -0.929770
  H      -5.517342      1.568631     -1.233635
  H      -3.931009      0.972100     -0.747844
  C      -4.689245     -2.818247     -2.438178
  H      -4.140879     -3.727919     -2.207521
  H      -4.571741     -2.594826     -3.501092
  C      -2.709550     -1.294219     -1.912098
  C      -1.528966     -1.823446     -1.069386
  H      -2.621559     -0.212431     -1.944374
  H      -2.528168     -1.636097     -2.936311
  C      -1.643114     -1.333517      0.373647
  C      -1.383502     -3.362700     -1.187229
  O      -2.231468     -0.312720      0.649996
  O      -1.019104     -1.990679      1.332882
  H      -0.616340     -3.571059     -1.937765
  H      -2.308849     -3.783921     -1.566893
  C      -1.043079     -4.065793      0.125148
  C      -0.239417     -3.173377      1.042900
  H      -0.485731     -4.981949     -0.076302
  H      -1.964114     -4.339658      0.643016
  H       0.685598     -2.833418      0.568331
  C      -5.213441      0.966902      1.590438
  H      -4.129806      0.911773      1.725292
  H      -5.664528      0.478046      2.458480
  C       0.095255     -3.774566      2.393685
  H      -0.833152     -4.082085      2.885586
  H       0.530679     -2.979734      3.005490
  H      -5.746042     -3.016929     -2.248976
  C      -5.672159      2.419046      1.523826
  H      -6.749514      2.458836      1.326416
  H      -5.187664      2.925550      0.683639
  C       1.066180     -4.946982      2.313203
  H       0.601198     -5.782029      1.780991
  H       1.941291     -4.653317      1.723135
  C       0.025874      4.971646      1.132779
  H      -0.925145      4.740719      1.625806
  H      -0.222669      5.287550      0.115670
  C       7.531213      0.257997      0.928466
  H       7.120172     -0.735282      1.130155
  H       8.170410      0.152676      0.045022
  C       8.374213      0.698465      2.118072
  H       9.178317     -0.011424      2.318707
  H       8.827859      1.676325      1.941012
  H       7.765728      0.775501      3.022036
  C       0.711622      6.122332      1.857810
  H       1.653260      6.383762      1.369830
  H       0.084423      7.015397      1.872167
  H       0.938394      5.856751      2.892968
  C      -5.360217      3.176586      2.808070
  H      -5.688535      4.215748      2.749649
  H      -5.855883      2.716806      3.666073
  H      -4.286495      3.175010      3.009711
  C       1.516592     -5.418844      3.689708
  H       0.662502     -5.724907      4.298463
  H       2.196109     -6.269780      3.617361
  H       2.034777     -4.620814      4.226216
101
Coordinates from ORCA-job orca E -2008.224433520019
  C       0.202263      0.210617     -1.235981
  C       0.999848      0.257382      0.016768
  O       1.626120     -0.698141      0.419773
  O       1.122183      1.413250      0.666694
  C      -0.674622      1.387269     -1.553985
  H      -1.644990      1.214170     -1.078703
  H      -0.854372      1.443407     -2.631720
  C       0.213936      2.521118      0.460602
  H      -0.698698      2.273552      1.016990
  C      -0.111884      2.688264     -1.008575
  H      -0.853393      3.481085     -1.119859
  H       0.790373      2.995563     -1.540624
  C      -0.213684     -1.178102     -1.662868
  H       0.617253     -1.841805     -1.428478
  H      -0.344834     -1.197397     -2.748932
  C       1.882885      0.538732     -2.618799
  C       3.105722      0.601244     -1.992463
  H       1.463788      1.456969     -3.006564
  H       1.626089     -0.376172     -3.137524
  C       3.605649      1.932792     -1.571849
  C       3.908497     -0.622382     -1.671438
  O       3.028488      2.963453     -1.826912
  O       4.745721      2.003940     -0.872732
  H       4.561256     -0.858362     -2.522392
  H       3.240218     -1.473276     -1.534448
  C       4.755055     -0.395425     -0.430099
  C       5.580885      0.861158     -0.597078
  H       5.421147     -1.243389     -0.263589
  H       4.107772     -0.299936      0.445531
  H       6.249292      0.747533     -1.461317
  C       0.899636      3.718840      1.089630
  H       1.821727      3.916699      0.533934
  H       1.192320      3.440299      2.105954
  C       6.402708      1.239805      0.622140
  H       5.729799      1.326086      1.481303
  H       6.818585      2.236361      0.449443
  C      -4.207339     -1.621265     -1.605899
  C      -4.446690     -1.992614     -0.139723
  O      -4.043366     -3.035909      0.308846
  O      -5.174508     -1.206842      0.647660
  C      -5.045946     -0.396240     -1.997756
  H      -6.089918     -0.697646     -2.133408
  H      -4.702242     -0.021439     -2.965507
  C      -5.570009      0.151861      0.359361
  H      -6.660229      0.107327      0.249624
  C      -4.968223      0.675382     -0.929058
  H      -5.519451      1.566981     -1.232136
  H      -3.932162      0.971386     -0.748395
  C      -4.690103     -2.819105     -2.438346
  H      -4.140949     -3.728468     -2.208451
  H      -4.573886     -2.595403     -3.501345
  C      -2.710519     -1.294650     -1.914221
  C      -1.529525     -1.823082     -1.071567
  H      -2.622643     -0.212933     -1.947856
  H      -2.529820     -1.637838     -2.938115
  C      -1.643132     -1.331937      0.371028
  C      -1.384138     -3.362412     -1.188242
  O      -2.232795     -0.311760      0.646809
  O      -1.019400     -1.988546      1.330834
  H      -0.616908     -3.571475     -1.938532
  H      -2.309498     -3.783789     -1.567710
  C      -1.044124     -4.064609      0.124751
  C      -0.240298     -3.171874      1.042034
  H      -0.487036     -4.981103     -0.075929
  H      -1.965367     -4.337801      0.642709
  H       0.685175     -2.832860      0.567594
  C      -5.211947      0.965211      1.591636
  H      -4.128144      0.911124      1.725336
  H      -5.661613      0.475758      2.460072
  C       0.093346     -3.772270      2.393400
  H      -0.835634     -4.077490      2.885636
  H       0.530270     -2.977612      3.004355
  H      -5.746581     -3.018395     -2.248007
  C      -5.672366      2.416871      1.525894
  H      -6.749939      2.455444      1.329429
  H      -5.189205      2.924244      0.685461
  C       1.061997     -4.946630      2.314150
  H       0.595569     -5.781207      1.782463
  H       1.937830     -4.655163      1.724127
  C       0.030487      4.970502      1.133007
  H      -0.920491      4.740242      1.626426
  H      -0.218278      5.287003      0.116121
  C       7.530809      0.261423      0.929479
  H       7.120571     -0.732195      1.131163
  H       8.170209      0.156578      0.046127
  C       8.373318      0.702665      2.119146
  H       9.177956     -0.006569      2.319938
  H       8.826203      1.680871      1.942060
  H       7.764661      0.779288      3.023024
  C       0.717556      6.120296      1.858202
  H       1.659155      6.381171      1.369863
  H       0.091106      7.013861      1.873267
  H       0.944608      5.854065      2.893138
  C      -5.360386      3.174375      2.810162
  H      -5.690153      4.213100      2.752366
  H      -5.854758      2.713632      3.668391
  H      -4.286526      3.174229      3.010997
  C       1.511052     -5.418234      3.691182
  H       0.656194     -5.722411      4.299790
  H       2.189154     -6.270361      3.619753
  H       2.030364     -4.620695      4.227319
101
Coordinates from ORCA-job orca E -2008.224428181674
  C       0.203108      0.216385     -1.233514
  C       1.000854      0.264719      0.019162
  O       1.627572     -0.690076      0.423130
  O       1.123232      1.421377      0.667620
  C      -0.674452      1.392333     -1.552307
  H      -1.644534      1.219401     -1.076305
  H      -0.854828      1.447120     -2.629997
  C       0.214854      2.528895      0.460498
  H      -0.697456      2.281917      1.017595
  C      -0.111791      2.694164     -1.008728
  H      -0.853492      3.486704     -1.120608
  H       0.790201      3.001013     -1.541537
  C      -0.212416     -1.172843     -1.659462
  H       0.619279     -1.835777     -1.425689
  H      -0.344179     -1.192356     -2.745449
  C       1.882300      0.543363     -2.616440
  C       3.106022      0.600418     -1.990904
  H       1.466054      1.463758     -3.002173
  H       1.622681     -0.369390     -3.137536
  C       3.610488      1.929135     -1.567029
  C       3.905164     -0.626715     -1.674297
  O       3.035577      2.962164     -1.817514
  O       4.750895      1.994563     -0.867902
  H       4.555994     -0.862482     -2.526774
  H       3.234154     -1.475806     -1.539074
  C       4.753984     -0.406463     -0.433253
  C       5.583041      0.848511     -0.596666
  H       5.418066     -1.256774     -0.270769
  H       4.108062     -0.312447      0.443494
  H       6.250505      0.735974     -1.461770
  C       0.900646      3.727512      1.087759
  H       1.823160      3.923877      0.532328
  H       1.192549      3.450700      2.104774
  C       6.406729      1.220933      0.623219
  H       5.734685      1.306119      1.483160
  H       6.825185      2.216927      0.453555
  C      -4.205349     -1.620296     -1.605568
  C      -4.447061     -1.992793     -0.140019
  O      -4.044066     -3.036194      0.308508
  O      -5.179005     -1.209376      0.645935
  C      -5.044533     -0.396028     -1.998617
  H      -6.087642     -0.698659     -2.138002
  H      -4.698235     -0.019555     -2.964780
  C      -5.577939      0.148109      0.356838
  H      -6.667501      0.100093      0.241867
  C      -4.971766      0.674335     -0.928317
  H      -5.522785      1.565826     -1.232161
  H      -3.936632      0.971038     -0.743251
  C      -4.684830     -2.818380     -2.439709
  H      -4.135494     -3.727329     -2.208580
  H      -4.566063     -2.594312     -3.502348
  C      -2.708566     -1.290749     -1.910627
  C      -1.527727     -1.819095     -1.067828
  H      -2.622422     -0.208697     -1.940410
  H      -2.525958     -1.630299     -2.935385
  C      -1.643109     -1.328661      0.375034
  C      -1.380628     -3.358228     -1.184959
  O      -2.233588     -0.308959      0.650845
  O      -1.017966     -1.984432      1.334554
  H      -0.613315     -3.566139     -1.935471
  H      -2.305466     -3.780880     -1.564194
  C      -1.038759     -4.059913      0.127817
  C      -0.235810     -3.165437      1.044214
  H      -0.480404     -4.975584     -0.073078
  H      -1.959173     -4.334458      0.646442
  H       0.687722     -2.823515      0.568271
  C      -5.228752      0.961595      1.591471
  H      -4.145316      0.912180      1.730083
  H      -5.680185      0.469204      2.457325
  C       0.102586     -3.765483      2.394536
  H      -0.823704     -4.079079      2.886591
  H       0.533544     -2.968540      3.006730
  H      -5.741623     -3.018649     -2.252119
  C      -5.695579      2.411239      1.525019
  H      -6.771614      2.444846      1.319397
  H      -5.207809      2.922719      0.689744
  C       1.080677     -4.931777      2.312283
  H       0.620945     -5.768727      1.778506
  H       1.953973     -4.631533      1.722858
  C       0.031960      4.979558      1.128378
  H      -0.919436      4.750564      1.621588
  H      -0.215992      5.294421      0.110792
  C       7.532447      0.238528      0.926537
  H       7.119765     -0.754808      1.124575
  H       8.171343      0.135438      0.042609
  C       8.376327      0.673326      2.117584
  H       9.179182     -0.038680      2.315715
  H       8.831703      1.650987      1.943883
  H       7.768034      0.748320      3.021845
  C       0.719006      6.130285      1.852135
  H       1.661049      6.389974      1.364022
  H       0.092898      7.024120      1.865331
  H       0.945219      5.865628      2.887648
  C      -5.398552      3.167470      2.813570
  H      -5.733407      4.204538      2.755211
  H      -5.897880      2.702204      3.666478
  H      -4.326521      3.172742      3.023796
  C       1.533978     -5.403249      3.687968
  H       0.681828     -5.715451      4.296303
  H       2.218650     -6.249900      3.614055
  H       2.047510     -4.603036      4.225697
101
Coordinates from ORCA-job orca E -2008.224435278228
  C       0.202764      0.213070     -1.234958
  C       1.000546      0.260295      0.017665
  O       1.626744     -0.695100      0.421061
  O       1.123348      1.416504      0.666886
  C      -0.674185      1.389606     -1.553200
  H      -1.644419      1.216777     -1.077501
  H      -0.854318      1.445202     -2.630898
  C       0.215315      2.524465      0.460464
  H      -0.697128      2.277438      1.017360
  C      -0.111128      2.690844     -1.008668
  H      -0.852579      3.483699     -1.120059
  H       0.790967      2.997763     -1.541227
  C      -0.213210     -1.175756     -1.661530
  H       0.617974     -1.839243     -1.427470
  H      -0.344651     -1.195062     -2.747559
  C       1.882921      0.540401     -2.617935
  C       3.106113      0.600652     -1.991949
  H       1.465021      1.459489     -3.004985
  H       1.624851     -0.373696     -3.137443
  C       3.608009      1.931036     -1.570113
  C       3.907266     -0.624461     -1.672538
  O       3.031959      2.962712     -1.823558
  O       4.748211      1.999806     -0.870976
  H       4.559290     -0.860503     -2.524032
  H       3.237774     -1.474540     -1.536240
  C       4.754651     -0.400185     -0.431263
  C       5.581970      0.855616     -0.596890
  H       5.419812     -1.249162     -0.266213
  H       4.107837     -0.305092      0.444739
  H       6.250060      0.742221     -1.461401
  C       0.901514      3.722417      1.088530
  H       1.823786      3.919275      0.532815
  H       1.193885      3.444642      2.105153
  C       6.404485      1.231783      0.622626
  H       5.731895      1.317639      1.482078
  H       6.821407      2.228107      0.451145
  C      -4.206604     -1.620745     -1.605691
  C      -4.446842     -1.992716     -0.139794
  O      -4.043237     -3.035903      0.308739
  O      -5.176524     -1.208142      0.647086
  C      -5.045632     -0.396123     -1.997972
  H      -6.089179     -0.698196     -2.135349
  H      -4.700801     -0.020436     -2.964971
  C      -5.574073      0.149859      0.358410
  H      -6.663968      0.103350      0.246157
  C      -4.970329      0.674847     -0.928447
  H      -5.521591      1.566344     -1.231801
  H      -3.934738      0.971294     -0.745717
  C      -4.687874     -2.818693     -2.438897
  H      -4.138561     -3.727844     -2.208514
  H      -4.570592     -2.594772     -3.501731
  C      -2.709834     -1.292758     -1.912696
  C      -1.528851     -1.821170     -1.070070
  H      -2.622730     -0.210900     -1.944618
  H      -2.528391     -1.634334     -2.936992
  C      -1.643073     -1.330246      0.372625
  C      -1.382793     -3.360417     -1.186886
  O      -2.233303     -0.310419      0.648475
  O      -1.018690     -1.986483      1.332295
  H      -0.615606     -3.569057     -1.937334
  H      -2.307982     -3.782329     -1.566137
  C      -1.041890     -4.062336      0.126026
  C      -0.238334     -3.168848      1.042830
  H      -0.484305     -4.978508     -0.074738
  H      -1.962748     -4.336059      0.644362
  H       0.686289     -2.828643      0.567672
  C      -5.220535      0.963340      1.591858
  H      -4.136893      0.911839      1.727933
  H      -5.670903      0.472280      2.459024
  C       0.097439     -3.769067      2.393737
  H      -0.830350     -4.077910      2.885960
  H       0.531826     -2.973406      3.005186
  H      -5.744471     -3.018487     -2.249731
  C      -5.684524      2.413884      1.525870
  H      -6.761353      2.449702      1.324832
  H      -5.199187      2.923490      0.688040
  C       1.070180     -4.939937      2.313119
  H       0.606645     -5.775529      1.780500
  H       1.944907     -4.644639      1.723347
  C       0.032968      4.974529      1.130658
  H      -0.918246      4.745161      1.624044
  H      -0.215382      5.290328      0.113454
  C       7.531625      0.251793      0.928412
  H       7.120414     -0.741723      1.128605
  H       8.170869      0.147669      0.044861
  C       8.374617      0.690471      2.118674
  H       9.178539     -0.019864      2.318446
  H       8.828493      1.668465      1.942957
  H       7.766058      0.766443      3.022672
  C       0.720416      6.124558      1.855134
  H       1.662273      6.384594      1.366847
  H       0.094395      7.018435      1.869353
  H       0.947050      5.858999      2.890331
  C      -5.380221      3.170755      2.812347
  H      -5.712828      4.208564      2.754351
  H      -5.876945      2.707550      3.667891
  H      -4.307262      3.173621      3.017883
  C       1.521099     -5.411542      3.689536
  H       0.667422     -5.719269      4.298014
  H       2.202089     -6.261267      3.616977
  H       2.037881     -4.612847      4.226401
101
Coordinates from ORCA-job orca E -2008.224429375774
  C       0.203226      0.207245     -1.235208
  C       1.001195      0.254211      0.017371
  O       1.627283     -0.701282      0.420670
  O       1.124215      1.410452      0.666601
  C      -0.673551      1.384006     -1.553322
  H      -1.643799      1.211169     -1.077780
  H      -0.853562      1.439922     -2.631011
  C       0.215580      2.518082      0.460712
  H      -0.696852      2.270178      1.017336
  C      -0.110653      2.685079     -1.008385
  H      -0.852263      3.477815     -1.119506
  H       0.791347      2.992316     -1.540931
  C      -0.213895     -1.181442     -1.661499
  H       0.616368     -1.845862     -1.426723
  H      -0.344796     -1.200949     -2.747589
  C       1.883118      0.534009     -2.617741
  C       3.106415      0.599811     -1.992119
  H       1.462852      1.450681     -3.007982
  H       1.627878     -0.382550     -3.134311
  C       3.605480      1.933000     -1.575863
  C       3.910974     -0.621966     -1.668630
  O       3.026641      2.962338     -1.832498
  O       4.745704      2.007239     -0.877247
  H       4.563821     -0.858882     -2.519265
  H       3.243958     -1.473508     -1.529500
  C       4.757589     -0.390866     -0.428089
  C       5.582108      0.866065     -0.598669
  H       5.424512     -1.237714     -0.259363
  H       4.110425     -0.293626      0.447417
  H       6.250346      0.750752     -1.462792
  C       0.900900      3.716073      1.089584
  H       1.822823      3.914389      0.533805
  H       1.193774      3.437728      2.105898
  C       6.404025      1.248688      0.619274
  H       5.731383      1.336447      1.478485
  H       6.818724      2.245270      0.443841
  C      -4.208048     -1.619342     -1.607115
  C      -4.449602     -1.991614     -0.141536
  O      -4.050343     -3.036902      0.305998
  O      -5.176858     -1.205232      0.645728
  C      -5.044021     -0.392421     -1.998619
  H      -6.088466     -0.691671     -2.135371
  H      -4.698777     -0.017408     -2.965740
  C      -5.569047      0.154625      0.358406
  H      -6.659269      0.112619      0.247591
  C      -4.964918      0.678066     -0.928915
  H      -5.513937      1.571148     -1.231659
  H      -3.928343      0.971588     -0.746997
  C      -4.691900     -2.815558     -2.441307
  H      -4.144458     -3.726041     -2.211773
  H      -4.574192     -2.590957     -3.503958
  C      -2.710472     -1.294507     -1.913534
  C      -1.530749     -1.825103     -1.070548
  H      -2.621349     -0.212806     -1.945662
  H      -2.529236     -1.636536     -2.937726
  C      -1.644704     -1.334788      0.372380
  C      -1.387114     -3.364552     -1.188017
  O      -2.232239     -0.313438      0.648449
  O      -1.021357     -1.992229      1.331834
  H      -0.619918     -3.574060     -1.938218
  H      -2.312817     -3.784720     -1.567934
  C      -1.048116     -4.067818      0.124679
  C      -0.243620     -3.176374      1.042692
  H      -0.491867     -4.984742     -0.076351
  H      -1.969734     -4.340378      0.642220
  H       0.682403     -2.838254      0.568708
  C      -5.210255      0.965985      1.591759
  H      -4.126561      0.909911      1.725984
  H      -5.661234      0.476324      2.459396
  C       0.088602     -3.777689      2.394027
  H      -0.841164     -4.080864      2.886079
  H       0.527099     -2.983973      3.005089
  H      -5.748899     -3.013364     -2.252284
  C      -5.668166      2.418504      1.527424
  H      -6.745575      2.459169      1.330491
  H      -5.183731      2.926016      0.687810
  C       1.054702     -4.954161      2.315141
  H       0.586446     -5.787935      1.783832
  H       1.931160     -4.664906      1.724931
  C       0.031148      4.967282      1.132918
  H      -0.919610      4.736561      1.626547
  H      -0.217950      5.283478      0.116031
  C       7.533398      0.272390      0.928618
  H       7.124396     -0.721121      1.133308
  H       8.172359      0.165789      0.045149
  C       8.376248      0.717701      2.116527
  H       9.181784      0.009852      2.318628
  H       8.827956      1.695913      1.936507
  H       7.768135      0.796084      3.020613
  C       0.717724      6.117552      1.857787
  H       1.659124      6.378810      1.369271
  H       0.090802      7.010787      1.872714
  H       0.945039      5.851681      2.892753
  C      -5.355535      3.173992      2.812734
  H      -5.683348      4.213387      2.755934
  H      -5.851238      2.713189      3.670166
  H      -4.281794      3.171620      3.014168
  C       1.502772     -5.426140      3.692368
  H       0.647267     -5.728427      4.301014
  H       2.179200     -6.279638      3.621360
  H       2.023552     -4.629412      4.228288
101
Coordinates from ORCA-job orca E -2008.224431153474
  C       0.203032      0.202671     -1.236803
  C       1.001553      0.247025      0.015401
  O       1.626000     -0.710045      0.417529
  O       1.126807      1.402455      0.665717
  C      -0.672394      1.380851     -1.553182
  H      -1.642720      1.208478     -1.077609
  H      -0.852553      1.438400     -2.630771
  C       0.219211      2.511358      0.461907
  H      -0.693041      2.263756      1.018904
  C      -0.107906      2.680595     -1.006737
  H      -0.848839      3.474195     -1.116287
  H       0.793958      2.987663     -1.539521
  C      -0.215488     -1.185033     -1.664530
  H       0.614025     -1.850487     -1.430078
  H      -0.346394     -1.203643     -2.750651
  C       1.884016      0.529290     -2.619589
  C       3.106748      0.599800     -1.993780
  H       1.461390      1.443928     -3.012106
  H       1.630968     -0.389345     -3.133532
  C       3.602396      1.935409     -1.581069
  C       3.914093     -0.619052     -1.665986
  O       3.022117      2.962776     -1.842330
  O       4.742290      2.014536     -0.882487
  H       4.568664     -0.856606     -2.515114
  H       3.249196     -1.471910     -1.525162
  C       4.758555     -0.381861     -0.425110
  C       5.580782      0.876074     -0.599317
  H       5.426928     -1.226774     -0.252310
  H       4.110000     -0.282622      0.449189
  H       6.249997      0.759083     -1.462479
  C       0.906398      3.707791      1.091764
  H       1.827795      3.906148      0.535049
  H       1.200339      3.427660      2.107293
  C       6.400915      1.264593      0.617950
  H       5.727556      1.353160      1.476538
  H       6.812995      2.261756      0.439713
  C      -4.210275     -1.620477     -1.605741
  C      -4.448883     -1.990554     -0.139130
  O      -4.047339     -3.034507      0.309539
  O      -5.174165     -1.202823      0.648599
  C      -5.047265     -0.394256     -1.997345
  H      -6.091968     -0.693928     -2.131198
  H      -4.704356     -0.020815     -2.965908
  C      -5.566468      0.156837      0.360336
  H      -6.657043      0.115264      0.252997
  C      -4.966018      0.678111     -0.929657
  H      -5.516227      1.570392     -1.232598
  H      -3.929202      0.972507     -0.751006
  C      -4.695941     -2.817852     -2.437106
  H      -4.148003     -3.728009     -2.207386
  H      -4.580426     -2.594779     -3.500318
  C      -2.713056     -1.297181     -1.915752
  C      -1.532626     -1.827726     -1.073619
  H      -2.622923     -0.215757     -1.950650
  H      -2.533963     -1.641780     -2.939448
  C      -1.644499     -1.337029      0.369226
  C      -1.390149     -3.367236     -1.191068
  O      -2.232418     -0.316078      0.645914
  O      -1.021665     -1.995233      1.328494
  H      -0.623002     -3.577402     -1.941105
  H      -2.316201     -3.786559     -1.571242
  C      -1.052348     -4.071040      0.121620
  C      -0.246571     -3.181247      1.040024
  H      -0.497411     -4.988729     -0.079454
  H      -1.974496     -4.342349      0.638971
  H       0.680766     -2.845517      0.566775
  C      -5.203253      0.969901      1.591289
  H      -4.119351      0.912333      1.722619
  H      -5.652597      0.482517      2.461070
  C       0.082470     -3.783117      2.391919
  H      -0.849164     -4.079637      2.884466
  H       0.526046     -2.991440      3.001964
  H      -5.752540     -3.015329     -2.245605
  C      -5.658754      2.423062      1.525619
  H      -6.736973      2.465448      1.333534
  H      -5.177116      2.927763      0.682692
  C       1.040845     -4.965990      2.314738
  H       0.567025     -5.797631      1.785013
  H       1.919050     -4.683641      1.723828
  C       0.037880      4.959801      1.138044
  H      -0.912580      4.729160      1.632290
  H      -0.211981      5.277885      0.121926
  C       7.532772      0.292343      0.930878
  H       7.126383     -0.701572      1.138818
  H       8.172235      0.184470      0.047937
  C       8.374155      0.743801      2.117509
  H       9.181473      0.038720      2.322098
  H       8.823335      1.722599      1.934363
  H       7.765619      0.823555      3.021201
  C       0.726250      6.108248      1.864139
  H       1.667402      6.369469      1.375118
  H       0.100174      7.002038      1.881161
  H       0.954322      5.840467      2.898448
  C      -5.338539      3.180782      2.807712
  H      -5.664117      4.220836      2.750037
  H      -5.831345      2.723086      3.668468
  H      -4.263851      3.176186      3.004140
  C       1.486050     -5.438427      3.692728
  H       0.628686     -5.734525      4.301803
  H       2.157205     -6.296183      3.623183
  H       2.011623     -4.644031      4.227431
101
Coordinates from ORCA-job orca E -2008.224429149989
  C       0.204232      0.196688     -1.236447
  C       1.003198      0.241236      0.015694
  O       1.627204     -0.715846      0.418335
  O       1.129914      1.397272      0.664732
  C      -0.671296      1.374977     -1.552629
  H      -1.641303      1.202770     -1.076457
  H      -0.852086      1.432255     -2.630117
  C       0.221695      2.505847      0.461583
  H      -0.690057      2.257858      1.019325
  C      -0.106582      2.674891     -1.006843
  H      -0.847803      3.468297     -1.115878
  H       0.794680      2.982076     -1.540593
  C      -0.216056     -1.190992     -1.663185
  H       0.612480     -1.857468     -1.428124
  H      -0.346566     -1.209906     -2.749385
  C       1.883075      0.520943     -2.618280
  C       3.106590      0.597137     -1.993670
  H       1.458668      1.432881     -3.015163
  H       1.632951     -0.400361     -3.128845
  C       3.600410      1.935626     -1.588550
  C       3.917036     -0.618380     -1.661199
  O       3.017896      2.960649     -1.854119
  O       4.740304      2.020343     -0.890548
  H       4.572128     -0.857576     -2.509478
  H       3.254458     -1.472437     -1.516848
  C       4.761195     -0.373769     -0.421501
  C       5.580944      0.884892     -0.601839
  H       5.431183     -1.216553     -0.244667
  H       4.112647     -0.271575      0.452457
  H       6.250264      0.764928     -1.464484
  C       0.908892      3.702470      1.091053
  H       1.829848      3.901350      0.533832
  H       1.203587      3.422389      2.106370
  C       6.400600      1.280755      0.613369
  H       5.727236      1.372494      1.471611
  H       6.810885      2.277727      0.430027
  C      -4.211355     -1.617729     -1.608739
  C      -4.453473     -1.989778     -0.143206
  O      -4.058165     -3.036916      0.303516
  O      -5.176992     -1.200799      0.644903
  C      -5.043286     -0.387697     -1.998890
  H      -6.089026     -0.683015     -2.134213
  H      -4.697999     -0.013781     -2.966405
  C      -5.562593      0.161287      0.359158
  H      -6.653203      0.124850      0.250522
  C      -4.958478      0.682364     -0.929191
  H      -5.504513      1.577542     -1.231080
  H      -3.920477      0.971935     -0.748996
  C      -4.699985     -2.811794     -2.443294
  H      -4.155857     -3.724399     -2.214389
  H      -4.581825     -2.587152     -3.505875
  C      -2.712853     -1.297701     -1.915754
  C      -1.534660     -1.831753     -1.072891
  H      -2.620409     -0.216219     -1.948148
  H      -2.532819     -1.640477     -2.939900
  C      -1.647577     -1.342118      0.370212
  C      -1.394757     -3.371519     -1.191216
  O      -2.232025     -0.319091      0.646651
  O      -1.025574     -2.001251      1.329301
  H      -0.627162     -3.582443     -1.940589
  H      -2.320987     -3.789222     -1.572608
  C      -1.059172     -4.076607      0.121344
  C      -0.252577     -3.188623      1.040867
  H      -0.505528     -4.995069     -0.079804
  H      -1.982130     -4.346710      0.637792
  H       0.675677     -2.854414      0.568459
  C      -5.197105      0.970300      1.592193
  H      -4.113472      0.908191      1.724252
  H      -5.649032      0.482756      2.460519
  C       0.073799     -3.791505      2.392976
  H      -0.859209     -4.084543      2.884995
  H       0.519723     -3.001229      3.003127
  H      -5.757642     -3.005795     -2.254015
  C      -5.646931      2.425405      1.529506
  H      -6.724823      2.472380      1.336768
  H      -5.162827      2.930202      0.688065
  C       1.028055     -4.977766      2.317015
  H       0.551487     -5.808210      1.787907
  H       1.907464     -4.699111      1.726078
  C       0.039936      4.954110      1.138040
  H      -0.910148      4.723012      1.632783
  H      -0.210603      5.272275      0.122135
  C       7.534195      0.312091      0.930986
  H       7.129610     -0.681382      1.144486
  H       8.173451      0.200528      0.048361
  C       8.375393      0.771305      2.114749
  H       9.184007      0.068705      2.322669
  H       8.822804      1.749855      1.926084
  H       7.767186      0.854889      3.018303
  C       0.728278      6.102667      1.863977
  H       1.669174      6.364198      1.374634
  H       0.101962      6.996274      1.881293
  H       0.956796      5.834876      2.898190
  C      -5.324942      3.179104      2.813603
  H      -5.646654      4.220461      2.758046
  H      -5.820056      2.721284      3.672967
  H      -4.250463      3.170173      3.010831
  C       1.471117     -5.450519      3.695588
  H       0.612478     -5.743275      4.304472
  H       2.139404     -6.310602      3.627144
  H       1.998995     -4.657435      4.229955
101
Coordinates from ORCA-job orca E -2008.224426315779
  C       0.204367      0.185577     -1.239384
  C       1.004531      0.225599      0.011879
  O       1.623406     -0.735032      0.414082
  O       1.137980      1.381190      0.660679
  C      -0.667095      1.367261     -1.553736
  H      -1.637398      1.197792     -1.077330
  H      -0.848175      1.426420     -2.631052
  C       0.232850      2.492964      0.460448
  H      -0.678487      2.247447      1.019972
  C      -0.097898      2.664697     -1.007036
  H      -0.837215      3.460243     -1.113480
  H       0.802893      2.970119     -1.542392
  C      -0.220010     -1.200047     -1.667865
  H       0.606580     -1.869089     -1.433346
  H      -0.350773     -1.217538     -2.754018
  C       1.886920      0.505562     -2.621876
  C       3.108942      0.593547     -1.996629
  H       1.457723      1.411739     -3.026841
  H       1.641757     -0.421722     -3.124011
  C       3.595939      1.938114     -1.603157
  C       3.924824     -0.614825     -1.651332
  O       3.010341      2.958185     -1.880799
  O       4.733645      2.034691     -0.903211
  H       4.584723     -0.857272     -2.494960
  H       3.266463     -1.471185     -1.502147
  C       4.762463     -0.354447     -0.410463
  C       5.577838      0.905677     -0.600205
  H       5.435104     -1.192594     -0.221999
  H       4.109529     -0.246079      0.459555
  H       6.250724      0.779725     -1.459238
  C       0.925328      3.686867      1.089277
  H       1.845613      3.883139      0.529846
  H       1.221450      3.405236      2.103758
  C       6.391814      1.316684      0.613820
  H       5.715421      1.413262      1.469179
  H       6.797793      2.313895      0.422267
  C      -4.217874     -1.616434     -1.603387
  C      -4.456386     -1.985302     -0.136453
  O      -4.059469     -3.031221      0.311818
  O      -5.176850     -1.194064      0.652109
  C      -5.050560     -0.386687     -1.993770
  H      -6.096830     -0.681999     -2.125005
  H      -4.708407     -0.015120     -2.963357
  C      -5.561533      0.168058      0.365104
  H      -6.652735      0.133366      0.261690
  C      -4.962437      0.685941     -0.926886
  H      -5.509781      1.580318     -1.228952
  H      -3.924102      0.976277     -0.751159
  C      -4.710169     -2.811740     -2.433660
  H      -4.166101     -3.724345     -2.204139
  H      -4.594849     -2.589648     -3.497120
  C      -2.719398     -1.300784     -1.916419
  C      -1.539465     -1.837460     -1.076939
  H      -2.623766     -0.220080     -1.952411
  H      -2.544375     -1.646878     -2.940335
  C      -1.644876     -1.348574      0.366997
  C      -1.404046     -3.377390     -1.197461
  O      -2.228251     -0.326003      0.647394
  O      -1.023233     -2.011519      1.323695
  H      -0.637828     -3.589662     -1.947874
  H      -2.332021     -3.791738     -1.578686
  C      -1.069691     -4.085644      0.113640
  C      -0.257424     -3.203082      1.033280
  H      -0.520556     -5.006330     -0.089679
  H      -1.993104     -4.352325      0.631158
  H       0.672606     -2.873883      0.560472
  C      -5.188522      0.978759      1.594566
  H      -4.104503      0.914117      1.721444
  H      -5.637544      0.494369      2.466208
  C       0.065463     -3.809242      2.384854
  H      -0.869961     -4.090726      2.879013
  H       0.521910     -3.023870      2.993618
  H      -5.767436     -3.004239     -2.240779
  C      -5.634303      2.434861      1.530568
  H      -6.713326      2.485009      1.344861
  H      -5.154012      2.935750      0.684591
  C       1.005359     -5.006959      2.308337
  H       0.518169     -5.832213      1.780769
  H       1.887105     -4.739548      1.715812
  C       0.060705      4.941438      1.138652
  H      -0.889363      4.713221      1.634777
  H      -0.190355      5.261161      0.123359
  C       7.529157      0.356667      0.944060
  H       7.128789     -0.636355      1.167376
  H       8.170753      0.238672      0.063964
  C       8.365944      0.832348      2.124467
  H       9.177290      0.135645      2.341458
  H       8.809321      1.810811      1.926039
  H       7.755571      0.922912      3.025903
  C       0.754030      6.087160      1.864387
  H       1.695258      6.345633      1.374022
  H       0.130883      6.982986      1.882859
  H       0.982748      5.818025      2.898222
  C      -5.300536      3.190656      2.810265
  H      -5.618442      4.233185      2.754231
  H      -5.791357      2.736952      3.674278
  H      -4.224612      3.177609      2.999808
  C       1.444751     -5.483632      3.686752
  H       0.583534     -5.766748      4.296593
  H       2.103551     -6.351032      3.618324
  H       1.981663     -4.695979      4.220185
101
Coordinates from ORCA-job orca E -2008.224436073189
  C       0.206264      0.176013     -1.238636
  C       1.008464      0.214623      0.011471
  O       1.626118     -0.746934      0.413205
  O       1.146163      1.370601      0.658872
  C      -0.664292      1.358810     -1.551246
  H      -1.634027      1.190006     -1.073394
  H      -0.846995      1.418499     -2.628259
  C       0.241224      2.483076      0.461403
  H      -0.668765      2.237913      1.023281
  C      -0.093161      2.655648     -1.005146
  H      -0.832462      3.451513     -1.109236
  H       0.806238      2.961039     -1.542887
  C      -0.221352     -1.208630     -1.667462
  H       0.603359     -1.879936     -1.432771
  H      -0.351396     -1.225187     -2.753764
  C       1.887707      0.492953     -2.621947
  C       3.110023      0.590128     -1.998235
  H       1.454785      1.394524     -3.033224
  H       1.646635     -0.438774     -3.117743
  C       3.592885      1.939149     -1.615303
  C       3.930825     -0.612692     -1.645199
  O       3.004517      2.955380     -1.901206
  O       4.730501      2.044759     -0.916472
  H       4.592307     -0.857328     -2.486946
  H       3.276172     -1.470983     -1.491022
  C       4.766808     -0.340505     -0.405673
  C       5.578151      0.920815     -0.604622
  H       5.442047     -1.175007     -0.210463
  H       4.113019     -0.227833      0.463181
  H       6.251631      0.790379     -1.462499
  C       0.936218      3.676181      1.088956
  H       1.855078      3.872277      0.527093
  H       1.234931      3.393831      2.102473
  C       6.390765      1.343633      0.606232
  H       5.714141      1.444627      1.460884
  H       6.793301      2.340706      0.406854
  C      -4.219373     -1.613456     -1.608607
  C      -4.459771     -1.985330     -0.142731
  O      -4.067630     -3.034258      0.302660
  O      -5.177362     -1.193299      0.647707
  C      -5.046686     -0.379250     -1.995742
  H      -6.094170     -0.669720     -2.127950
  H      -4.702750     -0.006430     -2.964198
  C      -5.555673      0.171403      0.364566
  H      -6.646937      0.141733      0.260520
  C      -4.953787      0.690045     -0.925873
  H      -5.496898      1.587714     -1.225677
  H      -3.914003      0.975045     -0.749168
  C      -4.715952     -2.804521     -2.442649
  H      -4.175778     -3.719911     -2.215377
  H      -4.599087     -2.579907     -3.505394
  C      -2.719855     -1.301676     -1.919232
  C      -1.543397     -1.842958     -1.078412
  H      -2.621217     -0.220933     -1.952541
  H      -2.543976     -1.646110     -2.943558
  C      -1.651619     -1.354889      0.365484
  C      -1.411921     -3.383244     -1.199372
  O      -2.231239     -0.329802      0.644458
  O      -1.033165     -2.019281      1.323165
  H      -0.644255     -3.597168     -1.947805
  H      -2.339831     -3.795052     -1.583287
  C      -1.082793     -4.092991      0.112242
  C      -0.270382     -3.213098      1.034354
  H      -0.535627     -5.015038     -0.090155
  H      -2.008210     -4.357453      0.627281
  H       0.661822     -2.886606      0.564105
  C      -5.180036      0.977315      1.596555
  H      -4.096231      0.908502      1.723751
  H      -5.631135      0.491955      2.466547
  C       0.046660     -3.820354      2.386793
  H      -0.891231     -4.097922      2.878488
  H       0.504445     -3.036538      2.996542
  H      -5.774104     -2.993371     -2.251028
  C      -5.621065      2.435156      1.536792
  H      -6.699713      2.489179      1.350203
  H      -5.138527      2.937225      0.692812
  C       0.982381     -5.021487      2.313610
  H       0.493992     -5.845182      1.784752
  H       1.867046     -4.757507      1.723833
  C       0.072552      4.931255      1.141395
  H      -0.876518      4.703209      1.639478
  H      -0.180580      5.251986      0.126962
  C       7.531456      0.390190      0.943722
  H       7.134552     -0.601992      1.176710
  H       8.172272      0.266105      0.063903
  C       8.368453      0.879348      2.118462
  H       9.182277      0.187229      2.340677
  H       8.808469      1.857263      1.910192
  H       7.759136      0.976446      3.019911
  C       0.768201      6.075903      1.866588
  H       1.708575      6.334096      1.374466
  H       0.145726      6.972127      1.887049
  H       0.998887      5.805799      2.899725
  C      -5.286739      3.186219      2.819262
  H      -5.601688      4.229765      2.766003
  H      -5.779864      2.731301      3.681308
  H      -4.211167      3.169755      3.010147
  C       1.415470     -5.499197      3.693639
  H       0.551232     -5.779774      4.300347
  H       2.071950     -6.368529      3.627802
  H       1.952640     -4.713048      4.228999
101
Coordinates from ORCA-job orca E -2008.224439737640
  C       0.207052      0.166566     -1.238996
  C       1.009431      0.202802      0.011060
  O       1.622632     -0.761079      0.413963
  O       1.152405      1.359145      0.656952
  C      -0.660782      1.351682     -1.550837
  H      -1.630455      1.185260     -1.072181
  H      -0.844230      1.411921     -2.627679
  C       0.249636      2.473686      0.460838
  H      -0.660084      2.230388      1.023976
  C      -0.086428      2.647217     -1.005191
  H      -0.824470      3.444447     -1.107935
  H       0.812449      2.951108     -1.544527
  C      -0.224620     -1.216935     -1.667667
  H       0.598189     -1.890482     -1.432693
  H      -0.354530     -1.233349     -2.754005
  C       1.888324      0.477463     -2.620826
  C       3.110653      0.583678     -1.997793
  H       1.453218      1.374351     -3.040123
  H       1.651352     -0.458923     -3.109833
  C       3.590712      1.937326     -1.628343
  C       3.934973     -0.613460     -1.633846
  O       3.000461      2.949570     -1.924414
  O       4.726971      2.052278     -0.928760
  H       4.599129     -0.862152     -2.472327
  H       3.283311     -1.472936     -1.474076
  C       4.767543     -0.327816     -0.394936
  C       5.576414      0.933394     -0.604228
  H       5.444224     -1.158877     -0.190209
  H       4.111551     -0.208336      0.471375
  H       6.251985      0.796064     -1.459378
  C       0.948006      3.665196      1.087712
  H       1.866709      3.859394      0.524889
  H       1.247135      3.382172      2.100934
  C       6.385689      1.370035      0.603943
  H       5.707079      1.479041      1.456046
  H       6.786840      2.365661      0.394716
  C      -4.224741     -1.610460     -1.606482
  C      -4.467070     -1.981571     -0.140753
  O      -4.078285     -3.031593      0.304978
  O      -5.182512     -1.187242      0.649312
  C      -5.049056     -0.374313     -1.994074
  H      -6.097313     -0.662149     -2.126085
  H      -4.704261     -0.002756     -2.962698
  C      -5.556263      0.178688      0.366041
  H      -6.647693      0.152796      0.262617
  C      -4.953334      0.695208     -0.924750
  H      -5.494204      1.594149     -1.224847
  H      -3.912888      0.977665     -0.748328
  C      -4.723960     -2.800277     -2.440565
  H      -4.186429     -3.717125     -2.212677
  H      -4.605732     -2.576224     -3.503282
  C      -2.724271     -1.302501     -1.917158
  C      -1.548003     -1.847774     -1.078278
  H      -2.622878     -0.222158     -1.949586
  H      -2.550199     -1.646275     -2.942004
  C      -1.651589     -1.361189      0.366565
  C      -1.420826     -3.388202     -1.201651
  O      -2.228100     -0.335116      0.648415
  O      -1.032718     -2.028497      1.321951
  H      -0.654717     -3.603098     -1.951397
  H      -2.350380     -3.797076     -1.584959
  C      -1.091569     -4.100641      0.108413
  C      -0.274591     -3.224607      1.030144
  H      -0.547680     -5.024159     -0.096149
  H      -2.016827     -4.362850      0.624813
  H       0.657987     -2.900841      0.558536
  C      -5.177022      0.983540      1.597521
  H      -4.093350      0.911203      1.723692
  H      -5.628903      0.499871      2.468071
  C       0.042138     -3.834990      2.381271
  H      -0.896365     -4.107399      2.874668
  H       0.505825     -3.054483      2.990825
  H      -5.782751     -2.986176     -2.249603
  C      -5.612994      2.442822      1.537672
  H      -6.691679      2.500723      1.352370
  H      -5.129611      2.942843      0.692945
  C       0.970121     -5.041931      2.305101
  H       0.475225     -5.862374      1.777215
  H       1.854842     -4.783400      1.713120
  C       0.087210      4.922190      1.141026
  H      -0.862069      4.696088      1.639614
  H      -0.165777      5.243728      0.126819
  C       7.527454      0.422482      0.953998
  H       7.131892     -0.567078      1.200074
  H       8.168604      0.287668      0.075996
  C       8.363784      0.928420      2.122114
  H       9.178523      0.240435      2.353620
  H       8.802489      1.903983      1.900486
  H       7.754320      1.036988      3.022156
  C       0.785764      6.065098      1.866202
  H       1.726597      6.321178      1.373824
  H       0.165371      6.962763      1.886955
  H       1.016100      5.794308      2.899245
  C      -5.274099      3.192982      2.819395
  H      -5.584990      4.237757      2.766219
  H      -5.767837      2.740230      3.682239
  H      -4.198297      3.172198      3.008793
  C       1.403811     -5.522854      3.683805
  H       0.539427     -5.798499      4.292580
  H       2.054835     -6.396130      3.615927
  H       1.947122     -4.740239      4.218147
101
Coordinates from ORCA-job orca E -2008.224447315967
  C       0.208661      0.156288     -1.238563
  C       1.012965      0.190425      0.010306
  O       1.623623     -0.775037      0.413166
  O       1.161527      1.347146      0.654518
  C      -0.657088      1.343247     -1.548853
  H      -1.626378      1.178461     -1.068732
  H      -0.842092      1.404035     -2.625390
  C       0.260253      2.463367      0.460915
  H      -0.648308      2.221740      1.026668
  C      -0.079522      2.637703     -1.004137
  H      -0.816813      3.435926     -1.104557
  H       0.818074      2.940628     -1.546147
  C      -0.226798     -1.225762     -1.668111
  H       0.593828     -1.901971     -1.433254
  H      -0.356131     -1.240872     -2.754560
  C       1.890649      0.462809     -2.621509
  C       3.112516      0.578724     -1.999395
  H       1.451865      1.354506     -3.048060
  H       1.657638     -0.478548     -3.102761
  C       3.588381      1.937027     -1.641947
  C       3.940906     -0.612390     -1.624971
  O       2.996278      2.945034     -1.948680
  O       4.723930      2.061601     -0.942832
  H       4.607714     -0.864622     -2.460274
  H       3.292521     -1.473236     -1.459663
  C       4.770148     -0.313396     -0.386890
  C       5.575837      0.948071     -0.606559
  H       5.448767     -1.140643     -0.173282
  H       4.112169     -0.188026      0.477128
  H       6.253011      0.804382     -1.459387
  C       0.962557      3.653554      1.085849
  H       1.879921      3.846373      0.520282
  H       1.264166      3.369949      2.098171
  C       6.382437      1.398591      0.598281
  H       5.702369      1.515471      1.448165
  H       6.781855      2.392729      0.378917
  C      -4.227505     -1.606884     -1.609484
  C      -4.470485     -1.980216     -0.144423
  O      -4.085479     -3.032678      0.298813
  O      -5.183083     -1.185197      0.647537
  C      -5.047591     -0.367082     -1.994153
  H      -6.096861     -0.650980     -2.126501
  H      -4.701748      0.005387     -2.962060
  C      -5.552265      0.182591      0.367337
  H      -6.643774      0.160522      0.264008
  C      -4.947793      0.699781     -0.922498
  H      -5.485533      1.601253     -1.220552
  H      -3.906235      0.978120     -0.745711
  C      -4.731028     -2.793179     -2.446100
  H      -4.196861     -3.712409     -2.220206
  H      -4.611995     -2.567283     -3.508326
  C      -2.726187     -1.302980     -1.919343
  C      -1.552607     -1.853174     -1.080324
  H      -2.621562     -0.222772     -1.949668
  H      -2.552483     -1.645548     -2.944660
  C      -1.656948     -1.367764      0.364771
  C      -1.430051     -3.393930     -1.204992
  O      -2.230274     -0.339879      0.646477
  O      -1.041488     -2.037763      1.320469
  H      -0.663324     -3.610482     -1.953638
  H      -2.360120     -3.799599     -1.590241
  C      -1.105272     -4.108691      0.104950
  C      -0.287075     -3.236225      1.028984
  H      -0.563981     -5.033737     -0.099580
  H      -2.032263     -4.368484      0.619506
  H       0.647412     -2.915267      0.559414
  C      -5.170439      0.983705      1.600530
  H      -4.086885      0.908410      1.726258
  H      -5.623267      0.499140      2.470075
  C       0.025013     -3.848717      2.380230
  H      -0.915309     -4.119049      2.871310
  H       0.489322     -3.069903      2.991463
  H      -5.790485     -2.975681     -2.255577
  C      -5.603140      2.444175      1.544245
  H      -6.681680      2.504828      1.359025
  H      -5.118692      2.945196      0.700734
  C       0.950549     -5.057583      2.305294
  H       0.455561     -5.876331      1.774889
  H       1.837622     -4.800126      1.716260
  C       0.103969      4.911929      1.141703
  H      -0.844564      4.687079      1.642261
  H      -0.150708      5.234318      0.128207
  C       7.525630      0.457298      0.960209
  H       7.131608     -0.529014      1.221309
  H       8.165695      0.310448      0.083349
  C       8.363299      0.981495      2.119322
  H       9.179018      0.297857      2.360016
  H       8.800739      1.953898      1.881921
  H       7.755109      1.103429      3.018501
  C       0.805841      6.053392      1.865924
  H       1.746112      6.308106      1.371779
  H       0.186953      6.952041      1.888186
  H       1.037746      5.781867      2.898421
  C      -5.262982      3.190707      2.827812
  H      -5.571737      4.236218      2.776957
  H      -5.757833      2.736989      3.689502
  H      -4.187308      3.167370      3.017448
  C       1.379107     -5.541131      3.684683
  H       0.512386     -5.816636      4.290176
  H       2.029218     -6.415142      3.617628
  H       1.921635     -4.760056      4.222053
101
Coordinates from ORCA-job orca E -2008.224457715476
  C       0.209629      0.146869     -1.238722
  C       1.014165      0.178380      0.009998
  O       1.620044     -0.789529      0.414124
  O       1.168698      1.335497      0.652448
  C      -0.652826      1.336400     -1.548451
  H      -1.622124      1.174391     -1.067508
  H      -0.838538      1.397644     -2.624824
  C       0.270173      2.454181      0.460041
  H      -0.638182      2.215047      1.027232
  C      -0.071392      2.629353     -1.004472
  H      -0.807046      3.429255     -1.103619
  H       0.825717      2.930279     -1.548310
  C      -0.230194     -1.233744     -1.668567
  H       0.588223     -1.912551     -1.433505
  H      -0.359095     -1.248283     -2.755087
  C       1.892691      0.446815     -2.620422
  C       3.114169      0.571759     -1.998739
  H       1.451834      1.333495     -3.055415
  H       1.663543     -0.499415     -3.093950
  C       3.587873      1.934447     -1.655705
  C       3.945155     -0.613622     -1.612168
  O       2.994496      2.938377     -1.973227
  O       4.722402      2.068126     -0.956543
  H       4.614874     -0.870947     -2.443605
  H       3.299165     -1.474966     -1.440662
  C       4.770525     -0.300633     -0.374862
  C       5.574972      0.959414     -0.606266
  H       5.449716     -1.124607     -0.150618
  H       4.110056     -0.166989      0.486054
  H       6.254187      0.807101     -1.455958
  C       0.976483      3.642565      1.083900
  H       1.893652      3.833012      0.517167
  H       1.278582      3.358349      2.095909
  C       6.378513      1.424833      0.594881
  H       5.696126      1.553842      1.441145
  H       6.779185      2.415655      0.363058
  C      -4.232666     -1.603525     -1.609055
  C      -4.477029     -1.977447     -0.144360
  O      -4.094738     -3.031168      0.298227
  O      -5.187185     -1.180924      0.648279
  C      -5.049649     -0.361342     -1.992847
  H      -6.099646     -0.642467     -2.125404
  H      -4.702874      0.010922     -2.960500
  C      -5.552609      0.188077      0.369147
  H      -6.644231      0.169194      0.266244
  C      -4.947170      0.704583     -0.920517
  H      -5.482793      1.607522     -1.217928
  H      -3.904978      0.980369     -0.743703
  C      -4.739119     -2.787779     -2.446735
  H      -4.207483     -3.708652     -2.221442
  H      -4.619172     -2.561343     -3.508749
  C      -2.730500     -1.303181     -1.918782
  C      -1.557750     -1.857524     -1.081118
  H      -2.623213     -0.223307     -1.947814
  H      -2.558157     -1.644840     -2.944639
  C      -1.658913     -1.373559      0.364778
  C      -1.439597     -3.398437     -1.207871
  O      -2.228884     -0.344369      0.648547
  O      -1.044013     -2.046407      1.318847
  H      -0.674088     -3.616135     -1.957416
  H      -2.371123     -3.801128     -1.592869
  C      -1.115522     -4.115724      0.100828
  C      -0.293680     -3.246878      1.025009
  H      -0.577205     -5.042151     -0.105344
  H      -2.042704     -4.373364      0.616073
  H       0.641375     -2.928340      0.554757
  C      -5.168043      0.987263      1.602713
  H      -4.084523      0.909596      1.727399
  H      -5.621105      0.502849      2.472218
  C       0.017631     -3.862277      2.375122
  H      -0.923240     -4.129385      2.866899
  H       0.485766     -3.086151      2.986869
  H      -5.799111     -2.967599     -2.256650
  C      -5.597645      2.448686      1.548146
  H      -6.676203      2.511873      1.363877
  H      -5.112783      2.949473      0.704727
  C       0.937860     -5.075047      2.297626
  H       0.438655     -5.891134      1.767056
  H       1.825186     -4.820862      1.707643
  C       0.121239      4.903180      1.140512
  H      -0.827602      4.680613      1.641503
  H      -0.133115      5.226408      0.127215
  C       7.520066      0.487944      0.972900
  H       7.124400     -0.492294      1.253640
  H       8.158588      0.322859      0.098141
  C       8.360847      1.033194      2.120046
  H       9.175151      0.352495      2.373486
  H       8.800413      1.999307      1.861809
  H       7.754305      1.175401      3.017355
  C       0.826269      6.042722      1.864687
  H       1.767076      6.295065      1.370334
  H       0.209689      6.942951      1.887151
  H       1.057693      5.770507      2.897109
  C      -5.254709      3.193178      2.832129
  H      -5.561084      4.239454      2.782549
  H      -5.749859      2.739742      3.693803
  H      -4.178906      3.167105      3.020799
  C       1.366276     -5.561840      3.675904
  H       0.499274     -5.834560      4.282258
  H       2.012798     -6.438368      3.606997
  H       1.912694     -4.783559      4.213395
101
Coordinates from ORCA-job orca E -2008.224475363349
  C       0.210591      0.136595     -1.237835
  C       1.016414      0.165225      0.010048
  O       1.618432     -0.804891      0.414513
  O       1.177403      1.322575      0.650835
  C      -0.648883      1.328544     -1.546139
  H      -1.617945      1.168917     -1.063789
  H      -0.835988      1.390465     -2.622221
  C       0.281372      2.443658      0.460620
  H      -0.626226      2.206887      1.030010
  C      -0.063285      2.619928     -1.003022
  H      -0.797457      3.421453     -1.100086
  H       0.832868      2.919113     -1.549418
  C      -0.233487     -1.242249     -1.668740
  H       0.582471     -1.923969     -1.433784
  H      -0.361749     -1.255427     -2.755376
  C       1.894778      0.430900     -2.619537
  C       3.115712      0.565239     -1.998615
  H       1.451080      1.312209     -3.062654
  H       1.669461     -0.520376     -3.084688
  C       3.586856      1.932240     -1.669843
  C       3.949494     -0.614152     -1.599752
  O       2.992491      2.931903     -1.998822
  O       4.721143      2.075177     -0.972016
  H       4.622127     -0.876509     -2.427252
  H       3.306076     -1.476004     -1.421848
  C       4.771126     -0.286951     -0.363528
  C       5.574357      0.971418     -0.607579
  H       5.450917     -1.107476     -0.128636
  H       4.108359     -0.145036      0.494374
  H       6.255149      0.809878     -1.454289
  C       0.992192      3.630124      1.082990
  H       1.908516      3.818505      0.514137
  H       1.295935      3.345017      2.094264
  C       6.375563      1.452638      0.588824
  H       5.690977      1.596872      1.430836
  H       6.779402      2.438676      0.342488
  C      -4.236770     -1.599843     -1.611216
  C      -4.482158     -1.975554     -0.147161
  O      -4.103507     -3.031411      0.293450
  O      -5.189654     -1.178154      0.646971
  C      -5.049939     -0.354525     -1.992839
  H      -6.100788     -0.632193     -2.125888
  H      -4.702027      0.018374     -2.959838
  C      -5.551105      0.192343      0.370119
  H      -6.642777      0.176800      0.267147
  C      -4.944126      0.709220     -0.918673
  H      -5.476995      1.614295     -1.214531
  H      -3.901047      0.981482     -0.741409
  C      -4.746777     -2.781031     -2.451086
  H      -4.218237     -3.704019     -2.227287
  H      -4.625773     -2.553128     -3.512657
  C      -2.733778     -1.303194     -1.920077
  C      -1.563276     -1.862361     -1.082787
  H      -2.623460     -0.223507     -1.946954
  H      -2.561979     -1.643470     -2.946485
  C      -1.663969     -1.379682      0.363539
  C      -1.449646     -3.403477     -1.211348
  O      -2.230816     -0.348944      0.647923
  O      -1.051721     -2.055408      1.317242
  H      -0.684330     -3.622488     -1.960703
  H      -2.382061     -3.803069     -1.597329
  C      -1.128212     -4.123186      0.096676
  C      -0.304637     -3.257609      1.022446
  H      -0.592238     -5.050782     -0.110290
  H      -2.056382     -4.379052      0.611062
  H       0.631545     -2.941051      0.553223
  C      -5.164461      0.988547      1.604971
  H      -4.081058      0.908483      1.729301
  H      -5.618322      0.503539      2.473726
  C       0.004358     -3.875452      2.371914
  H      -0.937355     -4.142113      2.862333
  H       0.472838     -3.100886      2.985349
  H      -5.807406     -2.957767     -2.261650
  C      -5.591270      2.450894      1.552977
  H      -6.669672      2.516368      1.368608
  H      -5.105340      2.952310      0.710543
  C       0.923691     -5.088794      2.293390
  H       0.424661     -5.903482      1.760525
  H       1.812059     -4.834006      1.705088
  C       0.140154      4.892808      1.141679
  H      -0.808469      4.672185      1.643939
  H      -0.114906      5.217207      0.128944
  C       7.513466      0.518996      0.985278
  H       7.113821     -0.452154      1.290840
  H       8.148464      0.329698      0.112835
  C       8.360963      1.088254      2.115775
  H       9.171803      0.409360      2.384642
  H       8.805651      2.044405      1.830661
  H       7.757916      1.258094      3.010624
  C       0.848876      6.030247      1.865555
  H       1.789669      6.280584      1.370150
  H       0.234472      6.931921      1.889207
  H       1.080912      5.756971      2.897561
  C      -5.247418      3.192506      2.838405
  H      -5.551902      4.239409      2.790560
  H      -5.743680      2.738441      3.699104
  H      -4.171752      3.164204      3.027430
  C       1.349865     -5.578648      3.671285
  H       0.481882     -5.852396      4.275755
  H       1.996208     -6.455232      3.601477
  H       1.895760     -4.801731      4.211265
101
Coordinates from ORCA-job orca E -2008.224508441590
  C       0.211391      0.121775     -1.237012
  C       1.017850      0.145844      0.010394
  O       1.612252     -0.828168      0.416580
  O       1.189134      1.303642      0.648293
  C      -0.642310      1.318062     -1.544249
  H      -1.611372      1.163323     -1.060319
  H      -0.830754      1.380726     -2.620040
  C       0.298079      2.429060      0.460093
  H      -0.609174      2.196911      1.032009
  C      -0.049643      2.606734     -1.002619
  H      -0.780663      3.411401     -1.097550
  H       0.845747      2.902142     -1.552293
  C      -0.239734     -1.254360     -1.668989
  H       0.572277     -1.940560     -1.433783
  H      -0.366933     -1.266060     -2.755801
  C       1.897784      0.405035     -2.616841
  C       3.117794      0.552924     -1.996560
  H       1.451316      1.278133     -3.073518
  H       1.677882     -0.553857     -3.068767
  C       3.586897      1.925930     -1.691663
  C       3.954059     -0.617489     -1.576826
  O       2.991608      2.919106     -2.038197
  O       4.720474      2.082411     -0.995411
  H       4.631621     -0.889215     -2.397268
  H       3.313462     -1.479038     -1.388554
  C       4.769117     -0.267982     -0.342187
  C       5.572604      0.985968     -0.606608
  H       5.448366     -1.083610     -0.089270
  H       4.102140     -0.111506      0.509990
  H       6.256442      0.807944     -1.447516
  C       1.016085      3.612234      1.080461
  H       1.932011      3.796344      0.509502
  H       1.320777      3.325992      2.091133
  C       6.369633      1.492406      0.582050
  H       5.680387      1.666237      1.414605
  H       6.783448      2.467725      0.310767
  C      -4.245231     -1.594146     -1.612220
  C      -4.492343     -1.971973     -0.148972
  O      -4.117738     -3.030114      0.289607
  O      -5.195783     -1.172927      0.647128
  C      -5.053734     -0.345008     -1.991413
  H      -6.105630     -0.618430     -2.124995
  H      -4.704451      0.028416     -2.957718
  C      -5.552174      0.199381      0.372794
  H      -6.643957      0.188183      0.270364
  C      -4.943840      0.716340     -0.915318
  H      -5.473549      1.623866     -1.209374
  H      -3.899781      0.984562     -0.737824
  C      -4.759584     -2.771416     -2.454862
  H      -4.235119     -3.697150     -2.232775
  H      -4.636961     -2.541739     -3.515874
  C      -2.741028     -1.302455     -1.920161
  C      -1.572620     -1.868673     -1.084618
  H      -2.626639     -0.223196     -1.943787
  H      -2.570673     -1.640272     -2.947618
  C      -1.669932     -1.388357      0.362758
  C      -1.465585     -3.409948     -1.216624
  O      -2.231773     -0.355586      0.649664
  O      -1.059467     -2.068462      1.314404
  H      -0.701995     -3.630386     -1.967292
  H      -2.399980     -3.805151     -1.602362
  C      -1.144862     -4.133446      0.089511
  C      -0.316999     -3.272551      1.015911
  H      -0.612426     -5.062518     -0.120016
  H      -2.073181     -4.387158      0.604676
  H       0.619559     -2.958114      0.545989
  C      -5.162019      0.992236      1.608668
  H      -4.078641      0.909416      1.731543
  H      -5.616005      0.506692      2.477060
  C      -0.007404     -3.894613      2.363205
  H      -0.948814     -4.161513      2.854065
  H       0.462952     -3.122607      2.978452
  H      -5.821054     -2.944108     -2.266486
  C      -5.585477      2.455655      1.559750
  H      -6.663894      2.523926      1.376447
  H      -5.099134      2.957478      0.717805
  C       0.910906     -5.108305      2.279332
  H       0.410656     -5.920925      1.744421
  H       1.798507     -4.851780      1.690512
  C       0.170104      4.878912      1.140572
  H      -0.778928      4.662460      1.643862
  H      -0.084604      5.204694      0.128208
  C       7.496407      0.560783      1.013319
  H       7.084918     -0.390385      1.362805
  H       8.124872      0.324781      0.147473
  C       8.357455      1.168479      2.113315
  H       9.158049      0.489907      2.411971
  H       8.816583      2.102120      1.780431
  H       7.760620      1.391870      3.000537
  C       0.884706      6.012931      1.864030
  H       1.826237      6.259020      1.367885
  H       0.274443      6.917387      1.888244
  H       1.116285      5.738491      2.895838
  C      -5.238839      3.194147      2.846223
  H      -5.540897      4.241850      2.800478
  H      -5.735462      2.739700      3.706516
  H      -4.163076      3.162954      3.034310
  C       1.339021     -5.603187      3.654803
  H       0.471916     -5.878745      4.259709
  H       1.984934     -6.479759      3.580818
  H       1.886175     -4.828436      4.196620
101
Coordinates from ORCA-job orca E -2008.224522192130
  C       0.213082      0.111693     -1.236382
  C       1.021408      0.132962      0.009756
  O       1.612354     -0.843071      0.415997
  O       1.199385      1.290967      0.645847
  C      -0.637934      1.310331     -1.541728
  H      -1.606470      1.157826     -1.055944
  H      -0.828326      1.373719     -2.617118
  C       0.310452      2.418538      0.460437
  H      -0.595732      2.188414      1.034861
  C      -0.041017      2.597458     -1.001189
  H      -0.770639      3.403694     -1.093621
  H       0.853055      2.891289     -1.553813
  C      -0.242523     -1.262660     -1.669328
  H       0.567241     -1.951795     -1.434919
  H      -0.369723     -1.272766     -2.756178
  C       1.899499      0.389045     -2.616438
  C       3.119120      0.546335     -1.997554
  H       1.450345      1.256409     -3.081438
  H       1.683206     -0.574838     -3.059362
  C       3.585736      1.923172     -1.707252
  C       3.958009     -0.617718     -1.565670
  O       2.989290      2.911716     -2.064871
  O       4.719036      2.088917     -1.012629
  H       4.638385     -0.894506     -2.382092
  H       3.319750     -1.479508     -1.370787
  C       4.769488     -0.254161     -0.332580
  C       5.571587      0.998075     -0.608942
  H       5.449505     -1.065978     -0.069614
  H       4.100317     -0.090252      0.516521
  H       6.257838      0.811141     -1.445931
  C       1.032773      3.599928      1.079188
  H       1.947539      3.782411      0.505825
  H       1.339615      3.312759      2.088949
  C       6.364843      1.520366      0.575290
  H       5.671858      1.711829      1.400833
  H       6.784814      2.488876      0.289382
  C      -4.248863     -1.590072     -1.613390
  C      -4.497265     -1.969354     -0.150724
  O      -4.126203     -3.029423      0.286201
  O      -5.198409     -1.169417      0.646527
  C      -5.053511     -0.337952     -1.990867
  H      -6.106155     -0.608037     -2.125298
  H      -4.702756      0.035984     -2.956448
  C      -5.551267      0.204126      0.373955
  H      -6.643015      0.195858      0.270871
  C      -4.940852      0.721350     -0.913049
  H      -5.467735      1.630899     -1.205882
  H      -3.896038      0.986133     -0.734654
  C      -4.766582     -2.764428     -2.458036
  H      -4.245162     -3.692173     -2.237280
  H      -4.642870     -2.533466     -3.518645
  C      -2.743828     -1.302097     -1.920456
  C      -1.577462     -1.873382     -1.085719
  H      -2.626345     -0.223075     -1.941636
  H      -2.574195     -1.638184     -2.948610
  C      -1.673557     -1.394429      0.362214
  C      -1.475602     -3.414924     -1.219551
  O      -2.232030     -0.360097      0.650076
  O      -1.066232     -2.078059      1.313371
  H      -0.712793     -3.637007     -1.970535
  H      -2.411286     -3.806608     -1.605667
  C      -1.157289     -4.141110      0.085750
  C      -0.327164     -3.283855      1.013467
  H      -0.627563     -5.071490     -0.124817
  H      -2.086496     -4.392738      0.600380
  H       0.610313     -2.971445      0.544206
  C      -5.159974      0.994373      1.611144
  H      -4.076830      0.909087      1.734500
  H      -5.615457      0.508592      2.478615
  C      -0.018954     -3.908607      2.359804
  H      -0.960654     -4.177038      2.849274
  H       0.450510     -3.137710      2.977117
  H      -5.828658     -2.934085     -2.270322
  C      -5.580363      2.458752      1.563972
  H      -6.658472      2.529449      1.379816
  H      -5.092287      2.960779      0.723152
  C       0.900595     -5.121212      2.273964
  H       0.401975     -5.932913      1.736129
  H       1.788669     -4.861912      1.687055
  C       0.189567      4.868321      1.141820
  H      -0.758923      4.653407      1.646780
  H      -0.066421      5.195194      0.130144
  C       7.484341      0.590522      1.028788
  H       7.065080     -0.347556      1.403474
  H       8.109651      0.326469      0.168684
  C       8.352260      1.219798      2.111239
  H       9.145607      0.541541      2.429271
  H       8.821116      2.138436      1.751243
  H       7.758063      1.475362      2.991543
  C       0.907677      6.000505      1.864655
  H       1.848793      6.245090      1.366976
  H       0.299167      6.906087      1.890435
  H       1.140533      5.725051      2.895906
  C      -5.233454      3.194753      2.851798
  H      -5.533349      4.243124      2.807204
  H      -5.731827      2.740123      3.710979
  H      -4.157947      3.161131      3.040888
  C       1.327495     -5.619449      3.648597
  H       0.459953     -5.897712      4.251634
  H       1.974547     -6.495040      3.572962
  H       1.873094     -4.845599      4.193263
101
Coordinates from ORCA-job orca E -2008.224531788796
  C       0.215890      0.102741     -1.238307
  C       1.026834      0.120490      0.005988
  O       1.614172     -0.858002      0.411445
  O       1.212058      1.278345      0.640801
  C      -0.632801      1.303975     -1.540420
  H      -1.600356      1.153381     -1.052125
  H      -0.826058      1.368743     -2.615209
  C       0.325078      2.408201      0.459529
  H      -0.579608      2.179709      1.036854
  C      -0.031275      2.589278     -1.000631
  H      -0.759589      3.397106     -1.089504
  H       0.860959      2.882005     -1.556642
  C      -0.244996     -1.269874     -1.671744
  H       0.563110     -1.961880     -1.439537
  H      -0.373906     -1.278302     -2.758410
  C       1.900417      0.374164     -2.619270
  C       3.120473      0.540495     -2.003013
  H       1.448779      1.235871     -3.092260
  H       1.687190     -0.594411     -3.053262
  C       3.584521      1.920724     -1.726161
  C       3.962696     -0.617266     -1.561598
  O       2.986876      2.904723     -2.094145
  O       4.716560      2.095386     -1.031623
  H       4.645439     -0.897588     -2.374844
  H       3.326880     -1.479657     -1.361142
  C       4.771147     -0.241830     -0.329924
  C       5.570236      1.010675     -0.613808
  H       5.453080     -1.049659     -0.059791
  H       4.100139     -0.073858      0.516903
  H       6.261198      0.818475     -1.445714
  C       1.051938      3.587503      1.077018
  H       1.965458      3.768566      0.501243
  H       1.361107      3.298964      2.085689
  C       6.355619      1.546139      0.569799
  H       5.656210      1.749081      1.387096
  H       6.780212      2.510055      0.275277
  C      -4.252262     -1.586714     -1.612267
  C      -4.500991     -1.966404     -0.149748
  O      -4.131924     -3.027489      0.286360
  O      -5.200144     -1.165540      0.648374
  C      -5.053851     -0.332321     -1.988627
  H      -6.107094     -0.599743     -2.123580
  H      -4.701998      0.041730     -2.953758
  C      -5.551339      0.208488      0.376343
  H      -6.642987      0.201564      0.272106
  C      -4.938929      0.725618     -0.909738
  H      -5.463340      1.636799     -1.201911
  H      -3.893500      0.987453     -0.730515
  C      -4.773415     -2.759107     -2.457597
  H      -4.254330     -3.688416     -2.238018
  H      -4.649739     -2.527565     -3.518075
  C      -2.746668     -1.301956     -1.919743
  C      -1.581126     -1.877134     -1.086492
  H      -2.626592     -0.223161     -1.939474
  H      -2.578523     -1.637055     -2.948451
  C      -1.674430     -1.398644      0.361911
  C      -1.484335     -3.419035     -1.220701
  O      -2.229594     -0.362839      0.650898
  O      -1.068126     -2.084578      1.312175
  H      -0.723708     -3.643399     -1.973231
  H      -2.421983     -3.807715     -1.604933
  C      -1.166146     -4.146643      0.083913
  C      -0.332418     -3.292091      1.010733
  H      -0.639305     -5.078464     -0.127601
  H      -2.095325     -4.395755      0.599776
  H       0.605280     -2.982122      0.540259
  C      -5.160636      0.997533      1.614485
  H      -4.077722      0.911320      1.738946
  H      -5.617347      0.511446      2.481133
  C      -0.023919     -3.918378      2.356351
  H      -0.965406     -4.186605      2.846341
  H       0.446721     -3.148522      2.974060
  H      -5.835827     -2.926201     -2.269460
  C      -5.580014      2.462258      1.568045
  H      -6.657864      2.533743      1.382700
  H      -5.090685      2.964657      0.728184
  C       0.893954     -5.132193      2.268457
  H       0.393785     -5.942686      1.730204
  H       1.781695     -4.873383      1.681085
  C       0.211645      4.857679      1.142697
  H      -0.736085      4.644339      1.649737
  H      -0.046077      5.185729      0.131847
  C       7.468662      0.618403      1.043212
  H       7.042536     -0.311819      1.429466
  H       8.097479      0.338108      0.190756
  C       8.332993      1.259334      2.121773
  H       9.119506      0.581140      2.456420
  H       8.810168      2.169234      1.750713
  H       7.734055      1.532353      2.993621
  C       0.933679      5.987989      1.864520
  H       1.874048      6.231157      1.364737
  H       0.326910      6.894667      1.892262
  H       1.168434      5.711501      2.895059
  C      -5.234092      3.197026      2.856829
  H      -5.533323      4.245605      2.812715
  H      -5.733675      2.742025      3.715107
  H      -4.158815      3.162636      3.047051
  C       1.321624     -5.632402      3.642127
  H       0.454381     -5.909429      4.246156
  H       1.966888     -6.509156      3.564861
  H       1.869564     -4.860078      4.186615
101
Coordinates from ORCA-job orca E -2008.224551173195
  C       0.220343      0.086473     -1.242950
  C       1.035735      0.099158     -0.001738
  O       1.617181     -0.883130      0.402936
  O       1.233239      1.257002      0.630037
  C      -0.624186      1.291819     -1.540508
  H      -1.590195      1.144904     -1.048017
  H      -0.821988      1.358163     -2.614356
  C       0.350164      2.390861      0.454750
  H      -0.551860      2.166281      1.037656
  C      -0.014587      2.574259     -1.003004
  H      -0.740412      3.384882     -1.086548
  H       0.874742      2.864438     -1.564938
  C      -0.249232     -1.283188     -1.676333
  H       0.555818     -1.979799     -1.447277
  H      -0.380927     -1.289313     -2.762701
  C       1.901646      0.346913     -2.626208
  C       3.121975      0.528499     -2.014014
  H       1.445718      1.199025     -3.112536
  H       1.693359     -0.629432     -3.044977
  C       3.580527      1.914386     -1.758942
  C       3.970303     -0.618060     -1.556204
  O       2.981813      2.890173     -2.146683
  O       4.708733      2.104552     -1.062204
  H       4.658534     -0.902873     -2.363236
  H       3.339458     -1.482242     -1.348075
  C       4.770853     -0.222866     -0.325462
  C       5.564187      1.031138     -0.619286
  H       5.456332     -1.023329     -0.042877
  H       4.094940     -0.049522      0.516446
  H       6.265410      0.831972     -1.440852
  C       1.086013      3.566652      1.068271
  H       1.997355      3.743575      0.487661
  H       1.399256      3.276704      2.075280
  C       6.332470      1.588843      0.565454
  H       5.620943      1.803130      1.369275
  H       6.758887      2.548770      0.260785
  C      -4.257798     -1.579601     -1.609638
  C      -4.506562     -1.960843     -0.147499
  O      -4.141403     -3.024194      0.286340
  O      -5.201497     -1.158594      0.652965
  C      -5.053202     -0.320264     -1.982755
  H      -6.107784     -0.582025     -2.118432
  H      -4.699513      0.054501     -2.946930
  C      -5.549010      0.216708      0.383013
  H      -6.640521      0.212962      0.276901
  C      -4.933021      0.734290     -0.901091
  H      -5.452346      1.649053     -1.191098
  H      -3.886222      0.989822     -0.720494
  C      -4.786298     -2.747507     -2.456573
  H      -4.271671     -3.679995     -2.240067
  H      -4.663210     -2.514202     -3.516736
  C      -2.751194     -1.301817     -1.918716
  C      -1.587056     -1.884016     -1.088368
  H      -2.625838     -0.223539     -1.936559
  H      -2.586314     -1.635841     -2.948318
  C      -1.675428     -1.406587      0.360780
  C      -1.498275     -3.426237     -1.224026
  O      -2.225733     -0.368871      0.652140
  O      -1.070548     -2.096438      1.309191
  H      -0.741196     -3.653624     -1.979234
  H      -2.439082     -3.809971     -1.605362
  C      -1.179753     -4.156695      0.078943
  C      -0.340450     -3.306644      1.004845
  H      -0.657183     -5.090387     -0.134869
  H      -2.108715     -4.402637      0.596710
  H       0.597522     -3.000218      0.532669
  C      -5.158635      1.002198      1.623490
  H      -4.076125      0.913485      1.749733
  H      -5.617804      0.515055      2.488255
  C      -0.031721     -3.935662      2.349166
  H      -0.973084     -4.202597      2.840120
  H       0.441555     -3.167842      2.967380
  H      -5.849253     -2.909560     -2.267081
  C      -5.575217      2.467818      1.579784
  H      -6.652465      2.541529      1.391887
  H      -5.082965      2.971535      0.742426
  C       0.882715     -5.151932      2.258192
  H       0.379685     -5.960020      1.719008
  H       1.770592     -4.894569      1.670386
  C       0.252143      4.840808      1.138033
  H      -0.694360      4.631750      1.649116
  H      -0.008399      5.170222      0.128372
  C       7.440657      0.671067      1.068899
  H       7.010170     -0.252751      1.465533
  H       8.080499      0.376570      0.229522
  C       8.289932      1.330807      2.148085
  H       9.071218      0.658285      2.505658
  H       8.772480      2.234316      1.768518
  H       7.678662      1.618141      3.006692
  C       0.982385      5.967639      1.856968
  H       1.921645      6.206810      1.353167
  H       0.379708      6.876951      1.887396
  H       1.220265      5.689958      2.886467
  C      -5.231481      3.198743      2.871351
  H      -5.529121      4.247847      2.829170
  H      -5.733879      2.742255      3.727193
  H      -4.156749      3.162395      3.064199
  C       1.310412     -5.655793      3.630526
  H       0.443046     -5.930782      4.235308
  H       1.952597     -6.534604      3.550990
  H       1.861727     -4.886221      4.175494
101
Coordinates from ORCA-job orca E -2008.224563160895
  C       0.223631      0.075669     -1.246909
  C       1.041994      0.085082     -0.007786
  O       1.619399     -0.899720      0.396521
  O       1.247875      1.242934      0.621699
  C      -0.617565      1.283998     -1.541849
  H      -1.582622      1.140130     -1.046603
  H      -0.818241      1.351159     -2.615090
  C       0.367978      2.379824      0.449897
  H      -0.532370      2.158473      1.036583
  C      -0.002168      2.564434     -1.006290
  H      -0.725997      3.377179     -1.086598
  H       0.885356      2.852388     -1.572176
  C      -0.251989     -1.292026     -1.679900
  H       0.550898     -1.991731     -1.452729
  H      -0.385500     -1.296923     -2.766063
  C       1.903196      0.327979     -2.632259
  C       3.123573      0.519707     -2.022901
  H       1.444381      1.173480     -3.127435
  H       1.697948     -0.653452     -3.040531
  C       3.578432      1.909239     -1.782421
  C       3.976088     -0.619063     -1.553980
  O       2.979360      2.879300     -2.183838
  O       4.703069      2.109854     -1.082874
  H       4.668915     -0.905969     -2.356328
  H       3.348946     -1.484898     -1.341723
  C       4.769669     -0.210851     -0.322950
  C       5.559157      1.044413     -0.622020
  H       5.457415     -1.006149     -0.031499
  H       4.089377     -0.034466      0.514807
  H       6.268719      0.841270     -1.435377
  C       1.110321      3.553214      1.060199
  H       2.020370      3.726531      0.476404
  H       1.425933      3.262723      2.066318
  C       6.313471      1.617136      0.564628
  H       5.592743      1.836129      1.358935
  H       6.739169      2.575757      0.254909
  C      -4.261597     -1.574758     -1.606653
  C      -4.509345     -1.957241     -0.144667
  O      -4.146295     -3.022073      0.287293
  O      -5.200922     -1.154220      0.657945
  C      -5.053527     -0.312413     -1.977065
  H      -6.108997     -0.570743     -2.112427
  H      -4.699425      0.062887     -2.940876
  C      -5.546549      0.221848      0.389604
  H      -6.638051      0.219936      0.283162
  C      -4.929433      0.739934     -0.893690
  H      -5.445972      1.656866     -1.181839
  H      -3.881740      0.991712     -0.713041
  C      -4.795108     -2.739816     -2.454338
  H      -4.282799     -3.674166     -2.240354
  H      -4.673362     -2.505186     -3.514365
  C      -2.754585     -1.301343     -1.917674
  C      -1.590953     -1.888307     -1.089896
  H      -2.625869     -0.223447     -1.934377
  H      -2.592427     -1.634637     -2.947942
  C      -1.675176     -1.411738      0.359819
  C      -1.508075     -3.430786     -1.226786
  O      -2.221509     -0.372478      0.653100
  O      -1.071105     -2.104526      1.306646
  H      -0.753611     -3.660355     -1.983940
  H      -2.451204     -3.810826     -1.606069
  C      -1.189322     -4.163443      0.074929
  C      -0.345614     -3.316932      1.000061
  H      -0.670103     -5.098604     -0.140652
  H      -2.118099     -4.406883      0.594207
  H       0.592564     -3.013395      0.526505
  C      -5.155532      1.005161      1.631227
  H      -4.073133      0.915257      1.757606
  H      -5.615309      0.517153      2.495184
  C      -0.036702     -3.948107      2.343312
  H      -0.978019     -4.213455      2.835223
  H       0.439174     -3.182082      2.961746
  H      -5.858175     -2.899058     -2.263112
  C      -5.570916      2.471192      1.589640
  H      -6.647946      2.545925      1.400904
  H      -5.077602      2.975970      0.753551
  C       0.874647     -5.166501      2.249832
  H       0.369147     -5.972517      1.709853
  H       1.762705     -4.910495      1.661702
  C       0.281434      4.830501      1.131784
  H      -0.664539      4.625036      1.645287
  H       0.019593      5.160527      0.122671
  C       7.419990      0.708547      1.088038
  H       6.988948     -0.213629      1.487874
  H       8.070166      0.409581      0.258256
  C       8.254306      1.380893      2.171068
  H       9.034175      0.714499      2.542964
  H       8.737388      2.283372      1.789776
  H       7.632185      1.672240      3.020488
  C       1.017451      5.954906      1.848617
  H       1.956345      6.190601      1.342495
  H       0.418051      6.866343      1.880099
  H       1.256720      5.676761      2.877671
  C      -5.227966      3.199723      2.882772
  H      -5.525152      4.249019      2.842131
  H      -5.731304      2.741970      3.737384
  H      -4.153426      3.162656      3.076520
  C       1.302163     -5.673437      3.621094
  H       0.434584     -5.946989      4.226226
  H       1.941957     -6.553824      3.539766
  H       1.855957     -4.906101      4.166718
101
Coordinates from ORCA-job orca E -2008.224582573185
  C       0.226947      0.064071     -1.251841
  C       1.048312      0.070231     -0.014829
  O       1.621517     -0.917106      0.389218
  O       1.262641      1.228015      0.612321
  C      -0.610725      1.275452     -1.544246
  H      -1.574792      1.134884     -1.046117
  H      -0.814352      1.343327     -2.616866
  C       0.386373      2.368197      0.443750
  H      -0.512246      2.150550      1.034382
  C       0.010761      2.553826     -1.010878
  H      -0.710850      3.368847     -1.088056
  H       0.896511      2.839273     -1.580792
  C      -0.254898     -1.301632     -1.684159
  H       0.545686     -2.004488     -1.458628
  H      -0.390186     -1.305569     -2.770124
  C       1.904682      0.307850     -2.639570
  C       3.125051      0.509792     -2.033221
  H       1.442903      1.146654     -3.143403
  H       1.702378     -0.678503     -3.037303
  C       3.575989      1.902932     -1.807531
  C       3.981980     -0.620724     -1.552909
  O       2.977095      2.866870     -2.223783
  O       4.696404      2.114350     -1.104444
  H       4.680298     -0.908846     -2.350037
  H       3.359016     -1.488756     -1.337426
  C       4.767028     -0.199281     -0.320834
  C       5.552656      1.057432     -0.624254
  H       5.456915     -0.989088     -0.019718
  H       4.081318     -0.020112      0.511896
  H       6.271795      0.850661     -1.428183
  C       1.135829      3.538988      1.050399
  H       2.044467      3.708183      0.463137
  H       1.453962      3.247984      2.055587
  C       6.290797      1.645747      0.565012
  H       5.559870      1.867743      1.349119
  H       6.714450      2.603894      0.251101
  C      -4.265402     -1.569344     -1.603509
  C      -4.511422     -1.953479     -0.141673
  O      -4.150498     -3.020012      0.287855
  O      -5.198946     -1.149779      0.663741
  C      -5.053479     -0.303554     -1.970381
  H      -6.109977     -0.557990     -2.105042
  H      -4.699248      0.072491     -2.933849
  C      -5.542471      0.227221      0.397602
  H      -6.633993      0.227403      0.291197
  C      -4.924618      0.746123     -0.884956
  H      -5.438238      1.665450     -1.170678
  H      -3.875870      0.993783     -0.704628
  C      -4.804828     -2.731021     -2.452130
  H      -4.295063     -3.667482     -2.241362
  H      -4.684927     -2.494666     -3.511987
  C      -2.758060     -1.300767     -1.916983
  C      -1.595045     -1.892921     -1.092024
  H      -2.625658     -0.223290     -1.932424
  H      -2.598972     -1.633256     -2.947984
  C      -1.674776     -1.417093      0.358168
  C      -1.518312     -3.435671     -1.230041
  O      -2.216823     -0.376130      0.653322
  O      -1.071298     -2.112699      1.303312
  H      -0.766610     -3.667517     -1.989231
  H      -2.463805     -3.811991     -1.607060
  C      -1.199021     -4.170392      0.070419
  C      -0.350639     -3.327373      0.994486
  H      -0.683233     -5.107024     -0.146991
  H      -2.127467     -4.411287      0.591459
  H       0.587649     -3.026843      0.519267
  C      -5.150302      1.007858      1.640533
  H      -4.068034      0.916307      1.766865
  H      -5.610741      0.518952      2.503626
  C      -0.041337     -3.960454      2.336739
  H      -0.982575     -4.223725      2.829928
  H       0.437516     -3.196175      2.955018
  H      -5.867946     -2.887186     -2.258632
  C      -5.563865      2.474489      1.601470
  H      -6.640633      2.550759      1.411830
  H      -5.069197      2.980330      0.766832
  C       0.866626     -5.181193      2.240985
  H       0.358376     -5.985271      1.700694
  H       1.754756     -4.926985      1.652195
  C       0.312494      4.819738      1.123895
  H      -0.632946      4.618272      1.639950
  H       0.049363      5.150493      0.115370
  C       7.396542      0.748490      1.109217
  H       6.966592     -0.173801      1.509956
  H       8.059568      0.448306      0.290134
  C       8.211615      1.434102      2.198522
  H       8.991332      0.775804      2.584917
  H       8.693107      2.337700      1.817904
  H       7.576295      1.726008      3.037918
  C       1.054846      5.941354      1.838547
  H       1.993408      6.173169      1.330014
  H       0.459144      6.855164      1.871182
  H       1.295501      5.662596      2.867113
  C      -5.221558      3.200181      2.896375
  H      -5.517835      4.249798      2.857462
  H      -5.726163      2.741196      3.749580
  H      -4.147261      3.161904      3.091182
  C       1.294207     -5.690707      3.611263
  H       0.426516     -5.962541      4.217006
  H       1.931514     -6.572744      3.528359
  H       1.850626     -4.925461      4.157148
101
Coordinates from ORCA-job orca E -2008.224614463882
  C       0.232066      0.046607     -1.259186
  C       1.057925      0.047656     -0.025388
  O       1.624553     -0.943607      0.378226
  O       1.285142      1.205123      0.598342
  C      -0.600021      1.262783     -1.547646
  H      -1.562450      1.127581     -1.044851
  H      -0.808357      1.331786     -2.619267
  C       0.415048      2.350717      0.434377
  H      -0.480980      2.139336      1.031100
  C       0.031178      2.537829     -1.017826
  H      -0.686708      3.356567     -1.090272
  H       0.914225      2.819153     -1.593916
  C      -0.259392     -1.316040     -1.690255
  H       0.537716     -2.023600     -1.467114
  H      -0.397364     -1.318741     -2.775918
  C       1.906409      0.277257     -2.650646
  C       3.126915      0.494345     -2.049412
  H       1.440226      1.106019     -3.167005
  H       1.708341     -0.716092     -3.032792
  C       3.572160      1.892610     -1.846356
  C       3.990692     -0.623288     -1.552200
  O       2.974164      2.846882     -2.285657
  O       4.685663      2.120449     -1.137572
  H       4.697994     -0.912037     -2.341137
  H       3.374600     -1.495202     -1.332812
  C       4.761586     -0.182046     -0.318048
  C       5.541372      1.077016     -0.627141
  H       5.454507     -0.963280     -0.001933
  H       4.066977      0.000823      0.506408
  H       6.275861      0.865313     -1.415663
  C       1.175834      3.517331      1.034955
  H       2.082542      3.679317      0.442611
  H       1.497294      3.225916      2.038981
  C       6.253061      1.689094      0.566324
  H       5.505977      1.914521      1.334092
  H       6.673083      2.646906      0.246641
  C      -4.271396     -1.561476     -1.597440
  C      -4.514462     -1.947502     -0.135656
  O      -4.156610     -3.016398      0.290549
  O      -5.195306     -1.142311      0.673957
  C      -5.054067     -0.290903     -1.959390
  H      -6.112112     -0.539776     -2.092413
  H      -4.700069      0.085764     -2.922694
  C      -5.535709      0.235981      0.410646
  H      -6.627364      0.239387      0.305259
  C      -4.917784      0.755392     -0.871595
  H      -5.427471      1.677961     -1.153897
  H      -3.867476      0.997380     -0.692635
  C      -4.819576     -2.718511     -2.446740
  H      -4.313506     -3.657947     -2.240308
  H      -4.702541     -2.480104     -3.506463
  C      -2.763650     -1.300040     -1.915063
  C      -1.601237     -1.899958     -1.094753
  H      -2.625888     -0.223219     -1.928531
  H      -2.609464     -1.631107     -2.947288
  C      -1.673746     -1.425692      0.356368
  C      -1.533561     -3.442994     -1.235092
  O      -2.209252     -0.382279      0.654811
  O      -1.071231     -2.126032      1.298663
  H      -0.786046     -3.677813     -1.997493
  H      -2.482580     -3.813679     -1.608780
  C      -1.213229     -4.181338      0.063101
  C      -0.357827     -3.343896      0.985786
  H      -0.702478     -5.119987     -0.157494
  H      -2.141060     -4.418815      0.586803
  H       0.580436     -3.047560      0.507965
  C      -5.140571      1.013224      1.654743
  H      -4.058354      0.919377      1.779872
  H      -5.601034      0.523333      2.517286
  C      -0.047431     -3.980753      2.325981
  H      -0.988365     -4.241271      2.821226
  H       0.436144     -3.219582      2.944429
  H      -5.882714     -2.870089     -2.249674
  C      -5.551614      2.480669      1.619223
  H      -6.628196      2.559051      1.429382
  H      -5.055881      2.987756      0.785990
  C       0.855441     -5.204861      2.225395
  H       0.342935     -6.005541      1.684049
  H       1.743447     -4.952743      1.635504
  C       0.361743      4.803836      1.110264
  H      -0.583129      4.609355      1.630034
  H       0.097169      5.135225      0.102336
  C       7.357308      0.810572      1.143166
  H       6.929889     -0.113118      1.543380
  H       8.041919      0.511080      0.341842
  C       8.139162      1.516489      2.243748
  H       8.918889      0.871989      2.652795
  H       8.616935      2.423258      1.865990
  H       7.481792      1.806717      3.066573
  C       1.114214      5.921144      1.821070
  H       2.052609      6.145995      1.309098
  H       0.524815      6.838991      1.854546
  H       1.356360      5.642005      2.849186
  C      -5.208888      3.202752      2.916041
  H      -5.504019      4.252781      2.879572
  H      -5.714326      2.742241      3.767927
  H      -4.134716      3.162925      3.111210
  C       1.283629     -5.719584      3.593538
  H       0.416013     -5.989730      4.200153
  H       1.917402     -6.603837      3.507176
  H       1.843928     -4.957930      4.140484
101
Coordinates from ORCA-job orca E -2008.224652188904
  C       0.237032      0.028493     -1.265591
  C       1.067779      0.023587     -0.035327
  O       1.628042     -0.971784      0.366963
  O       1.308169      1.180228      0.585573
  C      -0.589504      1.249594     -1.549027
  H      -1.550025      1.119470     -1.041214
  H      -0.803008      1.320352     -2.619480
  C       0.444561      2.331512      0.427104
  H      -0.448512      2.126328      1.030288
  C       0.051665      2.520951     -1.022373
  H      -0.662483      3.343441     -1.089232
  H       0.931569      2.798594     -1.604990
  C      -0.264110     -1.330789     -1.695944
  H       0.529307     -2.043195     -1.475370
  H      -0.404667     -1.331886     -2.781299
  C       1.907268      0.246705     -2.661225
  C       3.128165      0.479004     -2.065941
  H       1.436207      1.065306     -3.189427
  H       1.713621     -0.753299     -3.027997
  C       3.567615      1.882017     -1.885379
  C       3.999678     -0.625264     -1.553189
  O       2.970413      2.826181     -2.347131
  O       4.674316      2.126349     -1.171559
  H       4.716129     -0.912802     -2.334273
  H       3.391527     -1.501871     -1.330668
  C       4.755973     -0.164807     -0.316983
  C       5.529281      1.097049     -0.631225
  H       5.452151     -0.937116      0.013557
  H       4.052424      0.020519      0.499216
  H       6.278912      0.881468     -1.404189
  C       1.217331      3.493336      1.021767
  H       2.121543      3.648490      0.423716
  H       1.542967      3.200618      2.024081
  C       6.214136      1.732448      0.565808
  H       5.451291      1.960062      1.317321
  H       6.629826      2.690289      0.240645
  C      -4.277323     -1.554062     -1.591979
  C      -4.517807     -1.941518     -0.130170
  O      -4.163652     -3.012848      0.293000
  O      -5.191819     -1.134431      0.683286
  C      -5.054316     -0.278798     -1.949585
  H      -6.113862     -0.522027     -2.081062
  H      -4.700319      0.098097     -2.912798
  C      -5.528854      0.245095      0.422238
  H      -6.620610      0.251863      0.317788
  C      -4.910682      0.764464     -0.859825
  H      -5.416330      1.690167     -1.139121
  H      -3.858828      1.000782     -0.682234
  C      -4.834078     -2.706576     -2.441831
  H      -4.331946     -3.648969     -2.239352
  H      -4.719517     -2.466388     -3.501426
  C      -2.769179     -1.299722     -1.913328
  C      -1.607680     -1.907324     -1.097404
  H      -2.626093     -0.223543     -1.924756
  H      -2.619598     -1.629299     -2.946709
  C      -1.673406     -1.434304      0.354444
  C      -1.548942     -3.450582     -1.239784
  O      -2.202236     -0.388288      0.655657
  O      -1.072140     -2.139028      1.294216
  H      -0.805458     -3.688430     -2.005154
  H      -2.501294     -3.815800     -1.610291
  C      -1.227664     -4.192197      0.056390
  C      -0.365715     -3.359905      0.977777
  H      -0.721653     -5.132719     -0.167109
  H      -2.154910     -4.426458      0.582559
  H       0.572595     -3.067618      0.497634
  C      -5.130741      1.019449      1.667165
  H      -4.048606      0.923170      1.791250
  H      -5.591425      0.529104      2.529328
  C      -0.054337     -3.999965      2.316147
  H      -0.994895     -4.258476      2.813167
  H       0.433036     -3.241386      2.934793
  H      -5.897272     -2.853385     -2.241523
  C      -5.538986      2.487764      1.634287
  H      -6.615336      2.568354      1.444051
  H      -5.041984      2.995478      0.802197
  C       0.845062     -5.226178      2.211216
  H       0.329709     -6.024158      1.668587
  H       1.732859     -4.974761      1.620611
  C       0.412733      4.785545      1.100763
  H      -0.531278      4.597500      1.624449
  H       0.146266      5.118807      0.093984
  C       7.316939      0.873877      1.174561
  H       6.893240     -0.052172      1.573308
  H       8.023441      0.577237      0.391441
  C       8.063782      1.599854      2.286330
  H       8.843694      0.970304      2.717716
  H       8.536446      2.510761      1.912070
  H       7.384006      1.886527      3.091991
  C       1.175666      5.897531      1.808723
  H       2.113627      6.115989      1.293189
  H       0.592672      6.819365      1.844443
  H       1.419742      5.616685      2.835919
  C      -5.195905      3.207030      2.932596
  H      -5.489721      4.257488      2.897817
  H      -5.702392      2.745662      3.783397
  H      -4.121898      3.165640      3.128337
  C       1.273923     -5.745531      3.577396
  H       0.406500     -6.015257      4.184481
  H       1.905444     -6.631066      3.487819
  H       1.836796     -4.986738      4.125679
101
Coordinates from ORCA-job orca E -2008.224698085329
  C       0.244642      0.000359     -1.271990
  C       1.082284     -0.013234     -0.046738
  O       1.633342     -1.014328      0.353915
  O       1.341772      1.142002      0.569902
  C      -0.573463      1.228722     -1.548366
  H      -1.531123      1.106376     -1.033271
  H      -0.794410      1.301978     -2.617102
  C       0.488502      2.301913      0.418649
  H      -0.400294      2.106686      1.031292
  C       0.082590      2.494478     -1.026804
  H      -0.625695      3.322660     -1.085728
  H       0.957673      2.766390     -1.619197
  C      -0.270756     -1.353807     -1.701419
  H       0.516806     -2.073633     -1.484005
  H      -0.414359     -1.352501     -2.786416
  C       1.908579      0.200005     -2.673273
  C       3.129533      0.455483     -2.087192
  H       1.430109      1.002882     -3.218946
  H       1.722140     -0.809554     -3.016978
  C       3.559293      1.865229     -1.940610
  C       4.013033     -0.627484     -1.551022
  O       2.963082      2.792912     -2.435918
  O       4.655407      2.135344     -1.219935
  H       4.743921     -0.911657     -2.319867
  H       3.417997     -1.511894     -1.324260
  C       4.745790     -0.137184     -0.311976
  C       5.508775      1.128760     -0.635075
  H       5.446802     -0.895109      0.040875
  H       4.028269      0.051500      0.491141
  H       6.279633      0.907659     -1.385111
  C       1.279560      3.456317      1.003789
  H       2.180649      3.599593      0.397946
  H       1.610209      3.162401      2.004143
  C       6.155232      1.798909      0.564421
  H       5.371127      2.029082      1.293055
  H       6.563451      2.756655      0.229689
  C      -4.285596     -1.541670     -1.585427
  C      -4.524785     -1.931838     -0.124208
  O      -4.177633     -3.007247      0.294403
  O      -5.188483     -1.121610      0.694582
  C      -5.052961     -0.258938     -1.937150
  H      -6.114656     -0.493179     -2.067648
  H      -4.697599      0.118389     -2.899685
  C      -5.519101      0.260069      0.437070
  H      -6.610904      0.272745      0.333318
  C      -4.899250      0.779380     -0.844085
  H      -5.398321      1.709902     -1.119144
  H      -3.845317      1.007022     -0.667505
  C      -4.854244     -2.686720     -2.437438
  H      -4.358931     -3.633851     -2.240357
  H      -4.741409     -2.443512     -3.496537
  C      -2.776259     -1.298597     -1.909825
  C      -1.617562     -1.918890     -1.099440
  H      -2.624509     -0.223528     -1.917414
  H      -2.632312     -1.625326     -2.944924
  C      -1.673659     -1.448665      0.353847
  C      -1.573319     -3.462385     -1.245487
  O      -2.192304     -0.398926      0.659788
  O      -1.074859     -2.160827      1.289572
  H      -0.836149     -3.704900     -2.015469
  H      -2.530931     -3.818478     -1.611237
  C      -1.251104     -4.209755      0.047281
  C      -0.379032     -3.386022      0.966935
  H      -0.752654     -5.153189     -0.180960
  H      -2.177529     -4.438986      0.577093
  H       0.559172     -3.099611      0.483171
  C      -5.116681      1.029378      1.683706
  H      -4.034642      0.929486      1.806161
  H      -5.577694      0.537795      2.544982
  C      -0.065791     -4.031924      2.302047
  H      -1.005564     -4.288686      2.801444
  H       0.426593     -3.277382      2.921679
  H      -5.917886     -2.825876     -2.234118
  C      -5.520959      2.498921      1.655746
  H      -6.596996      2.582831      1.465127
  H      -5.022206      3.008187      0.825673
  C       0.829402     -5.260485      2.189533
  H       0.310689     -6.054245      1.643884
  H       1.716816     -5.008638      1.598529
  C       0.490551      4.757880      1.085760
  H      -0.452781      4.581118      1.614561
  H       0.222648      5.092937      0.079969
  C       7.256525      0.971834      1.217833
  H       6.840191      0.042676      1.617136
  H       7.992119      0.679548      0.460383
  C       7.954600      1.728620      2.340703
  H       8.735460      1.122846      2.803271
  H       8.417656      2.645126      1.968030
  H       7.245030      2.010386      3.122010
  C       1.269532      5.861889      1.788655
  H       2.207591      6.068968      1.268600
  H       0.697213      6.790311      1.825656
  H       1.514922      5.579683      2.815170
  C      -5.177192      3.213059      2.956688
  H      -5.469121      4.264155      2.925255
  H      -5.685050      2.749750      3.805617
  H      -4.103398      3.169209      3.152997
  C       1.259218     -5.787974      3.552273
  H       0.392104     -6.058477      4.159450
  H       1.888136     -6.674770      3.457047
  H       1.825148     -5.033643      4.103564
101
Coordinates from ORCA-job orca E -2008.224716922333
  C       0.248884     -0.017633     -1.272664
  C       1.091488     -0.038013     -0.051166
  O       1.637403     -1.042871      0.347018
  O       1.363086      1.115585      0.563891
  C      -0.563954      1.215571     -1.543006
  H      -1.519586      1.097506     -1.023106
  H      -0.789929      1.291531     -2.610479
  C       0.516922      2.281422      0.418526
  H      -0.368652      2.092642      1.037725
  C       0.101632      2.477291     -1.023813
  H      -0.603045      3.308995     -1.076310
  H       0.972879      2.746502     -1.622869
  C      -0.275292     -1.368100     -1.703083
  H       0.508437     -2.092759     -1.488052
  H      -0.420345     -1.364220     -2.787901
  C       1.909127      0.171835     -2.678349
  C       3.129990      0.442568     -2.098803
  H       1.424932      0.964340     -3.234255
  H       1.727854     -0.843543     -3.007356
  C       3.552747      1.856507     -1.973358
  C       4.022168     -0.626112     -1.548853
  O       2.956389      2.773079     -2.488692
  O       4.642195      2.143525     -1.249117
  H       4.762227     -0.906450     -2.310292
  H       3.436728     -1.516202     -1.319746
  C       4.739641     -0.116773     -0.308410
  C       5.495037      1.152058     -0.637760
  H       5.444206     -0.864882      0.058082
  H       4.013446      0.073052      0.486558
  H       6.277795      0.928210     -1.374461
  C       1.320867      3.430033      0.997644
  H       2.219748      3.565103      0.386525
  H       1.654938      3.134517      1.996415
  C       6.119534      1.843155      0.561446
  H       5.324317      2.073468      1.278036
  H       6.521638      2.801215      0.220230
  C      -4.290730     -1.535401     -1.582637
  C      -4.529531     -1.926266     -0.121559
  O      -4.187075     -3.003992      0.294982
  O      -5.187341     -1.113704      0.699665
  C      -5.052362     -0.248675     -1.932105
  H      -6.115163     -0.477919     -2.062426
  H      -4.695773      0.128310     -2.894320
  C      -5.514550      0.268929      0.443073
  H      -6.606352      0.284734      0.339491
  C      -4.893570      0.787517     -0.837773
  H      -5.389102      1.720426     -1.111184
  H      -3.838603      1.010743     -0.661663
  C      -4.865836     -2.676500     -2.435577
  H      -4.374554     -3.626227     -2.241004
  H      -4.753536     -2.431992     -3.494447
  C      -2.780666     -1.298976     -1.908233
  C      -1.624381     -1.926668     -1.100240
  H      -2.623739     -0.224597     -1.913797
  H      -2.639439     -1.624300     -2.944151
  C      -1.676421     -1.458489      0.353869
  C      -1.588583     -3.470172     -1.248548
  O      -2.190365     -0.407209      0.662392
  O      -1.079359     -2.174856      1.287554
  H      -0.854841     -3.715360     -2.020948
  H      -2.549129     -3.820762     -1.611832
  C      -1.266604     -4.220989      0.042346
  C      -0.389294     -3.402356      0.961569
  H      -0.772405     -5.166055     -0.188381
  H      -2.192874     -4.447362      0.573685
  H       0.549106     -3.119266      0.476305
  C      -5.110071      1.036380      1.690139
  H      -4.028093      0.934752      1.811939
  H      -5.571343      0.544686      2.551209
  C      -0.075758     -4.051976      2.294788
  H      -1.015350     -4.307873      2.794965
  H       0.419229     -3.299982      2.915462
  H      -5.929800     -2.811180     -2.230932
  C      -5.512447      2.506490      1.663583
  H      -6.588244      2.591824      1.472245
  H      -5.012513      3.016054      0.834399
  C       0.816821     -5.281997      2.177917
  H       0.296527     -6.072816      1.629484
  H       1.704610     -5.029668      1.587714
  C       0.543267      4.738224      1.082508
  H      -0.399646      4.569302      1.614605
  H       0.274656      5.075409      0.077637
  C       7.221662      1.036320      1.238163
  H       6.811625      0.105469      1.640056
  H       7.971423      0.746823      0.493670
  C       7.894572      1.812265      2.363300
  H       8.677771      1.221908      2.841512
  H       8.349603      2.732009      1.988653
  H       7.170767      2.090866      3.132595
  C       1.333760      5.835677      1.782768
  H       2.271965      6.034773      1.259861
  H       0.769356      6.768857      1.821283
  H       1.579796      5.551611      2.808619
  C      -5.169058      3.218956      2.965545
  H      -5.460236      4.270285      2.934940
  H      -5.677937      2.755152      3.813590
  H      -4.095462      3.174235      3.162711
  C       1.245774     -5.815186      3.538696
  H       0.378221     -6.086424      4.144932
  H       1.873125     -6.702729      3.440149
  H       1.813127     -5.063952      4.092755
101
Coordinates from ORCA-job orca E -2008.224738784538
  C       0.252268     -0.031998     -1.268572
  C       1.099526     -0.059854     -0.050889
  O       1.642252     -1.067923      0.343233
  O       1.380081      1.091331      0.565388
  C      -0.556657      1.205615     -1.531646
  H      -1.510479      1.089780     -1.007857
  H      -0.787037      1.285521     -2.597858
  C       0.540652      2.262951      0.426416
  H      -0.341858      2.079728      1.051546
  C       0.116114      2.463593     -1.012768
  H      -0.586451      3.297567     -1.057572
  H       0.982620      2.732874     -1.618158
  C      -0.279460     -1.378943     -1.701797
  H       0.500577     -2.108235     -1.489011
  H      -0.425151     -1.371818     -2.786526
  C       1.910828      0.150460     -2.678313
  C       3.132347      0.435343     -2.106462
  H       1.420291      0.932958     -3.242703
  H       1.735382     -0.869856     -2.994154
  C       3.549340      1.852665     -1.998660
  C       4.033815     -0.621051     -1.547879
  O       2.952109      2.759901     -2.528871
  O       4.634520      2.153611     -1.273343
  H       4.781312     -0.894945     -2.304396
  H       3.458663     -1.517484     -1.318232
  C       4.738951     -0.096550     -0.306667
  C       5.487524      1.174577     -0.642341
  H       5.446967     -0.836308      0.070068
  H       4.006383      0.093685      0.482145
  H       6.277732      0.948234     -1.370289
  C       1.357004      3.405226      1.001283
  H       2.254235      3.532397      0.386240
  H       1.693425      3.107072      1.998520
  C       6.098687      1.881341      0.554451
  H       5.298572      2.108825      1.266619
  H       6.492161      2.840978      0.207513
  C      -4.295386     -1.531928     -1.584168
  C      -4.536185     -1.923562     -0.123592
  O      -4.197559     -3.002949      0.291806
  O      -5.190845     -1.109484      0.698598
  C      -5.053082     -0.242818     -1.933391
  H      -6.116274     -0.469222     -2.065528
  H      -4.694179      0.134166     -2.894762
  C      -5.516735      0.273362      0.441838
  H      -6.608397      0.290217      0.336803
  C      -4.893577      0.792020     -0.837921
  H      -5.387204      1.726049     -1.110966
  H      -3.838418      1.013396     -0.660552
  C      -4.872975     -2.670397     -2.438908
  H      -4.384729     -3.621853     -2.245292
  H      -4.759060     -2.424872     -3.497368
  C      -2.784230     -1.299426     -1.907727
  C      -1.631001     -1.932507     -1.099783
  H      -2.623736     -0.225501     -1.910929
  H      -2.643024     -1.623189     -2.944135
  C      -1.682142     -1.465693      0.354868
  C      -1.601664     -3.476067     -1.248975
  O      -2.194052     -0.413833      0.664747
  O      -1.086386     -2.184401      1.287755
  H      -0.870140     -3.723860     -2.022628
  H      -2.564335     -3.822295     -1.610626
  C      -1.281277     -4.228899      0.041237
  C      -0.400634     -3.414039      0.960604
  H      -0.790414     -5.175487     -0.190332
  H      -2.208030     -4.452487      0.572946
  H       0.538577     -3.134301      0.475076
  C      -5.113365      1.040211      1.689569
  H      -4.031276      0.939685      1.811684
  H      -5.574445      0.547363      2.550080
  C      -0.088836     -4.065871      2.293176
  H      -1.029080     -4.319294      2.793417
  H       0.408821     -3.316130      2.914448
  H      -5.937526     -2.802213     -2.235428
  C      -5.517708      2.509805      1.663714
  H      -6.593248      2.593660      1.470286
  H      -5.016933      3.020904      0.835979
  C       0.799483     -5.298834      2.174740
  H       0.277089     -6.086636      1.623969
  H       1.688787     -5.048302      1.586152
  C       0.591440      4.720250      1.089472
  H      -0.351679      4.559193      1.623645
  H       0.323475      5.060737      0.085552
  C       7.207097      1.091796      1.240915
  H       6.806405      0.158812      1.647259
  H       7.962332      0.806231      0.500379
  C       7.868303      1.883066      2.362205
  H       8.659220      1.306818      2.844809
  H       8.311081      2.806763      1.982557
  H       7.139985      2.156533      3.129124
  C       1.393428      5.809834      1.788888
  H       2.332522      6.000514      1.264453
  H       0.837761      6.748164      1.828981
  H       1.638611      5.522887      2.814144
  C      -5.178231      3.221600      2.967042
  H      -5.471320      4.272423      2.936809
  H      -5.688055      2.756048      3.813558
  H      -4.104987      3.178717      3.166470
  C       1.225015     -5.836440      3.534846
  H       0.355884     -6.106223      4.139472
  H       1.849587     -6.725791      3.434975
  H       1.794294     -5.088430      4.091266
101
Coordinates from ORCA-job orca E -2008.224746746555
  C       0.255382     -0.042238     -1.266744
  C       1.104929     -0.075530     -0.051198
  O       1.644847     -1.086025      0.340430
  O       1.390639      1.073615      0.566944
  C      -0.550189      1.198707     -1.525187
  H      -1.503200      1.084656     -0.999625
  H      -0.782772      1.281721     -2.590674
  C       0.557227      2.249751      0.431414
  H      -0.323767      2.071499      1.060051
  C       0.127591      2.453804     -1.005676
  H      -0.573235      3.289551     -1.045479
  H       0.991580      2.723207     -1.614556
  C      -0.282228     -1.386488     -1.701318
  H       0.494638     -2.119340     -1.489074
  H      -0.427852     -1.377710     -2.786038
  C       1.912832      0.133263     -2.677421
  C       3.134546      0.428270     -2.111504
  H       1.418379      0.908224     -3.248794
  H       1.742062     -0.890722     -2.983591
  C       3.546725      1.847804     -2.017497
  C       4.042142     -0.618717     -1.545524
  O       2.948695      2.747174     -2.559872
  O       4.628483      2.159771     -1.291183
  H       4.795210     -0.888367     -2.298076
  H       3.474485     -1.519698     -1.315285
  C       4.738016     -0.081898     -0.304275
  C       5.481962      1.190430     -0.645926
  H       5.448204     -0.815159      0.081108
  H       4.000699      0.109841      0.479696
  H       6.277806      0.961514     -1.366981
  C       1.382784      3.387010      1.003140
  H       2.279191      3.507571      0.385547
  H       1.720158      3.087144      1.999562
  C       6.082839      1.909388      0.548600
  H       5.278849      2.136083      1.256649
  H       6.471430      2.869432      0.197233
  C      -4.298551     -1.528658     -1.585527
  C      -4.540894     -1.921955     -0.125589
  O      -4.204504     -3.002597      0.288378
  O      -5.193753     -1.107655      0.697767
  C      -5.053580     -0.237684     -1.933447
  H      -6.117023     -0.462037     -2.067018
  H      -4.693086      0.140186     -2.893860
  C      -5.518779      0.275495      0.442057
  H      -6.610308      0.293088      0.335554
  C      -4.893589      0.795217     -0.836259
  H      -5.385690      1.730316     -1.108404
  H      -3.838278      1.014906     -0.657519
  C      -4.877366     -2.664740     -2.442613
  H      -4.391140     -3.617482     -2.250208
  H      -4.762054     -2.417733     -3.500596
  C      -2.786841     -1.298301     -1.907514
  C      -1.635777     -1.935579     -1.099928
  H      -2.623908     -0.224688     -1.907942
  H      -2.645628     -1.620087     -2.944541
  C      -1.685936     -1.469589      0.355004
  C      -1.611244     -3.479098     -1.249576
  O      -2.197202     -0.417853      0.666173
  O      -1.089465     -2.189208      1.286853
  H      -0.881968     -3.728929     -2.024707
  H      -2.575757     -3.822307     -1.609122
  C      -1.290817     -4.232939      0.040032
  C      -0.407110     -3.420537      0.958742
  H      -0.802555     -5.180646     -0.192373
  H      -2.217491     -4.454490      0.572776
  H       0.532454     -3.143303      0.472430
  C      -5.116818      1.040953      1.691110
  H      -4.034852      0.940470      1.814285
  H      -5.578758      0.547040      2.550538
  C      -0.096058     -4.073438      2.291012
  H      -1.036651     -4.323156      2.792468
  H       0.405276     -3.325598      2.911592
  H      -5.942328     -2.794911     -2.240285
  C      -5.521551      2.510463      1.666223
  H      -6.596550      2.594080      1.469701
  H      -5.018587      3.022918      0.840640
  C       0.787109     -5.310059      2.171803
  H       0.261096     -6.095579      1.621250
  H       1.677070     -5.063179      1.582678
  C       0.626943      4.707512      1.092547
  H      -0.316119      4.553611      1.628880
  H       0.359228      5.049349      0.089003
  C       7.193733      1.131025      1.243803
  H       6.797598      0.197311      1.652915
  H       7.953615      0.846961      0.507425
  C       7.845174      1.932326      2.363519
  H       8.640057      1.365273      2.850451
  H       8.280904      2.858265      1.981128
  H       7.112794      2.202894      3.127628
  C       1.438648      5.791509      1.789405
  H       2.378186      5.974457      1.263008
  H       0.890310      6.734117      1.829771
  H       1.683631      5.503617      2.814454
  C      -5.186518      3.220620      2.971602
  H      -5.479977      4.271340      2.941836
  H      -5.698925      2.753723      3.815818
  H      -4.113942      3.177977      3.174556
  C       1.211306     -5.849628      3.531548
  H       0.341505     -6.115918      4.136738
  H       1.832105     -6.741556      3.431070
  H       1.784178     -5.104182      4.087741
101
Coordinates from ORCA-job orca E -2008.224751648553
  C       0.259049     -0.050234     -1.264616
  C       1.110478     -0.087037     -0.050624
  O       1.650121     -1.098637      0.338426
  O       1.398471      1.060574      0.569483
  C      -0.544645      1.192717     -1.519639
  H      -1.497100      1.079202     -0.992995
  H      -0.778728      1.278129     -2.584598
  C       0.568877      2.239513      0.436355
  H      -0.310990      2.064242      1.067409
  C       0.135495      2.446106     -0.999275
  H      -0.564980      3.282346     -1.035272
  H       0.997257      2.716644     -1.610550
  C      -0.283035     -1.392616     -1.699754
  H       0.491386     -2.127997     -1.487550
  H      -0.428474     -1.382904     -2.784500
  C       1.914758      0.119435     -2.675628
  C       3.137220      0.422717     -2.115269
  H       1.416817      0.888000     -3.252650
  H       1.748113     -0.907554     -2.973911
  C       3.545527      1.844002     -2.032150
  C       4.049885     -0.616865     -1.544047
  O       2.945745      2.737432     -2.582170
  O       4.625055      2.164701     -1.305977
  H       4.806154     -0.884002     -2.294345
  H       3.487978     -1.520928     -1.312229
  C       4.740513     -0.070237     -0.304062
  C       5.480268      1.203042     -0.651644
  H       5.452796     -0.798350      0.087128
  H       4.000762      0.122927      0.477240
  H       6.279295      0.972405     -1.368572
  C       1.400347      3.373552      1.006110
  H       2.295808      3.490215      0.386461
  H       1.738970      3.072232      2.001701
  C       6.074721      1.931694      0.540201
  H       5.268424      2.158132      1.245711
  H       6.459506      2.891784      0.184822
  C      -4.300197     -1.524881     -1.587840
  C      -4.546326     -1.920082     -0.128987
  O      -4.213279     -3.002188      0.283862
  O      -5.198883     -1.105784      0.694553
  C      -5.051849     -0.231709     -1.935067
  H      -6.115463     -0.453670     -2.071434
  H      -4.688482      0.147223     -2.893979
  C      -5.521700      0.278012      0.440141
  H      -6.612911      0.297088      0.330686
  C      -4.892408      0.798908     -0.835646
  H      -5.382153      1.735403     -1.107275
  H      -3.837147      1.016279     -0.653954
  C      -4.879953     -2.658124     -2.448027
  H      -4.396279     -3.612343     -2.256601
  H      -4.762238     -2.409439     -3.505340
  C      -2.787310     -1.297075     -1.906886
  C      -1.638421     -1.938116     -1.099009
  H      -2.622009     -0.223817     -1.904622
  H      -2.645318     -1.616856     -2.944413
  C      -1.688116     -1.472807      0.356199
  C      -1.617589     -3.481681     -1.249277
  O      -2.198388     -0.420910      0.668396
  O      -1.092122     -2.193686      1.287514
  H      -0.889508     -3.732974     -2.025056
  H      -2.583233     -3.822404     -1.607961
  C      -1.298444     -4.236771      0.039956
  C      -0.413073     -3.426895      0.959303
  H      -0.812260     -5.185421     -0.192938
  H      -2.225606     -4.456714      0.572521
  H       0.527457     -3.152092      0.473702
  C      -5.122340      1.040979      1.691524
  H      -4.040692      0.939787      1.817015
  H      -5.586478      0.545595      2.548927
  C      -0.104483     -4.080906      2.291576
  H      -1.045997     -4.328195      2.792524
  H       0.398566     -3.334525      2.912533
  H      -5.945570     -2.786298     -2.247782
  C      -5.526586      2.510645      1.668481
  H      -6.600868      2.595000      1.468294
  H      -5.020561      3.024790      0.845842
  C       0.775760     -5.319603      2.172597
  H       0.248405     -6.103465      1.620957
  H       1.667007     -5.074544      1.584605
  C       0.650920      4.697552      1.097288
  H      -0.291391      4.548321      1.636207
  H       0.382130      5.040371      0.094357
  C       7.187842      1.161790      1.241541
  H       6.795013      0.227902      1.653410
  H       7.950743      0.878294      0.508088
  C       7.832484      1.970771      2.359558
  H       8.630261      1.410396      2.849520
  H       8.263134      2.898130      1.974770
  H       7.097492      2.239497      3.121791
  C       1.469952      5.777675      1.791569
  H       2.409029      5.955576      1.262624
  H       0.926576      6.723093      1.833099
  H       1.716231      5.488899      2.816067
  C      -5.196085      3.217703      2.976649
  H      -5.488921      4.268634      2.948156
  H      -5.711875      2.749143      3.817874
  H      -4.124301      3.174050      3.183565
  C       1.197095     -5.861062      3.532477
  H       0.325964     -6.125833      4.136430
  H       1.815957     -6.754354      3.432103
  H       1.771031     -5.117408      4.089984
101
Coordinates from ORCA-job orca E -2008.224754959555
  C       0.262254     -0.060996     -1.263437
  C       1.115494     -0.102538     -0.050976
  O       1.653025     -1.116381      0.335346
  O       1.407224      1.042901      0.571469
  C      -0.536974      1.185239     -1.515666
  H      -1.489461      1.074060     -0.988542
  H      -0.771635      1.273362     -2.580255
  C       0.584200      2.226342      0.439967
  H      -0.294838      2.056608      1.073622
  C       0.147827      2.435714     -0.994308
  H      -0.550617      3.273805     -1.027044
  H       1.008383      2.705517     -1.607672
  C      -0.285546     -1.400672     -1.699350
  H       0.485543     -2.139356     -1.486615
  H      -0.430089     -1.389968     -2.784221
  C       1.917713      0.099661     -2.675336
  C       3.139594      0.413176     -2.119728
  H       1.415835      0.860204     -3.259609
  H       1.755394     -0.931149     -2.963000
  C       3.542121      1.836831     -2.050034
  C       4.057022     -0.616542     -1.538590
  O       2.941276      2.722084     -2.611928
  O       4.617353      2.169226     -1.322435
  H       4.818176     -0.882917     -2.284260
  H       3.500758     -1.523164     -1.303405
  C       4.739113     -0.056225     -0.299960
  C       5.474059      1.217928     -0.654940
  H       5.453142     -0.777514      0.100581
  H       3.994826      0.139707      0.476372
  H       6.278191      0.984952     -1.365348
  C       1.424411      3.355620      1.006345
  H       2.318426      3.466140      0.383298
  H       1.764791      3.052647      2.000841
  C       6.058238      1.959992      0.533813
  H       5.247267      2.187488      1.233613
  H       6.439613      2.919345      0.172852
  C      -4.303397     -1.520401     -1.589338
  C      -4.551168     -1.917610     -0.131312
  O      -4.221048     -3.001288      0.279793
  O      -5.202428     -1.103368      0.693272
  C      -5.051612     -0.224781     -1.934642
  H      -6.115661     -0.443889     -2.072200
  H      -4.686615      0.155126     -2.892555
  C      -5.522865      0.281284      0.440755
  H      -6.613869      0.302309      0.329435
  C      -4.890519      0.803256     -0.833050
  H      -5.377462      1.741581     -1.103382
  H      -3.834840      1.017318     -0.649628
  C      -4.885138     -2.650735     -2.451998
  H      -4.403363     -3.606301     -2.262406
  H      -4.766532     -2.400159     -3.508760
  C      -2.789936     -1.295783     -1.907216
  C      -1.643384     -1.941028     -1.099574
  H      -2.621764     -0.222962     -1.903080
  H      -2.648286     -1.614361     -2.945137
  C      -1.691587     -1.476487      0.355789
  C      -1.627761     -3.484509     -1.250121
  O      -2.201004     -0.424697      0.669576
  O      -1.093315     -2.197672      1.285482
  H      -0.902488     -3.737895     -2.027787
  H      -2.595495     -3.822281     -1.606016
  C      -1.307468     -4.240315      0.038401
  C      -0.418281     -3.432844      0.956178
  H      -0.824046     -5.190085     -0.195636
  H      -2.234069     -4.458274      0.572823
  H       0.522431     -3.160760      0.469145
  C      -5.124657      1.041314      1.694258
  H      -4.043316      0.938780      1.821230
  H      -5.590615      0.544588      2.549891
  C      -0.109701     -4.087656      2.288099
  H      -1.051269     -4.329565      2.791525
  H       0.398820     -3.343541      2.907340
  H      -5.951059     -2.777251     -2.252377
  C      -5.527692      2.511332      1.673648
  H      -6.601304      2.596866      1.470462
  H      -5.018914      3.027149      0.853737
  C       0.763732     -5.331074      2.167920
  H       0.231199     -6.112357      1.617593
  H       1.655085     -5.090983      1.578133
  C       0.684239      4.684639      1.099385
  H      -0.256620      4.542393      1.642667
  H       0.413294      5.028125      0.097271
  C       7.171864      1.201596      1.247108
  H       6.781644      0.268604      1.663438
  H       7.940423      0.917026      0.520048
  C       7.805298      2.022168      2.363007
  H       8.604204      1.470257      2.860692
  H       8.232030      2.949779      1.974455
  H       7.064773      2.291155      3.119763
  C       1.513868      5.759809      1.788762
  H       2.451819      5.930445      1.255453
  H       0.977376      6.709092      1.831626
  H       1.762646      5.470482      2.812503
  C      -5.200809      3.214862      2.984643
  H      -5.492678      4.266110      2.957848
  H      -5.719666      2.744624      3.823054
  H      -4.129756      3.169851      3.194935
  C       1.184793     -5.874251      3.527174
  H       0.313453     -6.134634      4.132727
  H       1.799046     -6.770611      3.425932
  H       1.763390     -5.133382      4.083543
101
Coordinates from ORCA-job orca E -2008.224756930256
  C       0.265681     -0.068866     -1.260195
  C       1.122820     -0.115410     -0.050751
  O       1.661622     -1.130791      0.329676
  O       1.417091      1.027305      0.575391
  C      -0.531977      1.179566     -1.506429
  H      -1.483392      1.068323     -0.977271
  H      -0.769183      1.271574     -2.570132
  C       0.597593      2.213649      0.448823
  H      -0.279479      2.045933      1.085688
  C       0.156147      2.427432     -0.983324
  H      -0.541521      3.266358     -1.010918
  H       1.014225      2.698359     -1.599432
  C      -0.286041     -1.406331     -1.698205
  H       0.483430     -2.147241     -1.487347
  H      -0.431212     -1.393286     -2.782955
  C       1.917967      0.089156     -2.675976
  C       3.140412      0.410864     -2.126005
  H       1.410838      0.843797     -3.263418
  H       1.759387     -0.944104     -2.956554
  C       3.537847      1.836323     -2.065004
  C       4.063730     -0.611755     -1.541829
  O       2.934237      2.716008     -2.632531
  O       4.610611      2.177150     -1.337538
  H       4.826456     -0.876051     -2.286637
  H       3.512597     -1.520762     -1.303818
  C       4.742548     -0.043388     -0.304991
  C       5.471042      1.233366     -0.664081
  H       5.459877     -0.759713      0.098492
  H       3.997115      0.151791      0.470351
  H       6.278018      1.001923     -1.371709
  C       1.444448      3.338876      1.013626
  H       2.336262      3.446780      0.387005
  H       1.787993      3.032855      2.006113
  C       6.047950      1.983964      0.522880
  H       5.233694      2.210456      1.219245
  H       6.425641      2.943572      0.158780
  C      -4.304241     -1.518330     -1.591091
  C      -4.555084     -1.915579     -0.133516
  O      -4.226573     -2.999504      0.278239
  O      -5.206606     -1.100643      0.690188
  C      -5.050174     -0.221614     -1.937336
  H      -6.114223     -0.439412     -2.076937
  H      -4.683019      0.158124     -2.894497
  C      -5.525320      0.284306      0.437266
  H      -6.616100      0.306455      0.323878
  C      -4.890035      0.805945     -0.835147
  H      -5.375392      1.744920     -1.106135
  H      -3.834522      1.018771     -0.649651
  C      -4.886624     -2.647403     -2.455002
  H      -4.406709     -3.603830     -2.265205
  H      -4.766055     -2.396593     -3.511486
  C      -2.789809     -1.295979     -1.906848
  C      -1.645184     -1.944262     -1.098986
  H      -2.619634     -0.223400     -1.901107
  H      -2.647601     -1.613280     -2.945089
  C      -1.693065     -1.480508      0.356688
  C      -1.632685     -3.487822     -1.250295
  O      -2.201987     -0.428781      0.671462
  O      -1.096449     -2.203436      1.286251
  H      -0.907795     -3.742447     -2.027954
  H      -2.601063     -3.823204     -1.606371
  C      -1.315224     -4.245168      0.038113
  C      -0.425030     -3.440788      0.957572
  H      -0.833992     -5.196004     -0.196041
  H      -2.242981     -4.461217      0.571383
  H       0.517270     -3.171611      0.472349
  C      -5.128743      1.043703      1.691591
  H      -4.047622      0.940729      1.820150
  H      -5.596149      0.546803      2.546341
  C      -0.120766     -4.096734      2.289965
  H      -1.063949     -4.336808      2.791271
  H       0.387936     -3.353797      2.910481
  H      -5.953056     -2.772252     -2.257000
  C      -5.531322      2.513826      1.670817
  H      -6.604581      2.599695      1.465853
  H      -5.021072      3.029812      0.851939
  C       0.750854     -5.341568      2.171600
  H       0.218685     -6.121636      1.619240
  H       1.644342     -5.102543      1.584583
  C       0.710587      4.670969      1.112055
  H      -0.227772      4.532343      1.660530
  H       0.435506      5.016665      0.111820
  C       7.163220      1.234466      1.242996
  H       6.776236      0.301545      1.662470
  H       7.935410      0.950379      0.519621
  C       7.788963      2.063451      2.357007
  H       8.589241      1.517808      2.859400
  H       8.212146      2.991564      1.965754
  H       7.044862      2.331861      3.110456
  C       1.549113      5.741599      1.797750
  H       2.484785      5.908387      1.259239
  H       1.017342      6.693326      1.844705
  H       1.802375      5.450029      2.819759
  C      -5.206389      3.216675      2.982619
  H      -5.497757      4.268059      2.955770
  H      -5.726814      2.746303      3.819972
  H      -4.135689      3.171099      3.194657
  C       1.166983     -5.886187      3.531793
  H       0.293429     -6.145961      4.134406
  H       1.780418     -6.783253      3.431841
  H       1.744756     -5.146483      4.090592
101
Coordinates from ORCA-job orca E -2008.224770000631
  C       0.268369     -0.080304     -1.260130
  C       1.127681     -0.134527     -0.052640
  O       1.662931     -1.153752      0.322910
  O       1.427455      1.004299      0.577755
  C      -0.523137      1.172951     -1.501477
  H      -1.474452      1.065341     -0.971612
  H      -0.761033      1.269534     -2.564604
  C       0.617331      2.197208      0.454101
  H      -0.258707      2.036828      1.094172
  C       0.172753      2.415865     -0.976301
  H      -0.520642      3.258444     -0.999948
  H       1.030093      2.684360     -1.594625
  C      -0.289949     -1.414388     -1.699857
  H       0.476488     -2.158725     -1.490055
  H      -0.435038     -1.399388     -2.784621
  C       1.918384      0.069105     -2.677897
  C       3.139884      0.402136     -2.132697
  H       1.406709      0.815176     -3.272358
  H       1.764199     -0.967836     -2.947416
  C       3.530984      1.829763     -2.087269
  C       4.068480     -0.609451     -1.538150
  O       2.927012      2.699734     -2.669204
  O       4.597703      2.184029     -1.357105
  H       4.835550     -0.873901     -2.278395
  H       3.522909     -1.520369     -1.294692
  C       4.738783     -0.026678     -0.303341
  C       5.460043      1.252465     -0.668752
  H       5.459002     -0.735228      0.108610
  H       3.989154      0.169856      0.467548
  H       6.274068      1.021205     -1.368253
  C       1.476857      3.314570      1.015492
  H       2.367324      3.413495      0.385145
  H       1.821616      3.005267      2.006559
  C       6.021458      2.017913      0.516196
  H       5.198860      2.246901      1.201888
  H       6.398020      2.975842      0.146515
  C      -4.308123     -1.515910     -1.590818
  C      -4.558018     -1.913443     -0.133225
  O      -4.231336     -2.998281      0.277531
  O      -5.208208     -1.098149      0.691263
  C      -5.051905     -0.217668     -1.935778
  H      -6.116407     -0.433508     -2.074898
  H      -4.684687      0.162103     -2.892894
  C      -5.525457      0.287277      0.439150
  H      -6.616186      0.310689      0.325621
  C      -4.889360      0.808761     -0.832931
  H      -5.372843      1.748899     -1.103144
  H      -3.833273      1.019263     -0.647598
  C      -4.893208     -2.643509     -2.454901
  H      -4.414645     -3.600885     -2.266375
  H      -4.773336     -2.392155     -3.511341
  C      -2.793809     -1.295910     -1.907255
  C      -1.650682     -1.947793     -1.100563
  H      -2.621441     -0.223640     -1.899738
  H      -2.652810     -1.611908     -2.946053
  C      -1.696659     -1.484959      0.355366
  C      -1.642284     -3.491213     -1.252015
  O      -2.204471     -0.433271      0.671906
  O      -1.095697     -2.207180      1.282716
  H      -0.919897     -3.747471     -2.031393
  H      -2.612379     -3.824514     -1.605473
  C      -1.323109     -4.248758      0.035813
  C      -0.428356     -3.446482      0.952691
  H      -0.844869     -5.200920     -0.199221
  H      -2.250000     -4.462305      0.571566
  H       0.513861     -3.180419      0.465088
  C      -5.128404      1.045703      1.693946
  H      -4.047280      0.942319      1.822325
  H      -5.595801      0.548328      2.548416
  C      -0.123712     -4.103217      2.284650
  H      -1.066934     -4.335782      2.789362
  H       0.392531     -3.363486      2.902756
  H      -5.959599     -2.766796     -2.255874
  C      -5.530811      2.515937      1.674168
  H      -6.604027      2.601836      1.469080
  H      -5.020503      3.032486      0.855687
  C       0.737554     -5.355132      2.164664
  H       0.197100     -6.131653      1.615290
  H       1.630740     -5.124248      1.574095
  C       0.757311      4.654166      1.116877
  H      -0.178695      4.525967      1.671826
  H       0.479184      5.001513      0.118068
  C       7.133013      1.281309      1.255142
  H       6.746189      0.350867      1.680216
  H       7.913958      0.993728      0.542653
  C       7.743207      2.124799      2.366930
  H       8.540748      1.587926      2.882974
  H       8.166236      3.050891      1.970814
  H       6.990133      2.397160      3.109957
  C       1.611851      5.716602      1.795489
  H       2.545548      5.872665      1.250419
  H       1.090691      6.674040      1.844889
  H       1.868833      5.423490      2.816123
  C      -5.206362      3.218040      2.986513
  H      -5.497869      4.269395      2.960204
  H      -5.726954      2.747101      3.823431
  H      -4.135745      3.172575      3.198848
  C       1.154077     -5.901335      3.524083
  H       0.280613     -6.153323      4.130119
  H       1.759910     -6.803442      3.423142
  H       1.739803     -5.165651      4.079889
101
Coordinates from ORCA-job orca E -2008.224774675905
  C       0.279337     -0.110080     -1.251904
  C       1.149982     -0.179888     -0.053312
  O       1.687375     -1.204178      0.305025
  O       1.460130      0.950365      0.586774
  C      -0.507740      1.149622     -1.473450
  H      -1.454819      1.042486     -0.935525
  H      -0.754964      1.257791     -2.533278
  C       0.663943      2.153853      0.477284
  H      -0.204391      2.003563      1.129987
  C       0.201349      2.384107     -0.945675
  H      -0.487416      3.230785     -0.953923
  H       1.050351      2.653628     -1.574368
  C      -0.290772     -1.437123     -1.697533
  H       0.471159     -2.187821     -1.494392
  H      -0.438336     -1.414527     -2.781779
  C       1.912625      0.034193     -2.680758
  C       3.134075      0.394920     -2.152293
  H       1.384674      0.761387     -3.284725
  H       1.771611     -1.009809     -2.929627
  C       3.505781      1.827890     -2.135501
  C       4.081893     -0.591597     -1.546886
  O       2.895522      2.676709     -2.741370
  O       4.559851      2.212320     -1.401970
  H       4.855465     -0.847667     -2.283240
  H       3.554205     -1.510660     -1.294698
  C       4.737231      0.017193     -0.316379
  C       5.433053      1.308325     -0.690009
  H       5.470506     -0.672744      0.104018
  H       3.982041      0.205728      0.451061
  H       6.261383      1.087938     -1.375954
  C       1.549456      3.256409      1.028094
  H       2.433115      3.339847      0.385638
  H       1.903060      2.939862      2.013822
  C       5.958993      2.101783      0.492787
  H       5.119912      2.323635      1.160789
  H       6.322904      3.061793      0.115865
  C      -4.308841     -1.507032     -1.593670
  C      -4.568291     -1.905014     -0.137704
  O      -4.249740     -2.992008      0.273685
  O      -5.216191     -1.086240      0.685218
  C      -5.041715     -0.202810     -1.939940
  H      -6.107043     -0.410896     -2.084602
  H      -4.667294      0.175953     -2.894675
  C      -5.523201      0.301487      0.433504
  H      -6.613203      0.332154      0.314631
  C      -4.877483      0.820680     -0.834589
  H      -5.353045      1.764664     -1.105585
  H      -3.820980      1.023723     -0.643862
  C      -4.899524     -2.628610     -2.461716
  H      -4.429785     -3.590235     -2.272944
  H      -4.773292     -2.376631     -3.517268
  C      -2.791448     -1.297842     -1.904562
  C      -1.655020     -1.962344     -1.098874
  H      -2.610007     -0.226865     -1.890954
  H      -2.650410     -1.609250     -2.944760
  C      -1.698452     -1.502659      0.358150
  C      -1.658867     -3.505730     -1.254237
  O      -2.202989     -0.450455      0.678159
  O      -1.103631     -2.231866      1.284314
  H      -0.937760     -3.766078     -2.033461
  H      -2.631136     -3.830296     -1.609423
  C      -1.348745     -4.269200      0.032370
  C      -0.448997     -3.477847      0.953857
  H      -0.878530     -5.224917     -0.204042
  H      -2.278860     -4.476088      0.565282
  H       0.497164     -3.220835      0.470192
  C      -5.127518      1.055662      1.691221
  H      -4.047449      0.946718      1.823922
  H      -5.600841      0.559124      2.542911
  C      -0.155633     -4.139916      2.285714
  H      -1.102948     -4.367583      2.785064
  H       0.362245     -3.404960      2.908143
  H      -5.967726     -2.743326     -2.267207
  C      -5.522766      2.527820      1.672087
  H      -6.594691      2.618993      1.462394
  H      -5.006493      3.043250      0.856659
  C       0.699761     -5.395886      2.167388
  H       0.158861     -6.167869      1.612243
  H       1.597952     -5.167631      1.583171
  C       0.857593      4.609381      1.141052
  H      -0.068875      4.500398      1.715634
  H       0.565684      4.960287      0.147436
  C       7.072367      1.398300      1.260533
  H       6.696697      0.467224      1.693974
  H       7.870139      1.115235      0.565049
  C       7.648203      2.271032      2.368128
  H       8.447971      1.757533      2.904193
  H       8.059449      3.199172      1.964474
  H       6.878646      2.539469      3.095556
  C       1.747670      5.655571      1.799039
  H       2.672431      5.791587      1.233722
  H       1.247287      6.623505      1.857712
  H       2.020377      5.358879      2.814572
  C      -5.200849      3.226308      2.986932
  H      -5.487605      4.278993      2.961067
  H      -5.727075      2.756296      3.820851
  H      -4.131321      3.175753      3.203720
  C       1.104607     -5.948344      3.527858
  H       0.225862     -6.197988      4.127193
  H       1.706583     -6.853182      3.428142
  H       1.690251     -5.217498      4.090124
101
Coordinates from ORCA-job orca E -2008.224781668466
  C       0.272858     -0.094101     -1.255593
  C       1.135859     -0.154505     -0.051104
  O       1.671125     -1.175868      0.318594
  O       1.439551      0.980998      0.583239
  C      -0.515795      1.162322     -1.490363
  H      -1.465826      1.056210     -0.957859
  H      -0.756647      1.263037     -2.552409
  C       0.636982      2.179519      0.463026
  H      -0.236446      2.025522      1.108079
  C       0.185951      2.401687     -0.964919
  H      -0.504979      3.246436     -0.983536
  H       1.039995      2.669289     -1.587653
  C      -0.291053     -1.425354     -1.697189
  H       0.472902     -2.172678     -1.488993
  H      -0.436383     -1.407937     -2.781873
  C       1.917835      0.050409     -2.677520
  C       3.139316      0.397235     -2.140028
  H       1.399076      0.786330     -3.278549
  H       1.769791     -0.990356     -2.935033
  C       3.522880      1.827132     -2.110780
  C       4.076480     -0.602435     -1.538817
  O       2.916036      2.686990     -2.704475
  O       4.584057      2.195804     -1.379543
  H       4.846298     -0.864726     -2.276936
  H       3.538658     -1.516321     -1.289500
  C       4.740344     -0.006254     -0.306921
  C       5.450419      1.277712     -0.677698
  H       5.466604     -0.705856      0.109710
  H       3.988176      0.187608      0.462164
  H       6.271718      1.050130     -1.369776
  C       1.508667      3.290207      1.019268
  H       2.396636      3.380707      0.384268
  H       1.856295      2.978442      2.008608
  C       5.994570      2.057840      0.505764
  H       5.163504      2.285755      1.181561
  H       6.366990      3.015656      0.131604
  C      -4.309596     -1.511070     -1.591573
  C      -4.564332     -1.909539     -0.135017
  O      -4.242388     -2.995946      0.275293
  O      -5.213588     -1.092994      0.688970
  C      -5.047860     -0.209679     -1.936646
  H      -6.112775     -0.421562     -2.078722
  H      -4.676921      0.170033     -2.892352
  C      -5.525528      0.293757      0.437763
  H      -6.615903      0.320997      0.321602
  C      -4.884593      0.814748     -0.832066
  H      -5.364220      1.756885     -1.102238
  H      -3.828308      1.021593     -0.643904
  C      -4.897326     -2.635315     -2.458255
  H      -4.423136     -3.594876     -2.269964
  H      -4.774169     -2.383142     -3.514124
  C      -2.793748     -1.296273     -1.904938
  C      -1.653790     -1.954513     -1.098781
  H      -2.616980     -0.224685     -1.894188
  H      -2.652614     -1.609805     -2.944472
  C      -1.698580     -1.494110      0.358024
  C      -1.651087     -3.497732     -1.252934
  O      -2.204293     -0.442117      0.676907
  O      -1.099329     -2.219639      1.283999
  H      -0.929257     -3.755370     -2.032398
  H      -2.622147     -3.826921     -1.607387
  C      -1.335415     -4.258533      0.033794
  C      -0.437666     -3.461583      0.952415
  H      -0.861040     -5.212275     -0.202555
  H      -2.263405     -4.469156      0.568798
  H       0.505959     -3.199175      0.465776
  C      -5.129019      1.049326      1.694396
  H      -4.048367      0.943360      1.824584
  H      -5.599053      0.551730      2.547289
  C      -0.136993     -4.121793      2.283572
  H      -1.081700     -4.351354      2.786903
  H       0.381673     -3.385286      2.903520
  H      -5.964660     -2.754484     -2.261664
  C      -5.528153      2.520450      1.676001
  H      -6.600856      2.608941      1.469274
  H      -5.015392      3.037027      0.859078
  C       0.719728     -5.376669      2.162278
  H       0.177346     -6.149822      1.610117
  H       1.614884     -5.147757      1.573879
  C       0.803108      4.636830      1.123903
  H      -0.128405      4.519605      1.688681
  H       0.518526      4.984234      0.126939
  C       7.105061      1.336436      1.261052
  H       6.721518      0.407101      1.691394
  H       7.894337      1.048251      0.558020
  C       7.699346      2.194909      2.370028
  H       8.496497      1.668502      2.897366
  H       8.118922      3.120469      1.969034
  H       6.938152      2.468216      3.104400
  C       1.675966      5.692050      1.790466
  H       2.605440      5.836442      1.235042
  H       1.165679      6.655178      1.842702
  H       1.940551      5.398917      2.809171
  C      -5.204273      3.220014      2.989814
  H      -5.493681      4.271980      2.964556
  H      -5.727029      2.748887      3.825282
  H      -4.134035      3.172086      3.203616
  C       1.131540     -5.927699      3.521212
  H       0.255914     -6.178003      4.124827
  H       1.734250     -6.831792      3.419291
  H       1.718850     -5.195612      4.080096
101
Coordinates from ORCA-job orca E -2008.224784858931
  C       0.272951     -0.094428     -1.257058
  C       1.136372     -0.155106     -0.052915
  O       1.671449     -1.176619      0.316606
  O       1.440722      0.980239      0.581334
  C      -0.515804      1.162018     -1.491062
  H      -1.465445      1.055940     -0.957718
  H      -0.757538      1.262849     -2.552907
  C       0.638773      2.179115      0.461454
  H      -0.234274      2.025824      1.107214
  C       0.186932      2.401178     -0.966163
  H      -0.503475      3.246359     -0.984493
  H       1.040963      2.668201     -1.589404
  C      -0.290755     -1.425514     -1.699043
  H       0.473384     -2.172804     -1.491348
  H      -0.436402     -1.407693     -2.783676
  C       1.917507      0.051406     -2.679947
  C       3.138440      0.397985     -2.141944
  H       1.398513      0.787849     -3.280130
  H       1.769206     -0.989199     -2.938094
  C       3.521040      1.828019     -2.111530
  C       4.075538     -0.601666     -1.540737
  O       2.914889      2.687572     -2.706428
  O       4.581592      2.196811     -1.379531
  H       4.845979     -0.863133     -2.278477
  H       3.537920     -1.515998     -1.292427
  C       4.738022     -0.005977     -0.307843
  C       5.447427      1.279010     -0.676617
  H       5.464650     -0.705288      0.108613
  H       3.985096      0.186270      0.460919
  H       6.270271      1.052700     -1.367277
  C       1.511792      3.289233      1.016609
  H       2.399467      3.378699      0.380861
  H       1.859859      2.977544      2.005806
  C       5.988391      2.059113      0.508323
  H       5.155657      2.285940      1.182476
  H       6.360625      3.017475      0.135372
  C      -4.308902     -1.511267     -1.591280
  C      -4.561758     -1.910171     -0.134526
  O      -4.238668     -2.996493      0.275136
  O      -5.210055     -1.093930      0.690519
  C      -5.047805     -0.209940     -1.935181
  H      -6.112835     -0.422035     -2.076040
  H      -4.678092      0.170086     -2.891236
  C      -5.522646      0.292818      0.440002
  H      -6.613168      0.319794      0.325226
  C      -4.883477      0.814264     -0.830536
  H      -5.363743      1.756307     -1.099900
  H      -3.827025      1.021410     -0.643657
  C      -4.897345     -2.635464     -2.457525
  H      -4.422748     -3.594947     -2.269832
  H      -4.775344     -2.383112     -3.513486
  C      -2.793459     -1.296446     -1.906123
  C      -1.653329     -1.954685     -1.100350
  H      -2.616529     -0.224859     -1.895885
  H      -2.653087     -1.610490     -2.945600
  C      -1.697712     -1.493789      0.356271
  C      -1.651329     -3.498008     -1.254075
  O      -2.203229     -0.441568      0.674678
  O      -1.099722     -2.219752      1.282746
  H      -0.929433     -3.756265     -2.033261
  H      -2.622469     -3.826773     -1.608786
  C      -1.336532     -4.258758      0.032930
  C      -0.438646     -3.462124      0.951715
  H      -0.862632     -5.212793     -0.203118
  H      -2.264831     -4.468764      0.567700
  H       0.505198     -3.200307      0.465357
  C      -5.124818      1.048275      1.696304
  H      -4.044010      0.942473      1.825320
  H      -5.593863      0.550489      2.549629
  C      -0.138580     -4.122065      2.283168
  H      -1.083467     -4.351821      2.786073
  H       0.379544     -3.385274      2.903223
  H      -5.964444     -2.754872     -2.259828
  C      -5.524293      2.519327      1.678522
  H      -6.597229      2.607583      1.472933
  H      -5.012523      3.036112      0.861105
  C       0.718784     -5.376562      2.162632
  H       0.177112     -6.150065      1.610287
  H       1.614176     -5.147279      1.574719
  C       0.807557      4.636560      1.121181
  H      -0.123371      4.520606      1.687168
  H       0.522094      4.983564      0.124325
  C       7.098038      1.338422      1.265518
  H       6.714533      0.408550      1.694730
  H       7.888953      1.051243      0.563911
  C       7.689408      2.196985      2.375991
  H       8.486021      1.671071      2.904623
  H       8.108897      3.123074      1.976141
  H       6.926582      2.469309      3.109022
  C       1.682291      5.691391      1.785938
  H       2.611150      5.834510      1.229175
  H       1.172994      6.655031      1.838255
  H       1.947950      5.398647      2.804472
  C      -5.199292      3.218884      2.992079
  H      -5.489142      4.270732      2.967201
  H      -5.721025      2.747497      3.828040
  H      -4.128834      3.171388      3.204808
  C       1.130122     -5.927110      3.521895
  H       0.254287     -6.177717      4.125070
  H       1.733327     -6.830922      3.420468
  H       1.716769     -5.194635      4.080961
101
Coordinates from ORCA-job orca E -2008.224785815175
  C       0.275154     -0.102496     -1.254090
  C       1.139419     -0.166862     -0.050791
  O       1.673025     -1.190022      0.316509
  O       1.445985      0.966682      0.585650
  C      -0.510221      1.156494     -1.486151
  H      -1.459878      1.052645     -0.952624
  H      -0.752014      1.259309     -2.547772
  C       0.649615      2.169442      0.466051
  H      -0.222854      2.020879      1.113606
  C       0.196038      2.393307     -0.960824
  H      -0.492491      3.240070     -0.977413
  H       1.048917      2.659162     -1.585787
  C      -0.292733     -1.431850     -1.696456
  H       0.469252     -2.181235     -1.488613
  H      -0.437800     -1.413430     -2.781165
  C       1.918665      0.036698     -2.677578
  C       3.139629      0.391970     -2.144110
  H       1.396395      0.765941     -3.283784
  H       1.774091     -1.006615     -2.926677
  C       3.519028      1.823030     -2.126275
  C       4.081186     -0.599760     -1.536691
  O       2.911224      2.676027     -2.728755
  O       4.576232      2.201106     -1.393978
  H       4.853638     -0.861382     -2.272275
  H       3.547899     -1.515199     -1.283494
  C       4.739404      0.005980     -0.306438
  C       5.443515      1.292174     -0.681075
  H       5.468559     -0.687736      0.114965
  H       3.984625      0.199238      0.460198
  H       6.270436      1.065760     -1.366746
  C       1.529578      3.275394      1.018813
  H       2.416408      3.359362      0.381325
  H       1.878065      2.962382      2.007481
  C       5.975024      2.082659      0.501313
  H       5.137578      2.311111      1.169022
  H       6.346129      3.039701      0.123877
  C      -4.311540     -1.508090     -1.591105
  C      -4.567598     -1.907421     -0.135003
  O      -4.248335     -2.994973      0.274339
  O      -5.215682     -1.090421      0.689455
  C      -5.046856     -0.204800     -1.935227
  H      -6.112128     -0.414323     -2.078121
  H      -4.674596      0.175126     -2.890330
  C      -5.524924      0.297107      0.439348
  H      -6.615167      0.326483      0.322444
  C      -4.882143      0.818137     -0.829511
  H      -5.359681      1.761526     -1.099003
  H      -3.825544      1.022681     -0.640511
  C      -4.901411     -2.630219     -2.459121
  H      -4.429354     -3.591000     -2.271715
  H      -4.777395     -2.377224     -3.514695
  C      -2.795199     -1.296126     -1.903755
  C      -1.656717     -1.958007     -1.098460
  H      -2.616042     -0.224950     -1.891189
  H      -2.654583     -1.608240     -2.943783
  C      -1.700221     -1.499286      0.358935
  C      -1.657297     -3.501014     -1.254158
  O      -2.204394     -0.447111      0.679602
  O      -1.100082     -2.226119      1.283354
  H      -0.936459     -3.759336     -2.034315
  H      -2.629217     -3.827998     -1.608238
  C      -1.342072     -4.263472      0.031660
  C      -0.441616     -3.469352      0.950106
  H      -0.870076     -5.218104     -0.205880
  H      -2.270012     -4.472446      0.567369
  H       0.502311     -3.208916      0.462822
  C      -5.127975      1.050816      1.696931
  H      -4.047487      0.943491      1.827418
  H      -5.598895      0.552854      2.549120
  C      -0.141769     -4.131575      2.280478
  H      -1.086818     -4.357673      2.784723
  H       0.380567     -3.397625      2.900390
  H      -5.969061     -2.747309     -2.262968
  C      -5.525481      2.522395      1.679879
  H      -6.598000      2.612217      1.472792
  H      -5.011844      3.039253      0.863685
  C       0.709588     -5.389935      2.157335
  H       0.163476     -6.160292      1.604931
  H       1.605194     -5.164342      1.568405
  C       0.834084      4.627112      1.124131
  H      -0.094857      4.518090      1.694708
  H       0.546246      4.974168      0.127985
  C       7.082770      1.371085      1.269855
  H       6.699776      0.443183      1.703731
  H       7.878479      1.081351      0.574750
  C       7.665243      2.239681      2.377233
  H       8.460735      1.720025      2.913713
  H       8.083953      3.164258      1.973094
  H       6.897685      2.514632      3.104332
  C       1.719083      5.677265      1.782707
  H       2.646186      5.812958      1.221170
  H       1.216639      6.644458      1.835719
  H       1.987627      5.384530      2.800499
  C      -5.201443      3.220296      2.994534
  H      -5.489850      4.272559      2.970227
  H      -5.724972      2.748806      3.829313
  H      -4.131336      3.171123      3.208689
  C       1.120103     -5.943983      3.515434
  H       0.243882     -6.191241      4.119441
  H       1.718962     -6.850481      3.412184
  H       1.710895     -5.214942      4.074628
101
Coordinates from ORCA-job orca E -2008.224785652804
  C       0.278245     -0.108161     -1.253513
  C       1.145032     -0.175604     -0.052340
  O       1.679345     -1.199561      0.311604
  O       1.453172      0.956242      0.586346
  C      -0.506075      1.151996     -1.481796
  H      -1.455073      1.048082     -0.946732
  H      -0.749651      1.257036     -2.542795
  C       0.659472      2.160937      0.469564
  H      -0.211616      2.014120      1.119309
  C       0.202905      2.387136     -0.955879
  H      -0.484567      3.234816     -0.969619
  H       1.054720      2.652944     -1.582631
  C      -0.291700     -1.435756     -1.697924
  H       0.469150     -2.186687     -1.491449
  H      -0.436971     -1.415353     -2.782580
  C       1.920909      0.030619     -2.680487
  C       3.140786      0.391114     -2.149763
  H       1.395084      0.756005     -3.288218
  H       1.778618     -1.014141     -2.924750
  C       3.515088      1.823396     -2.136068
  C       4.086173     -0.595680     -1.540355
  O       2.906192      2.671914     -2.743785
  O       4.571003      2.207034     -1.404800
  H       4.860076     -0.855009     -2.275175
  H       3.556788     -1.513099     -1.285950
  C       4.741045      0.014950     -0.310703
  C       5.439948      1.303786     -0.686526
  H       5.473124     -0.674838      0.112056
  H       3.984927      0.205652      0.455355
  H       6.270301      1.079745     -1.368783
  C       1.543887      3.264151      1.020640
  H       2.428479      3.347028      0.379835
  H       1.895446      2.948886      2.007498
  C       5.963269      2.099949      0.495715
  H       5.122137      2.326430      1.159495
  H       6.331640      3.057634      0.117228
  C      -4.309917     -1.506501     -1.592282
  C      -4.564726     -1.906815     -0.136254
  O      -4.244232     -2.994367      0.272197
  O      -5.212164     -1.090424      0.689335
  C      -5.045119     -0.202774     -1.935011
  H      -6.110477     -0.412109     -2.077550
  H      -4.673341      0.177886     -2.890004
  C      -5.522065      0.297173      0.440302
  H      -6.612366      0.326244      0.323907
  C      -4.880041      0.819318     -0.828526
  H      -5.357927      1.762811     -1.097082
  H      -3.823400      1.024009     -0.639955
  C      -4.900941     -2.627867     -2.460425
  H      -4.429082     -3.588925     -2.273948
  H      -4.777701     -2.374310     -3.515958
  C      -2.793711     -1.295725     -1.905745
  C      -1.656730     -1.959786     -1.100499
  H      -2.612881     -0.224750     -1.892740
  H      -2.653717     -1.607854     -2.945859
  C      -1.700073     -1.500475      0.356635
  C      -1.661203     -3.502964     -1.255725
  O      -2.203707     -0.447865      0.676681
  O      -1.103403     -2.228973      1.282119
  H      -0.940285     -3.763622     -2.035011
  H      -2.633676     -3.827343     -1.610769
  C      -1.350088     -4.266026      0.030745
  C      -0.448611     -3.474547      0.950478
  H      -0.880701     -5.222096     -0.205948
  H      -2.279532     -4.472105      0.565126
  H       0.496843     -3.217393      0.464838
  C      -5.125010      1.050161      1.698315
  H      -4.044477      0.943105      1.828554
  H      -5.595574      0.551421      2.550242
  C      -0.152993     -4.137137      2.281648
  H      -1.099530     -4.361179      2.784044
  H       0.369587     -3.404096      2.902399
  H      -5.968450     -2.744645     -2.263439
  C      -5.523172      2.521603      1.682456
  H      -6.595796      2.611033      1.475735
  H      -5.010023      3.039318      0.866488
  C       0.696600     -5.396871      2.160658
  H       0.150975     -6.166051      1.606201
  H       1.594454     -5.172399      1.574633
  C       0.852455      4.617576      1.130524
  H      -0.073195      4.510981      1.706825
  H       0.559446      4.965705      0.136243
  C       7.071117      1.395325      1.270519
  H       6.690408      0.467114      1.705702
  H       7.870628      1.106899      0.579240
  C       7.645855      2.269648      2.377428
  H       8.441630      1.754816      2.918120
  H       8.062124      3.194812      1.972139
  H       6.874619      2.543395      3.101065
  C       1.744745      5.664963      1.783695
  H       2.668550      5.798001      1.216141
  H       1.245542      6.633615      1.840331
  H       2.019023      5.371047      2.799616
  C      -5.199224      3.218744      2.997560
  H      -5.488337      4.270829      2.974091
  H      -5.722232      2.746304      3.832126
  H      -4.129044      3.170162      3.211447
  C       1.101920     -5.952166      3.519791
  H       0.223373     -6.198559      4.120750
  H       1.699848     -6.859441      3.417996
  H       1.691904     -5.224309      4.081381
101
Coordinates from ORCA-job orca E -2008.224784397004
  C       0.278811     -0.109326     -1.252562
  C       1.143982     -0.176756     -0.050189
  O       1.676780     -1.200969      0.315178
  O       1.451917      0.955261      0.588472
  C      -0.504702      1.151470     -1.481792
  H      -1.453739      1.048827     -0.946892
  H      -0.747998      1.256137     -2.542871
  C       0.659465      2.160675      0.469841
  H      -0.212631      2.014860      1.118441
  C       0.204784      2.386384     -0.956329
  H      -0.482001      3.234602     -0.971416
  H       1.057087      2.650938     -1.582673
  C      -0.292459     -1.437068     -1.695739
  H       0.467817     -2.188335     -1.488305
  H      -0.437386     -1.417623     -2.780456
  C       1.920072      0.025544     -2.676367
  C       3.141020      0.387985     -2.147746
  H       1.395048      0.748606     -3.287578
  H       1.778998     -1.019924     -2.917917
  C       3.517219      1.819672     -2.140816
  C       4.086870     -0.596976     -1.536333
  O       2.907599      2.666630     -2.749977
  O       4.574152      2.205169     -1.411936
  H       4.860380     -0.858001     -2.271033
  H       3.558183     -1.513939     -1.279183
  C       4.742155      0.017160     -0.308711
  C       5.441538      1.304558     -0.688418
  H       5.474263     -0.671454      0.115926
  H       3.986166      0.210249      0.456880
  H       6.273044      1.077852     -1.368337
  C       1.543708      3.263483      1.022077
  H       2.428811      3.346707      0.382211
  H       1.894375      2.947645      2.009081
  C       5.962996      2.104956      0.491844
  H       5.120599      2.334940      1.152721
  H       6.333314      3.060731      0.110436
  C      -4.311608     -1.505712     -1.590443
  C      -4.569022     -1.905068     -0.134469
  O      -4.251051     -2.992926      0.275041
  O      -5.216467     -1.087425      0.689859
  C      -5.044545     -0.201032     -1.934426
  H      -6.110028     -0.408781     -2.078354
  H      -4.670899      0.178854     -2.889000
  C      -5.523831      0.300504      0.439970
  H      -6.613926      0.331295      0.322033
  C      -4.879247      0.821154     -0.828107
  H      -5.355282      1.765313     -1.097570
  H      -3.822515      1.024208     -0.638193
  C      -4.903259     -2.626450     -2.459019
  H      -4.433279     -3.588244     -2.271631
  H      -4.778259     -2.373450     -3.514467
  C      -2.794847     -1.296006     -1.902651
  C      -1.657482     -1.961082     -1.098387
  H      -2.613805     -0.225207     -1.888008
  H      -2.654708     -1.606404     -2.943248
  C      -1.700247     -1.503815      0.359522
  C      -1.660376     -3.503946     -1.255979
  O      -2.203055     -0.451317      0.681285
  O      -1.101954     -2.232944      1.283429
  H      -0.939033     -3.762576     -2.035564
  H      -2.632285     -3.829045     -1.611685
  C      -1.347986     -4.268452      0.029265
  C      -0.446448     -3.477600      0.949533
  H      -0.878112     -5.223940     -0.208960
  H      -2.276878     -4.475839      0.563956
  H       0.498723     -3.219198      0.463636
  C      -5.127258      1.053245      1.698215
  H      -4.047131      0.944147      1.830040
  H      -5.599979      0.555804      2.549705
  C      -0.150331     -4.142221      2.279603
  H      -1.096857     -4.365536      2.782333
  H       0.373779     -3.410866      2.901070
  H      -5.971230     -2.741432     -2.263367
  C      -5.522283      2.525478      1.681002
  H      -6.594489      2.617140      1.473125
  H      -5.007175      3.041545      0.865227
  C       0.696501     -5.403631      2.156259
  H       0.148545     -6.170927      1.601466
  H       1.594213     -5.180690      1.569567
  C       0.852968      4.617224      1.132210
  H      -0.071809      4.511428      1.710011
  H       0.558638      4.965062      0.138223
  C       7.068223      1.402169      1.272062
  H       6.685401      0.476080      1.709920
  H       7.869125      1.110144      0.583892
  C       7.641272      2.280106      2.376987
  H       8.435381      1.766458      2.921249
  H       8.059313      3.203368      1.969182
  H       6.868738      2.557237      3.097952
  C       1.747117      5.664305      1.783400
  H       2.669993      5.796385      1.214106
  H       1.248746      6.633346      1.840623
  H       2.023016      5.370509      2.798924
  C      -5.198015      3.222718      2.995958
  H      -5.484718      4.275439      2.971583
  H      -5.722828      2.751977      3.830353
  H      -4.128132      3.171771      3.210805
  C       1.101846     -5.961540      3.514310
  H       0.223326     -6.206319      4.115967
  H       1.697257     -6.870269      3.410784
  H       1.694388     -5.235931      4.076115
101
Coordinates from ORCA-job orca E -2008.224788987062
  C       0.277932     -0.107715     -1.253594
  C       1.143259     -0.174287     -0.051288
  O       1.676596     -1.198115      0.314382
  O       1.450913      0.958139      0.586723
  C      -0.506297      1.152405     -1.483331
  H      -1.455386      1.049167     -0.948488
  H      -0.749538      1.256564     -2.544484
  C       0.657196      2.162679      0.468159
  H      -0.214811      2.015984      1.116719
  C       0.202463      2.387868     -0.958053
  H      -0.484754      3.235726     -0.973396
  H       1.054930      2.652721     -1.584153
  C      -0.292097     -1.435774     -1.696928
  H       0.468727     -2.186518     -1.489662
  H      -0.437174     -1.416295     -2.781626
  C       1.920281      0.029309     -2.678225
  C       3.140773      0.389647     -2.147837
  H       1.395668      0.754336     -3.287452
  H       1.778072     -1.015539     -2.922035
  C       3.517119      1.821364     -2.136707
  C       4.085460     -0.597257     -1.537651
  O       2.908150      2.670016     -2.744172
  O       4.574189      2.204645     -1.406931
  H       4.858954     -0.857932     -2.272466
  H       3.555624     -1.514072     -1.282207
  C       4.740999      0.014183     -0.308800
  C       5.441426      1.301694     -0.686229
  H       5.472460     -0.675766      0.114781
  H       3.985033      0.206525      0.456992
  H       6.272103      1.075596     -1.367388
  C       1.540318      3.266409      1.020249
  H       2.425516      3.350192      0.380475
  H       1.891024      2.951228      2.007440
  C       5.964804      2.099124      0.495176
  H       5.123428      2.327929      1.157792
  H       6.334909      3.055635      0.115417
  C      -4.310807     -1.506237     -1.590992
  C      -4.566841     -1.906000     -0.134962
  O      -4.247804     -2.993772      0.273984
  O      -5.214103     -1.088877      0.690025
  C      -5.044826     -0.202000     -1.934316
  H      -6.110292     -0.410428     -2.077378
  H      -4.672205      0.178185     -2.889174
  C      -5.522501      0.298936      0.440573
  H      -6.612712      0.329071      0.323570
  C      -4.879300      0.820168     -0.827996
  H      -5.356154      1.764054     -1.096970
  H      -3.822550      1.023858     -0.638915
  C      -4.902232     -2.627316     -2.459264
  H      -4.431318     -3.588742     -2.272291
  H      -4.778176     -2.374100     -3.514775
  C      -2.794350     -1.295938     -1.903969
  C      -1.656879     -1.960200     -1.099344
  H      -2.613586     -0.225023     -1.890315
  H      -2.654365     -1.607296     -2.944308
  C      -1.699764     -1.501940      0.358205
  C      -1.660032     -3.503214     -1.255809
  O      -2.202772     -0.449277      0.679097
  O      -1.102033     -2.230648      1.282795
  H      -0.938884     -3.762539     -2.035335
  H      -2.632127     -3.828336     -1.611126
  C      -1.347673     -4.266941      0.029939
  C      -0.446309     -3.475385      0.949759
  H      -0.877666     -5.222497     -0.207698
  H      -2.276592     -4.474124      0.564702
  H       0.498744     -3.217058      0.463743
  C      -5.125327      1.051750      1.698614
  H      -4.045013      0.943346      1.829529
  H      -5.597036      0.553857      2.550404
  C      -0.149752     -4.138927      2.280255
  H      -1.096042     -4.362895      2.783145
  H       0.373593     -3.406591      2.901204
  H      -5.969969     -2.743168     -2.262872
  C      -5.521448      2.523707      1.682029
  H      -6.593869      2.614604      1.474910
  H      -5.007291      3.040358      0.866025
  C       0.698716     -5.399299      2.157768
  H       0.151836     -6.167698      1.603451
  H       1.596167     -5.175435      1.570965
  C       0.847964      4.619402      1.129689
  H      -0.077532      4.512417      1.706144
  H       0.554614      4.967053      0.135344
  C       7.070897      1.394192      1.272212
  H       6.688431      0.467208      1.708484
  H       7.870713      1.103510      0.582220
  C       7.645801      2.269406      2.378332
  H       8.440428      1.754295      2.920447
  H       8.063637      3.193414      1.972006
  H       6.874312      2.545255      3.100903
  C       1.739765      5.667514      1.782413
  H       2.663342      5.800942      1.214575
  H       1.240012      6.635884      1.838998
  H       2.014486      5.373946      2.798317
  C      -5.196868      3.220902      2.996939
  H      -5.484435      4.273399      2.972981
  H      -5.720782      2.749558      3.831559
  H      -4.126812      3.170796      3.211111
  C       1.104840     -5.955729      3.516197
  H       0.226660     -6.201400      4.117988
  H       1.701598     -6.863649      3.413294
  H       1.696285     -5.228860      4.077528
101
Coordinates from ORCA-job orca E -2008.224787773496
  C       0.274723     -0.099304     -1.256083
  C       1.138700     -0.162342     -0.052550
  O       1.672843     -1.184830      0.315640
  O       1.444346      0.971882      0.583167
  C      -0.512508      1.158582     -1.488093
  H      -1.461557      1.053614     -0.953664
  H      -0.755381      1.260664     -2.549525
  C       0.645911      2.173227      0.463611
  H      -0.226637      2.022912      1.110700
  C       0.192622      2.396363     -0.963413
  H      -0.496523      3.242620     -0.980505
  H       1.045785      2.662444     -1.588054
  C      -0.291435     -1.429392     -1.698517
  H       0.471664     -2.177890     -1.491187
  H      -0.437142     -1.410987     -2.783146
  C       1.917766      0.043330     -2.679370
  C       3.138955      0.395068     -2.144671
  H       1.396725      0.775503     -3.282987
  H       1.771742     -0.998764     -2.932236
  C       3.520053      1.825489     -2.122411
  C       4.079128     -0.599880     -1.540597
  O       2.912816      2.681116     -2.721797
  O       4.579479      2.199539     -1.391433
  H       4.850610     -0.860784     -2.277486
  H       3.544573     -1.515268     -1.289763
  C       4.739019      0.001403     -0.309030
  C       5.444986      1.287581     -0.680346
  H       5.467601     -0.694461      0.109839
  H       3.984978      0.193248      0.458712
  H       6.271897      1.061564     -1.366152
  C       1.523369      3.280650      1.017280
  H       2.410088      3.367419      0.380036
  H       1.872365      2.967656      2.005763
  C       5.976953      2.074669      0.504025
  H       5.139536      2.302406      1.172041
  H       6.349038      3.032246      0.128898
  C      -4.310090     -1.509834     -1.589864
  C      -4.563765     -1.908294     -0.133009
  O      -4.241969     -2.994872      0.276985
  O      -5.211406     -1.091282      0.691809
  C      -5.047023     -0.207377     -1.933830
  H      -6.112245     -0.418003     -2.075338
  H      -4.676263      0.172311     -2.889627
  C      -5.522391      0.295795      0.441191
  H      -6.612842      0.324091      0.325948
  C      -4.882084      0.816558     -0.829008
  H      -5.361198      1.759167     -1.098520
  H      -3.825530      1.022656     -0.641628
  C      -4.900289     -2.633097     -2.456144
  H      -4.427129     -3.593314     -2.268559
  H      -4.777994     -2.380857     -3.512119
  C      -2.794298     -1.297233     -1.905039
  C      -1.654528     -1.957341     -1.099964
  H      -2.615900     -0.225975     -1.894293
  H      -2.654706     -1.610790     -2.944771
  C      -1.698301     -1.497824      0.357166
  C      -1.653360     -3.500426     -1.255344
  O      -2.203170     -0.445696      0.676903
  O      -1.100318     -2.224973      1.282739
  H      -0.931332     -3.758297     -2.034597
  H      -2.624519     -3.828312     -1.610667
  C      -1.339376     -4.262592      0.030962
  C      -0.440625     -3.467824      0.950567
  H      -0.866489     -5.216920     -0.205948
  H      -2.267898     -4.472169      0.565513
  H       0.503695     -3.206745      0.464614
  C      -5.124182      1.050803      1.697610
  H      -4.043563      0.943638      1.827111
  H      -5.594224      0.553689      2.550784
  C      -0.141882     -4.129752      2.281347
  H      -1.087324     -4.357620      2.784065
  H       0.378231     -3.395016      2.902195
  H      -5.967559     -2.750891     -2.258351
  C      -5.521617      2.522385      1.679442
  H      -6.594409      2.612105      1.473719
  H      -5.009017      3.038254      0.861947
  C       0.711897     -5.386570      2.159316
  H       0.167959     -6.157825      1.606033
  H       1.607967     -5.159323      1.571707
  C       0.824434      4.630534      1.123537
  H      -0.104236      4.518715      1.693997
  H       0.535711      4.977569      0.127633
  C       7.083820      1.360225      1.271096
  H       6.699877      0.431677      1.702820
  H       7.879308      1.071259      0.575432
  C       7.667155      2.225716      2.380443
  H       8.462202      1.704109      2.915660
  H       8.086658      3.150816      1.978318
  H       6.899930      2.499757      3.108219
  C       1.706680      5.682498      1.782929
  H       2.633387      5.821054      1.221446
  H       1.201683      6.648318      1.836767
  H       1.976044      5.389641      2.800469
  C      -5.195684      3.221742      2.992857
  H      -5.484026      4.274002      2.967777
  H      -5.718114      2.751249      3.828885
  H      -4.125302      3.172705      3.205606
  C       1.121465     -5.939952      3.517942
  H       0.244828     -6.188725      4.120718
  H       1.721995     -6.845408      3.415466
  H       1.710238     -5.209944      4.077994
101
Coordinates from ORCA-job orca E -2008.224788849499
  C       0.274434     -0.099812     -1.257008
  C       1.138115     -0.162199     -0.053236
  O       1.672085     -1.184495      0.315740
  O       1.443774      0.972393      0.581809
  C      -0.512771      1.157858     -1.489864
  H      -1.461895      1.053196     -0.955339
  H      -0.755645      1.259233     -2.551381
  C       0.645576      2.173752      0.461253
  H      -0.227123      2.024010      1.108270
  C       0.192600      2.395894     -0.966012
  H      -0.496304      3.242319     -0.983890
  H       1.046020      2.661256     -1.590691
  C      -0.291484     -1.429970     -1.699032
  H       0.471593     -2.178361     -1.491504
  H      -0.437190     -1.411813     -2.783662
  C       1.918074      0.042699     -2.680261
  C       3.138854      0.394354     -2.144898
  H       1.397240      0.774968     -3.284007
  H       1.771838     -0.999514     -2.933008
  C       3.519766      1.824837     -2.122358
  C       4.078667     -0.600523     -1.540069
  O       2.913163      2.680345     -2.722590
  O       4.579017      2.198872     -1.391168
  H       4.850688     -0.861376     -2.276372
  H       3.544001     -1.515953     -1.289588
  C       4.737568      0.000826     -0.308004
  C       5.443644      1.287190     -0.678600
  H       5.466047     -0.694874      0.111300
  H       3.982928      0.192286      0.459246
  H       6.271557      1.061264     -1.363214
  C       1.523142      3.281387      1.014282
  H       2.410066      3.367497      0.377100
  H       1.871866      2.969001      2.003044
  C       5.973866      2.074616      0.506407
  H       5.135484      2.302307      1.173239
  H       6.346198      3.032206      0.131586
  C      -4.309766     -1.508960     -1.589822
  C      -4.563154     -1.908197     -0.133256
  O      -4.242042     -2.995344      0.275745
  O      -5.210201     -1.091398      0.692204
  C      -5.046361     -0.206138     -1.932915
  H      -6.111770     -0.416232     -2.073943
  H      -4.675913      0.173837     -2.888704
  C      -5.520371      0.296017      0.442504
  H      -6.610843      0.325000      0.327705
  C      -4.880251      0.817104     -0.827698
  H      -5.358893      1.760123     -1.096532
  H      -3.823434      1.022361     -0.640705
  C      -4.900381     -2.631678     -2.456519
  H      -4.427362     -3.592068     -2.269438
  H      -4.778230     -2.378974     -3.512373
  C      -2.794015     -1.296603     -1.904901
  C      -1.654585     -1.957416     -1.100132
  H      -2.615168     -0.225318     -1.893776
  H      -2.654535     -1.609961     -2.944706
  C      -1.697632     -1.497819      0.356977
  C      -1.654788     -3.500585     -1.255285
  O      -2.201091     -0.444984      0.676635
  O      -1.099713     -2.225252      1.282344
  H      -0.933387     -3.759132     -2.034832
  H      -2.626411     -3.827803     -1.610143
  C      -1.340468     -4.262831      0.030900
  C      -0.440761     -3.468362      0.949818
  H      -0.868218     -5.217415     -0.206237
  H      -2.268726     -4.471855      0.566063
  H       0.503257     -3.207647      0.463131
  C      -5.121261      1.050002      1.699270
  H      -4.040608      0.942411      1.828158
  H      -5.591033      0.552410      2.552302
  C      -0.141227     -4.130114      2.280493
  H      -1.086335     -4.357655      2.783990
  H       0.379512     -3.395364      2.900777
  H      -5.967636     -2.749366     -2.258597
  C      -5.518364      2.521701      1.682472
  H      -6.591250      2.611824      1.477423
  H      -5.006128      3.038094      0.865103
  C       0.712349     -5.387024      2.158116
  H       0.167970     -6.158298      1.605329
  H       1.608052     -5.159898      1.569840
  C       0.824506      4.631542      1.119462
  H      -0.104095      4.520451      1.690174
  H       0.535699      4.977776      0.123301
  C       7.079944      1.360627      1.275091
  H       6.695679      0.432157      1.706636
  H       7.876349      1.071589      0.580476
  C       7.661791      2.226562      2.384885
  H       8.456376      1.705311      2.921157
  H       8.081494      3.151642      1.982942
  H       6.893671      2.500622      3.111715
  C       1.707102      5.683887      1.777799
  H       2.633684      5.821811      1.215967
  H       1.202300      6.649835      1.830998
  H       1.976666      5.391785      2.795498
  C      -5.191578      3.220005      2.996251
  H      -5.479783      4.272323      2.972125
  H      -5.713619      2.748958      3.832214
  H      -4.121080      3.170659      3.208383
  C       1.122822     -5.940258      3.516546
  H       0.246592     -6.188799      4.120000
  H       1.723151     -6.845837      3.413777
  H       1.712122     -5.210256      4.076059
