41
Coordinates from ORCA-job orca E -848.306780352625
  O       3.440490     -2.396850     -2.189820
  C       3.793010     -1.852830     -1.178920
  C       3.230580     -2.282070      0.189750
  C       3.787030     -1.465880      1.378240
  H       3.041390     -1.432450      2.184890
  H       4.650290     -2.008300      1.798210
  C       4.265130     -0.072910      0.998210
  H       4.753740      0.401020      1.862450
  H       3.434290      0.586450      0.707380
  C       5.262610     -0.176340     -0.138810
  H       6.135700     -0.766010      0.200940
  C       5.749730      1.158200     -0.682810
  C       6.555750      1.985850      0.314760
  H       5.922690      2.258790      1.175380
  H       7.377100      1.370100      0.721950
  C       7.129340      3.255150     -0.305920
  H       7.699670      3.840530      0.430150
  H       6.328030      3.899940     -0.699330
  H       7.804080      3.018310     -1.143300
  H       4.874690      1.731300     -1.034490
  H       6.361720      0.948700     -1.574890
  C       3.670630     -3.752350      0.359670
  H       3.316970     -4.138530      1.328120
  H       4.767760     -3.840400      0.337970
  H       3.262640     -4.378890     -0.444670
  C       1.681680     -2.316350      0.098640
  H       1.324260     -2.880740      0.973250
  C       0.818080     -1.025670     -0.016740
  C       0.898140     -0.222340      1.276400
  O       0.619130     -0.963030      2.359380
  C       0.646810     -0.291800      3.606780
  H       0.392290     -1.040330      4.365000
  H       1.645080      0.126370      3.802690
  H      -0.083280      0.531070      3.624000
  O       1.164750      0.951550      1.360580
  C       1.266420     -0.146260     -1.185620
  H       2.316270      0.152220     -1.085050
  H       0.691180      0.783830     -1.243760
  H       1.153800     -0.687370     -2.133160
  H       1.448860     -2.920690     -0.790030
  O       4.700530     -0.871440     -1.259880
41
Coordinates from ORCA-job orca E -848.318537218507
  O       3.447093     -2.366053     -2.189418
  C       3.811987     -1.828834     -1.180362
  C       3.266804     -2.262017      0.192108
  C       3.842585     -1.454381      1.373494
  H       3.113340     -1.421873      2.186117
  H       4.704049     -2.000994      1.774666
  C       4.325746     -0.064725      0.995344
  H       4.826128      0.397382      1.850861
  H       3.502389      0.599749      0.720078
  C       5.308015     -0.171774     -0.150634
  H       6.174633     -0.768261      0.173050
  C       5.799646      1.159582     -0.691817
  C       6.622644      1.969207      0.303006
  H       6.005207      2.239984      1.167067
  H       7.437620      1.346064      0.693866
  C       7.200787      3.235444     -0.314741
  H       7.781308      3.806176      0.414566
  H       6.406532      3.887035     -0.692153
  H       7.860101      2.999221     -1.155745
  H       4.931306      1.740388     -1.027560
  H       6.397406      0.952736     -1.586485
  C       3.705619     -3.730279      0.350053
  H       3.367330     -4.116151      1.316323
  H       4.795566     -3.817395      0.312604
  H       3.287913     -4.349692     -0.445196
  C       1.713244     -2.306010      0.124249
  H       1.376502     -2.873139      0.997187
  C       0.853483     -1.034490      0.023693
  C       0.827218     -0.230790      1.298523
  O       0.581621     -0.989099      2.378906
  C       0.522299     -0.305286      3.621191
  H       0.311627     -1.062500      4.374556
  H       1.472109      0.191334      3.837289
  H      -0.267511      0.449773      3.611330
  O       0.989778      0.961683      1.372479
  C       1.139469     -0.161117     -1.179472
  H       2.161417      0.221649     -1.155233
  H       0.485434      0.712011     -1.207808
  H       1.002892     -0.724770     -2.104562
  H       1.481671     -2.904926     -0.762073
  O       4.726055     -0.855310     -1.271759
41
Coordinates from ORCA-job orca E -848.326480745314
  O       3.437805     -2.383691     -2.195516
  C       3.808951     -1.861471     -1.181103
  C       3.265358     -2.303091      0.186121
  C       3.830415     -1.500470      1.369661
  H       3.095170     -1.474481      2.172477
  H       4.690268     -2.038034      1.774460
  C       4.284552     -0.102323      0.996602
  H       4.768546      0.366281      1.852240
  H       3.448750      0.542689      0.717948
  C       5.274637     -0.187109     -0.141158
  H       6.146312     -0.767433      0.182160
  C       5.743449      1.153861     -0.674640
  C       6.545904      1.970140      0.329702
  H       5.921987      2.224224      1.188240
  H       7.366720      1.361792      0.718937
  C       7.103758      3.248556     -0.279027
  H       7.668354      3.823127      0.452917
  H       6.303186      3.885446     -0.654907
  H       7.768473      3.028695     -1.114211
  H       4.870250      1.718955     -1.010016
  H       6.348272      0.964273     -1.563029
  C       3.684397     -3.775862      0.338508
  H       3.340774     -4.158004      1.299058
  H       4.768851     -3.874948      0.302649
  H       3.261532     -4.384477     -0.455844
  C       1.714507     -2.300624      0.121680
  H       1.353974     -2.849361      0.990846
  C       0.993947     -0.984537      0.032446
  C       0.951658     -0.187856      1.280322
  O       0.674215     -0.936373      2.362843
  C       0.617508     -0.233653      3.598661
  H       0.380590     -0.975316      4.353421
  H       1.572970      0.239053      3.819413
  H      -0.150317      0.535899      3.569334
  O       1.145067      1.001394      1.340378
  C       1.232033     -0.157907     -1.187453
  H       2.267526      0.188777     -1.222383
  H       0.603965      0.731198     -1.190962
  H       1.027571     -0.728554     -2.091544
  H       1.459185     -2.874748     -0.770312
  O       4.707991     -0.874485     -1.271328
41
Coordinates from ORCA-job orca E -848.333517384271
  O       3.422426     -2.371137     -2.197245
  C       3.809611     -1.851265     -1.186266
  C       3.301256     -2.310346      0.186442
  C       3.888109     -1.519040      1.366195
  H       3.163405     -1.496866      2.181697
  H       4.756374     -2.060124      1.753080
  C       4.330310     -0.116202      0.991552
  H       4.826237      0.351712      1.843524
  H       3.486540      0.526603      0.726238
  C       5.303293     -0.191668     -0.160963
  H       6.179772     -0.778621      0.140956
  C       5.764597      1.153521     -0.692876
  C       6.588438      1.958872      0.305416
  H       5.980424      2.206738      1.179471
  H       7.417755      1.344688      0.672205
  C       7.136395      3.243315     -0.302937
  H       7.718168      3.810939      0.424654
  H       6.327441      3.886265     -0.656186
  H       7.784837      3.029269     -1.155091
  H       4.884949      1.724785     -1.005801
  H       6.354262      0.971652     -1.595240
  C       3.716954     -3.786028      0.313149
  H       3.390413     -4.177056      1.278724
  H       4.802261     -3.889235      0.253444
  H       3.272820     -4.384617     -0.480700
  C       1.743080     -2.285450      0.152890
  H       1.390812     -2.833793      1.027019
  C       1.097279     -0.949707      0.090931
  C       0.931041     -0.175328      1.319765
  O       0.649455     -0.941319      2.393327
  C       0.462194     -0.230390      3.614799
  H       0.239419     -0.984296      4.365282
  H       1.365105      0.318707      3.883740
  H      -0.363255      0.475245      3.525349
  O       0.989383      1.032009      1.376760
  C       1.220973     -0.142840     -1.147656
  H       2.239465      0.251533     -1.252414
  H       0.551602      0.716468     -1.123312
  H       0.999517     -0.738704     -2.033217
  H       1.462756     -2.850243     -0.739682
  O       4.713189     -0.868499     -1.289431
41
Coordinates from ORCA-job orca E -848.336712252607
  O       3.447763     -2.380637     -2.203845
  C       3.840938     -1.887098     -1.181148
  C       3.305898     -2.353710      0.178227
  C       3.878809     -1.577203      1.376015
  H       3.144614     -1.573396      2.186075
  H       4.752416     -2.113540      1.761818
  C       4.300856     -0.161693      1.022333
  H       4.777320      0.308251      1.886574
  H       3.447340      0.467672      0.750921
  C       5.288438     -0.205799     -0.120533
  H       6.171794     -0.783948      0.183905
  C       5.733879      1.152712     -0.633564
  C       6.538843      1.959795      0.380472
  H       5.919872      2.189763      1.253958
  H       7.376793      1.353396      0.745691
  C       7.071591      3.259832     -0.210188
  H       7.641997      3.828359      0.528302
  H       6.253503      3.895804     -0.560422
  H       7.728571      3.064289     -1.062509
  H       4.846808      1.715702     -0.946491
  H       6.334449      0.990282     -1.534347
  C       3.686106     -3.837679      0.300534
  H       3.331643     -4.228223      1.258633
  H       4.771316     -3.965821      0.260151
  H       3.241897     -4.420228     -0.507596
  C       1.742784     -2.278554      0.123385
  H       1.374404     -2.798736      1.009931
  C       1.168779     -0.909469      0.046061
  C       0.918225     -0.119308      1.239910
  O       0.867676     -0.857210      2.371495
  C       0.717859     -0.108499      3.575729
  H       0.688822     -0.843424      4.378266
  H       1.559766      0.573112      3.712468
  H      -0.206212      0.471810      3.552635
  O       0.891307      1.094511      1.259864
  C       1.137344     -0.177674     -1.247605
  H       2.119672      0.255925     -1.481070
  H       0.431975      0.652272     -1.210327
  H       0.880955     -0.841861     -2.074823
  H       1.446935     -2.856186     -0.757046
  O       4.725312     -0.884040     -1.264249
41
Coordinates from ORCA-job orca E -848.338744243245
  O       3.425837     -2.380716     -2.205045
  C       3.847041     -1.900414     -1.187356
  C       3.350671     -2.387988      0.179649
  C       3.976938     -1.644467      1.370683
  H       3.281033     -1.668376      2.210830
  H       4.873086     -2.180697      1.698273
  C       4.362230     -0.215234      1.033490
  H       4.860180      0.247149      1.888366
  H       3.488337      0.402922      0.802578
  C       5.308076     -0.219464     -0.145208
  H       6.208945     -0.790295      0.116214
  C       5.715369      1.154262     -0.647069
  C       6.549110      1.952678      0.349791
  H       5.963020      2.157109      1.250692
  H       7.408381      1.351702      0.668414
  C       7.040414      3.270876     -0.235401
  H       7.633037      3.831632      0.489417
  H       6.201299      3.901906     -0.538025
  H       7.663061      3.101202     -1.117044
  H       4.810277      1.710907     -0.913345
  H       6.281571      1.017703     -1.572799
  C       3.682849     -3.883892      0.265328
  H       3.341912     -4.280069      1.224826
  H       4.760148     -4.048086      0.192689
  H       3.197881     -4.435144     -0.539563
  C       1.791163     -2.244020      0.172823
  H       1.429640     -2.737238      1.076719
  C       1.295736     -0.841215      0.099645
  C       0.977182     -0.064475      1.281932
  O       0.871520     -0.803225      2.411539
  C       0.541083     -0.069138      3.586724
  H       0.489502     -0.803092      4.387349
  H       1.306614      0.677382      3.801289
  H      -0.418393      0.434208      3.466546
  O       0.762256      1.132530      1.274912
  C       1.217090     -0.136947     -1.209830
  H       2.187363      0.294868     -1.490910
  H       0.510674      0.690417     -1.168453
  H       0.951634     -0.825486     -2.012926
  H       1.437552     -2.813467     -0.689009
  O       4.717744     -0.886760     -1.281145
41
Coordinates from ORCA-job orca E -848.339246580709
  O       3.447203     -2.401240     -2.197433
  C       3.826164     -1.875749     -1.185892
  C       3.350977     -2.370741      0.186417
  C       4.000784     -1.637096      1.369464
  H       3.322393     -1.665173      2.222920
  H       4.902196     -2.178176      1.672376
  C       4.390983     -0.209497      1.031812
  H       4.900744      0.249675      1.880575
  H       3.519498      0.413599      0.809129
  C       5.322482     -0.217609     -0.157750
  H       6.222190     -0.793599      0.093985
  C       5.731439      1.154062     -0.661829
  C       6.580282      1.945797      0.326676
  H       6.005993      2.150315      1.234367
  H       7.439661      1.340257      0.633895
  C       7.070635      3.262944     -0.260749
  H       7.674477      3.818537      0.457802
  H       6.231426      3.898477     -0.551262
  H       7.681116      3.093125     -1.150032
  H       4.827099      1.716104     -0.916835
  H       6.285836      1.015766     -1.593714
  C       3.675688     -3.867298      0.262870
  H       3.340296     -4.267441      1.221951
  H       4.750985     -4.036281      0.181664
  H       3.183332     -4.411978     -0.541181
  C       1.793820     -2.224496      0.199407
  H       1.439443     -2.709974      1.109456
  C       1.288092     -0.827921      0.117091
  C       0.881118     -0.078495      1.290222
  O       0.845714     -0.815771      2.424328
  C       0.468457     -0.104855      3.598468
  H       0.484125     -0.835189      4.403203
  H       1.171888      0.702726      3.801728
  H      -0.529447      0.318258      3.487470
  O       0.607254      1.105118      1.283808
  C       1.247622     -0.120238     -1.189496
  H       2.219187      0.333449     -1.428521
  H       0.520314      0.689226     -1.174312
  H       1.035127     -0.814687     -2.002439
  H       1.427411     -2.795187     -0.655176
  O       4.715058     -0.879190     -1.286872
41
Coordinates from ORCA-job orca E -848.339634183413
  O       3.443313     -2.401350     -2.197003
  C       3.853253     -1.904550     -1.183325
  C       3.355557     -2.381484      0.187621
  C       4.019077     -1.661712      1.370579
  H       3.349859     -1.697854      2.231817
  H       4.923206     -2.208299      1.656003
  C       4.410753     -0.232069      1.043088
  H       4.927038      0.220353      1.891667
  H       3.538551      0.393116      0.832233
  C       5.331081     -0.227212     -0.155677
  H       6.239220     -0.794111      0.086843
  C       5.720711      1.151493     -0.655893
  C       6.566103      1.948858      0.330830
  H       5.995224      2.140980      1.243612
  H       7.435106      1.352602      0.629683
  C       7.035479      3.275364     -0.252606
  H       7.636946      3.835177      0.465138
  H       6.186043      3.901602     -0.534495
  H       7.642337      3.118512     -1.147039
  H       4.808124      1.704262     -0.902701
  H       6.270454      1.023829     -1.592299
  C       3.646129     -3.883597      0.270916
  H       3.292480     -4.273970      1.227694
  H       4.718509     -4.076376      0.200958
  H       3.150473     -4.419878     -0.536974
  C       1.801825     -2.208922      0.196885
  H       1.437774     -2.682575      1.108871
  C       1.296436     -0.811140      0.104358
  C       0.867600     -0.065830      1.274996
  O       0.884811     -0.792147      2.415309
  C       0.498343     -0.087807      3.589684
  H       0.558959     -0.809140      4.400852
  H       1.170335      0.750981      3.774021
  H      -0.518709      0.292651      3.494589
  O       0.549445      1.105210      1.261951
  C       1.267657     -0.105306     -1.202887
  H       2.239778      0.351543     -1.431274
  H       0.535803      0.700379     -1.195863
  H       1.065129     -0.803504     -2.015496
  H       1.425797     -2.777459     -0.656274
  O       4.723053     -0.891070     -1.282800
41
Coordinates from ORCA-job orca E -848.339726275174
  O       3.497790     -2.438560     -2.202381
  C       3.875461     -1.925553     -1.184386
  C       3.353072     -2.395762      0.179646
  C       4.009387     -1.681593      1.369131
  H       3.336366     -1.725098      2.227704
  H       4.914992     -2.226754      1.653793
  C       4.396522     -0.249314      1.050576
  H       4.901210      0.204370      1.905482
  H       3.522003      0.370701      0.832150
  C       5.329344     -0.236344     -0.139103
  H       6.240862     -0.793276      0.114358
  C       5.709985      1.146365     -0.635847
  C       6.533866      1.954577      0.360295
  H       5.949318      2.141253      1.265755
  H       7.405633      1.368355      0.671340
  C       6.995730      3.285516     -0.219005
  H       7.581654      3.853264      0.505596
  H       6.142858      3.901794     -0.512939
  H       7.615823      3.134561     -1.105573
  H       4.794427      1.688934     -0.894970
  H       6.272643      1.023914     -1.565458
  C       3.623640     -3.901538      0.269559
  H       3.249908     -4.286569      1.221058
  H       4.694688     -4.108212      0.217155
  H       3.134523     -4.433207     -0.545530
  C       1.803369     -2.203708      0.176267
  H       1.430134     -2.667340      1.089330
  C       1.305165     -0.801105      0.078344
  C       0.905675     -0.043504      1.252863
  O       0.976682     -0.753172      2.401430
  C       0.605049     -0.044662      3.577687
  H       0.708743     -0.753308      4.395914
  H       1.259117      0.814213      3.732603
  H      -0.424391      0.307854      3.508519
  O       0.542213      1.113754      1.231444
  C       1.234983     -0.110972     -1.236497
  H       2.199990      0.339043     -1.502544
  H       0.505820      0.696981     -1.213900
  H       1.001192     -0.818572     -2.032787
  H       1.422213     -2.770364     -0.677158
  O       4.741401     -0.907413     -1.272329
41
Coordinates from ORCA-job orca E -848.339790705166
  O       3.490437     -2.439410     -2.202949
  C       3.870531     -1.928945     -1.184665
  C       3.358868     -2.408369      0.179839
  C       4.033933     -1.708848      1.367411
  H       3.376725     -1.766287      2.236647
  H       4.946353     -2.255051      1.627746
  C       4.410595     -0.271342      1.061566
  H       4.925109      0.174412      1.914720
  H       3.529964      0.347051      0.862622
  C       5.326831     -0.239996     -0.140718
  H       6.245725     -0.792500      0.094979
  C       5.690913      1.150416     -0.628593
  C       6.522784      1.954406      0.364389
  H       5.949347      2.128282      1.279436
  H       7.402293      1.370824      0.658090
  C       6.968545      3.293801     -0.207835
  H       7.560925      3.857922      0.514247
  H       6.108039      3.907648     -0.483919
  H       7.577213      3.155591     -1.104292
  H       4.768186      1.689047     -0.869861
  H       6.241548      1.041396     -1.567015
  C       3.616423     -3.917430      0.255503
  H       3.247694     -4.306880      1.207149
  H       4.684881     -4.133807      0.192020
  H       3.115260     -4.438210     -0.559183
  C       1.812083     -2.201095      0.190110
  H       1.441313     -2.653457      1.109914
  C       1.322574     -0.795512      0.080609
  C       0.916287     -0.026743      1.246048
  O       0.977232     -0.726532      2.401543
  C       0.599281     -0.007133      3.569045
  H       0.695602     -0.708947      4.393986
  H       1.254442      0.851295      3.721444
  H      -0.428617      0.347525      3.489991
  O       0.560513      1.132654      1.213314
  C       1.256647     -0.117601     -1.240900
  H       2.224889      0.323245     -1.510503
  H       0.532095      0.694626     -1.225916
  H       1.018415     -0.831276     -2.030588
  H       1.417991     -2.770800     -0.655387
  O       4.729191     -0.904425     -1.272451
41
Coordinates from ORCA-job orca E -848.339798824230
  O       3.496934     -2.448276     -2.201665
  C       3.873178     -1.934874     -1.183494
  C       3.358997     -2.411884      0.180628
  C       4.037334     -1.714671      1.367458
  H       3.382983     -1.774372      2.238680
  H       4.950753     -2.261471      1.623046
  C       4.413187     -0.276384      1.063749
  H       4.929660      0.167873      1.916421
  H       3.532046      0.341912      0.868103
  C       5.326111     -0.241713     -0.140806
  H       6.247328     -0.791418      0.091821
  C       5.684425      1.150420     -0.628028
  C       6.515882      1.955673      0.364247
  H       5.943776      2.126643      1.280570
  H       7.397450      1.374191      0.655706
  C       6.956846      3.296914     -0.207173
  H       7.548983      3.861717      0.514441
  H       6.094259      3.908711     -0.480949
  H       7.564162      3.161601     -1.104881
  H       4.759404      1.686227     -0.866401
  H       6.233249      1.044501     -1.567793
  C       3.608855     -3.921874      0.258062
  H       3.235594     -4.308871      1.208882
  H       4.676242     -4.143552      0.197815
  H       3.107715     -4.440864     -0.557569
  C       1.813616     -2.197656      0.189346
  H       1.438858     -2.648489      1.108434
  C       1.328165     -0.791617      0.078934
  C       0.920396     -0.023133      1.243442
  O       0.981256     -0.723596      2.398702
  C       0.604505     -0.004575      3.566851
  H       0.700592     -0.706956      4.391229
  H       1.260434      0.853111      3.719688
  H      -0.422999      0.350988      3.488439
  O       0.568289      1.137343      1.211445
  C       1.268790     -0.112601     -1.241968
  H       2.240563      0.322283     -1.508760
  H       0.548521      0.703368     -1.227641
  H       1.027249     -0.823803     -2.032816
  H       1.417839     -2.764545     -0.657092
  O       4.727638     -0.906733     -1.271514
41
Coordinates from ORCA-job orca E -848.339809408924
  O       3.504743     -2.456216     -2.201589
  C       3.875617     -1.939934     -1.182948
  C       3.358861     -2.416054      0.180392
  C       4.039419     -1.721543      1.367403
  H       3.387264     -1.784255      2.240164
  H       4.953651     -2.269126      1.618562
  C       4.414879     -0.282231      1.067477
  H       4.933736      0.159041      1.920244
  H       3.533471      0.336805      0.876223
  C       5.324264     -0.242916     -0.139560
  H       6.247877     -0.790287      0.088897
  C       5.676852      1.151609     -0.624269
  C       6.508130      1.956678      0.368331
  H       5.937455      2.123395      1.286313
  H       7.391819      1.376787      0.656551
  C       6.944185      3.300632     -0.200318
  H       7.536254      3.865073      0.521637
  H       6.079411      3.910828     -0.470727
  H       7.550023      3.169562     -1.099646
  H       4.749450      1.685000     -0.858724
  H       6.223719      1.050127     -1.565653
  C       3.602420     -3.926729      0.258835
  H       3.225319     -4.311978      1.208845
  H       4.669005     -4.152813      0.201348
  H       3.101334     -4.444099     -0.557803
  C       1.814290     -2.196658      0.187351
  H       1.436706     -2.645092      1.106518
  C       1.331112     -0.790386      0.074226
  C       0.928625     -0.018078      1.237893
  O       0.991416     -0.716476      2.394526
  C       0.620206      0.005884      3.562415
  H       0.717108     -0.695098      4.387886
  H       1.278808      0.862172      3.711588
  H      -0.406633      0.363838      3.486349
  O       0.579758      1.143351      1.204843
  C       1.271783     -0.114326     -1.248146
  H       2.246483      0.311064     -1.519609
  H       0.557953      0.707243     -1.233032
  H       1.020429     -0.825014     -2.036458
  H       1.417309     -2.763296     -0.658735
  O       4.724549     -0.906932     -1.270014
41
Coordinates from ORCA-job orca E -848.339814543111
  O       3.512669     -2.464479     -2.201205
  C       3.878469     -1.944643     -1.182583
  C       3.358932     -2.418703      0.180349
  C       4.039474     -1.724407      1.367401
  H       3.387628     -1.787977      2.240345
  H       4.953924     -2.272119      1.617578
  C       4.414767     -0.284776      1.068724
  H       4.934679      0.155064      1.921572
  H       3.533473      0.334892      0.879106
  C       5.322711     -0.243567     -0.139323
  H       6.247558     -0.789679      0.087130
  C       5.672329      1.152088     -0.623082
  C       6.502894      1.957587      0.369848
  H       5.932410      2.122297      1.288323
  H       7.387619      1.378756      0.657064
  C       6.936431      3.302860     -0.197514
  H       7.527885      3.867487      0.524818
  H       6.070542      3.911939     -0.466909
  H       7.542091      3.173868     -1.097273
  H       4.743625      1.683908     -0.855954
  H       6.218658      1.052746     -1.565014
  C       3.598490     -3.929701      0.261323
  H       3.218470     -4.312692      1.211084
  H       4.664610     -4.158687      0.206404
  H       3.097827     -4.447069     -0.555585
  C       1.814497     -2.195847      0.184402
  H       1.434225     -2.644298      1.102487
  C       1.333868     -0.788642      0.071703
  C       0.934770     -0.015477      1.235723
  O       0.996281     -0.714536      2.392225
  C       0.628752      0.009033      3.560559
  H       0.723821     -0.692463      4.385822
  H       1.290675      0.862846      3.709238
  H      -0.396855      0.370670      3.485268
  O       0.589314      1.147063      1.203620
  C       1.275256     -0.112521     -1.250614
  H       2.253248      0.302243     -1.526605
  H       0.569552      0.715931     -1.232934
  H       1.013119     -0.820746     -2.037722
  H       1.418031     -2.761387     -0.662687
  O       4.722341     -0.907311     -1.269525
41
Coordinates from ORCA-job orca E -848.339816165498
  O       3.520787     -2.471913     -2.200646
  C       3.880883     -1.947810     -1.182245
  C       3.359164     -2.420015      0.180478
  C       4.038818     -1.725246      1.367721
  H       3.386560     -1.789145      2.240379
  H       4.953149     -2.273173      1.618022
  C       4.414740     -0.285552      1.070146
  H       4.936385      0.152179      1.923044
  H       3.534190      0.335700      0.882546
  C       5.320796     -0.242954     -0.139325
  H       6.246258     -0.789243      0.084265
  C       5.669035      1.153566     -0.621768
  C       6.500341      1.958263      0.371278
  H       5.930651      2.121450      1.290537
  H       7.385623      1.379434      0.656886
  C       6.932513      3.304522     -0.194696
  H       7.524114      3.868635      0.527954
  H       6.065998      3.913376     -0.462678
  H       7.537621      3.177185     -1.095100
  H       4.739544      1.685032     -0.852391
  H       6.214246      1.056006     -1.564543
  C       3.596276     -3.931071      0.264073
  H       3.214586     -4.312035      1.213997
  H       4.662098     -4.161962      0.210759
  H       3.095776     -4.449082     -0.552569
  C       1.814268     -2.195780      0.181297
  H       1.432226     -2.644949      1.098340
  C       1.334571     -0.788170      0.069056
  C       0.938731     -0.014430      1.233647
  O       0.999137     -0.714155      2.389947
  C       0.635579      0.010639      3.558818
  H       0.728376     -0.691555      4.383780
  H       1.301352      0.861543      3.707104
  H      -0.388579      0.376590      3.484342
  O       0.595793      1.148950      1.202513
  C       1.275008     -0.112725     -1.253524
  H       2.257283      0.285023     -1.539040
  H       0.582508      0.726593     -1.231462
  H       0.994962     -0.817871     -2.037448
  H       1.419585     -2.761401     -0.666563
  O       4.718111     -0.904897     -1.269339
41
Coordinates from ORCA-job orca E -848.339821605428
  O       3.524936     -2.475389     -2.200215
  C       3.882217     -1.948627     -1.182245
  C       3.359834     -2.419692      0.180620
  C       4.038327     -1.723827      1.367824
  H       3.385368     -1.787399      2.239960
  H       4.952620     -2.271316      1.619252
  C       4.414031     -0.284219      1.069863
  H       4.936023      0.153212      1.922739
  H       3.533745      0.337497      0.882287
  C       5.319808     -0.241936     -0.139847
  H       6.244760     -0.789456      0.082930
  C       5.669254      1.154429     -0.621851
  C       6.500863      1.958460      0.371505
  H       5.931010      2.121913      1.290639
  H       7.385747      1.379071      0.657209
  C       6.933893      3.304578     -0.194192
  H       7.525421      3.868399      0.528771
  H       6.067738      3.913835     -0.462489
  H       7.539336      3.177061     -1.094360
  H       4.740125      1.686578     -0.852426
  H       6.214603      1.056710     -1.564529
  C       3.596758     -3.930693      0.265761
  H       3.215273     -4.310703      1.216165
  H       4.662552     -4.161831      0.212397
  H       3.096056     -4.449556     -0.550243
  C       1.814494     -2.195518      0.179828
  H       1.432215     -2.645733      1.096253
  C       1.334846     -0.787671      0.068565
  C       0.938824     -0.014852      1.233770
  O       0.998881     -0.715413      2.389545
  C       0.635665      0.008752      3.558933
  H       0.727202     -0.694349      4.383280
  H       1.302587      0.858598      3.708234
  H      -0.387970      0.376165      3.484402
  O       0.595365      1.148427      1.203498
  C       1.272982     -0.112793     -1.254135
  H       2.257954      0.270737     -1.549399
  H       0.591788      0.735486     -1.227666
  H       0.977167     -0.815661     -2.034535
  H       1.421294     -2.761285     -0.668613
  O       4.715469     -0.902437     -1.269897
41
Coordinates from ORCA-job orca E -848.339827576283
  O       3.523924     -2.473336     -2.199983
  C       3.881743     -1.945995     -1.182527
  C       3.360778     -2.417182      0.180891
  C       4.038079     -1.719822      1.367900
  H       3.384261     -1.782470      2.239427
  H       4.952262     -2.266589      1.621189
  C       4.413489     -0.280498      1.068431
  H       4.935083      0.157915      1.921086
  H       3.533269      0.341013      0.879613
  C       5.319901     -0.240087     -0.140879
  H       6.243229     -0.790185      0.082377
  C       5.673165      1.155200     -0.622977
  C       6.505606      1.957937      0.370698
  H       5.935349      2.123061      1.289281
  H       7.389196      1.377028      0.657295
  C       6.941646      3.302967     -0.195374
  H       7.533504      3.866155      0.527811
  H       6.076799      3.913607     -0.464762
  H       7.547672      3.173813     -1.094916
  H       4.745510      1.689372     -0.854785
  H       6.219172      1.055695     -1.565102
  C       3.600291     -3.927885      0.266174
  H       3.220979     -4.308314      1.217280
  H       4.666398     -4.157206      0.211089
  H       3.099237     -4.447805     -0.548943
  C       1.814925     -2.195466      0.180445
  H       1.434247     -2.646852      1.096926
  C       1.333065     -0.788228      0.069871
  C       0.933955     -0.017275      1.235521
  O       0.995228     -0.718318      2.390722
  C       0.629022      0.003816      3.560411
  H       0.721033     -0.699945      4.384137
  H       1.294065      0.854853      3.711382
  H      -0.395234      0.369322      3.485205
  O       0.586838      1.144904      1.205671
  C       1.267500     -0.114512     -1.253177
  H       2.253952      0.256482     -1.559003
  H       0.596236      0.741388     -1.222482
  H       0.956885     -0.816118     -2.029192
  H       1.423013     -2.762041     -0.668043
  O       4.713788     -0.898850     -1.271096
41
Coordinates from ORCA-job orca E -848.339825403980
  O       3.522660     -2.471151     -2.199785
  C       3.881472     -1.944006     -1.182576
  C       3.361437     -2.415423      0.181128
  C       4.038119     -1.717271      1.368016
  H       3.383947     -1.779563      2.239274
  H       4.952429     -2.263312      1.622318
  C       4.412765     -0.277972      1.067374
  H       4.933304      0.161912      1.919896
  H       3.532084      0.342474      0.877089
  C       5.320130     -0.238839     -0.141263
  H       6.242313     -0.790369      0.083201
  C       5.676048      1.155563     -0.623809
  C       6.508597      1.957886      0.370052
  H       5.937684      2.124747      1.287887
  H       7.391097      1.376041      0.658052
  C       6.947241      3.301758     -0.196840
  H       7.539128      3.864777      0.526429
  H       6.083558      3.913363     -0.467709
  H       7.554022      3.170824     -1.095594
  H       4.749509      1.690937     -0.857272
  H       6.222890      1.054422     -1.565265
  C       3.602602     -3.925963      0.266209
  H       3.224296     -4.306898      1.217496
  H       4.668928     -4.154001      0.210397
  H       3.101722     -4.446295     -0.548719
  C       1.815602     -2.195061      0.181230
  H       1.435735     -2.646971      1.097759
  C       1.332142     -0.788319      0.070938
  C       0.930239     -0.018849      1.236845
  O       0.993283     -0.720227      2.391567
  C       0.624122     -0.000228      3.561601
  H       0.717526     -0.704431      4.384772
  H       1.286602      0.852561      3.713898
  H      -0.401073      0.362518      3.486057
  O       0.580010      1.142353      1.207376
  C       1.264338     -0.115332     -1.252281
  H       2.252046      0.245384     -1.565994
  H       0.601138      0.746623     -1.218159
  H       0.941552     -0.815413     -2.024878
  H       1.424071     -2.761616     -0.667448
  O       4.713747     -0.897084     -1.271679
41
Coordinates from ORCA-job orca E -848.339829810353
  O       3.521040     -2.469249     -2.199632
  C       3.881249     -1.942894     -1.182488
  C       3.361657     -2.414387      0.181351
  C       4.038522     -1.716048      1.368069
  H       3.384476     -1.778129      2.239433
  H       4.952907     -2.261867      1.622518
  C       4.412878     -0.276767      1.066637
  H       4.932544      0.164400      1.919008
  H       3.531758      0.342704      0.875224
  C       5.320973     -0.238517     -0.141440
  H       6.242714     -0.790241      0.084317
  C       5.677882      1.155337     -0.624686
  C       6.510147      1.957900      0.369157
  H       5.938779      2.125690      1.286519
  H       7.392214      1.375890      0.658125
  C       6.949851      3.301144     -0.198411
  H       7.541618      3.864335      0.524806
  H       6.086657      3.913008     -0.470203
  H       7.557071      3.169204     -1.096699
  H       4.751829      1.690984     -0.859380
  H       6.225290      1.053178     -1.565705
  C       3.603555     -3.924863      0.266161
  H       3.225471     -4.306111      1.217391
  H       4.669992     -4.152272      0.210249
  H       3.102892     -4.445228     -0.548860
  C       1.816075     -2.194541      0.182084
  H       1.436299     -2.646504      1.098621
  C       1.331694     -0.788096      0.071903
  C       0.927804     -0.019630      1.237879
  O       0.991801     -0.721430      2.392235
  C       0.620167     -0.003142      3.562508
  H       0.714892     -0.707632      4.385266
  H       1.280300      0.851266      3.715843
  H      -0.405901      0.357033      3.486620
  O       0.575801      1.141009      1.208814
  C       1.263982     -0.114923     -1.251204
  H       2.252661      0.240485     -1.567763
  H       0.604839      0.750044     -1.215387
  H       0.935206     -0.813574     -2.022651
  H       1.424191     -2.760589     -0.666789
  O       4.715280     -0.897424     -1.271848
41
Coordinates from ORCA-job orca E -848.339833458611
  O       3.519686     -2.467508     -2.199564
  C       3.881278     -1.942409     -1.182240
  C       3.361488     -2.413963      0.181490
  C       4.038360     -1.715641      1.368267
  H       3.384178     -1.777388      2.239563
  H       4.952609     -2.261569      1.622958
  C       4.412907     -0.276452      1.066361
  H       4.931621      0.165659      1.918789
  H       3.531531      0.342305      0.873846
  C       5.321949     -0.238724     -0.141002
  H       6.243730     -0.789809      0.086153
  C       5.678745      1.154850     -0.625154
  C       6.510624      1.958196      0.368335
  H       5.939012      2.126673      1.285415
  H       7.392619      1.376435      0.658021
  C       6.950553      3.301003     -0.200127
  H       7.542267      3.864627      0.522778
  H       6.087485      3.912773     -0.472496
  H       7.557907      3.168316     -1.098207
  H       4.752732      1.690179     -0.860701
  H       6.226457      1.052048     -1.565922
  C       3.603692     -3.924413      0.266103
  H       3.225145     -4.305873      1.217049
  H       4.670211     -4.151505      0.210748
  H       3.103522     -4.444651     -0.549288
  C       1.816187     -2.194192      0.182300
  H       1.435845     -2.646269      1.098539
  C       1.331780     -0.787722      0.072559
  C       0.926866     -0.020009      1.238596
  O       0.991553     -0.722234      2.392713
  C       0.618070     -0.005172      3.563133
  H       0.714370     -0.709696      4.385676
  H       1.276006      0.850835      3.716894
  H      -0.408879      0.352451      3.487117
  O       0.573665      1.140281      1.210025
  C       1.265159     -0.113813     -1.250223
  H       2.254806      0.238208     -1.567467
  H       0.608546      0.753028     -1.213385
  H       0.933040     -0.810933     -2.021653
  H       1.423921     -2.759375     -0.666989
  O       4.717818     -0.898996     -1.271419
