105
Coordinates from ORCA-job orca E -2048.215710254938
  C       0.433480      0.574660     -1.363650
  C       0.973120      0.640260      0.079310
  O       1.792020     -0.166410      0.460520
  O       0.553620      1.560940      0.920940
  C      -0.706460      1.587580     -1.584690
  H      -1.638890      1.202630     -1.160540
  H      -0.863710      1.727070     -2.666240
  C      -0.333770      2.650580      0.613530
  H      -1.325280      2.330190      0.978150
  C      -0.408180      2.901940     -0.881090
  H      -1.211340      3.627370     -1.076740
  H       0.540730      3.345720     -1.219980
  C       0.024680     -0.902010     -1.649740
  H       0.885060     -1.511390     -1.353960
  H      -0.063840     -1.014050     -2.742160
  C       1.575850      0.965370     -2.374200
  C       3.085060      0.798640     -2.092530
  H       1.439580      2.028540     -2.609830
  H       1.365370      0.421780     -3.309530
  C       3.500060      1.725030     -0.941050
  C       3.558880     -0.670530     -1.916820
  C       3.812470      1.409950     -3.319010
  O       2.863630      2.703330     -0.641000
  O       4.668950      1.502890     -0.341820
  H       4.046390     -0.987950     -2.852670
  H       2.699530     -1.333810     -1.779180
  C       4.518340     -0.867140     -0.746800
  H       3.549290      2.469900     -3.448960
  H       4.905190      1.340880     -3.216970
  H       3.526570      0.865270     -4.231760
  C       5.445430      0.321450     -0.584170
  H       5.110380     -1.782390     -0.892050
  H       3.945700     -0.973680      0.185840
  H       6.024400      0.480820     -1.514270
  C       0.166030      3.829930      1.432480
  H       1.182700      4.079320      1.086170
  H       0.262860      3.491310      2.476700
  C       6.415980      0.217540      0.582240
  H       5.834190      0.047340      1.503830
  H       6.900590      1.200620      0.697910
  C      -3.928820     -1.689340     -1.682370
  C      -4.176330     -2.011710     -0.200020
  O      -3.695090     -2.991380      0.312900
  O      -5.005240     -1.256850      0.514270
  C      -4.870730     -0.564900     -2.149540
  H      -5.889700     -0.968690     -2.278630
  H      -4.549720     -0.209980     -3.141810
  C      -5.478010      0.057950      0.175550
  H      -6.571200     -0.056290      0.060200
  C      -4.904540      0.565840     -1.137460
  H      -5.529820      1.396240     -1.496350
  H      -3.892800      0.962460     -0.964440
  C      -4.279140     -2.969200     -2.463860
  H      -3.637120     -3.812850     -2.185200
  H      -4.171450     -2.784290     -3.544030
  C      -2.456240     -1.243740     -1.977400
  C      -1.262030     -1.594240     -1.057060
  H      -2.465330     -0.157710     -2.105290
  H      -2.202960     -1.650560     -2.970480
  C      -1.487450     -1.041470      0.352900
  C      -0.992610     -3.128740     -1.055050
  O      -2.232470     -0.110000      0.563840
  O      -0.789410     -1.545960      1.352450
  H      -0.207160     -3.334820     -1.799410
  H      -1.888200     -3.656040     -1.393680
  C      -0.602040     -3.695070      0.311150
  C       0.101830     -2.661580      1.167590
  H       0.040880     -4.578640      0.189280
  H      -1.511350     -4.008580      0.845630
  H       1.006220     -2.274930      0.671700
  C      -5.183210      0.946130      1.377280
  H      -4.095600      0.921090      1.546140
  H      -5.651490      0.484560      2.261720
  C       0.483610     -3.121120      2.563390
  H      -0.412160     -3.521020      3.068540
  H       0.792750     -2.224860      3.124370
  H      -5.320260     -3.271050     -2.273740
  C      -5.669420      2.384610      1.224680
  H      -6.748600      2.392560      0.988230
  H      -5.165470      2.860080      0.366360
  C       1.611730     -4.149020      2.582190
  H       1.298010     -5.064770      2.053250
  H       2.473590     -3.749800      2.019250
  C      -0.744810      5.053070      1.371200
  H      -1.777910      4.754710      1.624580
  H      -0.783320      5.441350      0.339600
  C       7.480180     -0.864100      0.417640
  H       7.002800     -1.856240      0.356690
  H       8.004660     -0.718670     -0.543260
  C       8.494210     -0.866450      1.556590
  H       9.248260     -1.655900      1.422500
  H       9.023510      0.097180      1.619480
  H       7.999770     -1.035500      2.525910
  C      -0.291620      6.168190      2.307350
  H       0.730500      6.496720      2.062530
  H      -0.952370      7.045240      2.240530
  H      -0.287250      5.829170      3.355130
  C      -5.412280      3.220320      2.474290
  H      -5.758050      4.256800      2.346100
  H      -5.930640      2.798110      3.349300
  H      -4.337170      3.249760      2.711650
  C       2.050780     -4.512910      3.996350
  H       1.214430     -4.936950      4.573930
  H       2.862760     -5.255090      3.988150
  H       2.411050     -3.625360      4.539570
105
Coordinates from ORCA-job orca E -2048.218372220351
  C       0.436383      0.626676     -1.277482
  C       0.948332      0.728107      0.171011
  O       1.773978     -0.053990      0.582296
  O       0.494836      1.650113      0.993515
  C      -0.708669      1.620376     -1.536877
  H      -1.639019      1.231000     -1.132902
  H      -0.840702      1.741531     -2.616014
  C      -0.411084      2.716250      0.647754
  H      -1.397712      2.379933      0.987908
  C      -0.449795      2.947514     -0.847956
  H      -1.254773      3.650126     -1.071953
  H       0.491855      3.400289     -1.167796
  C       0.050719     -0.858657     -1.554397
  H       0.911684     -1.448695     -1.252538
  H      -0.024876     -0.974068     -2.639829
  C       1.583283      1.010678     -2.284785
  C       3.095061      0.813666     -2.038106
  H       1.460018      2.070502     -2.505603
  H       1.352976      0.488770     -3.219019
  C       3.566861      1.700967     -0.882163
  C       3.549148     -0.663927     -1.918439
  C       3.795630      1.442308     -3.266468
  O       2.971802      2.691841     -0.547128
  O       4.749014      1.442335     -0.324472
  H       3.998160     -0.958515     -2.871664
  H       2.690170     -1.311760     -1.774034
  C       4.540562     -0.912992     -0.788944
  H       3.547790      2.500869     -3.362020
  H       4.881032      1.353889     -3.197617
  H       3.477478      0.927621     -4.175743
  C       5.493088      0.250892     -0.625543
  H       5.106121     -1.826528     -0.980771
  H       4.001925     -1.038366      0.152308
  H       6.042298      0.424718     -1.561564
  C       0.038557      3.915065      1.462373
  H       1.049235      4.186283      1.141429
  H       0.115970      3.595354      2.505931
  C       6.493154      0.097079      0.506271
  H       5.940551     -0.086812      1.433703
  H       6.998722      1.059286      0.633171
  C      -3.893011     -1.683423     -1.647700
  C      -4.198234     -1.982465     -0.174530
  O      -3.747886     -2.958220      0.369711
  O      -5.054831     -1.221028      0.497800
  C      -4.817104     -0.571640     -2.166218
  H      -5.821902     -0.978868     -2.324820
  H      -4.461892     -0.235936     -3.144479
  C      -5.512355      0.090203      0.117371
  H      -6.593502     -0.023386     -0.032241
  C      -4.891859      0.575291     -1.179190
  H      -5.501437      1.390544     -1.573061
  H      -3.896457      0.977056     -0.976964
  C      -4.220735     -2.969144     -2.422476
  H      -3.599484     -3.806040     -2.113505
  H      -4.074776     -2.799351     -3.492201
  C      -2.414147     -1.239127     -1.906973
  C      -1.224392     -1.584552     -0.978843
  H      -2.426448     -0.161344     -2.033575
  H      -2.146429     -1.637773     -2.891350
  C      -1.464957     -1.076085      0.442303
  C      -0.916812     -3.108232     -1.018399
  O      -2.228009     -0.167792      0.678354
  O      -0.770379     -1.598744      1.435285
  H      -0.127070     -3.268968     -1.757805
  H      -1.789556     -3.643258     -1.377303
  C      -0.519528     -3.708877      0.328714
  C       0.149514     -2.688824      1.222197
  H       0.143600     -4.563157      0.182218
  H      -1.415310     -4.064585      0.842399
  H       1.044856     -2.268612      0.754519
  C      -5.251995      0.994408      1.311237
  H      -4.178103      0.970613      1.512215
  H      -5.744731      0.553201      2.182880
  C       0.519821     -3.184635      2.605583
  H      -0.365602     -3.624634      3.077175
  H       0.793290     -2.307916      3.199924
  H      -5.262023     -3.259595     -2.266461
  C      -5.725599      2.428865      1.120098
  H      -6.792906      2.441751      0.868183
  H      -5.206350      2.880827      0.268773
  C       1.674540     -4.178013      2.604209
  H       1.398722     -5.074539      2.039688
  H       2.528296     -3.735607      2.078074
  C      -0.901161      5.109912      1.361331
  H      -1.924776      4.791478      1.592998
  H      -0.923584      5.481180      0.331877
  C       7.526195     -0.998749      0.276946
  H       7.030745     -1.971939      0.206813
  H       8.019537     -0.838612     -0.688829
  C       8.572999     -1.048798      1.381304
  H       9.301456     -1.842063      1.204413
  H       9.118315     -0.104300      1.450556
  H       8.109578     -1.232141      2.353854
  C      -0.497098      6.245033      2.291890
  H       0.514734      6.591998      2.068214
  H      -1.171266      7.098552      2.198685
  H      -0.509910      5.921875      3.335768
  C      -5.475568      3.279710      2.357057
  H      -5.803147      4.310413      2.208693
  H      -6.006447      2.881108      3.225039
  H      -4.410858      3.297244      2.605146
  C       2.095363     -4.581511      4.010492
  H       1.267158     -5.048072      4.549817
  H       2.922676     -5.293361      3.991120
  H       2.416067     -3.711815      4.589214
105
Coordinates from ORCA-job orca E -2048.217824702245
  C       0.457203      0.587396     -1.351156
  C       1.028624      0.637604      0.074010
  O       1.861601     -0.166063      0.422665
  O       0.623119      1.538073      0.945578
  C      -0.675250      1.606761     -1.538898
  H      -1.594925      1.222586     -1.113233
  H      -0.843132      1.763528     -2.604682
  C      -0.286645      2.622513      0.664368
  H      -1.262619      2.282397      1.021994
  C      -0.366601      2.905020     -0.819082
  H      -1.161533      3.626936     -0.993441
  H       0.570554      3.348439     -1.154563
  C       0.033109     -0.881526     -1.643694
  H       0.878456     -1.495135     -1.359727
  H      -0.064649     -0.983377     -2.725164
  C       1.577139      0.978143     -2.377988
  C       3.087318      0.803251     -2.131562
  H       1.439793      2.031178     -2.605919
  H       1.347001      0.439080     -3.298467
  C       3.546156      1.753911     -1.025553
  C       3.542636     -0.662475     -1.930196
  C       3.780326      1.370789     -3.391905
  O       2.944678      2.759148     -0.753302
  O       4.712816      1.522236     -0.422764
  H       4.012522     -1.002941     -2.853246
  H       2.683779     -1.301311     -1.773823
  C       4.500521     -0.853679     -0.762695
  H       3.525026      2.417144     -3.541517
  H       4.862575      1.294077     -3.320568
  H       3.465115      0.807563     -4.268201
  C       5.455998      0.310164     -0.640586
  H       5.062812     -1.776040     -0.888862
  H       3.938513     -0.924123      0.167361
  H       6.027778      0.429173     -1.566924
  C       0.197109      3.788829      1.503582
  H       1.194774      4.066982      1.160771
  H       0.305433      3.435961      2.529597
  C       6.423769      0.213108      0.523548
  H       5.847769      0.087016      1.441883
  H       6.935190      1.172538      0.608923
  C      -3.904817     -1.697328     -1.688703
  C      -4.156920     -2.011084     -0.212144
  O      -3.664159     -2.977541      0.310729
  O      -4.992792     -1.262125      0.500404
  C      -4.850269     -0.589691     -2.169891
  H      -5.852422     -1.002706     -2.301419
  H      -4.526814     -0.243916     -3.151565
  C      -5.477750      0.047832      0.139173
  H      -6.557357     -0.081054      0.023817
  C      -4.904097      0.547599     -1.171854
  H      -5.531716      1.356657     -1.538656
  H      -3.909618      0.957083     -0.998833
  C      -4.243313     -2.979741     -2.460953
  H      -3.611124     -3.811297     -2.173878
  H      -4.126883     -2.802966     -3.529337
  C      -2.440309     -1.243229     -1.977912
  C      -1.249498     -1.571101     -1.050965
  H      -2.462341     -0.171587     -2.119872
  H      -2.180507     -1.659324     -2.953393
  C      -1.479996     -1.006314      0.345916
  C      -0.972982     -3.098518     -1.032714
  O      -2.202943     -0.057498      0.537646
  O      -0.799669     -1.502546      1.362857
  H      -0.189971     -3.302814     -1.762806
  H      -1.855213     -3.626029     -1.370817
  C      -0.587783     -3.656180      0.335312
  C       0.100209     -2.617930      1.190175
  H       0.057147     -4.524314      0.220458
  H      -1.486748     -3.976382      0.860004
  H       1.001420     -2.232407      0.711339
  C      -5.193967      0.952057      1.327263
  H      -4.115274      0.967298      1.482724
  H      -5.632247      0.489941      2.212254
  C       0.455552     -3.071476      2.590684
  H      -0.433742     -3.487835      3.067484
  H       0.732554     -2.182800      3.158187
  H      -5.274666     -3.276029     -2.279161
  C      -5.732490      2.367503      1.168527
  H      -6.804196      2.336727      0.957635
  H      -5.266932      2.848065      0.306808
  C       1.601608     -4.072643      2.626394
  H       1.326047     -4.978563      2.084710
  H       2.461692     -3.650994      2.101504
  C      -0.739073      4.989106      1.471912
  H      -1.752063      4.670272      1.729755
  H      -0.794821      5.391225      0.459609
  C       7.448926     -0.903450      0.382641
  H       6.946575     -1.870873      0.357528
  H       7.966564     -0.804582     -0.574240
  C       8.466107     -0.897434      1.514323
  H       9.187728     -1.703584      1.403717
  H       9.017534      0.041148      1.540831
  H       7.977872     -1.017728      2.480191
  C      -0.293936      6.091474      2.421559
  H       0.707970      6.437928      2.172757
  H      -0.962787      6.948266      2.378938
  H      -0.271993      5.737217      3.450973
  C      -5.477862      3.215884      2.406315
  H      -5.857515      4.227662      2.282019
  H      -5.956681      2.785205      3.284263
  H      -4.411481      3.283004      2.617002
  C       2.001440     -4.441082      4.047467
  H       1.166749     -4.888922      4.584767
  H       2.822890     -5.154052      4.057253
  H       2.316895     -3.561099      4.605791
105
Coordinates from ORCA-job orca E -2048.219002068192
  C       0.447467      0.596862     -1.354463
  C       0.962762      0.687720      0.090936
  O       1.772658     -0.111919      0.499337
  O       0.535674      1.622531      0.915410
  C      -0.678998      1.608764     -1.613197
  H      -1.616025      1.237996     -1.207031
  H      -0.809320      1.731258     -2.691623
  C      -0.356318      2.702522      0.566805
  H      -1.347090      2.380881      0.906435
  C      -0.388151      2.931271     -0.928395
  H      -1.175580      3.651558     -1.154432
  H       0.563885      3.360514     -1.249886
  C       0.036726     -0.880023     -1.627045
  H       0.884962     -1.485131     -1.322303
  H      -0.046626     -0.998986     -2.710631
  C       1.601431      0.973640     -2.351660
  C       3.107386      0.797223     -2.071660
  H       1.474321      2.030283     -2.582269
  H       1.391002      0.438112     -3.281960
  C       3.525935      1.701268     -0.911238
  C       3.583876     -0.670184     -1.928354
  C       3.826995      1.433175     -3.285283
  O       2.897464      2.679129     -0.599871
  O       4.690072      1.465896     -0.304605
  H       4.071837     -0.960462     -2.862519
  H       2.733201     -1.332867     -1.810902
  C       4.538500     -0.895575     -0.762864
  H       3.559838      2.484894     -3.393339
  H       4.911096      1.367358     -3.186137
  H       3.543913      0.905936     -4.198030
  C       5.465094      0.284305     -0.575570
  H       5.125383     -1.799535     -0.930399
  H       3.971285     -1.026081      0.159868
  H       6.041053      0.464354     -1.492827
  C       0.110649      3.895587      1.379169
  H       1.122935      4.155890      1.056358
  H       0.185297      3.578121      2.422650
  C       6.428014      0.153350      0.590633
  H       5.847741     -0.033034      1.499330
  H       6.915861      1.122251      0.727636
  C      -3.907085     -1.670234     -1.666523
  C      -4.154368     -2.011469     -0.194272
  O      -3.668047     -2.993553      0.306277
  O      -4.985283     -1.273275      0.535685
  C      -4.848450     -0.546488     -2.121782
  H      -5.856312     -0.951453     -2.258272
  H      -4.525530     -0.181225     -3.099828
  C      -5.465162      0.046323      0.203380
  H      -6.548320     -0.075300      0.087788
  C      -4.891474      0.570420     -1.099090
  H      -5.516911      1.393165     -1.447712
  H      -3.891007      0.970444     -0.920181
  C      -4.256027     -2.936903     -2.462531
  H      -3.625135     -3.779621     -2.192940
  H      -4.142449     -2.739796     -3.530739
  C      -2.439879     -1.219125     -1.953566
  C      -1.247669     -1.572775     -1.037620
  H      -2.454963     -0.140795     -2.073299
  H      -2.185769     -1.618036     -2.940606
  C      -1.471735     -1.034262      0.371824
  C      -0.979383     -3.103052     -1.051643
  O      -2.206169     -0.098777      0.588906
  O      -0.791122     -1.555723      1.376302
  H      -0.199963     -3.297576     -1.792432
  H      -1.868692     -3.621024     -1.395060
  C      -0.587268     -3.688833      0.303377
  C       0.107104     -2.668313      1.175950
  H       0.057848     -4.557490      0.166744
  H      -1.485977     -4.019528      0.827727
  H       1.007390     -2.272394      0.698431
  C      -5.174240      0.923565      1.410524
  H      -4.092399      0.931283      1.562790
  H      -5.612479      0.442673      2.289064
  C       0.471495     -3.151926      2.565199
  H      -0.416148     -3.583863      3.037740
  H       0.748334     -2.272893      3.152784
  H      -5.291120     -3.231953     -2.281638
  C      -5.707729      2.345419      1.284205
  H      -6.783629      2.323237      1.078756
  H      -5.243756      2.842976      0.427557
  C       1.622922     -4.149568      2.573485
  H       1.349535     -5.045118      2.007924
  H       2.482171     -3.709469      2.056585
  C      -0.815176      5.101416      1.276336
  H      -1.840396      4.798235      1.516084
  H      -0.837836      5.467914      0.246194
  C       7.483224     -0.929565      0.402947
  H       7.004602     -1.909644      0.326830
  H       8.005354     -0.770270     -0.546609
  C       8.494068     -0.953772      1.541579
  H       9.238813     -1.737371      1.396313
  H       9.022678     -0.001315      1.618123
  H       8.001826     -1.134273      2.499472
  C      -0.389463      6.235468      2.199015
  H       0.624900      6.566671      1.967064
  H      -1.051917      7.097158      2.105119
  H      -0.400865      5.917722      3.243681
  C      -5.442138      3.167872      2.538408
  H      -5.819706      4.186358      2.436957
  H      -5.918798      2.719659      3.412570
  H      -4.371185      3.226704      2.744295
  C       2.027933     -4.552911      3.984796
  H       1.194543     -5.021332      4.512730
  H       2.856328     -5.262687      3.974687
  H       2.339456     -3.683322      4.567123
105
Coordinates from ORCA-job orca E -2048.218379533950
  C       0.431213      0.607009     -1.270165
  C       0.975596      0.682727      0.166359
  O       1.806212     -0.111458      0.544577
  O       0.553575      1.598864      1.014045
  C      -0.714553      1.608598     -1.492864
  H      -1.640567      1.217129     -1.076302
  H      -0.866475      1.747648     -2.568850
  C      -0.362540      2.669981      0.702407
  H      -1.341495      2.325457      1.058286
  C      -0.431185      2.923853     -0.788628
  H      -1.236882      3.636279     -0.985284
  H       0.507383      3.376356     -1.122940
  C       0.038444     -0.872379     -1.558662
  H       0.900180     -1.470384     -1.266492
  H      -0.046472     -0.976199     -2.645992
  C       1.561619      1.000230     -2.290945
  C       3.074815      0.806246     -2.057106
  H       1.432886      2.061667     -2.506942
  H       1.322926      0.475367     -3.223194
  C       3.558942      1.726079     -0.933242
  C       3.521569     -0.669189     -1.897162
  C       3.765244      1.394759     -3.312690
  O       2.979591      2.739088     -0.637608
  O       4.742473      1.477625     -0.371042
  H       3.968156     -0.993367     -2.843481
  H       2.657092     -1.309227     -1.731821
  C       4.515396     -0.890175     -0.763221
  H       3.517720      2.451779     -3.438773
  H       4.852970      1.305597     -3.249906
  H       3.436943      0.850235     -4.202856
  C       5.477449      0.270869     -0.643176
  H       5.074221     -1.814632     -0.930794
  H       3.981120     -0.983080      0.185769
  H       6.019571      0.415188     -1.589612
  C       0.102759      3.856457      1.526618
  H       1.104462      4.141270      1.184661
  H       0.207545      3.520257      2.564056
  C       6.485743      0.145015      0.485673
  H       5.938625     -0.005288      1.423900
  H       7.002446      1.106845      0.577635
  C      -3.907465     -1.694219     -1.653864
  C      -4.223070     -1.970041     -0.178849
  O      -3.785643     -2.943620      0.380743
  O      -5.081586     -1.197077      0.479525
  C      -4.823342     -0.585747     -2.194751
  H      -5.830239     -0.991192     -2.354252
  H      -4.458050     -0.264797     -3.176002
  C      -5.531585      0.112397      0.073961
  H      -6.613064     -0.000756     -0.081288
  C      -4.897872      0.575349     -1.224011
  H      -5.501869      1.388953     -1.634301
  H      -3.900241      0.975088     -1.019616
  C      -4.236869     -2.990471     -2.412313
  H      -3.622404     -3.827951     -2.084837
  H      -4.080639     -2.836731     -3.484683
  C      -2.425359     -1.257559     -1.913093
  C      -1.236378     -1.597717     -0.981953
  H      -2.435957     -0.178970     -2.048825
  H      -2.156555     -1.666047     -2.894630
  C      -1.480682     -1.081479      0.434633
  C      -0.920966     -3.120199     -1.016299
  O      -2.244465     -0.170840      0.662387
  O      -0.793057     -1.600854      1.435578
  H      -0.131054     -3.279199     -1.758185
  H      -1.792772     -3.662794     -1.370656
  C      -0.512139     -3.711946      0.331818
  C       0.142716     -2.680359      1.223159
  H       0.166102     -4.556373      0.184052
  H      -1.401327     -4.083492      0.848432
  H       1.032017     -2.245469      0.754896
  C      -5.274480      1.032437      1.255976
  H      -4.199030      1.019555      1.455824
  H      -5.764149      0.600320      2.135692
  C       0.519155     -3.172649      2.607026
  H      -0.354722     -3.649075      3.067770
  H       0.757943     -2.291607      3.212241
  H      -5.282963     -3.271470     -2.259395
  C      -5.757382      2.462274      1.045078
  H      -6.829164      2.466127      0.806575
  H      -5.248740      2.903272      0.179808
  C       1.710632     -4.123837      2.605701
  H       1.477914     -5.019978      2.018587
  H       2.556908     -3.637524      2.104186
  C      -0.846506      5.048291      1.469043
  H      -1.862158      4.721888      1.729039
  H      -0.901277      5.433730      0.444462
  C       7.507853     -0.967919      0.282547
  H       7.003164     -1.940095      0.252586
  H       7.993649     -0.844897     -0.694015
  C       8.566288     -0.987480      1.378415
  H       9.287766     -1.793903      1.222202
  H       9.120386     -0.044074      1.407471
  H       8.110291     -1.132257      2.362737
  C      -0.417911      6.173824      2.402266
  H       0.586592      6.528167      2.150826
  H      -1.099212      7.026888      2.340536
  H      -0.397499      5.836231      3.443165
  C      -5.494958      3.333126      2.266778
  H      -5.830014      4.361709      2.107262
  H      -6.013509      2.943894      3.148403
  H      -4.425309      3.358730      2.499940
  C       2.121506     -4.539598      4.012679
  H       1.302826     -5.055490      4.524216
  H       2.981723     -5.214402      3.995351
  H       2.391085     -3.667935      4.617075
105
Coordinates from ORCA-job orca E -2048.219281936461
  C       0.451616      0.609484     -1.312669
  C       0.990091      0.695500      0.124737
  O       1.819376     -0.095380      0.511657
  O       0.565002      1.616966      0.965372
  C      -0.690355      1.611017     -1.547496
  H      -1.618037      1.223653     -1.134533
  H      -0.835547      1.743602     -2.623300
  C      -0.352867      2.683797      0.641767
  H      -1.332284      2.338494      0.991731
  C      -0.410098      2.929629     -0.850063
  H      -1.212335      3.640353     -1.056051
  H       0.529872      3.378422     -1.180204
  C       0.051966     -0.869608     -1.589698
  H       0.905352     -1.470275     -1.288188
  H      -0.031392     -0.983946     -2.674281
  C       1.588115      0.996787     -2.327017
  C       3.098358      0.806657     -2.078049
  H       1.461460      2.056295     -2.545077
  H       1.357386      0.470411     -3.258286
  C       3.557494      1.714311     -0.935197
  C       3.554467     -0.666914     -1.932906
  C       3.799280      1.420798     -3.314355
  O       2.955590      2.708623     -0.622933
  O       4.728090      1.462621     -0.347346
  H       4.020751     -0.972369     -2.873794
  H       2.694426     -1.314767     -1.794525
  C       4.526111     -0.899413     -0.782915
  H       3.543602      2.475306     -3.427080
  H       4.884769      1.341079     -3.238391
  H       3.488587      0.887673     -4.215166
  C       5.477022      0.265029     -0.624170
  H       5.093708     -1.815596     -0.953726
  H       3.974123     -1.011656      0.151912
  H       6.037137      0.428571     -1.554634
  C       0.102924      3.875495      1.462479
  H       1.104253      4.161907      1.126637
  H       0.201215      3.546273      2.500793
  C       6.461023      0.126969      0.523649
  H       5.895922     -0.041943      1.445727
  H       6.968985      1.088412      0.642337
  C      -3.891101     -1.679316     -1.662249
  C      -4.171931     -1.989931     -0.188809
  O      -3.700001     -2.962857      0.342776
  O      -5.021832     -1.239468      0.506349
  C      -4.825668     -0.568384     -2.161948
  H      -5.829665     -0.979443     -2.311760
  H      -4.481765     -0.222928     -3.140527
  C      -5.496389      0.072468      0.135089
  H      -6.577003     -0.053580     -0.001793
  C      -4.893875      0.569913     -1.164558
  H      -5.513516      1.383675     -1.544858
  H      -3.898454      0.976297     -0.971234
  C      -4.221369     -2.963039     -2.439473
  H      -3.594837     -3.799187     -2.139274
  H      -4.085519     -2.787290     -3.509270
  C      -2.418722     -1.228645     -1.932862
  C      -1.230168     -1.574076     -1.006929
  H      -2.434981     -0.150946     -2.059487
  H      -2.154311     -1.631391     -2.916105
  C      -1.465763     -1.038894      0.402318
  C      -0.946745     -3.101984     -1.023155
  O      -2.202254     -0.103681      0.615673
  O      -0.789277     -1.558697      1.410824
  H      -0.161979     -3.287077     -1.761461
  H      -1.829572     -3.628061     -1.371395
  C      -0.553663     -3.687064      0.332229
  C       0.123288     -2.660652      1.211490
  H       0.104395     -4.546671      0.195682
  H      -1.450281     -4.032015      0.851409
  H       1.020718     -2.251719      0.739538
  C      -5.231815      0.974159      1.329623
  H      -4.153511      0.983788      1.505583
  H      -5.690579      0.513331      2.208991
  C       0.487467     -3.145052      2.600730
  H      -0.394543     -3.598867      3.064333
  H       0.742412     -2.264305      3.196319
  H      -5.260094     -3.256138     -2.273950
  C      -5.756898      2.394724      1.160114
  H      -6.830852      2.372963      0.942422
  H      -5.278974      2.868205      0.296953
  C       1.659756     -4.118724      2.610403
  H       1.411446     -5.013987      2.032009
  H       2.514946     -3.654026      2.107661
  C      -0.849528      5.063270      1.391093
  H      -1.863982      4.736150      1.646653
  H      -0.898846      5.441466      0.365633
  C       7.493581     -0.976026      0.324058
  H       6.996667     -1.948845      0.268312
  H       7.998354     -0.834625     -0.638145
  C       8.528145     -1.006317      1.441499
  H       9.256662     -1.804219      1.288363
  H       9.074368     -0.061815      1.496866
  H       8.053071     -1.169061      2.411685
  C      -0.429692      6.195325      2.319474
  H       0.573532      6.550114      2.072240
  H      -1.111613      7.044536      2.248207
  H      -0.414925      5.864981      3.360679
  C      -5.499376      3.246249      2.396464
  H      -5.868603      4.265017      2.265923
  H      -5.988932      2.822556      3.276295
  H      -4.429494      3.301803      2.611963
  C       2.058701     -4.528805      4.021862
  H       1.230672     -5.023737      4.534811
  H       2.904804     -5.218186      4.013219
  H       2.342360     -3.658266      4.617739
105
Coordinates from ORCA-job orca E -2048.219028923903
  C       0.438480      0.592525     -1.345487
  C       0.957542      0.662599      0.099590
  O       1.748079     -0.159742      0.501683
  O       0.547670      1.596068      0.934789
  C      -0.677194      1.619436     -1.592666
  H      -1.617637      1.256501     -1.189285
  H      -0.806839      1.754896     -2.669510
  C      -0.337585      2.686808      0.598003
  H      -1.329714      2.368585      0.935706
  C      -0.369166      2.931204     -0.894375
  H      -1.148192      3.663163     -1.111327
  H       0.586724      3.352895     -1.213461
  C       0.017978     -0.879299     -1.632111
  H       0.864786     -1.490232     -1.336036
  H      -0.069794     -0.987702     -2.716340
  C       1.593863      0.968385     -2.342379
  C       3.099830      0.783838     -2.066185
  H       1.471958      2.025786     -2.570755
  H       1.379422      0.433834     -3.272165
  C       3.536693      1.712483     -0.932353
  C       3.560497     -0.684464     -1.889094
  C       3.818453      1.379840     -3.300933
  O       2.930618      2.714220     -0.654122
  O       4.702234      1.479712     -0.326674
  H       4.041233     -1.003551     -2.817354
  H       2.703005     -1.334199     -1.751504
  C       4.518452     -0.890636     -0.722739
  H       3.560520      2.430529     -3.435401
  H       4.902170      1.306047     -3.205579
  H       3.524965      0.830404     -4.196894
  C       5.461123      0.281567     -0.574783
  H       5.092512     -1.806229     -0.869552
  H       3.956402     -0.987981      0.206858
  H       6.029587      0.432123     -1.501633
  C       0.139591      3.867070      1.422541
  H       1.151511      4.126838      1.098864
  H       0.216302      3.537740      2.461927
  C       6.433490      0.169678      0.585388
  H       5.859910      0.014755      1.503903
  H       6.935437      1.134991      0.691653
  C      -3.926451     -1.681619     -1.669459
  C      -4.172730     -2.006074     -0.193643
  O      -3.683126     -2.980744      0.318322
  O      -5.002874     -1.260701      0.530379
  C      -4.867714     -0.562985     -2.137273
  H      -5.875220     -0.969498     -2.270113
  H      -4.543546     -0.207780     -3.118371
  C      -5.486075      0.054632      0.180931
  H      -6.568486     -0.072148      0.066042
  C      -4.911459      0.564435     -1.126261
  H      -5.537370      1.382679     -1.484025
  H      -3.911602      0.966886     -0.950712
  C      -4.277429     -2.956567     -2.451914
  H      -3.649834     -3.797822     -2.172255
  H      -4.161907     -2.771198     -3.521784
  C      -2.459496     -1.231871     -1.961451
  C      -1.264826     -1.577693     -1.044480
  H      -2.476789     -0.155185     -2.088306
  H      -2.206440     -1.637317     -2.945945
  C      -1.492435     -1.041812      0.365493
  C      -0.983525     -3.105392     -1.058970
  O      -2.240668     -0.117590      0.584763
  O      -0.807984     -1.558106      1.370451
  H      -0.208374     -3.293342     -1.805742
  H      -1.870339     -3.631532     -1.394219
  C      -0.573024     -3.685731      0.293216
  C       0.109431     -2.654380      1.162026
  H       0.086767     -4.542331      0.151349
  H      -1.461695     -4.033168      0.823170
  H       0.997870     -2.240683      0.678390
  C      -5.198370      0.946000      1.377892
  H      -4.116297      0.966899      1.525808
  H      -5.628388      0.470348      2.263019
  C       0.493508     -3.134645      2.547093
  H      -0.377881     -3.597649      3.020068
  H       0.745980     -2.252156      3.139941
  H      -5.313479     -3.246178     -2.268785
  C      -5.746818      2.361313      1.239402
  H      -6.824683      2.325824      1.047989
  H      -5.297731      2.852526      0.371566
  C       1.675838     -4.095932      2.542883
  H       1.431696     -4.991768      1.964851
  H       2.520650     -3.620871      2.033802
  C      -0.780048      5.079375      1.337238
  H      -1.804958      4.780333      1.582299
  H      -0.807713      5.455681      0.310990
  C       7.473171     -0.931578      0.416786
  H       6.981862     -1.907201      0.375407
  H       7.986316     -0.806289     -0.542466
  C       8.496859     -0.934868      1.544436
  H       9.230065     -1.731622      1.414241
  H       9.037811      0.012580      1.586043
  H       8.013372     -1.080411      2.512438
  C      -0.340491      6.202381      2.267283
  H       0.673931      6.529260      2.030505
  H      -0.998217      7.068719      2.185954
  H      -0.346449      5.875016      3.308794
  C      -5.474174      3.201105      2.480716
  H      -5.865450      4.213571      2.373241
  H      -5.933631      2.756869      3.365783
  H      -4.401441      3.274993      2.670796
  C       2.092408     -4.504917      3.949395
  H       1.275689     -5.010987      4.468134
  H       2.946352     -5.183265      3.931125
  H       2.370744     -3.633043      4.544579
105
Coordinates from ORCA-job orca E -2048.219323491724
  C       0.448608      0.601207     -1.332358
  C       0.980879      0.688020      0.107320
  O       1.801775     -0.108451      0.500838
  O       0.565169      1.620216      0.941003
  C      -0.684243      1.610684     -1.576323
  H      -1.616787      1.233914     -1.165248
  H      -0.823581      1.739602     -2.653248
  C      -0.344689      2.691732      0.608415
  H      -1.327607      2.354783      0.956239
  C      -0.393852      2.930169     -0.884627
  H      -1.188200      3.647568     -1.097382
  H       0.551696      3.368170     -1.213525
  C       0.042355     -0.876533     -1.607901
  H       0.893328     -1.480115     -1.306321
  H      -0.042504     -0.991819     -2.692168
  C       1.592322      0.981454     -2.340962
  C       3.100439      0.795394     -2.077732
  H       1.467126      2.039406     -2.566802
  H       1.369306      0.447753     -3.269804
  C       3.546450      1.716181     -0.940436
  C       3.558371     -0.675368     -1.912598
  C       3.811006      1.398068     -3.314293
  O       2.941726      2.715005     -0.648638
  O       4.712045      1.474010     -0.338566
  H       4.036078     -0.989338     -2.844756
  H       2.698772     -1.324077     -1.777256
  C       4.518098     -0.892800     -0.749731
  H       3.553130      2.450326     -3.440784
  H       4.895849      1.322544     -3.227136
  H       3.510341      0.853923     -4.211755
  C       5.465839      0.274794     -0.596477
  H       5.088416     -1.810170     -0.903758
  H       3.957170     -0.993934      0.180891
  H       6.032620      0.429532     -1.524234
  C       0.116261      3.884163      1.424916
  H       1.119994      4.163515      1.090582
  H       0.209607      3.559462      2.464948
  C       6.441042      0.151680      0.560393
  H       5.869181     -0.007619      1.479846
  H       6.946794      1.115004      0.671826
  C      -3.903317     -1.671963     -1.664297
  C      -4.169025     -1.994930     -0.191029
  O      -3.694280     -2.974425      0.325907
  O      -5.008694     -1.248651      0.520899
  C      -4.836706     -0.551371     -2.144075
  H      -5.843800     -0.956039     -2.289453
  H      -4.499449     -0.196962     -3.121621
  C      -5.484079      0.067883      0.165561
  H      -6.565787     -0.055762      0.036400
  C      -4.890993      0.576422     -1.133908
  H      -5.510738      1.396430     -1.500007
  H      -3.892255      0.976675     -0.945129
  C      -4.249071     -2.946363     -2.450409
  H      -3.626383     -3.789612     -2.163450
  H      -4.121179     -2.761543     -3.519519
  C      -2.431489     -1.225640     -1.943034
  C      -1.240610     -1.577047     -1.022361
  H      -2.445079     -0.147733     -2.066306
  H      -2.173433     -1.627334     -2.928283
  C      -1.470210     -1.043767      0.388642
  C      -0.962118     -3.105621     -1.042206
  O      -2.207766     -0.110388      0.606562
  O      -0.794733     -1.568885      1.395215
  H      -0.181913     -3.292183     -1.784870
  H      -1.848349     -3.627963     -1.386224
  C      -0.564057     -3.694274      0.310232
  C       0.117149     -2.670469      1.189019
  H       0.093175     -4.553661      0.169025
  H      -1.458607     -4.040063      0.832173
  H       1.012156     -2.260155      0.714102
  C      -5.208977      0.957796      1.366448
  H      -4.128583      0.973276      1.528954
  H      -5.653521      0.484355      2.246232
  C       0.487949     -3.158990      2.574969
  H      -0.389777     -3.620034      3.039316
  H       0.740358     -2.280050      3.174012
  H      -5.288358     -3.233361     -2.278552
  C      -5.747167      2.376226      1.219880
  H      -6.823696      2.347550      1.016979
  H      -5.285171      2.863310      0.355823
  C       1.665629     -4.126322      2.575598
  H       1.421758     -5.018297      1.990494
  H       2.517345     -3.652541      2.075794
  C      -0.828694      5.077501      1.345300
  H      -1.845322      4.758299      1.601581
  H      -0.874192      5.450184      0.317795
  C       7.476810     -0.951932      0.381487
  H       6.982006     -1.926181      0.335356
  H       7.987580     -0.821992     -0.579011
  C       8.504201     -0.965796      1.505933
  H       9.234792     -1.764434      1.368155
  H       9.048598     -0.019887      1.551935
  H       8.023082     -1.116154      2.474995
  C      -0.402912      6.212215      2.267817
  H       0.602736      6.559131      2.019839
  H      -1.079305      7.065160      2.190597
  H      -0.391805      5.887771      3.310782
  C      -5.480943      3.215909      2.462645
  H      -5.863826      4.231615      2.349829
  H      -5.952761      2.776079      3.344083
  H      -4.408938      3.281757      2.663246
  C       2.068698     -4.544904      3.983420
  H       1.244945     -5.050124      4.492938
  H       2.920084     -5.227459      3.968569
  H       2.346288     -3.677080      4.585857
105
Coordinates from ORCA-job orca E -2048.219129305658
  C       0.455210      0.615685     -1.293285
  C       0.995339      0.687657      0.144579
  O       1.814445     -0.116019      0.527060
  O       0.573722      1.602050      0.994845
  C      -0.685823      1.621167     -1.517199
  H      -1.614042      1.230837     -1.107889
  H      -0.831142      1.765387     -2.591640
  C      -0.348760      2.668976      0.683171
  H      -1.327296      2.314786      1.027306
  C      -0.404051      2.931906     -0.805453
  H      -1.205243      3.646180     -1.004189
  H       0.537073      3.383018     -1.129670
  C       0.053374     -0.860153     -1.581645
  H       0.905645     -1.464262     -1.283442
  H      -0.030896     -0.968213     -2.666983
  C       1.590053      1.010794     -2.307481
  C       3.101155      0.809213     -2.070631
  H       1.468431      2.074255     -2.508832
  H       1.350960      0.499858     -3.245373
  C       3.570089      1.690594     -0.911193
  C       3.554797     -0.668337     -1.961332
  C       3.796945      1.448550     -3.297256
  O       2.972258      2.679076     -0.573271
  O       4.743190      1.422849     -0.335418
  H       4.015900     -0.953020     -2.911435
  H       2.694433     -1.318155     -1.833455
  C       4.533655     -0.928151     -0.823314
  H       3.541963      2.505649     -3.386214
  H       4.882868      1.365829     -3.227880
  H       3.481199      0.934494     -4.207540
  C       5.488201      0.230830     -0.647197
  H       5.097854     -1.841872     -1.018315
  H       3.988444     -1.059180      0.113096
  H       6.039151      0.415819     -1.579261
  C       0.100510      3.852080      1.519602
  H       1.099824      4.149841      1.187165
  H       0.201258      3.509769      2.553580
  C       6.483286      0.065737      0.487380
  H       5.927262     -0.124255      1.411039
  H       6.993662      1.023832      0.623048
  C      -3.885738     -1.693449     -1.668753
  C      -4.172554     -1.986964     -0.193013
  O      -3.692762     -2.947214      0.354654
  O      -5.032030     -1.234770      0.488373
  C      -4.825334     -0.596078     -2.189043
  H      -5.825048     -1.016911     -2.341472
  H      -4.476356     -0.259483     -3.169081
  C      -5.517452      0.067442      0.095333
  H      -6.595849     -0.071862     -0.047486
  C      -4.910077      0.553583     -1.206065
  H      -5.534380      1.357168     -1.600711
  H      -3.919547      0.971027     -1.010707
  C      -4.202115     -2.989449     -2.431600
  H      -3.572227     -3.817724     -2.116173
  H      -4.059897     -2.826465     -3.502756
  C      -2.414779     -1.235121     -1.935700
  C      -1.228831     -1.564329     -1.000085
  H      -2.438037     -0.158897     -2.072805
  H      -2.142264     -1.645509     -2.913716
  C      -1.472040     -1.013903      0.402114
  C      -0.937399     -3.090623     -0.997656
  O      -2.205371     -0.072605      0.600048
  O      -0.795503     -1.517520      1.418930
  H      -0.150915     -3.280653     -1.733202
  H      -1.817549     -3.625319     -1.339742
  C      -0.541948     -3.656595      0.365312
  C       0.126523     -2.614263      1.232406
  H       0.123432     -4.512564      0.240035
  H      -1.436637     -4.002063      0.887701
  H       1.020164     -2.202943      0.754879
  C      -5.270562      0.987686      1.279192
  H      -4.193001      1.016578      1.458832
  H      -5.725718      0.531542      2.163039
  C       0.496680     -3.079498      2.626610
  H      -0.378316     -3.542890      3.094431
  H       0.738238     -2.189570      3.214280
  H      -5.240256     -3.286988     -2.269152
  C      -5.816632      2.397893      1.089158
  H      -6.890716      2.356626      0.874187
  H      -5.346918      2.865526      0.218156
  C       1.683888     -4.035203      2.645093
  H       1.451000     -4.937740      2.071264
  H       2.532988     -3.559764      2.141769
  C      -0.859338      5.035054      1.464737
  H      -1.871234      4.698701      1.719159
  H      -0.913428      5.425442      0.443928
  C       7.513086     -1.032993      0.251832
  H       7.015123     -2.004537      0.181810
  H       8.006388     -0.871168     -0.713269
  C       8.561215     -1.086800      1.355899
  H       9.287537     -1.881663      1.177326
  H       9.108646     -0.143613      1.423902
  H       8.097710     -1.269413      2.328335
  C      -0.444051      6.158486      2.405840
  H       0.556495      6.522401      2.160273
  H      -1.131518      7.004358      2.346321
  H      -0.424827      5.815579      3.443085
  C      -5.569665      3.271179      2.312522
  H      -5.957662      4.281431      2.169218
  H      -6.048803      2.851064      3.199988
  H      -4.499941      3.348739      2.523031
  C       2.086013     -4.430208      4.060083
  H       1.265334     -4.936625      4.573982
  H       2.944585     -5.104360      4.057727
  H       2.352875     -3.551034      4.651375
105
Coordinates from ORCA-job orca E -2048.219339392928
  C       0.452460      0.608476     -1.325281
  C       0.984243      0.693283      0.114785
  O       1.800216     -0.107800      0.509311
  O       0.566472      1.622413      0.950843
  C      -0.680643      1.618068     -1.568553
  H      -1.613886      1.239106     -1.160833
  H      -0.817722      1.750391     -2.645430
  C      -0.347518      2.691278      0.620693
  H      -1.329829      2.348258      0.964338
  C      -0.393429      2.935488     -0.871430
  H      -1.188253      3.652736     -1.083397
  H       0.552401      3.375946     -1.196340
  C       0.046288     -0.868750     -1.602418
  H       0.897594     -1.472543     -1.301851
  H      -0.039184     -0.983007     -2.686815
  C       1.596115      0.988881     -2.334591
  C       3.104651      0.795913     -2.077070
  H       1.474304      2.048171     -2.556037
  H       1.368509      0.459718     -3.264983
  C       3.559728      1.711925     -0.939317
  C       3.557290     -0.677303     -1.918521
  C       3.812789      1.398963     -3.314901
  O       2.960150      2.712225     -0.641900
  O       4.725531      1.461847     -0.341069
  H       4.031542     -0.989613     -2.853098
  H       2.695490     -1.323411     -1.783562
  C       4.519757     -0.902717     -0.759414
  H       3.558281      2.452540     -3.437776
  H       4.897751      1.319186     -3.231889
  H       3.506684      0.857968     -4.212525
  C       5.473224      0.260214     -0.606272
  H       5.085347     -1.822336     -0.918133
  H       3.961621     -1.003890      0.172894
  H       6.036594      0.415943     -1.536022
  C       0.105684      3.882000      1.443941
  H       1.108379      4.168860      1.112682
  H       0.199116      3.552580      2.482553
  C       6.452858      0.129213      0.545943
  H       5.884312     -0.030739      1.467424
  H       6.963368      1.090008      0.658282
  C      -3.897820     -1.673843     -1.660990
  C      -4.166150     -1.990372     -0.186756
  O      -3.684277     -2.962269      0.337997
  O      -5.010459     -1.244015      0.519562
  C      -4.835498     -0.560574     -2.149668
  H      -5.840149     -0.971065     -2.296152
  H      -4.496766     -0.209481     -3.127980
  C      -5.492707      0.067655      0.154862
  H      -6.573389     -0.063028      0.023301
  C      -4.898597      0.572191     -1.145623
  H      -5.521759      1.386961     -1.517867
  H      -3.902523      0.978741     -0.956018
  C      -4.234145     -2.954312     -2.441252
  H      -3.607130     -3.792490     -2.148083
  H      -4.104450     -2.774345     -3.511054
  C      -2.427261     -1.222023     -1.938041
  C      -1.236217     -1.569966     -1.016385
  H      -2.444457     -0.144133     -2.061724
  H      -2.166761     -1.623073     -2.922978
  C      -1.466659     -1.034805      0.393873
  C      -0.956627     -3.098351     -1.034217
  O      -2.201815     -0.098910      0.609593
  O      -0.791374     -1.558239      1.401498
  H      -0.176320     -3.285450     -1.776727
  H      -1.842817     -3.621728     -1.377456
  C      -0.558218     -3.684780      0.319171
  C       0.122069     -2.658880      1.196265
  H       0.100181     -4.543615      0.179350
  H      -1.452527     -4.030681      0.841585
  H       1.016101     -2.247907      0.719998
  C      -5.226088      0.966051      1.351165
  H      -4.146192      0.989109      1.516231
  H      -5.670034      0.495367      2.232807
  C       0.495282     -3.145050      2.582389
  H      -0.380428     -3.608899      3.047962
  H       0.745469     -2.264929      3.180726
  H      -5.272258     -3.246382     -2.270390
  C      -5.771888      2.380524      1.194347
  H      -6.848465      2.344473      0.992500
  H      -5.312866      2.863598      0.326364
  C       1.676093     -4.108726      2.582333
  H       1.434844     -5.001308      1.996902
  H       2.526080     -3.631868      2.082340
  C      -0.845796      5.070540      1.368960
  H      -1.860886      4.744498      1.623104
  H      -0.892564      5.447713      0.343065
  C       7.483111     -0.978287      0.358833
  H       6.983925     -1.950403      0.312876
  H       7.989494     -0.847995     -0.604025
  C       8.516274     -0.999333      1.477940
  H       9.242718     -1.800854      1.334429
  H       9.065048     -0.055825      1.523290
  H       8.039469     -1.149944      2.449183
  C      -0.427106      6.203417      2.297061
  H       0.576820      6.557167      2.051411
  H      -1.108339      7.052905      2.223165
  H      -0.415015      5.874190      3.338601
  C      -5.509003      3.230752      2.430639
  H      -5.898851      4.243163      2.311352
  H      -5.976562      2.794037      3.315994
  H      -4.436975      3.304985      2.628783
  C       2.081312     -4.526326      3.989863
  H       1.259625     -5.034584      4.499856
  H       2.935342     -5.205699      3.974404
  H       2.356252     -3.657517      4.592259
105
Coordinates from ORCA-job orca E -2048.219294732234
  C       0.445226      0.600177     -1.321960
  C       0.983133      0.681153      0.115943
  O       1.806686     -0.116205      0.502095
  O       0.578686      1.615804      0.952499
  C      -0.688095      1.611004     -1.557525
  H      -1.618973      1.234529     -1.142624
  H      -0.832533      1.742850     -2.633355
  C      -0.335187      2.686526      0.627657
  H      -1.315568      2.346846      0.979529
  C      -0.391797      2.928471     -0.864388
  H      -1.185741      3.647906     -1.071474
  H       0.552953      3.365436     -1.197087
  C       0.039866     -0.876566     -1.603476
  H       0.891394     -1.480401     -1.304550
  H      -0.045384     -0.987803     -2.688084
  C       1.585566      0.987556     -2.331625
  C       3.094516      0.800913     -2.073652
  H       1.459521      2.047222     -2.548498
  H       1.359762      0.460850     -3.263709
  C       3.538505      1.707199     -0.923913
  C       3.557647     -0.670528     -1.929845
  C       3.801495      1.423512     -3.302429
  O       2.930416      2.699758     -0.618041
  O       4.704057      1.459364     -0.324225
  H       4.038388     -0.968535     -2.865621
  H       2.700605     -1.324708     -1.806212
  C       4.516956     -0.901608     -0.769339
  H       3.539031      2.476239     -3.414092
  H       4.886663      1.351376     -3.216900
  H       3.502448      0.890336     -4.206907
  C       5.461555      0.266341     -0.600629
  H       5.089448     -1.815459     -0.935505
  H       3.956018     -1.016420      0.159609
  H       6.026142      0.436570     -1.526938
  C       0.127590      3.877390      1.445213
  H       1.128019      4.161631      1.105238
  H       0.228874      3.549487      2.483418
  C       6.438948      0.129874      0.552774
  H       5.869247     -0.044608      1.470735
  H       6.941900      1.093010      0.677190
  C      -3.903834     -1.683551     -1.665310
  C      -4.171755     -1.994923     -0.189958
  O      -3.700461     -2.972260      0.334220
  O      -5.012590     -1.243517      0.515141
  C      -4.835713     -0.566218     -2.155368
  H      -5.842611     -0.971320     -2.300393
  H      -4.495653     -0.218767     -3.134372
  C      -5.488793      0.069694      0.147825
  H      -6.569828     -0.056494      0.015873
  C      -4.891651      0.568636     -1.153264
  H      -5.509879      1.386382     -1.526744
  H      -3.893101      0.969331     -0.964263
  C      -4.248732     -2.963615     -2.442637
  H      -3.627607     -3.805253     -2.148024
  H      -4.118242     -2.786826     -3.512725
  C      -2.431816     -1.238000     -1.944618
  C      -1.241625     -1.581409     -1.019939
  H      -2.447048     -0.161028     -2.074413
  H      -2.171745     -1.645253     -2.926993
  C      -1.477517     -1.044857      0.388709
  C      -0.954257     -3.108339     -1.034907
  O      -2.219874     -0.113952      0.601173
  O      -0.803131     -1.564112      1.399081
  H      -0.171745     -3.292393     -1.775691
  H      -1.836684     -3.636880     -1.378723
  C      -0.554704     -3.690537      0.319957
  C       0.117623     -2.659262      1.196866
  H       0.109283     -4.545288      0.182503
  H      -1.447652     -4.041271      0.841103
  H       1.009845     -2.243305      0.721641
  C      -5.219145      0.969250      1.342607
  H      -4.139090      0.991088      1.506731
  H      -5.662954      0.500476      2.225144
  C       0.491484     -3.141276      2.584190
  H      -0.381619     -3.610820      3.048634
  H       0.734429     -2.258977      3.182050
  H      -5.288645     -3.248231     -2.270928
  C      -5.763845      2.384116      1.184540
  H      -6.840350      2.348179      0.983122
  H      -5.304956      2.866004      0.316028
  C       1.678926     -4.096754      2.587158
  H       1.445116     -4.991154      2.001749
  H       2.526531     -3.614300      2.088795
  C      -0.821734      5.067968      1.376119
  H      -1.835085      4.744887      1.640122
  H      -0.876853      5.442978      0.349994
  C       7.478021     -0.967655      0.356149
  H       6.986411     -1.942849      0.298575
  H       7.985574     -0.823133     -0.603904
  C       8.508677     -0.992952      1.477437
  H       9.241372     -1.787311      1.327118
  H       9.050167     -0.046019      1.534147
  H       8.030800     -1.157502      2.445731
  C      -0.392108      6.201898      2.297870
  H       0.610222      6.552773      2.042410
  H      -1.071996      7.052632      2.228158
  H      -0.371429      5.874991      3.339854
  C      -5.501127      3.235605      2.420077
  H      -5.892497      4.247215      2.300277
  H      -5.967571      2.799023      3.305914
  H      -4.429326      3.311759      2.617582
  C       2.084093     -4.510690      3.995737
  H       1.265072     -5.024309      4.504333
  H       2.942871     -5.183876      3.982476
  H       2.351676     -3.639674      4.598014
105
Coordinates from ORCA-job orca E -2048.219357761828
  C       0.451658      0.604505     -1.327994
  C       0.983299      0.689486      0.112073
  O       1.800064     -0.111008      0.506150
  O       0.569893      1.621999      0.946566
  C      -0.680731      1.614679     -1.571886
  H      -1.614262      1.237003     -1.163663
  H      -0.817810      1.746173     -2.648811
  C      -0.345454      2.689689      0.616062
  H      -1.327320      2.346178      0.960352
  C      -0.391794      2.932486     -0.876184
  H      -1.185740      3.650502     -1.088620
  H       0.554470      3.371486     -1.201811
  C       0.045121     -0.872444     -1.605193
  H       0.895944     -1.476561     -1.304273
  H      -0.040445     -0.986928     -2.689526
  C       1.596080      0.985432     -2.336111
  C       3.104338      0.793817     -2.076186
  H       1.474024      2.044740     -2.557102
  H       1.369922      0.456317     -3.266834
  C       3.554706      1.707897     -0.934993
  C       3.559676     -0.678827     -1.920041
  C       3.814065      1.401301     -3.310966
  O       2.954288      2.708251     -0.639494
  O       4.719592      1.458831     -0.334547
  H       4.038234     -0.987395     -2.853614
  H       2.699071     -1.327443     -1.790308
  C       4.518881     -0.905037     -0.758445
  H       3.557310      2.454483     -3.432070
  H       4.898961      1.323954     -3.225308
  H       3.511542      0.861523     -4.210474
  C       5.470107      0.259147     -0.601165
  H       5.086145     -1.823578     -0.917134
  H       3.958376     -1.008428      0.172123
  H       6.034516      0.418036     -1.529702
  C       0.107027      3.881396      1.438155
  H       1.108944      4.169601      1.105784
  H       0.201893      3.552792      2.476838
  C       6.448170      0.127565      0.552259
  H       5.878562     -0.035362      1.472502
  H       6.956802      1.088976      0.667348
  C      -3.900212     -1.672027     -1.663151
  C      -4.168335     -1.990609     -0.189343
  O      -3.693282     -2.968040      0.331324
  O      -5.010681     -1.243885      0.518908
  C      -4.833829     -0.554097     -2.148838
  H      -5.839883     -0.960509     -2.296676
  H      -4.493590     -0.201393     -3.125997
  C      -5.489991      0.069687      0.156926
  H      -6.570706     -0.058610      0.023601
  C      -4.893136      0.575968     -1.141500
  H      -5.513103      1.394028     -1.511683
  H      -3.895672      0.978196     -0.949947
  C      -4.242654     -2.949335     -2.446005
  H      -3.619825     -3.791118     -2.154820
  H      -4.112339     -2.767712     -3.515400
  C      -2.428406     -1.224099     -1.940538
  C      -1.237521     -1.572571     -1.018665
  H      -2.443601     -0.146329     -2.065125
  H      -2.168827     -1.626583     -2.925091
  C      -1.467024     -1.035060      0.390752
  C      -0.957790     -3.100927     -1.034547
  O      -2.200756     -0.097679      0.604824
  O      -0.791637     -1.557236      1.398962
  H      -0.178160     -3.288963     -1.777470
  H      -1.844021     -3.624966     -1.376089
  C      -0.557790     -3.685172      0.319353
  C       0.122633     -2.657372      1.194125
  H       0.101268     -4.543575      0.180248
  H      -1.451282     -4.030929      0.843070
  H       1.015622     -2.246342      0.715974
  C      -5.223484      0.964649      1.355825
  H      -4.143580      0.988309      1.520866
  H      -5.666887      0.491038      2.236089
  C       0.498401     -3.141097      2.580361
  H      -0.375765     -3.605752      3.047925
  H       0.748261     -2.259952      3.177220
  H      -5.282117     -3.236673     -2.275568
  C      -5.771102      2.378998      1.203322
  H      -6.847667      2.341691      1.001955
  H      -5.313232      2.865180      0.336553
  C       1.680497     -4.103262      2.579607
  H       1.439628     -4.996548      1.995192
  H       2.529161     -3.625687      2.078167
  C      -0.846066      5.068655      1.363266
  H      -1.860205      4.741650      1.619681
  H      -0.895136      5.444441      0.337022
  C       7.480726     -0.977675      0.364405
  H       6.983424     -1.950606      0.316480
  H       7.987824     -0.844920     -0.597687
  C       8.512773     -0.998569      1.484544
  H       9.240702     -1.798604      1.340635
  H       9.059868     -0.054232      1.531745
  H       8.035228     -1.151355      2.455029
  C      -0.427245      6.203303      2.289146
  H       0.575703      6.558095      2.041239
  H      -1.109772      7.051689      2.215268
  H      -0.412921      5.875473      3.331044
  C      -5.509598      3.226162      2.442067
  H      -5.903211      4.237494      2.326463
  H      -5.974750      2.785042      3.326448
  H      -4.437741      3.303719      2.639351
  C       2.088202     -4.519066      3.986929
  H       1.267971     -5.027787      4.498680
  H       2.943138     -5.197215      3.970910
  H       2.362979     -3.649303      4.587947
105
Coordinates from ORCA-job orca E -2048.219332804170
  C       0.452233      0.614085     -1.318582
  C       0.987843      0.697847      0.120148
  O       1.804290     -0.104169      0.511841
  O       0.576018      1.628878      0.957010
  C      -0.682149      1.623256     -1.558012
  H      -1.614153      1.243788     -1.147974
  H      -0.822194      1.756258     -2.634455
  C      -0.342533      2.695142      0.630884
  H      -1.322803      2.349009      0.977194
  C      -0.393270      2.940372     -0.860849
  H      -1.188833      3.657687     -1.070011
  H       0.551549      3.381323     -1.188164
  C       0.048303     -0.863297     -1.598067
  H       0.901058     -1.466057     -1.299404
  H      -0.037654     -0.975603     -2.682674
  C       1.593508      0.997584     -2.329535
  C       3.102566      0.801747     -2.076934
  H       1.472334      2.057942     -2.546119
  H       1.362517      0.472439     -3.261410
  C       3.561570      1.712450     -0.936260
  C       3.553902     -0.672798     -1.926547
  C       3.807861      1.409727     -3.314006
  O       2.963242      2.711690     -0.632752
  O       4.726025      1.455982     -0.338076
  H       4.029172     -0.979969     -2.862363
  H       2.691426     -1.319233     -1.796785
  C       4.515298     -0.905966     -0.768168
  H       3.553397      2.463926     -3.431753
  H       4.893035      1.329211     -3.233842
  H       3.499367      0.872479     -4.213102
  C       5.471279      0.254227     -0.610100
  H       5.078670     -1.826273     -0.931020
  H       3.956808     -1.009968      0.163633
  H       6.033797      0.413770     -1.539760
  C       0.109698      3.886283      1.453946
  H       1.109991      4.177519      1.119035
  H       0.208530      3.555823      2.491756
  C       6.451969      0.115715      0.540294
  H       5.884247     -0.047920      1.461674
  H       6.964409      1.075022      0.656836
  C      -3.893211     -1.680503     -1.656759
  C      -4.160645     -1.989672     -0.180800
  O      -3.670843     -2.953781      0.350992
  O      -5.004942     -1.240565      0.522610
  C      -4.834700     -0.573392     -2.152178
  H      -5.837983     -0.988035     -2.296589
  H      -4.496768     -0.226743     -3.132378
  C      -5.493566      0.066298      0.148867
  H      -6.573675     -0.070312      0.018169
  C      -4.901651      0.565006     -1.154782
  H      -5.527883      1.375301     -1.531735
  H      -3.907038      0.976275     -0.967691
  C      -4.223843     -2.966623     -2.430036
  H      -3.593443     -3.800607     -2.131852
  H      -4.094314     -2.792026     -3.500786
  C      -2.424186     -1.224699     -1.934969
  C      -1.232430     -1.568841     -1.012948
  H      -2.444563     -0.147068     -2.059863
  H      -2.162770     -1.626125     -2.919547
  C      -1.465687     -1.035445      0.397627
  C      -0.948526     -3.096420     -1.032336
  O      -2.204698     -0.102525      0.613331
  O      -0.793011     -1.560181      1.406351
  H      -0.166447     -3.280410     -1.773807
  H      -1.832864     -3.621622     -1.377921
  C      -0.551214     -3.684028      0.320938
  C       0.124391     -2.657592      1.200995
  H       0.110169     -4.540619      0.181133
  H      -1.445626     -4.033374      0.840955
  H       1.018035     -2.243154      0.726920
  C      -5.231271      0.973903      1.339058
  H      -4.151344      1.004827      1.503062
  H      -5.671591      0.506403      2.224230
  C       0.496950     -3.144793      2.586894
  H      -0.377518     -3.613245      3.050296
  H       0.742720     -2.264866      3.187382
  H      -5.260864     -3.261968     -2.257929
  C      -5.785873      2.383983      1.173162
  H      -6.862737      2.339612      0.974354
  H      -5.331842      2.863331      0.300479
  C       1.681497     -4.104014      2.586831
  H       1.444825     -4.995877      1.998383
  H       2.530734     -3.622526      2.089939
  C      -0.846448      5.071452      1.384349
  H      -1.859003      4.741546      1.643685
  H      -0.899925      5.448891      0.358843
  C       7.480078     -0.992658      0.346321
  H       6.979149     -1.963771      0.297247
  H       7.984766     -0.859052     -0.617014
  C       8.515448     -1.020264      1.463281
  H       9.240110     -1.822585      1.315005
  H       9.066129     -0.077954      1.511348
  H       8.040255     -1.173958      2.434875
  C      -0.427259      6.205575      2.310757
  H       0.574024      6.563330      2.060013
  H      -1.112221      7.052432      2.240632
  H      -0.408566      5.875984      3.352124
  C      -5.525473      3.244971      2.402515
  H      -5.924225      4.253274      2.277562
  H      -5.986508      2.810670      3.292522
  H      -4.453397      3.329482      2.596384
  C       2.085487     -4.523791      3.994064
  H       1.264760     -5.036388      4.501310
  H       2.942267     -5.199761      3.978561
  H       2.356078     -3.655383      4.599096
105
Coordinates from ORCA-job orca E -2048.219361083105
  C       0.451752      0.607612     -1.325271
  C       0.984728      0.692451      0.114343
  O       1.800517     -0.109251      0.508006
  O       0.573926      1.626112      0.948811
  C      -0.680940      1.617766     -1.568060
  H      -1.614112      1.240075     -1.159065
  H      -0.818947      1.749365     -2.644879
  C      -0.343388      2.692541      0.619681
  H      -1.324459      2.347678      0.964885
  C      -0.391378      2.935542     -0.872463
  H      -1.185509      3.653632     -1.084062
  H       0.554596      3.374639     -1.198882
  C       0.046084     -0.869436     -1.603287
  H       0.897616     -1.473055     -1.303294
  H      -0.039780     -0.983110     -2.687708
  C       1.595325      0.989295     -2.334235
  C       3.103874      0.796151     -2.076766
  H       1.473763      2.048988     -2.553643
  H       1.367455      0.461545     -3.265337
  C       3.557158      1.709771     -0.936212
  C       3.557909     -0.677096     -1.922041
  C       3.811995      1.403292     -3.312631
  O       2.957379      2.709940     -0.638756
  O       4.720900      1.457580     -0.334856
  H       4.036966     -0.984973     -2.855621
  H       2.696636     -1.325236     -1.793926
  C       4.516249     -0.905671     -0.760243
  H       3.555751      2.456682     -3.433156
  H       4.897004      1.325186     -3.228684
  H       3.507640      0.863771     -4.211700
  C       5.469431      0.256833     -0.602425
  H       5.081871     -1.825203     -0.919242
  H       3.955314     -1.008475      0.170158
  H       6.033757      0.415500     -1.531082
  C       0.108380      3.884567      1.441680
  H       1.109309      4.174716      1.107901
  H       0.205419      3.555601      2.480066
  C       6.447656      0.122988      0.550578
  H       5.878126     -0.039706      1.470936
  H       6.957842      1.083547      0.666128
  C      -3.898102     -1.674582     -1.660331
  C      -4.165437     -1.990065     -0.185703
  O      -3.686759     -2.964173      0.337890
  O      -5.007499     -1.242129      0.521594
  C      -4.833890     -0.559641     -2.148791
  H      -5.839289     -0.968168     -2.295419
  H      -4.494393     -0.208845     -3.126914
  C      -5.490180      0.069128      0.155643
  H      -6.570670     -0.062084      0.023040
  C      -4.894891      0.572965     -1.144417
  H      -5.516567      1.388893     -1.516521
  H      -3.898116      0.977570     -0.954282
  C      -4.237523     -2.954554     -2.440079
  H      -3.612601     -3.794163     -2.146818
  H      -4.107641     -2.775208     -3.509935
  C      -2.427160     -1.224448     -1.938457
  C      -1.235663     -1.571667     -1.017026
  H      -2.443942     -0.146727     -2.063023
  H      -2.167438     -1.626546     -2.923153
  C      -1.465977     -1.035875      0.392984
  C      -0.954300     -3.099694     -1.034697
  O      -2.200987     -0.099658      0.607889
  O      -0.791502     -1.559399      1.401108
  H      -0.174060     -3.285980     -1.777453
  H      -1.839900     -3.624160     -1.377500
  C      -0.554610     -3.685459      0.318659
  C       0.124221     -2.658157      1.195255
  H       0.105505     -4.542957      0.178818
  H      -1.448133     -4.032850      0.841309
  H       1.017032     -2.245479      0.718124
  C      -5.225452      0.968352      1.351687
  H      -4.145482      0.995672      1.516020
  H      -5.666976      0.496164      2.233679
  C       0.499911     -3.143329      2.580992
  H      -0.373764     -3.609966      3.047565
  H       0.748302     -2.262697      3.179255
  H      -5.276309     -3.243954     -2.268859
  C      -5.777240      2.380656      1.195040
  H      -6.853903      2.339400      0.994846
  H      -5.321568      2.865233      0.326196
  C       1.683304     -4.103954      2.579377
  H       1.443934     -4.996532      1.993224
  H       2.531688     -3.624409      2.079293
  C      -0.846846      5.070258      1.368841
  H      -1.859896      4.741483      1.627382
  H      -0.898712      5.446024      0.342705
  C       7.478447     -0.983725      0.361567
  H       6.979617     -1.955907      0.313656
  H       7.985048     -0.851381     -0.600869
  C       8.511279     -1.006622      1.480958
  H       9.237804     -1.807829      1.336291
  H       9.059976     -0.063178      1.528007
  H       8.034169     -1.158894      2.451766
  C      -0.428127      6.205621      2.293917
  H       0.573658      6.562291      2.043912
  H      -1.112410      7.052746      2.221466
  H      -0.411043      5.877765      3.335792
  C      -5.517265      3.232773      2.430701
  H      -5.915115      4.242167      2.312424
  H      -5.979560      2.792664      3.317115
  H      -4.445451      3.315248      2.626324
  C       2.090718     -4.521624      3.986227
  H       1.270833     -5.032179      4.496747
  H       2.946562     -5.198650      3.969573
  H       2.364127     -3.652470      4.588804
105
Coordinates from ORCA-job orca E -2048.219358711831
  C       0.452286      0.608555     -1.325321
  C       0.985306      0.693623      0.114254
  O       1.801333     -0.107879      0.507813
  O       0.575849      1.628350      0.948194
  C      -0.680538      1.618526     -1.568310
  H      -1.613686      1.240705     -1.159343
  H      -0.818486      1.749971     -2.645152
  C      -0.342940      2.693569      0.619293
  H      -1.323552      2.347546      0.964619
  C      -0.391284      2.936448     -0.872839
  H      -1.185601      3.654323     -1.084442
  H       0.554541      3.375811     -1.199341
  C       0.046996     -0.868504     -1.603364
  H       0.898597     -1.471928     -1.303233
  H      -0.038789     -0.982250     -2.687780
  C       1.596048      0.990480     -2.333985
  C       3.104474      0.796413     -2.076456
  H       1.475042      2.050406     -2.552498
  H       1.367956      0.463566     -3.265499
  C       3.557543      1.708297     -0.934397
  C       3.558210     -0.677117     -1.923524
  C       3.813200      1.405024     -3.311275
  O       2.959644      2.709939     -0.638140
  O       4.721296      1.455264     -0.333481
  H       4.038303     -0.983544     -2.857047
  H       2.696823     -1.325496     -1.797430
  C       4.515651     -0.907382     -0.761363
  H       3.557076      2.458571     -3.430624
  H       4.898169      1.326754     -3.226842
  H       3.509289      0.866606     -4.211150
  C       5.469382      0.254535     -0.602472
  H       5.080772     -1.827127     -0.920886
  H       3.954205     -1.010584      0.168686
  H       6.033435      0.413992     -1.531167
  C       0.107476      3.886125      1.441240
  H       1.107834      4.177801      1.107081
  H       0.205433      3.557190      2.479540
  C       6.447902      0.119170      0.550080
  H       5.878634     -0.044406      1.470438
  H       6.958397      1.079450      0.666532
  C      -3.896887     -1.674576     -1.660220
  C      -4.163538     -1.990180     -0.185502
  O      -3.684018     -2.963984      0.337891
  O      -5.004980     -1.242216      0.522483
  C      -4.833019     -0.559813     -2.148389
  H      -5.838345     -0.968533     -2.294937
  H      -4.493731     -0.208790     -3.126497
  C      -5.489034      0.068443      0.156249
  H      -6.569390     -0.063854      0.023585
  C      -4.894160      0.572636     -1.143837
  H      -5.516169      1.388402     -1.515720
  H      -3.897484      0.977532     -0.953779
  C      -4.236197     -2.954583     -2.439924
  H      -3.611123     -3.794088     -2.146756
  H      -4.106496     -2.775205     -3.509792
  C      -2.426128     -1.224020     -1.938565
  C      -1.234587     -1.570891     -1.017090
  H      -2.443227     -0.146308     -2.063140
  H      -2.166373     -1.626127     -2.923245
  C      -1.465045     -1.034624      0.392717
  C      -0.952968     -3.098870     -1.034419
  O      -2.199809     -0.098078      0.607045
  O      -0.791375     -1.558319      1.401287
  H      -0.172370     -3.285150     -1.776796
  H      -1.838310     -3.623500     -1.377592
  C      -0.553844     -3.684459      0.319184
  C       0.124575     -2.656972      1.195891
  H       0.106414     -4.541906      0.179744
  H      -1.447584     -4.031813      0.841492
  H       1.017508     -2.244257      0.718996
  C      -5.225426      0.968191      1.352141
  H      -4.145460      0.997380      1.516270
  H      -5.665974      0.495362      2.234266
  C       0.499886     -3.141871      2.581811
  H      -0.373805     -3.608617      3.048236
  H       0.747965     -2.261118      3.180013
  H      -5.274911     -3.244137     -2.268555
  C      -5.779824      2.379488      1.195360
  H      -6.856364      2.336019      0.994996
  H      -5.324958      2.864854      0.326548
  C       1.683412     -4.102350      2.580695
  H       1.444335     -4.994985      1.994519
  H       2.531921     -3.622761      2.080873
  C      -0.849491      5.070439      1.368895
  H      -1.861856      4.740232      1.628272
  H      -0.902684      5.445935      0.342734
  C       7.478318     -0.987616      0.359460
  H       6.979199     -1.959610      0.310833
  H       7.984468     -0.854449     -0.603093
  C       8.511689     -1.011927      1.478318
  H       9.237879     -1.813224      1.332511
  H       9.060714     -0.068713      1.526005
  H       8.035007     -1.164995      2.449205
  C      -0.431782      6.206610      2.293436
  H       0.569246      6.564787      2.042585
  H      -1.117442      7.052644      2.221318
  H      -0.413409      5.878991      3.335356
  C      -5.522017      3.232282      2.431010
  H      -5.922647      4.240572      2.312732
  H      -5.983169      2.790955      3.317411
  H      -4.450465      3.317741      2.626696
  C       2.090406     -4.519831      3.987710
  H       1.270402     -5.030332      4.498077
  H       2.946298     -5.196798      3.971412
  H       2.363608     -3.650576      4.590230
