105
Coordinates from ORCA-job orca E -2048.219358711831
  C           0.45228599721401      0.60855524579960     -1.32532103521135
  C           0.98530580043236      0.69362297789538      0.11425404682545
  O           1.80133320470439     -0.10787939132875      0.50781348226964
  O           0.57584905650945      1.62834986894338      0.94819357560983
  C          -0.68053765008611      1.61852599196093     -1.56830958852887
  H          -1.61368552573417      1.24070538899066     -1.15934299152457
  H          -0.81848578116570      1.74997111215770     -2.64515194654049
  C          -0.34293955522128      2.69356856849102      0.61929277465661
  H          -1.32355210782685      2.34754561166408      0.96461884471375
  C          -0.39128438534574      2.93644790789600     -0.87283882590214
  H          -1.18560120028751      3.65432330761123     -1.08444182584211
  H           0.55454119190061      3.37581122470439     -1.19934123146598
  C           0.04699553591248     -0.86850436955570     -1.60336449705568
  H           0.89859696154866     -1.47192786694113     -1.30323294499819
  H          -0.03878901013575     -0.98224983618266     -2.68778038741593
  C           1.59604773376014      0.99048015294655     -2.33398536502970
  C           3.10447425362221      0.79641286483611     -2.07645561273686
  H           1.47504202612730      2.05040593574077     -2.55249795205946
  H           1.36795632284772      0.46356577207158     -3.26549913068473
  C           3.55754273792207      1.70829749552618     -0.93439678321480
  C           3.55820978898763     -0.67711715530530     -1.92352414882301
  C           3.81319993478864      1.40502366474347     -3.31127500717025
  O           2.95964421753179      2.70993906194207     -0.63814032002247
  O           4.72129617558911      1.45526365282882     -0.33348079371836
  H           4.03830284477844     -0.98354418061441     -2.85704723177595
  H           2.69682317384655     -1.32549623657427     -1.79742969762379
  C           4.51565139993807     -0.90738156226974     -0.76136300779786
  H           3.55707615576169      2.45857051794308     -3.43062441943855
  H           4.89816947807026      1.32675433335645     -3.22684183000277
  H           3.50928854362592      0.86660550896947     -4.21114981041057
  C           5.46938178787834      0.25453505745831     -0.60247156794319
  H           5.08077167822732     -1.82712725367229     -0.92088610324438
  H           3.95420540000182     -1.01058417030064      0.16868601891298
  H           6.03343508979725      0.41399154358228     -1.53116670987178
  C           0.10747579801668      3.88612527571612      1.44123983771490
  H           1.10783443679575      4.17780107647257      1.10708133621794
  H           0.20543299726262      3.55718980809152      2.47954026452700
  C           6.44790171282954      0.11916977016673      0.55008023024891
  H           5.87863395910919     -0.04440631795596      1.47043787887325
  H           6.95839680901975      1.07944961017689      0.66653246675108
  C          -3.89688714953290     -1.67457621356386     -1.66022021982660
  C          -4.16353812476766     -1.99018048213470     -0.18550227099245
  O          -3.68401794499884     -2.96398409957598      0.33789109771404
  O          -5.00498039306584     -1.24221593935059      0.52248283300131
  C          -4.83301924405671     -0.55981294111685     -2.14838901309195
  H          -5.83834508692653     -0.96853303338629     -2.29493650097362
  H          -4.49373112759357     -0.20879004448549     -3.12649732946038
  C          -5.48903428557992      0.06844276540404      0.15624928443638
  H          -6.56939036193457     -0.06385436835156      0.02358534444876
  C          -4.89415995943672      0.57263631827706     -1.14383706223498
  H          -5.51616914076086      1.38840202041316     -1.51572009006268
  H          -3.89748372439656      0.97753231720026     -0.95377921335217
  C          -4.23619688537451     -2.95458266706293     -2.43992422184948
  H          -3.61112260229010     -3.79408775358028     -2.14675581832388
  H          -4.10649649537486     -2.77520471977114     -3.50979185330330
  C          -2.42612823030590     -1.22402043167391     -1.93856486015151
  C          -1.23458715981416     -1.57089078621630     -1.01708994683476
  H          -2.44322655605170     -0.14630795997013     -2.06313964293201
  H          -2.16637257084337     -1.62612668741603     -2.92324549752378
  C          -1.46504514268437     -1.03462435920304      0.39271706179071
  C          -0.95296770540199     -3.09887047221220     -1.03441946343460
  O          -2.19980941155312     -0.09807789998731      0.60704541948349
  O          -0.79137549863135     -1.55831890273417      1.40128700267577
  H          -0.17236996651332     -3.28515025557668     -1.77679616320509
  H          -1.83830994836272     -3.62350019521251     -1.37759172932224
  C          -0.55384407446291     -3.68445884092032      0.31918359985452
  C           0.12457481982544     -2.65697244970020      1.19589109800434
  H           0.10641369542424     -4.54190563497756      0.17974379064059
  H          -1.44758357672015     -4.03181320589394      0.84149214061884
  H           1.01750805713906     -2.24425666060685      0.71899558463112
  C          -5.22542613285061      0.96819104943962      1.35214114745522
  H          -4.14546029477847      0.99738034123400      1.51626987121993
  H          -5.66597448752639      0.49536248073744      2.23426629456660
  C           0.49988628373727     -3.14187072237139      2.58181129463540
  H          -0.37380473953075     -3.60861658183158      3.04823554461262
  H           0.74796460058706     -2.26111755366621      3.18001310686054
  H          -5.27491125102308     -3.24413707208849     -2.26855453649150
  C          -5.77982399711228      2.37948756166166      1.19536033386358
  H          -6.85636369000165      2.33601911663130      0.99499551825849
  H          -5.32495820987792      2.86485364366469      0.32654837092005
  C           1.68341249088978     -4.10234983339558      2.58069459507447
  H           1.44433467544321     -4.99498481490260      1.99451924349100
  H           2.53192097575039     -3.62276136047969      2.08087264184104
  C          -0.84949123032596      5.07043933269409      1.36889545482933
  H          -1.86185563101735      4.74023190289642      1.62827242185884
  H          -0.90268414444155      5.44593529103631      0.34273408828812
  C           7.47831843166736     -0.98761616959738      0.35945967910542
  H           6.97919881298787     -1.95961032027778      0.31083275926949
  H           7.98446811344073     -0.85444935577372     -0.60309291829095
  C           8.51168851416459     -1.01192705192769      1.47831828843905
  H           9.23787918818013     -1.81322404552079      1.33251064242640
  H           9.06071445014977     -0.06871270744383      1.52600454930622
  H           8.03500745950218     -1.16499450779733      2.44920504417622
  C          -0.43178228594682      6.20661032790434      2.29343591679399
  H           0.56924621683420      6.56478702010678      2.04258453396326
  H          -1.11744236951914      7.05264401635303      2.22131753978485
  H          -0.41340892797081      5.87899138700450      3.33535630724666
  C          -5.52201690299432      3.23228153909027      2.43101027001144
  H          -5.92264677292846      4.24057249634847      2.31273190661009
  H          -5.98316934237377      2.79095473219378      3.31741135198737
  H          -4.45046521394785      3.31774106647234      2.62669634301349
  C           2.09040600358853     -4.51983138167564      3.98771044787443
  H           1.27040157345789     -5.03033161972860      4.49807706888028
  H           2.94629815706259     -5.19679828839977      3.97141198615423
  H           2.36360848321544     -3.65057630318715      4.59022954027241
