44
Coordinates from ORCA-job orca E -887.609710858933
  O      -1.521980     -0.332010     -2.743260
  C      -1.656230      0.188850     -1.668370
  C      -1.882480     -0.660160     -0.402550
  C      -2.202610      0.154550      0.874480
  H      -1.317630      0.208700      1.515630
  H      -2.945310     -0.388470      1.474700
  C      -2.647020      1.584410      0.602030
  H      -2.679010      2.146260      1.547060
  H      -3.659370      1.629480      0.173340
  C      -1.660940      2.241190     -0.342500
  H      -0.647920      2.191920      0.097910
  C      -1.978410      3.681880     -0.707080
  C      -1.851650      4.659490      0.458430
  H      -2.582720      4.405520      1.244070
  H      -0.855170      4.547670      0.920090
  C      -2.059360      6.108960      0.032920
  H      -1.970330      6.795890      0.887380
  H      -3.057170      6.252630     -0.410450
  H      -1.315960      6.411970     -0.720910
  H      -2.995560      3.723880     -1.133330
  H      -1.289690      3.977130     -1.515030
  C      -0.633370     -1.574310     -0.212070
  H      -0.855590     -2.231090      0.643670
  H      -0.581950     -2.218360     -1.101910
  C      -3.019850     -1.671100     -0.739090
  H      -3.032820     -2.418460      0.069200
  C      -4.483930     -1.216950     -0.972070
  C      -5.142650     -0.718530      0.312170
  O      -5.074040     -1.623830      1.301020
  C      -5.677070     -1.258940      2.529850
  H      -5.543860     -2.112290      3.204080
  H      -5.194040     -0.363930      2.950100
  H      -6.746480     -1.043600      2.394120
  O      -5.699680      0.340100      0.451680
  C      -5.268940     -2.475990     -1.402910
  H      -5.163840     -3.286660     -0.668800
  H      -6.339980     -2.249710     -1.518160
  H      -4.891760     -2.830680     -2.373480
  C      -4.634150     -0.151540     -2.060750
  H      -4.168690      0.802750     -1.785850
  H      -5.697490      0.051980     -2.249330
  H      -4.163800     -0.497440     -2.990780
  H      -2.712770     -2.194160     -1.656210
  O      -1.622710      1.522630     -1.586890
44
Coordinates from ORCA-job orca E -887.620854309182
  O      -1.516036     -0.298368     -2.747286
  C      -1.671812      0.221037     -1.676275
  C      -1.923360     -0.624994     -0.415715
  C      -2.217329      0.189952      0.861211
  H      -1.316046      0.225306      1.480284
  H      -2.954648     -0.338412      1.468187
  C      -2.636645      1.626717      0.595214
  H      -2.652705      2.182527      1.535624
  H      -3.642138      1.693579      0.173283
  C      -1.640073      2.266153     -0.345775
  H      -0.634393      2.198890      0.092980
  C      -1.932640      3.710889     -0.705274
  C      -1.796593      4.677266      0.465335
  H      -2.529798      4.431456      1.240554
  H      -0.810251      4.550873      0.927619
  C      -1.981968      6.128889      0.045243
  H      -1.888201      6.805598      0.897092
  H      -2.968657      6.286684     -0.398707
  H      -1.236071      6.422686     -0.698236
  H      -2.940653      3.769709     -1.131530
  H      -1.240997      3.999119     -1.503372
  C      -0.679840     -1.500113     -0.215291
  H      -0.775658     -2.136502      0.670255
  H      -0.453162     -2.098169     -1.100997
  C      -3.045742     -1.662129     -0.740174
  H      -3.039125     -2.398528      0.068335
  C      -4.523917     -1.253020     -0.970445
  C      -5.198789     -0.768457      0.309477
  O      -5.102180     -1.666154      1.303149
  C      -5.731481     -1.313559      2.526190
  H      -5.570270     -2.150263      3.202328
  H      -5.291392     -0.403508      2.940231
  H      -6.799405     -1.144756      2.379636
  O      -5.796088      0.267695      0.438076
  C      -5.264892     -2.539129     -1.385950
  H      -5.130322     -3.333475     -0.650714
  H      -6.335564     -2.350991     -1.497756
  H      -4.882219     -2.886430     -2.348044
  C      -4.717144     -0.209295     -2.069019
  H      -4.289208      0.758367     -1.811798
  H      -5.780550     -0.048781     -2.251732
  H      -4.245060     -0.548830     -2.991546
  H      -2.734621     -2.182858     -1.648242
  O      -1.608339      1.552962     -1.594280
44
Coordinates from ORCA-job orca E -887.625724157978
  O      -1.488085     -0.350648     -2.748028
  C      -1.643603      0.163473     -1.675156
  C      -1.917413     -0.684772     -0.423657
  C      -2.211654      0.121781      0.855414
  H      -1.303639      0.158880      1.464132
  H      -2.944177     -0.411886      1.459081
  C      -2.656545      1.548022      0.587257
  H      -2.688300      2.102191      1.524424
  H      -3.658990      1.592995      0.157811
  C      -1.665537      2.206602     -0.343785
  H      -0.665657      2.160839      0.102975
  C      -1.986357      3.644030     -0.705608
  C      -1.887925      4.609672      0.468660
  H      -2.622891      4.346360      1.231342
  H      -0.907484      4.508207      0.941722
  C      -2.102775      6.055956      0.046084
  H      -2.036642      6.731885      0.896901
  H      -3.084355      6.188827     -0.408819
  H      -1.356661      6.366701     -0.685134
  H      -2.987381      3.679555     -1.141924
  H      -1.294053      3.950357     -1.491732
  C      -0.690497     -1.527796     -0.215501
  H      -0.680848     -2.123167      0.693955
  H      -0.309014     -2.053077     -1.085043
  C      -3.050183     -1.700067     -0.751630
  H      -3.069500     -2.434469      0.053304
  C      -4.498493     -1.209718     -0.975528
  C      -5.127549     -0.687877      0.311666
  O      -5.073237     -1.591625      1.303760
  C      -5.660015     -1.192454      2.538236
  H      -5.541143     -2.034548      3.211211
  H      -5.155837     -0.314851      2.938883
  H      -6.713446     -0.957424      2.406096
  O      -5.638363      0.391113      0.451829
  C      -5.321546     -2.439722     -1.402843
  H      -5.238218     -3.246973     -0.679225
  H      -6.374534     -2.180834     -1.509215
  H      -4.965326     -2.799019     -2.366927
  C      -4.611660     -0.139865     -2.056475
  H      -4.116374      0.788553     -1.781030
  H      -5.656559      0.099154     -2.239663
  H      -4.162789     -0.498422     -2.980256
  H      -2.757608     -2.222694     -1.661093
  O      -1.603116      1.496385     -1.594319
44
Coordinates from ORCA-job orca E -887.627809988395
  O      -1.549740     -0.325481     -2.753225
  C      -1.706839      0.200203     -1.685848
  C      -1.956571     -0.638527     -0.422331
  C      -2.206421      0.185489      0.861486
  H      -1.274997      0.203809      1.433724
  H      -2.933241     -0.326014      1.492059
  C      -2.616714      1.622731      0.594903
  H      -2.612725      2.183632      1.530538
  H      -3.625623      1.693020      0.184731
  C      -1.627643      2.248762     -0.360015
  H      -0.618286      2.178120      0.064300
  C      -1.918904      3.693067     -0.723181
  C      -1.780238      4.659421      0.447892
  H      -2.511075      4.415279      1.222923
  H      -0.793574      4.538044      0.906505
  C      -1.968535      6.109864      0.022340
  H      -1.874181      6.787877      0.871383
  H      -2.955468      6.262823     -0.418677
  H      -1.225070      6.400887     -0.722181
  H      -2.927435      3.750919     -1.143603
  H      -1.230566      3.982214     -1.521198
  C      -0.710407     -1.422954     -0.237354
  H      -0.571468     -1.937869      0.704896
  H      -0.229462     -1.865182     -1.098937
  C      -3.073207     -1.686404     -0.722788
  H      -3.057519     -2.411329      0.091796
  C      -4.544395     -1.256360     -0.948644
  C      -5.213918     -0.783256      0.337716
  O      -5.148842     -1.708519      1.309692
  C      -5.814322     -1.371653      2.526305
  H      -5.670092     -2.221996      3.186893
  H      -5.381997     -0.472077      2.964434
  H      -6.874931     -1.200901      2.347883
  O      -5.817011      0.247855      0.472082
  C      -5.306020     -2.519584     -1.393092
  H      -5.188109     -3.330499     -0.675503
  H      -6.371428     -2.309463     -1.503965
  H      -4.925978     -2.852122     -2.359767
  C      -4.700008     -0.185033     -2.023671
  H      -4.254631      0.765913     -1.737145
  H      -5.755581      0.003325     -2.217144
  H      -4.224678     -0.515845     -2.946783
  H      -2.766853     -2.214175     -1.626920
  O      -1.611279      1.531620     -1.610357
44
Coordinates from ORCA-job orca E -887.628313651593
  O      -1.532859     -0.315097     -2.754693
  C      -1.688133      0.195587     -1.679480
  C      -1.967229     -0.660872     -0.430481
  C      -2.235793      0.152647      0.861483
  H      -1.312217      0.165225      1.445421
  H      -2.973514     -0.364405      1.477270
  C      -2.640462      1.593311      0.603682
  H      -2.656194      2.143956      1.546526
  H      -3.641438      1.667065      0.174131
  C      -1.635021      2.231351     -0.327177
  H      -0.632218      2.160321      0.115009
  C      -1.924708      3.678201     -0.683501
  C      -1.819488      4.635402      0.499122
  H      -2.569482      4.381726      1.254194
  H      -0.842886      4.514129      0.981444
  C      -2.003055      6.089205      0.081376
  H      -1.932663      6.760893      0.939154
  H      -2.980336      6.242205     -0.383353
  H      -1.241475      6.389631     -0.642496
  H      -2.924298      3.735024     -1.127863
  H      -1.218199      3.978485     -1.462827
  C      -0.718963     -1.460851     -0.237054
  H      -0.560862     -1.946096      0.719625
  H      -0.200456     -1.866852     -1.096269
  C      -3.088802     -1.697272     -0.761993
  H      -3.082511     -2.427649      0.050021
  C      -4.561669     -1.269823     -0.998639
  C      -5.224574     -0.752480      0.274453
  O      -5.087095     -1.609121      1.300166
  C      -5.676123     -1.195191      2.532062
  H      -5.476376     -1.997375      3.238503
  H      -5.227838     -0.262320      2.877281
  H      -6.749487     -1.047741      2.411694
  O      -5.775017      0.310049      0.393750
  C      -5.325742     -2.548150     -1.391733
  H      -5.198334     -3.334454     -0.647262
  H      -6.393784     -2.343719     -1.498983
  H      -4.954139     -2.912943     -2.351276
  C      -4.735107     -0.244791     -2.116764
  H      -4.296794      0.721197     -1.874306
  H      -5.794913     -0.072893     -2.309284
  H      -4.264709     -0.609866     -3.030154
  H      -2.768907     -2.222203     -1.664290
  O      -1.592110      1.526184     -1.584342
44
Coordinates from ORCA-job orca E -887.628993175086
  O      -1.510820     -0.342644     -2.756292
  C      -1.643231      0.167155     -1.677547
  C      -1.927577     -0.689384     -0.427132
  C      -2.194089      0.127549      0.863731
  H      -1.269476      0.155061      1.445199
  H      -2.925040     -0.394158      1.483426
  C      -2.622214      1.559383      0.596475
  H      -2.654439      2.114238      1.536422
  H      -3.622455      1.611602      0.159931
  C      -1.625091      2.211358     -0.334155
  H      -0.622646      2.163075      0.112385
  C      -1.941795      3.649525     -0.702646
  C      -1.867685      4.618039      0.472969
  H      -2.619304      4.354665      1.223227
  H      -0.893113      4.520913      0.965035
  C      -2.077783      6.064406      0.042522
  H      -2.029268      6.743923      0.895477
  H      -3.053780      6.193433     -0.432058
  H      -1.316226      6.375222     -0.676957
  H      -2.938306      3.681969     -1.156403
  H      -1.234926      3.958892     -1.478203
  C      -0.687294     -1.526397     -0.239931
  H      -0.511449     -1.983750      0.728873
  H      -0.174993     -1.932842     -1.104017
  C      -3.074476     -1.693734     -0.761527
  H      -3.078928     -2.433917      0.042299
  C      -4.534616     -1.219993     -0.975588
  C      -5.162144     -0.703093      0.315170
  O      -5.102906     -1.609138      1.305092
  C      -5.716963     -1.223652      2.532858
  H      -5.578390     -2.063898      3.208809
  H      -5.241012     -0.327824      2.934730
  H      -6.777789     -1.022504      2.382978
  O      -5.705958      0.361301      0.450452
  C      -5.344309     -2.465279     -1.385825
  H      -5.234667     -3.270103     -0.658370
  H      -6.406162     -2.224905     -1.477449
  H      -4.994688     -2.823217     -2.356135
  C      -4.684483     -0.163989     -2.068175
  H      -4.212116      0.781485     -1.807250
  H      -5.739609      0.047434     -2.246189
  H      -4.234571     -0.522385     -2.994077
  H      -2.775881     -2.213140     -1.674119
  O      -1.563312      1.498948     -1.585865
44
Coordinates from ORCA-job orca E -887.629144806004
  O      -1.509596     -0.352850     -2.750294
  C      -1.670204      0.163808     -1.678862
  C      -1.934258     -0.688470     -0.422052
  C      -2.186455      0.131589      0.866046
  H      -1.255335      0.162907      1.437574
  H      -2.909633     -0.388249      1.495234
  C      -2.616971      1.561975      0.595603
  H      -2.646060      2.119651      1.533306
  H      -3.618450      1.612692      0.162483
  C      -1.623686      2.210480     -0.340675
  H      -0.619808      2.162576      0.101450
  C      -1.940914      3.647543     -0.711906
  C      -1.863749      4.618408      0.461173
  H      -2.612299      4.356006      1.213991
  H      -0.887998      4.522952      0.950046
  C      -2.076659      6.063476      0.028588
  H      -2.025626      6.744363      0.879590
  H      -3.054073      6.190645     -0.442284
  H      -1.318627      6.373452     -0.694145
  H      -2.938071      3.678811     -1.162960
  H      -1.236485      3.954706     -1.489830
  C      -0.695042     -1.520284     -0.247387
  H      -0.486126     -1.945379      0.727261
  H      -0.194290     -1.930151     -1.114413
  C      -3.080241     -1.695250     -0.744497
  H      -3.085677     -2.430029      0.063464
  C      -4.535923     -1.218608     -0.965245
  C      -5.176519     -0.716121      0.324563
  O      -5.122273     -1.630486      1.306851
  C      -5.737726     -1.254201      2.536483
  H      -5.600698     -2.099055      3.206165
  H      -5.262828     -0.361959      2.946109
  H      -6.797813     -1.051670      2.386896
  O      -5.708794      0.352597      0.470666
  C      -5.343652     -2.456442     -1.401501
  H      -5.244737     -3.270855     -0.684166
  H      -6.403161     -2.212300     -1.502540
  H      -4.983274     -2.802101     -2.371708
  C      -4.664319     -0.145053     -2.042924
  H      -4.187489      0.792899     -1.761721
  H      -5.714947      0.076548     -2.231090
  H      -4.204958     -0.492795     -2.968011
  H      -2.781839     -2.220038     -1.653439
  O      -1.568699      1.493894     -1.589740
44
Coordinates from ORCA-job orca E -887.629267116445
  O      -1.543671     -0.340916     -2.759394
  C      -1.674532      0.168654     -1.680587
  C      -1.934885     -0.689391     -0.427579
  C      -2.172152      0.123305      0.865964
  H      -1.234119      0.151402      1.426635
  H      -2.887579     -0.400088      1.501161
  C      -2.603377      1.556243      0.609773
  H      -2.621762      2.107585      1.551273
  H      -3.609179      1.611559      0.188910
  C      -1.621014      2.210226     -0.333969
  H      -0.612854      2.163701      0.097946
  C      -1.945950      3.647832     -0.695994
  C      -1.861789      4.613113      0.481055
  H      -2.602454      4.344129      1.239052
  H      -0.881513      4.518663      0.960621
  C      -2.083918      6.059466      0.057753
  H      -2.027428      6.736097      0.911656
  H      -3.066050      6.185417     -0.403197
  H      -1.334024      6.375930     -0.670437
  H      -2.946906      3.677751     -1.138300
  H      -1.249423      3.960723     -1.478534
  C      -0.699439     -1.519936     -0.266947
  H      -0.461315     -1.919880      0.710025
  H      -0.207483     -1.927892     -1.138389
  C      -3.081561     -1.697520     -0.747610
  H      -3.087750     -2.427748      0.064074
  C      -4.538427     -1.228601     -0.976921
  C      -5.181309     -0.702158      0.302074
  O      -5.118239     -1.593580      1.304363
  C      -5.735716     -1.195513      2.525955
  H      -5.588156     -2.022615      3.215132
  H      -5.270895     -0.288579      2.913910
  H      -6.798270     -1.008740      2.373852
  O      -5.722714      0.364884      0.424843
  C      -5.340871     -2.478668     -1.386279
  H      -5.238089     -3.276993     -0.651882
  H      -6.401360     -2.241409     -1.492039
  H      -4.979152     -2.843339     -2.348842
  C      -4.672064     -0.181054     -2.079393
  H      -4.198564      0.764897     -1.821802
  H      -5.723625      0.031858     -2.271529
  H      -4.212617     -0.549078     -2.996612
  H      -2.779185     -2.228376     -1.651625
  O      -1.574600      1.498270     -1.586015
44
Coordinates from ORCA-job orca E -887.629310710593
  O      -1.493899     -0.351351     -2.746495
  C      -1.637671      0.161486     -1.670790
  C      -1.935089     -0.691102     -0.421980
  C      -2.188334      0.127497      0.863489
  H      -1.259252      0.156673      1.438879
  H      -2.915203     -0.391310      1.490317
  C      -2.611566      1.560420      0.593594
  H      -2.650014      2.114993      1.532774
  H      -3.607901      1.616411      0.150330
  C      -1.608034      2.209434     -0.331076
  H      -0.609893      2.166124      0.124178
  C      -1.925238      3.644978     -0.708125
  C      -1.872428      4.615623      0.466338
  H      -2.632408      4.349060      1.206081
  H      -0.904743      4.523968      0.971719
  C      -2.084759      6.059977      0.031329
  H      -2.051251      6.740258      0.883801
  H      -3.054783      6.183102     -0.455731
  H      -1.316308      6.374419     -0.678442
  H      -2.914660      3.671424     -1.176300
  H      -1.209131      3.954997     -1.474214
  C      -0.712607     -1.535741     -0.238794
  H      -0.466066     -1.897756      0.750564
  H      -0.217789     -1.959760     -1.100966
  C      -3.087863     -1.688505     -0.759245
  H      -3.094322     -2.432773      0.039837
  C      -4.546250     -1.214648     -0.974054
  C      -5.181516     -0.712282      0.318175
  O      -5.104381     -1.618687      1.305615
  C      -5.712798     -1.243751      2.538636
  H      -5.550657     -2.078881      3.215076
  H      -5.253003     -0.337652      2.934936
  H      -6.778866     -1.064989      2.400155
  O      -5.726959      0.350004      0.462894
  C      -5.350020     -2.458149     -1.400016
  H      -5.241425     -3.269135     -0.680172
  H      -6.411665     -2.220503     -1.494963
  H      -4.993708     -2.805504     -2.371162
  C      -4.691224     -0.147799     -2.056590
  H      -4.220027      0.795351     -1.785111
  H      -5.745153      0.064291     -2.237738
  H      -4.236328     -0.497043     -2.983368
  H      -2.789446     -2.204158     -1.673547
  O      -1.531342      1.490621     -1.577692
44
Coordinates from ORCA-job orca E -887.629394840947
  O      -1.499738     -0.350358     -2.751835
  C      -1.644784      0.158684     -1.674412
  C      -1.928376     -0.699679     -0.425718
  C      -2.172834      0.114883      0.863761
  H      -1.238859      0.148810      1.430843
  H      -2.890515     -0.408961      1.496923
  C      -2.605785      1.546095      0.601082
  H      -2.641844      2.097515      1.542225
  H      -3.605185      1.598406      0.163885
  C      -1.610785      2.202851     -0.327501
  H      -0.610032      2.164592      0.122681
  C      -1.938187      3.637421     -0.699763
  C      -1.884973      4.605581      0.476729
  H      -2.639636      4.332808      1.219737
  H      -0.914168      4.517984      0.976955
  C      -2.107657      6.049789      0.046617
  H      -2.073303      6.728038      0.900711
  H      -3.081037      6.168819     -0.434837
  H      -1.344894      6.370447     -0.666574
  H      -2.930085      3.659166     -1.163072
  H      -1.227770      3.953191     -1.468895
  C      -0.702747     -1.548888     -0.257814
  H      -0.424952     -1.887990      0.731980
  H      -0.227540     -1.983138     -1.126723
  C      -3.085340     -1.693670     -0.758920
  H      -3.095744     -2.434334      0.043567
  C      -4.540425     -1.212475     -0.977724
  C      -5.171648     -0.691189      0.308967
  O      -5.104655     -1.588647      1.305252
  C      -5.713888     -1.197833      2.532536
  H      -5.557536     -2.026313      3.218494
  H      -5.250898     -0.289646      2.920437
  H      -6.778875     -1.015322      2.390021
  O      -5.711776      0.375495      0.441027
  C      -5.353643     -2.454324     -1.390731
  H      -5.251504     -3.258310     -0.662044
  H      -6.413450     -2.209670     -1.488808
  H      -4.999524     -2.814969     -2.357875
  C      -4.676638     -0.156290     -2.071788
  H      -4.196142      0.785275     -1.811178
  H      -5.728698      0.063558     -2.254625
  H      -4.225590     -0.519923     -2.994953
  H      -2.788531     -2.215041     -1.670507
  O      -1.535786      1.487193     -1.575983
44
Coordinates from ORCA-job orca E -887.629401235706
  O      -1.520702     -0.354743     -2.751707
  C      -1.649956      0.154891     -1.672534
  C      -1.925774     -0.701879     -0.420686
  C      -2.158700      0.115205      0.868304
  H      -1.219428      0.153126      1.426475
  H      -2.868300     -0.408220      1.510393
  C      -2.595587      1.545491      0.606553
  H      -2.626091      2.098159      1.547035
  H      -3.597888      1.596634      0.176163
  C      -1.607659      2.202261     -0.329496
  H      -0.604338      2.168522      0.115151
  C      -1.941480      3.634796     -0.704151
  C      -1.883545      4.606300      0.469300
  H      -2.632455      4.333223      1.217877
  H      -0.909331      4.522678      0.963396
  C      -2.113261      6.048661      0.037013
  H      -2.074847      6.729121      0.889057
  H      -3.090265      6.163746     -0.437813
  H      -1.356604      6.369680     -0.682353
  H      -2.936197      3.652336     -1.161374
  H      -1.236903      3.950196     -1.478700
  C      -0.700663     -1.554894     -0.262630
  H      -0.386697     -1.859710      0.727298
  H      -0.249470     -2.010121     -1.133598
  C      -3.086912     -1.693053     -0.748301
  H      -3.100080     -2.431375      0.056168
  C      -4.539723     -1.207848     -0.971941
  C      -5.181011     -0.695185      0.313300
  O      -5.119117     -1.597856      1.305259
  C      -5.733803     -1.213286      2.531520
  H      -5.577777     -2.043466      3.215352
  H      -5.275261     -0.305122      2.924538
  H      -6.798770     -1.033278      2.386147
  O      -5.719168      0.371989      0.449130
  C      -5.352603     -2.444905     -1.400135
  H      -5.258478     -3.254029     -0.676205
  H      -6.410841     -2.196984     -1.505402
  H      -4.991233     -2.799790     -2.366632
  C      -4.664083     -0.142788     -2.058764
  H      -4.182228      0.795209     -1.787363
  H      -5.713787      0.081772     -2.248394
  H      -4.206546     -0.500807     -2.980957
  H      -2.791409     -2.218179     -1.658076
  O      -1.537009      1.483152     -1.576068
44
Coordinates from ORCA-job orca E -887.629419648410
  O      -1.508725     -0.351166     -2.751678
  C      -1.646954      0.156955     -1.672923
  C      -1.928314     -0.701801     -0.423684
  C      -2.166592      0.112959      0.865403
  H      -1.229632      0.149470      1.427653
  H      -2.879255     -0.411319      1.503602
  C      -2.601164      1.544067      0.604318
  H      -2.635433      2.094989      1.545717
  H      -3.601413      1.597149      0.169420
  C      -1.607794      2.201694     -0.325470
  H      -0.606992      2.166661      0.124694
  C      -1.938597      3.635077     -0.699715
  C      -1.885669      4.604748      0.475513
  H      -2.638662      4.331288      1.219857
  H      -0.914057      4.519392      0.974435
  C      -2.111725      6.047999      0.044200
  H      -2.076926      6.727162      0.897463
  H      -3.086204      6.164802     -0.435414
  H      -1.351077      6.369317     -0.670836
  H      -2.931007      3.654172     -1.161888
  H      -1.229858      3.951057     -1.470222
  C      -0.703632     -1.552522     -0.262170
  H      -0.387308     -1.852581      0.728086
  H      -0.251291     -2.009622     -1.131273
  C      -3.087250     -1.693709     -0.755712
  H      -3.099265     -2.434106      0.046826
  C      -4.541148     -1.210438     -0.976773
  C      -5.177079     -0.691604      0.308655
  O      -5.108160     -1.588363      1.305540
  C      -5.719621     -1.198739      2.531896
  H      -5.557247     -2.023969      3.220275
  H      -5.263434     -0.286157      2.917346
  H      -6.785965     -1.024249      2.389744
  O      -5.721260      0.373126      0.439447
  C      -5.354454     -2.450840     -1.394517
  H      -5.256254     -3.255795     -0.666449
  H      -6.413434     -2.204637     -1.496511
  H      -4.996994     -2.810756     -2.360632
  C      -4.672240     -0.152054     -2.069359
  H      -4.190856      0.788361     -1.805820
  H      -5.723218      0.069567     -2.255495
  H      -4.218301     -0.514788     -2.991492
  H      -2.791039     -2.215828     -1.666989
  O      -1.530484      1.484662     -1.572918
44
Coordinates from ORCA-job orca E -887.629425482852
  O      -1.508144     -0.351166     -2.751232
  C      -1.645708      0.156955     -1.672416
  C      -1.928699     -0.701633     -0.423272
  C      -2.168920      0.113467      0.865552
  H      -1.232853      0.149587      1.429265
  H      -2.882792     -0.410446      1.502628
  C      -2.602665      1.544693      0.603591
  H      -2.637419      2.095963      1.544836
  H      -3.602511      1.598095      0.167763
  C      -1.607915      2.201869     -0.325131
  H      -0.607744      2.166709      0.126461
  C      -1.937941      3.635204     -0.700289
  C      -1.885016      4.605618      0.474350
  H      -2.638239      4.332841      1.218767
  H      -0.913484      4.520435      0.973497
  C      -2.110700      6.048623      0.041927
  H      -2.075806      6.728477      0.894669
  H      -3.085125      6.165278     -0.437894
  H      -1.349864      6.369171     -0.673295
  H      -2.930204      3.654544     -1.162826
  H      -1.228721      3.950454     -1.470668
  C      -0.703499     -1.551446     -0.259912
  H      -0.391571     -1.857162      0.730155
  H      -0.249041     -2.008024     -1.128374
  C      -3.087035     -1.693600     -0.756335
  H      -3.098966     -2.434703      0.045587
  C      -4.541012     -1.209980     -0.976554
  C      -5.176981     -0.693011      0.309623
  O      -5.107476     -1.590985      1.305481
  C      -5.718263     -1.202612      2.532679
  H      -5.555463     -2.028663      3.220011
  H      -5.261653     -0.290476      2.918768
  H      -6.784690     -1.027901      2.391330
  O      -5.720927      0.371637      0.441934
  C      -5.354617     -2.449809     -1.395556
  H      -5.256530     -3.255567     -0.668314
  H      -6.413570     -2.203200     -1.497178
  H      -4.997383     -2.808784     -2.362126
  C      -4.672653     -0.150279     -2.067760
  H      -4.191733      0.790030     -1.803020
  H      -5.723770      0.071116     -2.253513
  H      -4.218586     -0.511617     -2.990385
  H      -2.790971     -2.214765     -1.668233
  O      -1.529119      1.484693     -1.572441
44
Coordinates from ORCA-job orca E -887.629427265106
  O      -1.508897     -0.351229     -2.751131
  C      -1.645200      0.156606     -1.672045
  C      -1.928836     -0.702163     -0.422968
  C      -2.169388      0.113029      0.865768
  H      -1.233479      0.149209      1.429722
  H      -2.883375     -0.410807      1.502739
  C      -2.602965      1.544247      0.603497
  H      -2.637946      2.095617      1.544700
  H      -3.602616      1.597842      0.167251
  C      -1.607441      2.201501     -0.324380
  H      -0.607842      2.166895      0.128515
  C      -1.937687      3.634603     -0.700294
  C      -1.885248      4.605586      0.473908
  H      -2.638314      4.332782      1.218493
  H      -0.913645      4.521156      0.973038
  C      -2.111713      6.048260      0.040734
  H      -2.076894      6.728644      0.893056
  H      -3.086310      6.164192     -0.438913
  H      -1.351193      6.368709     -0.674868
  H      -2.929851      3.653587     -1.163070
  H      -1.228272      3.949654     -1.470570
  C      -0.703261     -1.551242     -0.259602
  H      -0.389021     -1.856304      0.729950
  H      -0.250262     -2.009962     -1.127769
  C      -3.087054     -1.693819     -0.756508
  H      -3.099264     -2.435307      0.045064
  C      -4.540778     -1.209354     -0.976445
  C      -5.177004     -0.693103      0.309893
  O      -5.107063     -1.591341      1.305551
  C      -5.717691     -1.203256      2.532968
  H      -5.553781     -2.029032      3.220370
  H      -5.261706     -0.290621      2.918605
  H      -6.784342     -1.029582      2.392066
  O      -5.721302      0.371312      0.442495
  C      -5.355132     -2.448525     -1.396222
  H      -5.257807     -3.254628     -0.669265
  H      -6.413876     -2.201080     -1.498046
  H      -4.997918     -2.807362     -2.362859
  C      -4.671977     -0.148908     -2.066981
  H      -4.190800      0.791108     -1.801598
  H      -5.723002      0.072922     -2.252722
  H      -4.217867     -0.509786     -2.989764
  H      -2.791264     -2.214557     -1.668721
  O      -1.526698      1.484137     -1.571489
