44
Coordinates from ORCA-job orca E -887.629427265106
  O          -1.50889737172415     -0.35122873901410     -2.75113072743530
  C          -1.64520031199241      0.15660619577844     -1.67204512389156
  C          -1.92883568177794     -0.70216279860469     -0.42296750439152
  C          -2.16938831268170      0.11302903035807      0.86576835366096
  H          -1.23347899612732      0.14920893881902      1.42972173533988
  H          -2.88337502051002     -0.41080665167575      1.50273855584476
  C          -2.60296458813976      1.54424706358706      0.60349738392426
  H          -2.63794625643355      2.09561747956277      1.54470013167554
  H          -3.60261552883144      1.59784240581734      0.16725103214214
  C          -1.60744061535888      2.20150119600147     -0.32438042575442
  H          -0.60784161492966      2.16689475175964      0.12851486628063
  C          -1.93768660744736      3.63460293986681     -0.70029387576402
  C          -1.88524814884276      4.60558578709916      0.47390779345861
  H          -2.63831382248602      4.33278197449017      1.21849294209329
  H          -0.91364492563662      4.52115554013874      0.97303802719048
  C          -2.11171323755771      6.04825981879847      0.04073421480062
  H          -2.07689360397401      6.72864422490701      0.89305607940910
  H          -3.08630972337166      6.16419187397398     -0.43891319320770
  H          -1.35119259622413      6.36870878971887     -0.67486826993716
  H          -2.92985096391366      3.65358655811634     -1.16307020210565
  H          -1.22827158589234      3.94965402498195     -1.47057013023253
  C          -0.70326119281704     -1.55124192299701     -0.25960158734367
  H          -0.38902111486713     -1.85630350577653      0.72994960170520
  H          -0.25026243181636     -2.00996238489324     -1.12776901705781
  C          -3.08705393885256     -1.69381889076228     -0.75650819561608
  H          -3.09926408204770     -2.43530703437995      0.04506361770864
  C          -4.54077801377831     -1.20935438341051     -0.97644536667805
  C          -5.17700389005730     -0.69310333105609      0.30989252502677
  O          -5.10706348501351     -1.59134072244453      1.30555144749523
  C          -5.71769060351618     -1.20325559789583      2.53296755323813
  H          -5.55378076936909     -2.02903225659926      3.22037047901631
  H          -5.26170591914459     -0.29062121857119      2.91860495544564
  H          -6.78434165315274     -1.02958225875061      2.39206590721924
  O          -5.72130209404601      0.37131163029980      0.44249478029664
  C          -5.35513160731393     -2.44852487339146     -1.39622187389048
  H          -5.25780720429427     -3.25462813540242     -0.66926471346136
  H          -6.41387600945100     -2.20108027435365     -1.49804641133836
  H          -4.99791780569860     -2.80736199930668     -2.36285920863608
  C          -4.67197650417863     -0.14890848190436     -2.06698145338451
  H          -4.19080028877103      0.79110836132293     -1.80159760575985
  H          -5.72300184210657      0.07292220567202     -2.25272244247887
  H          -4.21786722155735     -0.50978580287118     -2.98976436852266
  H          -2.79126441685537     -2.21455687797104     -1.66872102471879
  O          -1.52669839744152      1.48413735096229     -1.57148926136559
