61
Coordinates from ORCA-job orca E -1383.969296948618
  C           2.04145797065768      0.65642836046078     -1.25850172340981
  H           2.13339285149644      1.58127008220852     -0.68812652528757
  H           3.03140164781850      0.33265404845296     -1.57903738011148
  C           1.34313032283017     -0.40355207385120     -0.41264634040275
  C           2.06735637576661     -0.68090758250040      0.92424899426150
  H           1.53947667747730     -1.49335873802746      1.42918859717170
  H           1.93689388770060      0.20662400844263      1.54635961727543
  C           3.56745421570291     -1.04271282112020      0.93507807843816
  C           1.18515005634346     -1.67673117386909     -1.23880997728698
  O           1.46816474079398     -1.79112186081546     -2.40067730249196
  O           0.64182387190911     -2.67793100956238     -0.52714263742724
  C           4.45045212314965      0.14156989166611      0.54952787830808
  O           5.38504051722260      0.09195847740711     -0.20410697694196
  O           4.10524967773194      1.26261470465934      1.20047508543526
  C           3.90644993560249     -2.22775567383938      0.03389662409529
  H           4.95031173248530     -2.51399496030642      0.15832279507961
  H           3.27928052276712     -3.08178369960609      0.29742050186092
  H           3.76153083279822     -1.99944055377273     -1.02161323045884
  C           3.93935917298209     -1.39453666021242      2.38770548729502
  H           3.40583530379086     -2.29630222292956      2.69417214902436
  H           5.01004595043280     -1.58773850911682      2.47907966796192
  H           3.67522122611662     -0.58784564896758      3.07229786438245
  C           0.42764918341102     -3.89290587876529     -1.24090206593645
  H           0.01274285368169     -4.59238381819189     -0.51956493432837
  H          -0.26939186808466     -3.73463103386247     -2.06435933108153
  H           1.36747099562769     -4.27175599625481     -1.64257222158912
  C           4.89830744226774      2.41105797673151      0.91138418058070
  H           4.82677591012448      2.66560811048414     -0.14647978951701
  H           4.49398783242958      3.21275069589281      1.52395871166854
  H           5.94350359225672      2.22868826274298      1.16003372598753
  H           1.47085263567595      0.86736181531784     -2.16262953761676
  C          -0.08510724977187      0.08835503034312     -0.01693447445367
  C          -0.99544284985617      0.43761553713488     -1.14409490966195
  H           0.04830634003343      0.95929630392705      0.62329098923657
  H          -0.55876498907800     -0.69647841865337      0.57897653127918
  C          -2.90755235746872      1.57984493938803      1.71392187808664
  C          -1.28375233298274      1.81787504389001     -1.49263756696830
  C          -1.66735926473710     -0.61581295051374     -1.94904464466662
  C          -3.74367049794277      1.03125824134403      0.83960413800501
  H          -2.27891251682855      0.97423712949624      2.35215223772666
  H          -2.82905491726495      2.65652889641499      1.80684391252381
  O          -2.05030312006234      2.15622417626019     -2.37065308179354
  O          -0.61879029940623      2.71727460804203     -0.73447453008731
  H          -1.07067048455251     -0.86842508677065     -2.83381619188376
  H          -1.79231223506924     -1.53096724012660     -1.36826947574324
  H          -2.63823813651336     -0.27594803480610     -2.30756849247006
  C          -4.63492387183717      1.81237571708933     -0.07525798397474
  C          -3.85189516731064     -0.45363474708901      0.71230611733409
  C          -0.89919615804442      4.07949671654015     -1.02787781056490
  H          -4.52361214064012      2.88126446347865      0.10324324181263
  H          -4.39001204448163      1.60877182377110     -1.11905395734252
  H          -5.67903321963647      1.53261207529199      0.07165899699447
  O          -4.64287546575919     -1.00397965614000     -0.00865655332075
  O          -2.97732553341074     -1.12431117463980      1.47799887146131
  H          -1.95903519802830      4.29362341043993     -0.88352929059017
  H          -0.29554738633623      4.66387710681962     -0.33761961767181
  H          -0.63407855456365      4.31657562610968     -2.05850177176701
  C          -3.05658600897679     -2.54428834947944      1.40456080944363
  H          -2.29178930818533     -2.91638707085644      2.08160480174966
  H          -4.04199194563153     -2.89055959302923      1.71583602520843
  H          -2.86520127662387     -2.88917104257152      0.38791181715963
