61
Coordinates from ORCA-job orca E -1382.079443390837
  C           1.97748750606800      0.62605192266670     -1.16498888854492
  H           2.00949775289869      1.52998398811409     -0.54199090185165
  H           2.98827445253820      0.40459038913431     -1.53191930619149
  C           1.39899101102288     -0.54574075428938     -0.36519745499815
  C           2.18831314230801     -0.84181227000555      0.93618105753135
  H           1.72844596378783     -1.71991996717636      1.41468050888215
  H           2.02428254620998      0.00854021613587      1.61451227927904
  C           3.71560063767709     -1.10146219647185      0.87335014167791
  C           1.33090954934810     -1.77538997143726     -1.27154787422996
  O           1.56722386711172     -1.78763106932186     -2.45484213018567
  O           0.92341383390873     -2.87589151547880     -0.60383486260490
  C           4.49220038726771      0.16287623069226      0.49602382236976
  O           5.37587266022505      0.22339289312519     -0.32359708350908
  O           4.11029297576714      1.22621549109289      1.23244072130769
  C           4.10062451343357     -2.22468351801265     -0.09776001786908
  H           5.17823201017445     -2.43288021465688     -0.03439163804542
  H           3.55008848603947     -3.14336600250429      0.15326804504324
  H           3.88877126341410     -1.96073857465709     -1.14221781727695
  C           4.17373441212401     -1.48339063049939      2.30171054851519
  H           3.70010723155658     -2.43091285357960      2.60411866041887
  H           5.26596065525109     -1.62135194628051      2.34097357671559
  H           3.89668086162446     -0.70759538705150      3.03044358980023
  C           0.81386720456832     -4.07129721644990     -1.37500470557805
  H           0.48077223469009     -4.85416110709250     -0.68196561428295
  H           0.08514199975510     -3.94509440762978     -2.19020290102741
  H           1.78582707199136     -4.33916619313492     -1.81662030214884
  C           4.78706772780408      2.45232028281454      0.96353500168486
  H           4.60687115250782      2.77468454434208     -0.07384975438280
  H           4.37909132599084      3.18920900693534      1.66693615450123
  H           5.87237614578206      2.34212335806120      1.10875103215046
  H           1.36075995978967      0.83631627663773     -2.04931602117214
  C          -0.07019517640129     -0.21787900899394      0.09171956125415
  C          -1.02857098986025      0.10585367869222     -1.00608354732639
  H          -0.00980649172998      0.62808687397004      0.78814683226609
  H          -0.44801757798779     -1.08799651588025      0.65054445080831
  C          -3.20635717442095      2.04451263463844      1.73231900605877
  C          -1.39100983932050      1.48278782967778     -1.31501113715036
  C          -1.62852661523135     -0.95650109217506     -1.86266473077241
  C          -3.95395524064102      1.48696278249340      0.76722396324449
  H          -2.59277869252846      1.43540490354729      2.39782183326900
  H          -3.19559242058405      3.12846446772448      1.87734208601123
  O          -2.19887077902940      1.80972823991602     -2.16898299124353
  O          -0.73983329586433      2.39768319920101     -0.54920602318537
  H          -1.08702640575748     -1.03514242222475     -2.82441974834183
  H          -1.57130659220050     -1.93987410383342     -1.37534565413676
  H          -2.67598384003853     -0.72395919695731     -2.10673906291172
  C          -4.81716312693975      2.25860424249464     -0.19031651830968
  C          -3.99309208017437      0.00299846855371      0.58837131345762
  C          -1.06536628889729      3.75788563092597     -0.80109910225182
  H          -4.81931721559797      3.32985584358936      0.05852434036822
  H          -4.44513599654976      2.13553387785591     -1.21967824275873
  H          -5.85206894588424      1.88266554733998     -0.17295747287757
  O          -4.72838233281119     -0.55987703014839     -0.19072234231952
  O          -3.13448872567249     -0.66512535351582      1.38965061421045
  H          -2.12817220365038      3.95396658257890     -0.59000177423502
  H          -0.43158230632278      4.35550892087983     -0.13298318890148
  H          -0.86994426044134      4.02306219472805     -1.85185225137339
  C          -3.21185651144967     -2.08710479432445      1.33764937476375
  H          -2.38913228334373     -2.46378048590183      1.95864346808251
  H          -4.17778277442683     -2.43714311443175      1.73555402323268
  H          -3.11381435887898     -2.45066160444203      0.30477505509021
