61
Coordinates from ORCA-job orca E -1383.965063405248
  C       1.977488      0.626052     -1.164989
  H       2.009498      1.529984     -0.541991
  H       2.988274      0.404590     -1.531919
  C       1.398991     -0.545741     -0.365197
  C       2.188313     -0.841812      0.936181
  H       1.728446     -1.719920      1.414681
  H       2.024283      0.008540      1.614512
  C       3.715601     -1.101462      0.873350
  C       1.330910     -1.775390     -1.271548
  O       1.567224     -1.787631     -2.454842
  O       0.923414     -2.875892     -0.603835
  C       4.492200      0.162876      0.496024
  O       5.375873      0.223393     -0.323597
  O       4.110293      1.226215      1.232441
  C       4.100625     -2.224684     -0.097760
  H       5.178232     -2.432880     -0.034392
  H       3.550088     -3.143366      0.153268
  H       3.888771     -1.960739     -1.142218
  C       4.173734     -1.483391      2.301711
  H       3.700107     -2.430913      2.604119
  H       5.265961     -1.621352      2.340974
  H       3.896681     -0.707595      3.030444
  C       0.813867     -4.071297     -1.375005
  H       0.480772     -4.854161     -0.681966
  H       0.085142     -3.945094     -2.190203
  H       1.785827     -4.339166     -1.816620
  C       4.787068      2.452320      0.963535
  H       4.606871      2.774685     -0.073850
  H       4.379091      3.189209      1.666936
  H       5.872376      2.342123      1.108751
  H       1.360760      0.836316     -2.049316
  C      -0.070195     -0.217879      0.091720
  C      -1.028571      0.105854     -1.006084
  H      -0.009806      0.628087      0.788147
  H      -0.448018     -1.087997      0.650544
  C      -3.206357      2.044513      1.732319
  C      -1.391010      1.482788     -1.315011
  C      -1.628527     -0.956501     -1.862665
  C      -3.953955      1.486963      0.767224
  H      -2.592779      1.435405      2.397822
  H      -3.195592      3.128464      1.877342
  O      -2.198871      1.809728     -2.168983
  O      -0.739833      2.397683     -0.549206
  H      -1.087026     -1.035142     -2.824420
  H      -1.571307     -1.939874     -1.375346
  H      -2.675984     -0.723959     -2.106739
  C      -4.817163      2.258604     -0.190317
  C      -3.993092      0.002998      0.588371
  C      -1.065366      3.757886     -0.801099
  H      -4.819317      3.329856      0.058524
  H      -4.445136      2.135534     -1.219678
  H      -5.852069      1.882666     -0.172957
  O      -4.728382     -0.559877     -0.190722
  O      -3.134489     -0.665125      1.389651
  H      -2.128172      3.953967     -0.590002
  H      -0.431582      4.355509     -0.132983
  H      -0.869944      4.023062     -1.851852
  C      -3.211857     -2.087105      1.337649
  H      -2.389132     -2.463780      1.958643
  H      -4.177783     -2.437143      1.735554
  H      -3.113814     -2.450662      0.304775
61
Coordinates from ORCA-job orca E -1383.968162524290
  C       1.977017      0.607515     -1.192230
  H       2.009892      1.507697     -0.577806
  H       2.979708      0.383708     -1.555883
  C       1.398615     -0.553274     -0.387805
  C       2.181743     -0.838201      0.914339
  H       1.727900     -1.710755      1.390232
  H       2.006156      0.007215      1.582860
  C       3.706595     -1.086774      0.872844
  C       1.326204     -1.786967     -1.283004
  O       1.565448     -1.809383     -2.460405
  O       0.908883     -2.875394     -0.612606
  C       4.487710      0.177195      0.520903
  O       5.388358      0.241140     -0.272349
  O       4.096867      1.231446      1.255740
  C       4.112281     -2.199879     -0.091278
  H       5.179294     -2.404811     -0.006176
  H       3.562398     -3.113070      0.144314
  H       3.923233     -1.933979     -1.131169
  C       4.139217     -1.476383      2.299003
  H       3.671118     -2.421969      2.580033
  H       5.222129     -1.605731      2.355669
  H       3.844917     -0.716624      3.023934
  C       0.791813     -4.064586     -1.386311
  H       0.453031     -4.836486     -0.699959
  H       0.071691     -3.929690     -2.194524
  H       1.754723     -4.336817     -1.820380
  C       4.788378      2.448781      1.001159
  H       4.628879      2.770297     -0.029306
  H       4.376679      3.178827      1.693478
  H       5.859366      2.328230      1.165769
  H       1.364531      0.812731     -2.069776
  C      -0.060535     -0.218023      0.070713
  C      -1.023593      0.105577     -1.019915
  H       0.006930      0.624036      0.758736
  H      -0.434861     -1.079327      0.631310
  C      -3.182124      2.036044      1.728317
  C      -1.386443      1.477345     -1.328709
  C      -1.635924     -0.954114     -1.864126
  C      -3.938414      1.483751      0.782907
  H      -2.566535      1.431606      2.380032
  H      -3.164657      3.110663      1.870015
  O      -2.197992      1.798239     -2.173124
  O      -0.731968      2.390746     -0.575712
  H      -1.110222     -1.033620     -2.823304
  H      -1.575010     -1.929633     -1.378937
  H      -2.678391     -0.723996     -2.094689
  C      -4.808408      2.252243     -0.163556
  C      -3.980083      0.002270      0.611362
  C      -1.071441      3.744526     -0.828860
  H      -4.805320      3.314347      0.081492
  H      -4.451865      2.127739     -1.189130
  H      -5.833986      1.881999     -0.130886
  O      -4.720712     -0.560334     -0.153334
  O      -3.113951     -0.658305      1.400322
  H      -2.123957      3.933893     -0.605526
  H      -0.437679      4.340979     -0.176623
  H      -0.889798      4.003639     -1.872805
  C      -3.191020     -2.077321      1.346187
  H      -2.369819     -2.448873      1.955838
  H      -4.144005     -2.423311      1.749732
  H      -3.101341     -2.438453      0.320863
61
Coordinates from ORCA-job orca E -1383.968213164661
  C       1.992572      0.616955     -1.166143
  H       2.017419      1.513600     -0.547008
  H       3.000094      0.393928     -1.515784
  C       1.402309     -0.545338     -0.374719
  C       2.176339     -0.836335      0.929152
  H       1.716225     -1.705699      1.403407
  H       2.006306      0.009745      1.597289
  C       3.695964     -1.098930      0.884298
  C       1.340312     -1.775516     -1.275172
  O       1.600535     -1.793426     -2.447324
  O       0.932333     -2.869902     -0.610972
  C       4.486465      0.155046      0.520593
  O       5.379080      0.205243     -0.281590
  O       4.085627      1.226030      1.223131
  C       4.081561     -2.219858     -0.077594
  H       5.146345     -2.435671     -0.001884
  H       3.524836     -3.125347      0.168998
  H       3.883183     -1.958220     -1.116514
  C       4.132851     -1.485631      2.309095
  H       3.663308     -2.428695      2.593127
  H       5.214857     -1.618082      2.361634
  H       3.843421     -0.724492      3.033525
  C       0.834533     -4.058611     -1.389345
  H       0.500115     -4.834740     -0.706562
  H       0.118145     -3.929091     -2.200537
  H       1.803052     -4.318103     -1.816242
  C       4.772705      2.439987      0.938082
  H       4.618116      2.729684     -0.101486
  H       4.351240      3.185915      1.606241
  H       5.841843      2.329668      1.115112
  H       1.392891      0.827383     -2.050449
  C      -0.058357     -0.209799      0.073455
  C      -1.015119      0.117778     -1.020851
  H       0.005792      0.630020      0.763435
  H      -0.435821     -1.071474      0.630292
  C      -3.188140      2.028300      1.730760
  C      -1.378387      1.489594     -1.327516
  C      -1.625578     -0.939063     -1.868757
  C      -3.947252      1.480335      0.788849
  H      -2.570385      1.422553      2.378331
  H      -3.167989      3.101842      1.874792
  O      -2.186694      1.808584     -2.174297
  O      -0.729530      2.402718     -0.572711
  H      -1.099001     -1.012990     -2.827034
  H      -1.564866     -1.915339     -1.387799
  H      -2.667008     -0.710592     -2.098979
  C      -4.818342      2.252072     -0.152655
  C      -3.988249     -0.001683      0.613159
  C      -1.078550      3.754988     -0.823311
  H      -4.814233      3.312232      0.097247
  H      -4.463481      2.132725     -1.178073
  H      -5.843204      1.882324     -0.118855
  O      -4.728032     -0.561733     -0.152599
  O      -3.121626     -0.662209      1.398552
  H      -2.130855      3.936276     -0.596755
  H      -0.447504      4.353204     -0.171006
  H      -0.898914      4.016125     -1.866095
  C      -3.193647     -2.081067      1.334740
  H      -2.374067     -2.451891      1.944842
  H      -4.146184     -2.431268      1.733232
  H      -3.097714     -2.435723      0.309146
61
Coordinates from ORCA-job orca E -1383.968352565170
  C       2.000029      0.609268     -1.178088
  H       2.025876      1.507023     -0.560646
  H       3.007601      0.383217     -1.525621
  C       1.406144     -0.548567     -0.384010
  C       2.179732     -0.835879      0.920933
  H       1.725154     -1.708459      1.394555
  H       2.001711      0.008549      1.588905
  C       3.700389     -1.088367      0.880303
  C       1.341598     -1.781855     -1.280391
  O       1.595546     -1.800582     -2.453470
  O       0.903122     -2.865740     -0.620225
  C       4.485302      0.171561      0.525999
  O       5.392524      0.224075     -0.259016
  O       4.097100      1.229744      1.252917
  C       4.095514     -2.202859     -0.084655
  H       5.160981     -2.413763     -0.006242
  H       3.542984     -3.111930      0.157920
  H       3.898067     -1.939136     -1.123141
  C       4.134589     -1.478344      2.304702
  H       3.674995     -2.428864      2.579744
  H       5.217754     -1.598214      2.361860
  H       3.832166     -0.725911      3.032975
  C       0.779401     -4.051597     -1.401110
  H       0.420957     -4.818366     -0.719792
  H       0.070691     -3.902052     -2.215261
  H       1.743727     -4.335206     -1.821433
  C       4.799464      2.442575      0.996340
  H       4.648549      2.756850     -0.036310
  H       4.384817      3.176817      1.681638
  H       5.866386      2.314835      1.173462
  H       1.401718      0.819724     -2.063315
  C      -0.052539     -0.208599      0.061967
  C      -1.010593      0.113646     -1.032098
  H       0.013486      0.635425      0.746559
  H      -0.429679     -1.066044      0.625571
  C      -3.176687      2.027521      1.722955
  C      -1.376245      1.483162     -1.346563
  C      -1.624967     -0.948130     -1.870164
  C      -3.947806      1.475442      0.795822
  H      -2.550855      1.425920      2.366846
  H      -3.151975      3.101924      1.859386
  O      -2.187403      1.792522     -2.193466
  O      -0.727490      2.402999     -0.602631
  H      -1.104384     -1.024579     -2.831466
  H      -1.560803     -1.921489     -1.385116
  H      -2.667668     -0.723218     -2.094279
  C      -4.827928      2.242900     -0.140016
  C      -3.990685     -0.009033      0.629386
  C      -1.088062      3.751763     -0.860090
  H      -4.820200      3.303849      0.106130
  H      -4.483067      2.120056     -1.167704
  H      -5.852559      1.874160     -0.093554
  O      -4.736594     -0.572890     -0.126728
  O      -3.117560     -0.663207      1.410356
  H      -2.138821      3.926182     -0.623090
  H      -0.454398      4.358119     -0.217706
  H      -0.918817      4.005606     -1.906108
  C      -3.184378     -2.082764      1.349221
  H      -2.361299     -2.447510      1.957354
  H      -4.134084     -2.434513      1.752556
  H      -3.088876     -2.439427      0.325042
61
Coordinates from ORCA-job orca E -1383.968402247656
  C       1.994732      0.590043     -1.204884
  H       2.033015      1.488810     -0.588755
  H       2.996781      0.357735     -1.564327
  C       1.402582     -0.563291     -0.401926
  C       2.180431     -0.849502      0.903314
  H       1.732726     -1.728343      1.373404
  H       1.990274     -0.009711      1.574625
  C       3.706138     -1.084700      0.873758
  C       1.322816     -1.799043     -1.294756
  O       1.568698     -1.822767     -2.469970
  O       0.908474     -2.884570     -0.621854
  C       4.483733      0.187795      0.547083
  O       5.401878      0.258945     -0.224466
  O       4.069237      1.234489      1.276122
  C       4.128107     -2.184184     -0.097918
  H       5.194069     -2.387873     -0.001952
  H       3.578591     -3.101104      0.123425
  H       3.949003     -1.909118     -1.136776
  C       4.129022     -1.487517      2.298304
  H       3.678862     -2.448162      2.555635
  H       5.213498     -1.593806      2.366754
  H       3.808149     -0.748382      3.033012
  C       0.787151     -4.077023     -1.394068
  H       0.447854     -4.843713     -0.702174
  H       0.063981     -3.940094     -2.198350
  H       1.749104     -4.351776     -1.826874
  C       4.759700      2.459360      1.042030
  H       4.622224      2.780031      0.008931
  H       4.322429      3.181931      1.726432
  H       5.825325      2.343882      1.237750
  H       1.387062      0.803440     -2.083670
  C      -0.052265     -0.214137      0.048252
  C      -1.012466      0.110769     -1.043030
  H       0.021438      0.632385      0.730114
  H      -0.432827     -1.067489      0.616674
  C      -3.150945      2.036442      1.723818
  C      -1.371997      1.481783     -1.360286
  C      -1.637603     -0.950138     -1.874645
  C      -3.938069      1.486941      0.807291
  H      -2.521347      1.432732      2.362836
  H      -3.116147      3.111588      1.856371
  O      -2.185735      1.791658     -2.205458
  O      -0.715070      2.400914     -0.622444
  H      -1.124323     -1.030211     -2.840251
  H      -1.575177     -1.923259     -1.387771
  H      -2.681397     -0.720388     -2.091572
  C      -4.822936      2.259051     -0.120811
  C      -3.993791      0.001628      0.645425
  C      -1.073078      3.750928     -0.880985
  H      -4.805374      3.320623      0.125128
  H      -4.488521      2.133515     -1.152177
  H      -5.850071      1.897115     -0.064092
  O      -4.751216     -0.558707     -0.102675
  O      -3.118196     -0.656089      1.420680
  H      -2.121479      3.927255     -0.633910
  H      -0.431628      4.357103     -0.245315
  H      -0.912112      4.000902     -1.929695
  C      -3.189752     -2.076064      1.360169
  H      -2.363951     -2.442429      1.964922
  H      -4.139039     -2.424844      1.768453
  H      -3.098922     -2.433018      0.335025
61
Coordinates from ORCA-job orca E -1383.968467793745
  C       2.002063      0.602824     -1.190236
  H       2.034380      1.500524     -0.571984
  H       3.007056      0.373936     -1.543878
  C       1.407637     -0.553819     -0.392935
  C       2.181074     -0.842757      0.913936
  H       1.727779     -1.718698      1.384268
  H       1.995840     -0.001170      1.584585
  C       3.704718     -1.089143      0.882081
  C       1.335209     -1.787805     -1.289230
  O       1.579857     -1.806303     -2.465125
  O       0.906646     -2.872736     -0.624147
  C       4.490725      0.175919      0.545658
  O       5.405386      0.236536     -0.231398
  O       4.077473      1.233106      1.260313
  C       4.114379     -2.197003     -0.085732
  H       5.179291     -2.408423      0.006498
  H       3.558822     -3.108645      0.142960
  H       3.932060     -1.926346     -1.125367
  C       4.129583     -1.487338      2.307748
  H       3.673931     -2.443743      2.571748
  H       5.213662     -1.600458      2.373299
  H       3.816205     -0.741945      3.039500
  C       0.779728     -4.060402     -1.402948
  H       0.428045     -4.827106     -0.717278
  H       0.063828     -3.912565     -2.211966
  H       1.742475     -4.342015     -1.829860
  C       4.771143      2.453274      1.011126
  H       4.636594      2.760087     -0.026677
  H       4.334000      3.186010      1.684728
  H       5.836185      2.337788      1.210790
  H       1.399291      0.816846     -2.072311
  C      -0.050297     -0.208267      0.051977
  C      -1.007409      0.114406     -1.042765
  H       0.018783      0.638617      0.734293
  H      -0.431612     -1.062223      0.619363
  C      -3.155342      2.028964      1.722071
  C      -1.369383      1.484759     -1.360983
  C      -1.627886     -0.948139     -1.876213
  C      -3.944033      1.478054      0.806384
  H      -2.524001      1.426545      2.360578
  H      -3.121592      3.104283      1.854333
  O      -2.181276      1.792534     -2.209371
  O      -0.717227      2.405421     -0.620172
  H      -1.113430     -1.025691     -2.841476
  H      -1.563419     -1.921679     -1.389631
  H      -2.672443     -0.720889     -2.094319
  C      -4.830987      2.249709     -0.120596
  C      -3.998769     -0.007251      0.644564
  C      -1.078742      3.754888     -0.878500
  H      -4.815311      3.310998      0.127514
  H      -4.496178      2.126624     -1.152464
  H      -5.857533      1.885685     -0.064912
  O      -4.756223     -0.568250     -0.103621
  O      -3.122499     -0.664072      1.420244
  H      -2.128071      3.926000     -0.631632
  H      -0.440067      4.362649     -0.241539
  H      -0.917915      4.005809     -1.927063
  C      -3.188384     -2.084511      1.357089
  H      -2.362517     -2.448189      1.964039
  H      -4.137618     -2.438191      1.761461
  H      -3.092035     -2.438683      0.331081
61
Coordinates from ORCA-job orca E -1383.968422773954
  C       2.003548      0.625104     -1.172514
  H       2.024467      1.522785     -0.553761
  H       3.014117      0.401276     -1.513840
  C       1.405121     -0.534544     -0.381938
  C       2.172528     -0.824532      0.926595
  H       1.709754     -1.693198      1.401063
  H       1.999981      0.022363      1.593895
  C       3.690609     -1.093910      0.884026
  C       1.346364     -1.767868     -1.280358
  O       1.603841     -1.784353     -2.453858
  O       0.936440     -2.860434     -0.615977
  C       4.491329      0.155641      0.524685
  O       5.404428      0.191295     -0.256174
  O       4.113754      1.222356      1.244777
  C       4.068950     -2.217091     -0.079044
  H       5.131777     -2.444185     -0.001544
  H       3.503059     -3.117775      0.167305
  H       3.872804     -1.954051     -1.118484
  C       4.125348     -1.484135      2.309542
  H       3.658900     -2.430996      2.588645
  H       5.208297     -1.612488      2.364394
  H       3.831477     -0.726407      3.036711
  C       0.834651     -4.050639     -1.394813
  H       0.493610     -4.823125     -0.710487
  H       0.120145     -3.915682     -2.207282
  H       1.804540     -4.314667     -1.816668
  C       4.835295      2.424679      0.987386
  H       4.696758      2.734463     -0.048952
  H       4.424522      3.168074      1.665660
  H       5.899165      2.281715      1.175076
  H       1.410305      0.836786     -2.061445
  C      -0.057469     -0.193558      0.053700
  C      -1.009503      0.125788     -1.046581
  H       0.004837      0.654120      0.735908
  H      -0.441076     -1.047472      0.619601
  C      -3.169396      2.019960      1.716857
  C      -1.374972      1.494967     -1.366321
  C      -1.624090     -0.938990     -1.881987
  C      -3.963952      1.467172      0.806054
  H      -2.533948      1.419589      2.352945
  H      -3.135769      3.095452      1.847571
  O      -2.183558      1.799512     -2.219698
  O      -0.730322      2.417766     -0.621085
  H      -1.109972     -1.012188     -2.847562
  H      -1.555726     -1.912928     -1.396251
  H      -2.669856     -0.715450     -2.099794
  C      -4.856016      2.238630     -0.116731
  C      -4.019297     -0.018004      0.645691
  C      -1.098379      3.766194     -0.878694
  H      -4.842309      3.299036      0.135289
  H      -4.522980      2.119880     -1.149858
  H      -5.881389      1.871727     -0.060799
  O      -4.779387     -0.579645     -0.099905
  O      -3.140958     -0.673785      1.420066
  H      -2.148645      3.927682     -0.630227
  H      -0.463525      4.376495     -0.240646
  H      -0.939724      4.018371     -1.927106
  C      -3.197461     -2.094729      1.351258
  H      -2.371354     -2.453884      1.960976
  H      -4.146029     -2.457234      1.748899
  H      -3.092011     -2.442593      0.323708
61
Coordinates from ORCA-job orca E -1383.968524628436
  C       2.009329      0.603310     -1.184126
  H       2.038124      1.501359     -0.566331
  H       3.016897      0.373485     -1.530179
  C       1.408441     -0.552128     -0.389882
  C       2.176873     -0.841673      0.918701
  H       1.722060     -1.716902      1.388623
  H       1.992443      0.000499      1.588690
  C       3.699295     -1.090001      0.884151
  C       1.338619     -1.786078     -1.286397
  O       1.590111     -1.805136     -2.460921
  O       0.913256     -2.872391     -0.621784
  C       4.484720      0.173028      0.539492
  O       5.400470      0.228081     -0.236804
  O       4.077184      1.232524      1.253622
  C       4.103308     -2.201545     -0.081685
  H       5.168431     -2.413442      0.005393
  H       3.548351     -3.111745      0.153488
  H       3.914589     -1.934792     -1.121348
  C       4.129208     -1.482571      2.310128
  H       3.674662     -2.437771      2.579837
  H       5.213424     -1.595393      2.372186
  H       3.818847     -0.733870      3.039672
  C       0.794177     -4.061155     -1.400432
  H       0.442093     -4.828469     -0.715841
  H       0.081689     -3.916091     -2.212764
  H       1.760054     -4.339226     -1.822272
  C       4.775784      2.449541      1.001775
  H       4.641737      2.754806     -0.036383
  H       4.342056      3.184967      1.674445
  H       5.840266      2.329516      1.201059
  H       1.412998      0.817245     -2.070396
  C      -0.050843     -0.203583      0.048552
  C      -1.003511      0.120398     -1.049674
  H       0.017227      0.643755      0.730334
  H      -0.437700     -1.055401      0.615076
  C      -3.149129      2.022302      1.718480
  C      -1.363438      1.491074     -1.368588
  C      -1.624978     -0.941426     -1.883429
  C      -3.948981      1.473111      0.811246
  H      -2.514346      1.419194      2.352681
  H      -3.109966      3.097646      1.848388
  O      -2.172058      1.799168     -2.220143
  O      -0.713398      2.410924     -0.625001
  H      -1.114084     -1.016577     -2.850460
  H      -1.559501     -1.915472     -1.398163
  H      -2.670053     -0.713366     -2.098036
  C      -4.840225      2.248427     -0.108802
  C      -4.011757     -0.011898      0.651923
  C      -1.077058      3.760727     -0.881639
  H      -4.821223      3.308614      0.143183
  H      -4.510735      2.128442     -1.142635
  H      -5.866904      1.885939     -0.049937
  O      -4.776686     -0.570281     -0.090703
  O      -3.134234     -0.671442      1.423467
  H      -2.125952      3.926147     -0.630337
  H      -0.438062      4.368388     -0.245221
  H      -0.920190      4.012158     -1.930399
  C      -3.197141     -2.091924      1.353747
  H      -2.371526     -2.454799      1.961359
  H      -4.146342     -2.450749      1.752932
  H      -3.095048     -2.439139      0.325982
61
Coordinates from ORCA-job orca E -1383.968535738785
  C       2.007008      0.606013     -1.193118
  H       2.037632      1.505526     -0.577602
  H       3.013238      0.375697     -1.542353
  C       1.409067     -0.547887     -0.394395
  C       2.178100     -0.835209      0.914891
  H       1.720645     -1.707976      1.386803
  H       1.995529      0.008900      1.582937
  C       3.700182     -1.088705      0.883463
  C       1.337067     -1.783655     -1.288002
  O       1.583931     -1.805118     -2.463431
  O       0.913038     -2.868452     -0.619883
  C       4.492862      0.171904      0.546414
  O       5.410677      0.226155     -0.227425
  O       4.086434      1.231206      1.261623
  C       4.103373     -2.199197     -0.083960
  H       5.167118     -2.416173      0.007524
  H       3.543084     -3.107634      0.145548
  H       3.921271     -1.928188     -1.123632
  C       4.123728     -1.488107      2.309348
  H       3.663257     -2.441653      2.574842
  H       5.207164     -1.606942      2.374204
  H       3.815266     -0.739894      3.040212
  C       0.790848     -4.058688     -1.395617
  H       0.439912     -4.824407     -0.708586
  H       0.076501     -3.914942     -2.206582
  H       1.755343     -4.338584     -1.819521
  C       4.789824      2.446361      1.014903
  H       4.660379      2.754625     -0.023019
  H       4.356486      3.181871      1.687806
  H       5.853345      2.322436      1.217122
  H       1.407494      0.817511     -2.077867
  C      -0.049819     -0.198991      0.044772
  C      -1.003663      0.122514     -1.053177
  H       0.018396      0.649493      0.725015
  H      -0.436545     -1.049931      0.612597
  C      -3.147087      2.021683      1.714908
  C      -1.365709      1.492297     -1.373276
  C      -1.624987     -0.941257     -1.884569
  C      -3.949980      1.469684      0.812213
  H      -2.509573      1.420584      2.348346
  H      -3.108448      3.097438      1.841762
  O      -2.174996      1.798803     -2.224636
  O      -0.716329      2.413693     -0.630826
  H      -1.116828     -1.016478     -2.853028
  H      -1.556504     -1.914647     -1.398405
  H      -2.670940     -0.714809     -2.096589
  C      -4.844846      2.242585     -0.106420
  C      -4.013078     -0.015539      0.657005
  C      -1.082138      3.762821     -0.888128
  H      -4.827200      3.303064      0.144471
  H      -4.517600      2.122217     -1.140957
  H      -5.870749      1.878243     -0.045221
  O      -4.780502     -0.575989     -0.081461
  O      -3.133052     -0.673401      1.427195
  H      -2.131036      3.926205     -0.635491
  H      -0.443240      4.371840     -0.252891
  H      -0.927482      4.013491     -1.937414
  C      -3.193814     -2.093898      1.357833
  H      -2.367087     -2.455028      1.964927
  H      -4.142105     -2.455204      1.756954
  H      -3.091211     -2.439933      0.329743
61
Coordinates from ORCA-job orca E -1383.968556348849
  C       2.010402      0.602375     -1.194957
  H       2.041310      1.502796     -0.580793
  H       3.016891      0.370362     -1.542424
  C       1.410112     -0.549826     -0.395607
  C       2.177293     -0.836658      0.914748
  H       1.719245     -1.709046      1.386661
  H       1.993829      0.008010      1.581783
  C       3.699861     -1.088536      0.885746
  C       1.335552     -1.785983     -1.288260
  O       1.582459     -1.809221     -2.463611
  O       0.910557     -2.869899     -0.618941
  C       4.490525      0.171997      0.544074
  O       5.409221      0.224897     -0.228730
  O       4.081789      1.233505      1.254969
  C       4.106860     -2.202348     -0.076300
  H       5.171015     -2.416184      0.017730
  H       3.548471     -3.111180      0.156032
  H       3.926053     -1.936084     -1.117391
  C       4.122496     -1.480742      2.313916
  H       3.662208     -2.433046      2.584018
  H       5.205941     -1.598750      2.380174
  H       3.813159     -0.728818      3.040592
  C       0.786850     -4.060553     -1.393400
  H       0.434436     -4.825285     -0.706028
  H       0.073388     -3.916837     -2.205168
  H       1.751035     -4.342499     -1.816764
  C       4.783551      2.448579      1.004573
  H       4.655216      2.753073     -0.034632
  H       4.348629      3.186196      1.674134
  H       5.847144      2.327136      1.208067
  H       1.412330      0.812919     -2.080894
  C      -0.048536     -0.197540      0.042025
  C      -1.000364      0.127176     -1.056813
  H       0.020660      0.650056      0.723140
  H      -0.439581     -1.047848      0.607593
  C      -3.141188      2.016028      1.713482
  C      -1.360878      1.497897     -1.374183
  C      -1.622871     -0.934517     -1.890046
  C      -3.949380      1.465403      0.814704
  H      -2.502452      1.413802      2.344601
  H      -3.100013      3.091810      1.839254
  O      -2.168138      1.807787     -2.226118
  O      -0.711635      2.416693     -0.627980
  H      -1.117604     -1.007333     -2.860109
  H      -1.553284     -1.909041     -1.406269
  H      -2.669174     -0.706639     -2.098983
  C      -4.845786      2.240748     -0.100483
  C      -4.017767     -0.019332      0.660668
  C      -1.076153      3.766933     -0.881529
  H      -4.827761      3.300578      0.153008
  H      -4.520263      2.123028     -1.135929
  H      -5.871585      1.876215     -0.039330
  O      -4.789803     -0.577856     -0.074508
  O      -3.137332     -0.680220      1.427957
  H      -2.125187      3.928936     -0.628713
  H      -0.437257      4.373426     -0.243969
  H      -0.921689      4.020351     -1.930151
  C      -3.198400     -2.100292      1.352903
  H      -2.372493     -2.463469      1.959879
  H      -4.147249     -2.464897      1.747539
  H      -3.093013     -2.439892      0.322943
61
Coordinates from ORCA-job orca E -1383.968572983023
  C       2.014531      0.600815     -1.196902
  H       2.045888      1.503008     -0.585449
  H       3.021288      0.366149     -1.542000
  C       1.411416     -0.548294     -0.395438
  C       2.176560     -0.832870      0.916118
  H       1.716292     -1.702813      1.390286
  H       1.995489      0.014407      1.580409
  C       3.698369     -1.087739      0.887031
  C       1.336025     -1.786350     -1.285017
  O       1.585336     -1.813579     -2.459670
  O       0.908055     -2.867987     -0.613410
  C       4.490291      0.170744      0.541225
  O       5.407460      0.221170     -0.233415
  O       4.085138      1.234043      1.251885
  C       4.102077     -2.204061     -0.073322
  H       5.166508     -2.417566      0.017893
  H       3.544223     -3.112182      0.162590
  H       3.918090     -1.939985     -1.114538
  C       4.121268     -1.477625      2.315745
  H       3.657404     -2.427110      2.589403
  H       5.204264     -1.599848      2.380932
  H       3.815869     -0.722296      3.040484
  C       0.784103     -4.060338     -1.384561
  H       0.427957     -4.822578     -0.696387
  H       0.073783     -3.917946     -2.199323
  H       1.748774     -4.345903     -1.804427
  C       4.787956      2.447423      0.998297
  H       4.657717      2.751412     -0.040835
  H       4.356316      3.186723      1.668066
  H       5.852058      2.324939      1.198533
  H       1.418185      0.809037     -2.084520
  C      -0.047089     -0.191990      0.039452
  C      -0.996130      0.134874     -1.061230
  H       0.022605      0.655236      0.720771
  H      -0.443618     -1.041099      0.602659
  C      -3.136951      2.008850      1.708170
  C      -1.356190      1.506008     -1.376571
  C      -1.618803     -0.925767     -1.895683
  C      -3.951622      1.457598      0.815763
  H      -2.495956      1.406829      2.337149
  H      -3.093355      3.084947      1.830225
  O      -2.161551      1.818513     -2.229140
  O      -0.708018      2.422827     -0.626538
  H      -1.117617     -0.995757     -2.867912
  H      -1.545851     -1.901152     -1.414094
  H      -2.665936     -0.697788     -2.100425
  C      -4.850635      2.233249     -0.096608
  C      -4.025167     -0.026938      0.665960
  C      -1.072556      3.773763     -0.876084
  H      -4.834232      3.292677      0.158328
  H      -4.526684      2.117937     -1.132856
  H      -5.875654      1.866791     -0.035282
  O      -4.802491     -0.585237     -0.063876
  O      -3.143206     -0.689281      1.430399
  H      -2.122221      3.933468     -0.624484
  H      -0.434977      4.378100     -0.235306
  H      -0.917481      4.030522     -1.923757
  C      -3.202781     -2.108905      1.348924
  H      -2.378012     -2.473542      1.956493
  H      -4.152079     -2.478991      1.737017
  H      -3.092779     -2.440201      0.316756
61
Coordinates from ORCA-job orca E -1383.968579274291
  C       2.015648      0.603595     -1.196333
  H       2.047088      1.505689     -0.584722
  H       3.022454      0.368513     -1.540886
  C       1.411486     -0.545371     -0.395296
  C       2.176130     -0.830500      0.916520
  H       1.713960     -1.699052      1.391380
  H       1.996798      0.017740      1.580037
  C       3.697532     -1.088742      0.888231
  C       1.336028     -1.783426     -1.284895
  O       1.586333     -1.811070     -2.459285
  O       0.907668     -2.864946     -0.613171
  C       4.491889      0.167378      0.539185
  O       5.408793      0.214294     -0.235932
  O       4.090325      1.232778      1.248894
  C       4.099131     -2.208207     -0.069414
  H       5.163247     -2.423220      0.022089
  H       3.539803     -3.114847      0.168812
  H       3.915544     -1.946365     -1.111212
  C       4.119248     -1.475960      2.317952
  H       3.652922     -2.423603      2.593846
  H       5.201919     -1.600683      2.383723
  H       3.815331     -0.718240      3.040831
  C       0.783666     -4.057377     -1.383957
  H       0.426954     -4.819368     -0.695793
  H       0.073738     -3.915181     -2.199129
  H       1.748288     -4.343655     -1.803488
  C       4.795901      2.443883      0.992810
  H       4.664768      2.747237     -0.046423
  H       4.367440      3.185157      1.662446
  H       5.860072      2.319031      1.191278
  H       1.419917      0.812142     -2.084310
  C      -0.046804     -0.188033      0.039269
  C      -0.995295      0.139129     -1.061815
  H       0.022992      0.659020      0.720735
  H      -0.444752     -1.037002      0.601664
  C      -3.137924      2.005981      1.705677
  C      -1.356577      1.510124     -1.376242
  C      -1.617390     -0.921806     -1.896341
  C      -3.953868      1.453267      0.815352
  H      -2.495997      1.404789      2.334520
  H      -3.094153      3.082310      1.825455
  O      -2.162740      1.822756     -2.227963
  O      -0.708460      2.426860     -0.625900
  H      -1.117837     -0.990604     -2.869489
  H      -1.541708     -1.897406     -1.415448
  H      -2.665179     -0.694991     -2.099284
  C      -4.853882      2.227101     -0.097477
  C      -4.027302     -0.031553      0.667793
  C      -1.073803      3.777707     -0.873877
  H      -4.839819      3.286793      0.156570
  H      -4.529613      2.111981     -1.133686
  H      -5.878201      1.858668     -0.036061
  O      -4.805193     -0.591129     -0.060493
  O      -3.144223     -0.692775      1.432039
  H      -2.124033      3.937123     -0.624243
  H      -0.437614      4.381627     -0.231318
  H      -0.917148      4.036283     -1.920930
  C      -3.202119     -2.112385      1.348709
  H      -2.377709     -2.477335      1.956644
  H      -4.151377     -2.484950      1.734500
  H      -3.090643     -2.440832      0.315758
61
Coordinates from ORCA-job orca E -1383.968594193112
  C       2.017964      0.606637     -1.196178
  H       2.051706      1.508265     -0.583985
  H       3.024098      0.369186     -1.540988
  C       1.411035     -0.541121     -0.395360
  C       2.175650     -0.827292      0.916397
  H       1.711292     -1.694123      1.392338
  H       1.998732      0.022148      1.579073
  C       3.696402     -1.089950      0.888832
  C       1.335054     -1.779546     -1.284574
  O       1.587671     -1.808286     -2.458383
  O       0.904290     -2.860038     -0.612681
  C       4.494005      0.163764      0.538101
  O       5.409491      0.207872     -0.238818
  O       4.097376      1.230285      1.249011
  C       4.094874     -2.211495     -0.067705
  H       5.158449     -2.429299      0.023848
  H       3.533168     -3.116407      0.171580
  H       3.912082     -1.950101     -1.109737
  C       4.116253     -1.476916      2.318997
  H       3.647043     -2.423120      2.595116
  H       5.198500     -1.604554      2.385618
  H       3.813610     -0.718306      3.041468
  C       0.779799     -4.052829     -1.382656
  H       0.421087     -4.813790     -0.694375
  H       0.070988     -3.910487     -2.198824
  H       1.744425     -4.341145     -1.800776
  C       4.805772      2.439363      0.991429
  H       4.671322      2.744335     -0.046932
  H       4.382267      3.181291      1.663536
  H       5.870334      2.311269      1.185671
  H       1.422625      0.817198     -2.083982
  C      -0.046186     -0.180677      0.039168
  C      -0.994104      0.146675     -1.062373
  H       0.024819      0.666627      0.720197
  H      -0.446739     -1.028678      0.601201
  C      -3.137614      2.002341      1.698957
  C      -1.357593      1.517265     -1.375924
  C      -1.616522     -0.915551     -1.895066
  C      -3.956528      1.445962      0.813650
  H      -2.494169      1.403317      2.328307
  H      -3.092304      3.079246      1.812548
  O      -2.167232      1.829172     -2.224599
  O      -0.707502      2.434440     -0.627811
  H      -1.121093     -0.983099     -2.870425
  H      -1.534859     -1.891070     -1.414688
  H      -2.665806     -0.691398     -2.093557
  C      -4.858456      2.214732     -0.101306
  C      -4.029611     -0.039835      0.672395
  C      -1.073551      3.784947     -0.874340
  H      -4.848612      3.275433      0.148766
  H      -4.533814      2.097836     -1.137219
  H      -5.881494      1.842942     -0.038147
  O      -4.807831     -0.602796     -0.052917
  O      -3.144502     -0.697469      1.437547
  H      -2.124731      3.945758     -0.629405
  H      -0.439897      4.388551     -0.228907
  H      -0.912523      4.046123     -1.920233
  C      -3.198811     -2.117300      1.352402
  H      -2.374951     -2.482433      1.961045
  H      -4.147761     -2.493699      1.735199
  H      -3.085736     -2.441833      0.318370
61
Coordinates from ORCA-job orca E -1383.968603545804
  C       2.018662      0.609142     -1.194861
  H       2.054008      1.509834     -0.581305
  H       3.024236      0.370707     -1.540547
  C       1.410398     -0.538687     -0.395029
  C       2.175164     -0.826621      0.916472
  H       1.710183     -1.693383      1.391990
  H       1.998786      0.022466      1.579786
  C       3.695706     -1.090816      0.889129
  C       1.333548     -1.776576     -1.285090
  O       1.586447     -1.804651     -2.458865
  O       0.901324     -2.856901     -0.614044
  C       4.494608      0.162209      0.538646
  O       5.409341      0.205647     -0.239241
  O       4.099773      1.228690      1.250437
  C       4.093092     -2.212655     -0.067523
  H       5.156274     -2.432258      0.024548
  H       3.529903     -3.116773      0.171427
  H       3.911229     -1.950780     -1.109572
  C       4.114758     -1.478541      2.319285
  H       3.645194     -2.424874      2.594468
  H       5.196958     -1.606482      2.386436
  H       3.811884     -0.720486      3.042260
  C       0.775496     -4.049154     -1.384871
  H       0.416087     -4.810092     -0.696902
  H       0.066473     -3.905365     -2.200605
  H       1.739768     -4.338194     -1.803260
  C       4.809284      2.437240      0.992730
  H       4.672958      2.743255     -0.045062
  H       4.387828      3.178880      1.666444
  H       5.873975      2.307560      1.185122
  H       1.423100      0.822170     -2.081943
  C      -0.045987     -0.176827      0.039872
  C      -0.994159      0.150128     -1.061568
  H       0.025975      0.670866      0.720368
  H      -0.447244     -1.024151      0.602459
  C      -3.136569      2.001052      1.694317
  C      -1.359023      1.520369     -1.375026
  C      -1.617404     -0.913275     -1.892192
  C      -3.956644      1.442040      0.811700
  H      -2.492579      1.403731      2.324732
  H      -3.090118      3.078298      1.803906
  O      -2.171850      1.831171     -2.221114
  O      -0.706559      2.438282     -0.630069
  H      -1.124693     -0.980412     -2.868974
  H      -1.531943     -1.888477     -1.411758
  H      -2.667695     -0.691154     -2.087688
  C      -4.859747      2.206967     -0.105190
  C      -4.028652     -0.044458      0.674453
  C      -1.071967      3.788537     -0.877564
  H      -4.851821      3.268511      0.141408
  H      -4.535016      2.087618     -1.140793
  H      -5.882144      1.833711     -0.040083
  O      -4.805718     -0.609858     -0.050174
  O      -3.143066     -0.699215      1.441545
  H      -2.123634      3.951370     -0.636020
  H      -0.439720      4.392511     -0.230986
  H      -0.907310      4.050111     -1.922878
  C      -3.194489     -2.119359      1.356805
  H      -2.370548     -2.483675      1.965835
  H      -4.142956     -2.497172      1.739508
  H      -3.081517     -2.443412      0.322609
61
Coordinates from ORCA-job orca E -1383.968616015548
  C       2.018693      0.611038     -1.193828
  H       2.056581      1.510654     -0.578782
  H       3.023305      0.371161     -1.541260
  C       1.409132     -0.536611     -0.394675
  C       2.174086     -0.826442      0.916466
  H       1.709151     -1.693755      1.391065
  H       1.997530      0.021715      1.580996
  C       3.694537     -1.091036      0.888873
  C       1.330721     -1.773859     -1.285573
  O       1.583058     -1.800992     -2.459545
  O       0.896925     -2.853907     -0.615452
  C       4.494170      0.162233      0.540848
  O       5.408703      0.206437     -0.237341
  O       4.099557      1.227598      1.254058
  C       4.091384     -2.211521     -0.069565
  H       5.154176     -2.432875      0.022881
  H       3.526919     -3.115310      0.167679
  H       3.910316     -1.947721     -1.111272
  C       4.113223     -1.481545      2.318388
  H       3.644636     -2.429130      2.591025
  H       5.195555     -1.608476      2.385872
  H       3.809346     -0.725495      3.043035
  C       0.769231     -4.045546     -1.387440
  H       0.409475     -4.806507     -0.699672
  H       0.059519     -3.899823     -2.202202
  H       1.733053     -4.334942     -1.806529
  C       4.809926      2.436438      0.998373
  H       4.672878      2.744240     -0.038751
  H       4.389093      3.176766      1.673919
  H       5.874457      2.305251      1.190378
  H       1.422222      0.827220     -2.079546
  C      -0.046382     -0.173121      0.040720
  C      -0.995319      0.153413     -1.060224
  H       0.027069      0.675179      0.720406
  H      -0.448135     -1.019437      0.604538
  C      -3.132477      1.999524      1.687609
  C      -1.360860      1.523394     -1.373801
  C      -1.620850     -0.911145     -1.887698
  C      -3.954447      1.437495      0.808628
  H      -2.487794      1.404302      2.319289
  H      -3.084131      3.077111      1.792635
  O      -2.177843      1.833171     -2.216340
  O      -0.704328      2.441998     -0.633616
  H      -1.132378     -0.977553     -2.866670
  H      -1.530862     -1.886004     -1.407418
  H      -2.672504     -0.691369     -2.078463
  C      -4.859494      2.198132     -0.109831
  C      -4.025440     -0.049700      0.676070
  C      -1.067128      3.792198     -0.884030
  H      -4.852044      3.260655      0.132487
  H      -4.535869      2.074882     -1.145298
  H      -5.881478      1.824408     -0.041051
  O      -4.800416     -0.617721     -0.048727
  O      -3.140559     -0.701327      1.446560
  H      -2.119164      3.958482     -0.646671
  H      -0.435977      4.396667     -0.236720
  H      -0.897578      4.052777     -1.928893
  C      -3.188117     -2.121856      1.363156
  H      -2.363489     -2.484228      1.972374
  H      -4.135683     -2.500572      1.747358
  H      -3.076233     -2.446676      0.329096
61
Coordinates from ORCA-job orca E -1383.968631440456
  C       2.018779      0.612400     -1.192341
  H       2.059151      1.511139     -0.576137
  H       3.022533      0.370884     -1.541112
  C       1.407494     -0.534785     -0.393895
  C       2.172074     -0.826834      0.916939
  H       1.707402     -1.695214      1.389887
  H       1.994896      0.019865      1.583193
  C       3.692475     -1.090973      0.888516
  C       1.326454     -1.771186     -1.285769
  O       1.576478     -1.797018     -2.460338
  O       0.892290     -2.851331     -0.616384
  C       4.492143      0.163218      0.544130
  O       5.407350      0.209070     -0.233292
  O       4.096076      1.227000      1.258511
  C       4.089159     -2.208957     -0.072880
  H       5.151755     -2.431351      0.019278
  H       3.524156     -3.113055      0.162059
  H       3.908068     -1.942476     -1.113921
  C       4.111700     -1.485331      2.316916
  H       3.644878     -2.434599      2.586600
  H       5.194280     -1.610649      2.384031
  H       3.806941     -0.731779      3.043781
  C       0.762440     -4.042176     -1.389848
  H       0.403479     -4.803578     -0.702156
  H       0.051228     -3.894535     -2.202904
  H       1.725597     -4.331093     -1.810679
  C       4.806874      2.436701      1.006223
  H       4.671006      2.746120     -0.030515
  H       4.384749      3.175366      1.682758
  H       5.870961      2.304650      1.199875
  H       1.421676      0.831487     -2.076888
  C      -0.047313     -0.169072      0.041575
  C      -0.996986      0.157202     -1.058831
  H       0.027964      0.680004      0.720153
  H      -0.449953     -1.013937      0.606973
  C      -3.124752      1.996684      1.678721
  C      -1.361448      1.527170     -1.373544
  C      -1.626207     -0.908204     -1.882438
  C      -3.950305      1.431640      0.805066
  H      -2.478615      1.403688      2.311035
  H      -3.073889      3.074581      1.779028
  O      -2.182050      1.836423     -2.212809
  O      -0.700190      2.446253     -0.638433
  H      -1.143831     -0.973117     -2.864504
  H      -1.531256     -1.882858     -1.402848
  H      -2.679596     -0.690856     -2.066432
  C      -4.858452      2.188565     -0.113503
  C      -4.020993     -0.056024      0.677636
  C      -1.058744      3.796684     -0.893393
  H      -4.849303      3.252007      0.124637
  H      -4.537981      2.060647     -1.149379
  H      -5.880371      1.815747     -0.039288
  O      -4.793746     -0.626493     -0.047646
  O      -3.137990     -0.704839      1.452420
  H      -2.111093      3.966780     -0.660386
  H      -0.428237      4.401544     -0.245741
  H      -0.884041      4.054697     -1.938087
  C      -3.180965     -2.125670      1.370587
  H      -2.354924     -2.484853      1.979704
  H      -4.127248     -2.505305      1.757194
  H      -3.070376     -2.451729      0.336791
61
Coordinates from ORCA-job orca E -1383.968653055327
  C       2.018920      0.613440     -1.192011
  H       2.060948      1.512385     -0.576232
  H       3.022224      0.370135     -1.540833
  C       1.405761     -0.532341     -0.393106
  C       2.169313     -0.825467      0.917934
  H       1.704153     -1.694052      1.389991
  H       1.992243      0.020640      1.584946
  C       3.689469     -1.090212      0.888755
  C       1.321374     -1.768559     -1.284925
  O       1.568264     -1.794117     -2.460220
  O       0.887430     -2.848441     -0.615117
  C       4.490329      0.163900      0.547107
  O       5.406921      0.209839     -0.228746
  O       4.093592      1.227209      1.261585
  C       4.085219     -2.206725     -0.074717
  H       5.147598     -2.430226      0.016888
  H       3.519537     -3.110727      0.158794
  H       3.903755     -1.938465     -1.115264
  C       4.109174     -1.487502      2.316343
  H       3.642596     -2.437261      2.584583
  H       5.191804     -1.612930      2.382740
  H       3.805180     -0.734798      3.044413
  C       0.755267     -4.039049     -1.388997
  H       0.397454     -4.800432     -0.700742
  H       0.042457     -3.890370     -2.200410
  H       1.717640     -4.327688     -1.811737
  C       4.806384      2.436637      1.012263
  H       4.673752      2.746746     -0.024650
  H       4.382937      3.175005      1.688273
  H       5.869683      2.302866      1.208938
  H       1.421874      0.833408     -2.076333
  C      -0.048803     -0.163900      0.041667
  C      -0.998718      0.163073     -1.058363
  H       0.028212      0.685647      0.719504
  H      -0.452953     -1.007469      0.607952
  C      -3.116137      1.990374      1.669550
  C      -1.360417      1.533486     -1.374247
  C      -1.632619     -0.902075     -1.878802
  C      -3.946090      1.422757      0.801841
  H      -2.467471      1.399488      2.301281
  H      -3.063340      3.068475      1.766145
  O      -2.182728      1.843462     -2.211508
  O      -0.695201      2.452373     -0.642464
  H      -1.158278     -0.963444     -2.864916
  H      -1.532278     -1.877257     -1.401606
  H      -2.688137     -0.687226     -2.053788
  C      -4.858366      2.177395     -0.114765
  C      -4.016454     -0.065004      0.678211
  C      -1.048809      3.803392     -0.902206
  H      -4.845551      3.241428      0.120411
  H      -4.543159      2.045308     -1.151763
  H      -5.880485      1.806580     -0.034034
  O      -4.786763     -0.637234     -0.048380
  O      -3.136081     -0.711999      1.457190
  H      -2.101595      3.976539     -0.673689
  H      -0.418920      4.408102     -0.253822
  H      -0.869147      4.058132     -1.946851
  C      -3.173695     -2.132961      1.375571
  H      -2.345425     -2.488109      1.983970
  H      -4.118311     -2.514472      1.764506
  H      -3.063886     -2.459370      0.341793
61
Coordinates from ORCA-job orca E -1383.968674273480
  C       2.020107      0.616092     -1.191339
  H       2.063871      1.515950     -0.577054
  H       3.023159      0.369914     -1.538929
  C       1.403447     -0.527004     -0.391566
  C       2.164565     -0.821588      0.920162
  H       1.697064     -1.689122      1.391734
  H       1.989218      0.024825      1.587171
  C       3.683950     -1.089475      0.890608
  C       1.313295     -1.762998     -1.282921
  O       1.555462     -1.788870     -2.459202
  O       0.879408     -2.842202     -0.611846
  C       4.487965      0.162850      0.550251
  O       5.407663      0.206109     -0.222088
  O       4.090894      1.227709      1.262218
  C       4.077280     -2.206317     -0.073475
  H       5.139398     -2.431160      0.017149
  H       3.510561     -3.109605      0.160193
  H       3.894988     -1.937730     -1.113827
  C       4.103639     -1.488328      2.317943
  H       3.635273     -2.437034      2.586524
  H       5.186040     -1.616063      2.383503
  H       3.802101     -0.734503      3.045865
  C       0.742318     -4.032365     -1.385742
  H       0.385473     -4.793270     -0.696497
  H       0.027330     -3.882041     -2.194892
  H       1.702890     -4.322217     -1.811709
  C       4.807844      2.435151      1.014963
  H       4.681964      2.743980     -0.023155
  H       4.382452      3.175469      1.687549
  H       5.869724      2.298810      1.217458
  H       1.424182      0.835943     -2.076396
  C      -0.050818     -0.153737      0.041403
  C      -0.999845      0.175123     -1.058809
  H       0.028575      0.696194      0.718514
  H      -0.458172     -0.995600      0.607960
  C      -3.103649      1.976405      1.656569
  C      -1.355943      1.546435     -1.377055
  C      -1.640612     -0.888885     -1.875502
  C      -3.940588      1.405207      0.798203
  H      -2.449928      1.388555      2.285975
  H      -3.049303      3.054833      1.748254
  O      -2.177975      1.858503     -2.213629
  O      -0.686534      2.464442     -0.647628
  H      -1.180121     -0.942919     -2.868395
  H      -1.531294     -1.865521     -1.403558
  H      -2.699651     -0.678323     -2.035026
  C      -4.859502      2.157605     -0.113931
  C      -4.010301     -0.082438      0.679201
  C      -1.032970      3.816492     -0.913994
  H      -4.840005      3.222346      0.117431
  H      -4.554081      2.019838     -1.153170
  H      -5.882069      1.790526     -0.022684
  O      -4.777091     -0.656918     -0.049521
  O      -3.133429     -0.727182      1.463544
  H      -2.086667      3.992860     -0.692805
  H      -0.404496      4.420352     -0.263577
  H      -0.846238      4.066186     -1.958574
  C      -3.162429     -2.148207      1.380583
  H      -2.330254     -2.496857      1.987351
  H      -4.104196     -2.534465      1.771692
  H      -3.052285     -2.473420      0.346425
61
Coordinates from ORCA-job orca E -1383.968699631643
  C       2.020228      0.618275     -1.191538
  H       2.063844      1.519226     -0.578967
  H       3.023639      0.370850     -1.537356
  C       1.401758     -0.523173     -0.390879
  C       2.161732     -0.818035      0.921180
  H       1.692021     -1.683943      1.393489
  H       1.988721      0.029574      1.587223
  C       3.680530     -1.089334      0.891656
  C       1.308761     -1.759443     -1.281456
  O       1.548361     -1.786265     -2.458178
  O       0.875856     -2.838313     -0.608749
  C       4.487300      0.161013      0.550586
  O       5.408457      0.201578     -0.220078
  O       4.091711      1.227584      1.261171
  C       4.071622     -2.207611     -0.071726
  H       5.133736     -2.432914      0.017781
  H       3.504444     -3.110227      0.163221
  H       3.888490     -1.939874     -1.112195
  C       4.099651     -1.487954      2.319261
  H       3.627936     -2.434536      2.589467
  H       5.181607     -1.619419      2.384295
  H       3.801015     -0.732001      3.046193
  C       0.736668     -4.028721     -1.381459
  H       0.380548     -4.789103     -0.691264
  H       0.020631     -3.878930     -2.189830
  H       1.696173     -4.319741     -1.809157
  C       4.811906      2.432846      1.014344
  H       4.690361      2.740842     -0.024585
  H       4.386330      3.175289      1.684476
  H       5.873039      2.294758      1.219834
  H       1.425715      0.836309     -2.077965
  C      -0.052379     -0.147160      0.041538
  C      -1.000429      0.183289     -1.059038
  H       0.028254      0.702671      0.718597
  H      -0.461418     -0.988468      0.607627
  C      -3.100018      1.967323      1.652155
  C      -1.352209      1.555195     -1.379483
  C      -1.645011     -0.879287     -1.874649
  C      -3.938671      1.394024      0.796925
  H      -2.443247      1.381271      2.280063
  H      -3.047676      3.045880      1.742458
  O      -2.171077      1.868868     -2.218403
  O      -0.682374      2.472566     -0.649073
  H      -1.192955     -0.928170     -2.871538
  H      -1.530847     -1.857299     -1.406864
  H      -2.706113     -0.671203     -2.024641
  C      -4.860529      2.145740     -0.112932
  C      -4.006339     -0.093433      0.678529
  C      -1.024873      3.825247     -0.919201
  H      -4.836513      3.210959      0.115829
  H      -4.561373      2.004457     -1.153514
  H      -5.883645      1.781573     -0.015795
  O      -4.770289     -0.669057     -0.052400
  O      -3.131064     -0.736990      1.465512
  H      -2.079391      4.003081     -0.703020
  H      -0.397648      4.428345     -0.267017
  H      -0.834231      4.071569     -1.963845
  C      -3.156130     -2.158062      1.382044
  H      -2.321235     -2.503100      1.987211
  H      -4.096147     -2.547265      1.774332
  H      -3.045563     -2.482831      0.347701
61
Coordinates from ORCA-job orca E -1383.968725171472
  C       2.020961      0.622439     -1.191605
  H       2.064444      1.524666     -0.581017
  H       3.024880      0.373181     -1.534853
  C       1.399693     -0.516891     -0.390002
  C       2.158632     -0.812352      0.922370
  H       1.685284     -1.675243      1.396488
  H       1.989903      0.037558      1.586514
  C       3.676456     -1.089846      0.893516
  C       1.303702     -1.753701     -1.279380
  O       1.543432     -1.782971     -2.455854
  O       0.868724     -2.831079     -0.604863
  C       4.487620      0.156863      0.549388
  O       5.409193      0.192771     -0.220822
  O       4.096186      1.226487      1.258370
  C       4.063728     -2.211531     -0.067476
  H       5.125762     -2.437789      0.020655
  H       3.495470     -3.112662      0.170325
  H       3.879926     -1.945944     -1.108416
  C       4.093823     -1.486583      2.322108
  H       3.615754     -2.429062      2.595539
  H       5.174889     -1.624834      2.387064
  H       3.799632     -0.726802      3.046886
  C       0.726603     -4.021836     -1.375370
  H       0.367673     -4.780409     -0.684610
  H       0.011888     -3.872154     -2.185040
  H       1.685081     -4.317359     -1.802492
  C       4.820588      2.428096      1.009772
  H       4.702733      2.734671     -0.030083
  H       4.396775      3.174171      1.677016
  H       5.881204      2.287840      1.216930
  H       1.428788      0.838126     -2.080172
  C      -0.053916     -0.137374      0.042122
  C      -0.999841      0.194981     -1.059677
  H       0.027937      0.712230      0.719272
  H      -0.464874     -0.978326      0.607227
  C      -3.099753      1.955135      1.649874
  C      -1.345860      1.567407     -1.383973
  C      -1.648153     -0.865710     -1.874808
  C      -3.937601      1.378440      0.796090
  H      -2.439230      1.371828      2.276399
  H      -3.053558      3.033964      1.739248
  O      -2.157574      1.882741     -2.229049
  O      -0.678701      2.484013     -0.649412
  H      -1.206789     -0.907820     -2.876591
  H      -1.527591     -1.845694     -1.412886
  H      -2.711771     -0.661115     -2.012654
  C      -4.862065      2.128515     -0.112219
  C      -4.000826     -0.108958      0.677351
  C      -1.017312      3.837230     -0.923520
  H      -4.833285      3.194635      0.111714
  H      -4.570538      1.981977     -1.154127
  H      -5.885872      1.767917     -0.008085
  O      -4.760906     -0.686514     -0.056192
  O      -3.125927     -0.750132      1.466675
  H      -2.073196      4.016445     -0.715027
  H      -0.392899      4.439420     -0.268009
  H      -0.821181      4.079926     -1.967985
  C      -3.147177     -2.171390      1.383409
  H      -2.308921     -2.512476      1.986269
  H      -4.084872     -2.564960      1.776578
  H      -3.035526     -2.495815      0.349005
61
Coordinates from ORCA-job orca E -1383.968742372215
  C       2.020994      0.624046     -1.192183
  H       2.065234      1.526448     -0.581913
  H       3.024790      0.373318     -1.534645
  C       1.397897     -0.514116     -0.390253
  C       2.156806     -0.809787      0.922215
  H       1.681972     -1.671273      1.397418
  H       1.989727      0.041258      1.585355
  C       3.674262     -1.090062      0.894427
  C       1.301504     -1.751517     -1.278844
  O       1.541982     -1.782174     -2.455041
  O       0.865395     -2.828001     -0.603356
  C       4.487299      0.155005      0.548463
  O       5.408019      0.188992     -0.222777
  O       4.098512      1.225837      1.257275
  C       4.060053     -2.213575     -0.064975
  H       5.121926     -2.440723      0.023205
  H       3.490848     -3.113775      0.174091
  H       3.876735     -1.949034     -1.106256
  C       4.089900     -1.485590      2.323708
  H       3.608828     -2.426306      2.598129
  H       5.170510     -1.626765      2.389503
  H       3.796911     -0.724439      3.047535
  C       0.722574     -4.019288     -1.372392
  H       0.361407     -4.776626     -0.681386
  H       0.009234     -3.869926     -2.183392
  H       1.680932     -4.317472     -1.798006
  C       4.824103      2.425993      1.006689
  H       4.705716      2.731990     -0.033313
  H       4.402121      3.173509      1.673519
  H       5.884855      2.285082      1.212851
  H       1.429838      0.839737     -2.081472
  C      -0.054883     -0.132272      0.042055
  C      -0.999076      0.201415     -1.060825
  H       0.027996      0.717280      0.719130
  H      -0.467164     -0.972756      0.606849
  C      -3.100539      1.949140      1.650696
  C      -1.342011      1.574146     -1.386999
  C      -1.649385     -0.858244     -1.875725
  C      -3.937052      1.370817      0.796580
  H      -2.438955      1.367053      2.277203
  H      -3.057865      3.028199      1.739362
  O      -2.149294      1.890113     -2.236118
  O      -0.676796      2.489931     -0.649514
  H      -1.213717     -0.897385     -2.880035
  H      -1.525375     -1.839222     -1.416892
  H      -2.714169     -0.655082     -2.007093
  C      -4.861894      2.119438     -0.112164
  C      -3.998252     -0.116831      0.677830
  C      -1.012619      3.843596     -0.924686
  H      -4.831093      3.186374      0.107453
  H      -4.573873      1.968788     -1.154380
  H      -5.886198      1.761089     -0.004230
  O      -4.757214     -0.695501     -0.055980
  O      -3.122241     -0.756330      1.467285
  H      -2.069143      4.024666     -0.721229
  H      -0.390147      4.444794     -0.266460
  H      -0.812107      4.085795     -1.968465
  C      -3.142729     -2.177745      1.384766
  H      -2.303316     -2.518044      1.986519
  H      -4.079346     -2.573318      1.778351
  H      -3.030781     -2.502333      0.350439
61
Coordinates from ORCA-job orca E -1383.968755640291
  C       2.021728      0.627913     -1.192242
  H       2.068927      1.529435     -0.580810
  H       3.024587      0.374350     -1.535260
  C       1.395331     -0.508961     -0.390811
  C       2.154182     -0.806492      0.921656
  H       1.677413     -1.666727      1.397216
  H       1.988763      0.045101      1.584582
  C       3.671124     -1.090624      0.895324
  C       1.297837     -1.746415     -1.279374
  O       1.540678     -1.778033     -2.454996
  O       0.858023     -2.821596     -0.604167
  C       4.487146      0.152590      0.549285
  O       5.406128      0.185042     -0.224082
  O       4.102628      1.223603      1.260112
  C       4.054812     -2.215216     -0.063633
  H       5.116039     -2.445212      0.025302
  H       3.483103     -3.113908      0.175238
  H       3.873188     -1.950132     -1.105039
  C       4.083958     -1.487142      2.324937
  H       3.599845     -2.426679      2.598231
  H       5.164061     -1.631271      2.392235
  H       3.791645     -0.726036      3.049069
  C       0.713306     -4.012752     -1.372833
  H       0.347212     -4.768477     -0.682583
  H       0.002810     -3.861441     -2.185985
  H       1.671737     -4.315143     -1.795323
  C       4.830384      2.422299      1.009037
  H       4.710371      2.729493     -0.030419
  H       4.411415      3.170236      1.677342
  H       5.891212      2.279193      1.213294
  H       1.431174      0.846590     -2.081243
  C      -0.056010     -0.123938      0.041722
  C      -0.998316      0.209501     -1.062836
  H       0.028407      0.726605      0.717355
  H      -0.469441     -0.962806      0.608055
  C      -3.101331      1.942692      1.650757
  C      -1.337936      1.582058     -1.393294
  C      -1.651187     -0.850590     -1.875150
  C      -3.935631      1.360313      0.797119
  H      -2.438632      1.363688      2.278863
  H      -3.063212      3.022213      1.736156
  O      -2.139840      1.896878     -2.248015
  O      -0.675735      2.498020     -0.653592
  H      -1.224017     -0.887212     -2.883086
  H      -1.521149     -1.832023     -1.419037
  H      -2.717665     -0.650209     -1.997140
  C      -4.861586      2.104030     -0.113970
  C      -3.993588     -0.128090      0.681485
  C      -1.007137      3.851741     -0.932441
  H      -4.828596      3.172802      0.096126
  H      -4.578460      1.944400     -1.156084
  H      -5.886369      1.748907      0.000948
  O      -4.751875     -0.710111     -0.050266
  O      -3.114389     -0.763180      1.470940
  H      -2.064487      4.036316     -0.736998
  H      -0.388034      4.452870     -0.270938
  H      -0.798789      4.092683     -1.975038
  C      -3.132974     -2.184904      1.392254
  H      -2.292015     -2.523220      1.993013
  H      -4.067685     -2.582537      1.788191
  H      -3.021440     -2.512146      0.358741
61
Coordinates from ORCA-job orca E -1383.968766253845
  C       2.021092      0.628348     -1.192843
  H       2.071026      1.529084     -0.580360
  H       3.022932      0.372614     -1.537030
  C       1.392686     -0.507586     -0.391565
  C       2.151617     -0.805839      0.920941
  H       1.674713     -1.666132      1.396338
  H       1.985821      0.045528      1.584133
  C       3.668530     -1.090314      0.895394
  C       1.294744     -1.745261     -1.279900
  O       1.536644     -1.776812     -2.455747
  O       0.855533     -2.820331     -0.604308
  C       4.484710      0.152968      0.549747
  O       5.402287      0.185990     -0.225348
  O       4.101542      1.223143      1.262298
  C       4.052137     -2.214860     -0.063627
  H       5.113024     -2.446198      0.026146
  H       3.479397     -3.113063      0.174753
  H       3.871449     -1.949285     -1.105038
  C       4.080245     -1.487375      2.325101
  H       3.596443     -2.427460      2.597172
  H       5.160391     -1.631014      2.393409
  H       3.786970     -0.727101      3.049709
  C       0.710887     -4.011851     -1.372745
  H       0.344311     -4.767208     -0.682327
  H       0.000636     -3.860421     -2.186057
  H       1.669588     -4.314501     -1.794411
  C       4.829001      2.422244      1.011028
  H       4.706468      2.730334     -0.027836
  H       4.411342      3.169316      1.681131
  H       5.890097      2.278619      1.213397
  H       1.430275      0.849959     -2.080954
  C      -0.057749     -0.120193      0.041054
  C      -0.998812      0.214064     -1.064409
  H       0.028244      0.730872      0.715898
  H      -0.472342     -0.957686      0.608582
  C      -3.100290      1.938723      1.652408
  C      -1.335185      1.586997     -1.396745
  C      -1.654359     -0.845440     -1.875357
  C      -3.932890      1.354909      0.797965
  H      -2.438530      1.360775      2.282450
  H      -3.063314      3.018437      1.736152
  O      -2.133618      1.902074     -2.254701
  O      -0.673894      2.502027     -0.655496
  H      -1.232681     -0.880491     -2.885612
  H      -1.521225     -1.827380     -1.421370
  H      -2.721650     -0.645661     -1.991195
  C      -4.858512      2.095982     -0.115467
  C      -3.990239     -0.133905      0.684126
  C      -0.999286      3.856346     -0.936764
  H      -4.822736      3.166100      0.087150
  H      -4.578414      1.928784     -1.157195
  H      -5.884098      1.744624      0.004387
  O      -4.749495     -0.717244     -0.045502
  O      -3.108791     -0.767284      1.472505
  H      -2.056927      4.045454     -0.747633
  H      -0.382185      4.456353     -0.272267
  H      -0.783434      4.097261     -1.977911
  C      -3.127483     -2.189053      1.396567
  H      -2.286205     -2.527356      1.996972
  H      -4.061400     -2.586250      1.794947
  H      -3.017388     -2.519035      0.363756
61
Coordinates from ORCA-job orca E -1383.968780860672
  C       2.022113      0.631033     -1.192981
  H       2.075573      1.530767     -0.579233
  H       3.022752      0.372305     -1.538289
  C       1.390508     -0.503635     -0.392367
  C       2.148029     -0.803534      0.920751
  H       1.669765     -1.663581      1.395254
  H       1.982198      0.047454      1.584451
  C       3.664592     -1.089898      0.896405
  C       1.290377     -1.740951     -1.280869
  O       1.532412     -1.772338     -2.456759
  O       0.848535     -2.815181     -0.605988
  C       4.482698      0.152534      0.552360
  O       5.399553      0.185229     -0.223706
  O       4.101515      1.222094      1.266501
  C       4.047262     -2.214375     -0.063045
  H       5.107540     -2.448155      0.027660
  H       3.472668     -3.111599      0.174543
  H       3.867559     -1.947953     -1.104419
  C       4.074460     -1.488731      2.326133
  H       3.590660     -2.429327      2.596381
  H       5.154571     -1.632346      2.395715
  H       3.780704     -0.729233      3.051327
  C       0.701540     -4.006184     -1.375385
  H       0.332284     -4.760718     -0.685532
  H      -0.007498     -3.852026     -2.189150
  H       1.660249     -4.310615     -1.795661
  C       4.830754      2.420783      1.016210
  H       4.707048      2.730175     -0.022056
  H       4.414808      3.167171      1.688114
  H       5.891623      2.274597      1.217619
  H       1.431262      0.856603     -2.080050
  C      -0.059355     -0.113578      0.039250
  C      -0.999667      0.220008     -1.067179
  H       0.028066      0.738756      0.712323
  H      -0.474878     -0.948960      0.609255
  C      -3.096737      1.932566      1.652226
  C      -1.333235      1.592978     -1.402494
  C      -1.658069     -0.839954     -1.875226
  C      -3.928318      1.345790      0.798821
  H      -2.435490      1.356844      2.284826
  H      -3.060203      3.012567      1.732865
  O      -2.128529      1.907604     -2.263554
  O      -0.672906      2.507942     -0.660845
  H      -1.243813     -0.872991     -2.888494
  H      -1.519950     -1.822035     -1.423178
  H      -2.726580     -0.641951     -1.983028
  C      -4.855026      2.082181     -0.117267
  C      -3.985038     -0.143435      0.689551
  C      -0.991353      3.862467     -0.946903
  H      -4.815472      3.154030      0.074940
  H      -4.579612      1.904174     -1.158406
  H      -5.881327      1.735532      0.010198
  O      -4.746950     -0.729516     -0.035052
  O      -3.099562     -0.773893      1.475715
  H      -2.049412      4.056364     -0.765581
  H      -0.377053      4.462136     -0.279391
  H      -0.766261      4.102422     -1.986369
  C      -3.116806     -2.195586      1.404016
  H      -2.274842     -2.532384      2.004309
  H      -4.049327     -2.592351      1.806272
  H      -3.008763     -2.529753      0.372368
61
Coordinates from ORCA-job orca E -1383.968799666545
  C       2.021863      0.632436     -1.194584
  H       2.077528      1.532244     -0.581087
  H       3.021838      0.371261     -1.539924
  C       1.387664     -0.500400     -0.393600
  C       2.142998     -0.800255      0.920694
  H       1.663117     -1.659490      1.395047
  H       1.977165      0.051175      1.583844
  C       3.659175     -1.088460      0.897863
  C       1.285338     -1.738147     -1.281197
  O       1.525476     -1.769939     -2.457541
  O       0.843353     -2.811743     -0.605586
  C       4.479387      0.152749      0.554650
  O       5.396944      0.184042     -0.220723
  O       4.099074      1.222728      1.268400
  C       4.041189     -2.213765     -0.060914
  H       5.100891     -2.449524      0.031161
  H       3.464854     -3.109953      0.176419
  H       3.862684     -1.947521     -1.102554
  C       4.067346     -1.487569      2.328099
  H       3.583584     -2.428259      2.597912
  H       5.147425     -1.631096      2.398883
  H       3.773387     -0.727621      3.052737
  C       0.695488     -4.003252     -1.374649
  H       0.325713     -4.756979     -0.684219
  H      -0.013274     -3.848602     -2.188491
  H       1.654368     -4.307939     -1.794275
  C       4.830942      2.420455      1.019268
  H       4.708541      2.730113     -0.019025
  H       4.415556      3.167058      1.691254
  H       5.891183      2.271586      1.221809
  H       1.431267      0.859675     -2.081393
  C      -0.062076     -0.107149      0.036034
  C      -1.001195      0.227451     -1.071196
  H       0.026850      0.745942      0.708001
  H      -0.479628     -0.940504      0.607528
  C      -3.088171      1.923003      1.651219
  C      -1.330295      1.601093     -1.408431
  C      -1.663363     -0.831463     -1.877531
  C      -3.921748      1.335037      0.800623
  H      -2.427147      1.348019      2.284752
  H      -3.049275      3.003125      1.729700
  O      -2.122463      1.917382     -2.271746
  O      -0.669540      2.514739     -0.665821
  H      -1.256947     -0.860878     -2.893962
  H      -1.520949     -1.814284     -1.428688
  H      -2.732970     -0.634440     -1.976829
  C      -4.849928      2.069086     -0.115927
  C      -3.981007     -0.154236      0.695823
  C      -0.980481      3.869921     -0.955598
  H      -4.803987      3.142208      0.067191
  H      -4.580971      1.880653     -1.156855
  H      -5.877285      1.728885      0.020085
  O      -4.748357     -0.741433     -0.022199
  O      -3.091150     -0.783970      1.477473
  H      -2.038874      4.068252     -0.781518
  H      -0.368437      4.468143     -0.284619
  H      -0.746705      4.109341     -1.993293
  C      -3.107797     -2.205369      1.407794
  H      -2.265338     -2.541556      2.007770
  H      -4.039291     -2.601639      1.813093
  H      -3.001890     -2.542028      0.376746
61
Coordinates from ORCA-job orca E -1383.968809640507
  C       2.022072      0.632694     -1.196110
  H       2.077903      1.533252     -0.583764
  H       3.022205      0.370450     -1.540261
  C       1.386295     -0.498781     -0.394641
  C       2.139221     -0.798119      0.920832
  H       1.658256     -1.656908      1.394885
  H       1.973132      0.053672      1.583378
  C       3.655186     -1.086837      0.899164
  C       1.282274     -1.736818     -1.281396
  O       1.521756     -1.769251     -2.457903
  O       0.839487     -2.809765     -0.605307
  C       4.476400      0.153947      0.557096
  O       5.396011      0.184422     -0.215874
  O       4.094849      1.224417      1.269463
  C       4.037553     -2.212259     -0.059337
  H       5.097103     -2.448251      0.033559
  H       3.460811     -3.108300      0.177540
  H       3.859634     -1.946134     -1.101134
  C       4.062438     -1.486123      2.329754
  H       3.578945     -2.426921      2.599486
  H       5.142539     -1.629326      2.401196
  H       3.768235     -0.725698      3.053787
  C       0.690573     -4.001519     -1.374111
  H       0.320756     -4.754696     -0.683151
  H      -0.018251     -3.846556     -2.187803
  H       1.649296     -4.306400     -1.793921
  C       4.828599      2.421552      1.022343
  H       4.709403      2.731236     -0.016309
  H       4.412012      3.168378      1.693292
  H       5.888114      2.271281      1.227591
  H       1.432273      0.859301     -2.083583
  C      -0.064034     -0.104026      0.032868
  C      -1.002666      0.230834     -1.074596
  H       0.025109      0.749608      0.704146
  H      -0.482594     -0.936141      0.605309
  C      -3.078278      1.915811      1.650838
  C      -1.328821      1.604795     -1.413286
  C      -1.666828     -0.827167     -1.880468
  C      -3.915218      1.328652      0.802899
  H      -2.417567      1.339761      2.283840
  H      -3.035181      2.995834      1.729319
  O      -2.119956      1.922110     -2.277105
  O      -0.666654      2.517845     -0.671045
  H      -1.263209     -0.854510     -2.898001
  H      -1.523626     -1.810493     -1.433090
  H      -2.736710     -0.629759     -1.976771
  C      -4.844335      2.063108     -0.112778
  C      -3.978441     -0.160464      0.701103
  C      -0.974226      3.873400     -0.962385
  H      -4.791914      3.136678      0.065326
  H      -4.580828      1.868266     -1.153883
  H      -5.872680      1.728546      0.029375
  O      -4.752561     -0.747385     -0.010061
  O      -3.084284     -0.791112      1.476980
  H      -2.032677      4.073510     -0.790469
  H      -0.362562      4.470588     -0.290107
  H      -0.737443      4.112503     -1.999456
  C      -3.102501     -2.212240      1.408525
  H      -2.260042     -2.548747      2.008332
  H      -4.033879     -2.606684      1.815972
  H      -2.998824     -2.550722      0.377808
61
Coordinates from ORCA-job orca E -1383.968830590994
  C       2.021664      0.633974     -1.196571
  H       2.075331      1.535752     -0.585954
  H       3.022909      0.372225     -1.538028
  C       1.385055     -0.496850     -0.395103
  C       2.135122     -0.795711      0.921673
  H       1.652753     -1.653859      1.395357
  H       1.969176      0.056641      1.583451
  C       3.650858     -1.085299      0.901278
  C       1.279987     -1.734867     -1.281547
  O       1.518807     -1.767598     -2.458184
  O       0.836905     -2.807665     -0.605225
  C       4.473457      0.154642      0.559773
  O       5.396350      0.183298     -0.209261
  O       4.089922      1.226639      1.269030
  C       4.033622     -2.211384     -0.056295
  H       5.093275     -2.446572      0.037008
  H       3.457168     -3.107497      0.180871
  H       3.855839     -1.946238     -1.098392
  C       4.057372     -1.483866      2.332428
  H       3.573222     -2.424005      2.603075
  H       5.137362     -1.627653      2.404202
  H       3.763547     -0.722094      3.055212
  C       0.686486     -3.999127     -1.374109
  H       0.318257     -4.752514     -0.682580
  H      -0.023820     -3.844063     -2.186499
  H       1.644298     -4.303618     -1.796290
  C       4.826212      2.422432      1.023781
  H       4.712245      2.731396     -0.015697
  H       4.407835      3.170529      1.692156
  H       5.884783      2.270952      1.233083
  H       1.433529      0.857877     -2.085797
  C      -0.066396     -0.101683      0.029897
  C      -1.004777      0.233096     -1.077556
  H       0.021933      0.752289      0.700872
  H      -0.485449     -0.933193      0.602700
  C      -3.064538      1.907773      1.649317
  C      -1.328973      1.607193     -1.417513
  C      -1.669988     -0.824059     -1.883766
  C      -3.906652      1.322812      0.805086
  H      -2.404092      1.329265      2.280486
  H      -3.015040      2.987433      1.728797
  O      -2.121216      1.925186     -2.279924
  O      -0.663811      2.520328     -0.677463
  H      -1.265846     -0.849832     -2.901109
  H      -1.528254     -1.807837     -1.437006
  H      -2.739690     -0.625623     -1.980771
  C      -4.836557      2.059625     -0.108270
  C      -3.975642     -0.166012      0.706310
  C      -0.971211      3.876006     -0.969256
  H      -4.775856      3.133231      0.066611
  H      -4.579363      1.859919     -1.150038
  H      -5.866023      1.731443      0.040128
  O      -4.758511     -0.751528      0.003499
  O      -3.076344     -0.798718      1.474454
  H      -2.029639      4.076015     -0.796776
  H      -0.358975      4.472586     -0.297003
  H      -0.735096      4.114487     -2.006581
  C      -3.098263     -2.219729      1.406998
  H      -2.255988     -2.557306      2.006387
  H      -4.030214     -2.611115      1.816115
  H      -2.997409     -2.559590      0.376434
61
Coordinates from ORCA-job orca E -1383.968854146549
  C       2.020350      0.635566     -1.197762
  H       2.072128      1.538804     -0.589293
  H       3.022699      0.373555     -1.536003
  C       1.381946     -0.493791     -0.395754
  C       2.129443     -0.792148      0.922265
  H       1.645389     -1.649225      1.396099
  H       1.964260      0.061174      1.582873
  C       3.644835     -1.083385      0.903372
  C       1.275657     -1.732351     -1.281200
  O       1.513361     -1.766271     -2.457981
  O       0.832611     -2.804574     -0.603615
  C       4.469316      0.155557      0.562854
  O       5.395385      0.182462     -0.202332
  O       4.084162      1.228982      1.269445
  C       4.027667     -2.209945     -0.053675
  H       5.087459     -2.444378      0.039724
  H       3.451375     -3.106141      0.183476
  H       3.850142     -1.945241     -1.095971
  C       4.049904     -1.481913      2.335043
  H       3.563704     -2.420850      2.606133
  H       5.129559     -1.627643      2.407379
  H       3.756805     -0.719008      3.056944
  C       0.681510     -3.996555     -1.371130
  H       0.314887     -4.749654     -0.678445
  H      -0.030132     -3.842907     -2.182702
  H       1.638473     -4.301166     -1.795189
  C       4.823209      2.423169      1.026619
  H       4.714729      2.732114     -0.013508
  H       4.403370      3.172546      1.692621
  H       5.880854      2.270474      1.239917
  H       1.434475      0.856392     -2.089208
  C      -0.070118     -0.097013      0.026743
  C      -1.007470      0.238350     -1.081089
  H       0.017906      0.757270      0.697382
  H      -0.490439     -0.927841      0.599524
  C      -3.045955      1.896189      1.646706
  C      -1.328741      1.612748     -1.422866
  C      -1.674484     -0.817719     -1.887474
  C      -3.894133      1.313469      0.807264
  H      -2.386002      1.315107      2.276140
  H      -2.989442      2.975447      1.725790
  O      -2.121806      1.931827     -2.284016
  O      -0.660095      2.525882     -0.685296
  H      -1.270305     -0.841569     -2.904841
  H      -1.534339     -1.802239     -1.441916
  H      -2.743949     -0.618282     -1.984765
  C      -4.824593      2.052945     -0.103365
  C      -3.970326     -0.175153      0.712675
  C      -0.967141      3.881701     -0.978229
  H      -4.752230      3.126860      0.065496
  H      -4.576632      1.845313     -1.145814
  H      -5.855710      1.734456      0.054412
  O      -4.764113     -0.758865      0.020717
  O      -3.064199     -0.810018      1.470929
  H      -2.025784      4.081879     -0.807170
  H      -0.355177      4.477873     -0.305434
  H      -0.730611      4.118706     -2.015778
  C      -3.092104     -2.231138      1.405644
  H      -2.249764     -2.570730      2.003729
  H      -4.025147     -2.617938      1.816539
  H      -2.994981     -2.572824      0.375267
61
Coordinates from ORCA-job orca E -1383.968873386252
  C       2.018676      0.636880     -1.198760
  H       2.068880      1.541176     -0.591816
  H       3.021892      0.374661     -1.534364
  C       1.378759     -0.491330     -0.396205
  C       2.125049     -0.789205      0.922604
  H       1.639982     -1.645408      1.396935
  H       1.960375      0.065004      1.582197
  C       3.640293     -1.081699      0.905185
  C       1.272490     -1.730615     -1.280684
  O       1.511700     -1.766272     -2.457044
  O       0.827550     -2.801768     -0.602318
  C       4.466074      0.156402      0.564492
  O       5.393889      0.181796     -0.198563
  O       4.080180      1.231184      1.268927
  C       4.023235     -2.209089     -0.050835
  H       5.083171     -2.442908      0.042721
  H       3.447050     -3.105186      0.186779
  H       3.846174     -1.945149     -1.093428
  C       4.043849     -1.479441      2.337458
  H       3.555012     -2.416869      2.609207
  H       5.123082     -1.627602      2.410467
  H       3.751518     -0.715438      3.058545
  C       0.676378     -3.994317     -1.368250
  H       0.309255     -4.746764     -0.675069
  H      -0.034995     -3.841872     -2.180373
  H       1.633008     -4.300314     -1.792181
  C       4.820792      2.424061      1.026759
  H       4.715468      2.732693     -0.013850
  H       4.400439      3.174808      1.690942
  H       5.877991      2.271055      1.242287
  H       1.434835      0.855329     -2.092161
  C      -0.073356     -0.093487      0.024902
  C      -1.009407      0.242350     -1.083575
  H       0.014456      0.760861      0.695434
  H      -0.494744     -0.924134      0.597016
  C      -3.030864      1.886472      1.647268
  C      -1.329339      1.616816     -1.426271
  C      -1.676417     -0.812982     -1.891093
  C      -3.882162      1.306247      0.809214
  H      -2.372967      1.302846      2.276542
  H      -2.969258      2.965428      1.725814
  O      -2.122899      1.936164     -2.286812
  O      -0.658845      2.530120     -0.690189
  H      -1.268422     -0.837006     -2.906999
  H      -1.539999     -1.798048     -1.445486
  H      -2.745087     -0.611794     -1.992764
  C      -4.811165      2.048833     -0.100374
  C      -3.964538     -0.182352      0.716933
  C      -0.967098      3.885946     -0.983183
  H      -4.727826      3.122858      0.062628
  H      -4.570930      1.834252     -1.143216
  H      -5.844117      1.740155      0.064935
  O      -4.768567     -0.763731      0.035010
  O      -3.051575     -0.819592      1.465182
  H      -2.026130      4.085467     -0.813232
  H      -0.355851      4.482302     -0.309977
  H      -0.730832      4.121913     -2.021031
  C      -3.088164     -2.241020      1.403279
  H      -2.246312     -2.584161      1.999941
  H      -4.023376     -2.621202      1.815189
  H      -2.994612     -2.584987      0.373210
61
Coordinates from ORCA-job orca E -1383.968895587708
  C       2.017503      0.637797     -1.199456
  H       2.067412      1.542671     -0.593326
  H       3.020956      0.374658     -1.533550
  C       1.375974     -0.489073     -0.396074
  C       2.122136     -0.786053      0.923316
  H       1.636239     -1.641061      1.398982
  H       1.957963      0.069371      1.581517
  C       3.637150     -1.080264      0.907629
  C       1.270553     -1.729620     -1.279106
  O       1.512361     -1.767633     -2.454793
  O       0.822498     -2.799046     -0.599878
  C       4.464288      0.156363      0.564453
  O       5.392505      0.179206     -0.198183
  O       4.078536      1.233347      1.265647
  C       4.019498     -2.210106     -0.045724
  H       5.079226     -2.444633      0.048692
  H       3.442331     -3.105140      0.193532
  H       3.843576     -1.948050     -1.088975
  C       4.038934     -1.475305      2.341015
  H       3.547137     -2.410789      2.614401
  H       5.117678     -1.626139      2.415075
  H       3.747430     -0.709610      3.060642
  C       0.670242     -3.992218     -1.363964
  H       0.301038     -4.743347     -0.670388
  H      -0.040258     -3.840131     -2.176988
  H       1.626452     -4.301136     -1.786768
  C       4.819252      2.425147      1.020151
  H       4.714152      2.731200     -0.021273
  H       4.399211      3.178178      1.681997
  H       5.876510      2.273159      1.236263
  H       1.435064      0.855308     -2.094024
  C      -0.075577     -0.089966      0.023961
  C      -1.009347      0.247042     -1.086107
  H       0.012163      0.763970      0.694962
  H      -0.499019     -0.920922      0.594126
  C      -3.017697      1.876084      1.649189
  C      -1.329794      1.621640     -1.427806
  C      -1.674227     -0.807869     -1.896014
  C      -3.870996      1.299202      0.810784
  H      -2.362388      1.289799      2.278635
  H      -2.952451      2.954912      1.726666
  O      -2.123764      1.941203     -2.287957
  O      -0.659510      2.534714     -0.691425
  H      -1.259310     -0.833830     -2.909189
  H      -1.542809     -1.793201     -1.449379
  H      -2.741724     -0.604573     -2.005514
  C      -4.797531      2.045992     -0.097584
  C      -3.959819     -0.189317      0.718803
  C      -0.970748      3.890516     -0.982462
  H      -4.704257      3.119800      0.061229
  H      -4.564048      1.826735     -1.140950
  H      -5.832328      1.746782      0.073767
  O      -4.773059     -0.767255      0.045170
  O      -3.041119     -0.829802      1.457404
  H      -2.030299      4.087666     -0.812914
  H      -0.360776      4.487329     -0.308601
  H      -0.735404      4.127000     -2.020408
  C      -3.087557     -2.251545      1.398044
  H      -2.246990     -2.599551      1.993612
  H      -4.025667     -2.625123      1.808992
  H      -2.995845     -2.596143      0.368024
61
Coordinates from ORCA-job orca E -1383.968914138859
  C       2.017720      0.639492     -1.200479
  H       2.069983      1.544123     -0.594092
  H       3.020386      0.373491     -1.534519
  C       1.373090     -0.485299     -0.396460
  C       2.118984     -0.782141      0.923518
  H       1.631711     -1.635790      1.400293
  H       1.955344      0.074264      1.580646
  C       3.633517     -1.079057      0.909695
  C       1.267489     -1.727143     -1.277859
  O       1.513023     -1.767821     -2.452680
  O       0.814724     -2.794172     -0.598083
  C       4.462933      0.155531      0.564651
  O       5.390049      0.175723     -0.199470
  O       4.079977      1.233834      1.265028
  C       4.014297     -2.211310     -0.041340
  H       5.073244     -2.448830      0.054709
  H       3.434449     -3.104384      0.198905
  H       3.840332     -1.950321     -1.085141
  C       4.032941     -1.472435      2.344014
  H       3.538535     -2.406373      2.618164
  H       5.111245     -1.625725      2.419543
  H       3.742264     -0.705471      3.062619
  C       0.661507     -3.988303     -1.360439
  H       0.287542     -4.737152     -0.666886
  H      -0.046012     -3.835499     -2.175927
  H       1.618209     -4.301196     -1.779167
  C       4.821842      2.424401      1.016424
  H       4.715042      2.728767     -0.025294
  H       4.403769      3.179029      1.677737
  H       5.879124      2.271509      1.231657
  H       1.435996      0.859086     -2.095039
  C      -0.077248     -0.083012      0.022544
  C      -1.008508      0.254658     -1.089681
  H       0.011645      0.771097      0.693147
  H      -0.503668     -0.913233      0.591627
  C      -3.006222      1.864878      1.648868
  C      -1.329683      1.629234     -1.430930
  C      -1.671790     -0.801111     -1.899729
  C      -3.861591      1.289106      0.811921
  H      -2.351796      1.278507      2.279058
  H      -2.939763      2.943876      1.721985
  O      -2.123322      1.948589     -2.291669
  O      -0.661004      2.542251     -0.693608
  H      -1.254257     -0.829483     -2.911841
  H      -1.541680     -1.786085     -1.451894
  H      -2.738809     -0.597641     -2.012617
  C      -4.787319      2.037602     -0.095373
  C      -3.955182     -0.199339      0.721544
  C      -0.973081      3.897949     -0.984519
  H      -4.686052      3.111735      0.057310
  H      -4.560933      1.811770     -1.138883
  H      -5.823442      1.747183      0.083323
  O      -4.774302     -0.775476      0.053757
  O      -3.032722     -0.841369      1.454063
  H      -2.033344      4.093511     -0.818194
  H      -0.365606      4.495634     -0.309198
  H      -0.735300      4.134922     -2.021821
  C      -3.084522     -2.263308      1.397269
  H      -2.244570     -2.613854      1.992207
  H      -4.024635     -2.632666      1.807140
  H      -2.992896     -2.608411      0.367364
61
Coordinates from ORCA-job orca E -1383.968920733689
  C       2.016978      0.637431     -1.203038
  H       2.069920      1.542394     -0.597101
  H       3.019156      0.370760     -1.537834
  C       1.372739     -0.486351     -0.397167
  C       2.119555     -0.780119      0.923366
  H       1.632321     -1.632509      1.402547
  H       1.955428      0.077860      1.578373
  C       3.634079     -1.077425      0.911030
  C       1.269768     -1.730486     -1.275809
  O       1.518993     -1.774152     -2.449782
  O       0.815362     -2.795766     -0.594569
  C       4.463740      0.155492      0.560512
  O       5.388834      0.172604     -0.206225
  O       4.083094      1.236044      1.258311
  C       4.014416     -2.214049     -0.034935
  H       5.072725     -2.453478      0.063575
  H       3.432676     -3.105097      0.208429
  H       3.842186     -1.956887     -1.079916
  C       4.032724     -1.464864      2.347062
  H       3.537819     -2.397510      2.624781
  H       5.110939     -1.618358      2.423736
  H       3.742189     -0.695119      3.062739
  C       0.664943     -3.992191     -1.354102
  H       0.288441     -4.739100     -0.659790
  H      -0.039861     -3.841512     -2.172304
  H       1.623285     -4.306269     -1.768128
  C       4.824096      2.425989      1.002843
  H       4.713744      2.725812     -0.039779
  H       4.407565      3.183045      1.662370
  H       5.881847      2.274068      1.216293
  H       1.434516      0.857272     -2.097089
  C      -0.077152     -0.083632      0.021492
  C      -1.006483      0.255797     -1.092352
  H       0.011639      0.769400      0.693397
  H      -0.506171     -0.914447      0.587662
  C      -3.003411      1.858725      1.654975
  C      -1.330926      1.630634     -1.428586
  C      -1.665107     -0.799585     -1.906607
  C      -3.859316      1.289002      0.813973
  H      -2.351564      1.268638      2.284221
  H      -2.935223      2.937650      1.729658
  O      -2.125528      1.950462     -2.288405
  O      -0.664477      2.542202     -0.688023
  H      -1.236688     -0.833294     -2.914150
  H      -1.541890     -1.784057     -1.455493
  H      -2.730424     -0.593048     -2.031578
  C      -4.781476      2.044748     -0.091189
  C      -3.957940     -0.198850      0.717218
  C      -0.980745      3.898421     -0.971834
  H      -4.676094      3.117682      0.065472
  H      -4.556677      1.823217     -1.135907
  H      -5.818914      1.758456      0.086682
  O      -4.779675     -0.769379      0.047961
  O      -3.036368     -0.846543      1.446002
  H      -2.041055      4.090293     -0.800878
  H      -0.372655      4.495162     -0.296243
  H      -0.746774      4.140252     -2.008886
  C      -3.095033     -2.268307      1.387105
  H      -2.257686     -2.623557      1.983075
  H      -4.037506     -2.634367      1.794256
  H      -3.001248     -2.610859      0.356488
61
Coordinates from ORCA-job orca E -1383.968928587672
  C       2.017299      0.638420     -1.204542
  H       2.072895      1.543425     -0.598785
  H       3.018438      0.369196     -1.540254
  C       1.371170     -0.483485     -0.397689
  C       2.116813     -0.776400      0.923778
  H       1.627802     -1.627231      1.403980
  H       1.953273      0.082739      1.577430
  C       3.630839     -1.076140      0.912972
  C       1.266883     -1.728548     -1.274690
  O       1.517772     -1.773937     -2.448315
  O       0.809727     -2.792148     -0.592935
  C       4.462635      0.154537      0.559755
  O       5.386928      0.168450     -0.208099
  O       4.084728      1.236789      1.256042
  C       4.009592     -2.216051     -0.029688
  H       5.066954     -2.458584      0.071146
  H       3.425061     -3.104861      0.215325
  H       3.839138     -1.961137     -1.075494
  C       4.028037     -1.460600      2.350271
  H       3.532750     -2.392403      2.629979
  H       5.106155     -1.614482      2.428142
  H       3.738098     -0.688645      3.063786
  C       0.658385     -3.989392     -1.351670
  H       0.278818     -4.734465     -0.657083
  H      -0.044240     -3.837671     -2.171453
  H       1.617374     -4.305380     -1.762634
  C       4.827411      2.425458      0.997021
  H       4.716201      2.722267     -0.046302
  H       4.412081      3.184326      1.655177
  H       5.884868      2.271957      1.210516
  H       1.434347      0.860210     -2.097803
  C      -0.078216     -0.077868      0.019890
  C      -1.006102      0.262638     -1.094926
  H       0.012040      0.775071      0.691634
  H      -0.510040     -0.907599      0.585384
  C      -2.996298      1.847997      1.654331
  C      -1.330030      1.637896     -1.430109
  C      -1.664299     -0.793041     -1.908919
  C      -3.853794      1.279568      0.814419
  H      -2.343817      1.258189      2.283093
  H      -2.928182      2.926892      1.727039
  O      -2.123416      1.958929     -2.290686
  O      -0.664945      2.548601     -0.687469
  H      -1.236530     -0.828358     -2.916661
  H      -1.540561     -1.777101     -1.457077
  H      -2.729454     -0.587248     -2.033382
  C      -4.776409      2.037210     -0.088556
  C      -3.954226     -0.207775      0.715948
  C      -0.978627      3.905202     -0.971730
  H      -4.665786      3.110413      0.064785
  H      -4.557003      1.811026     -1.133422
  H      -5.814556      1.756837      0.094749
  O      -4.775269     -0.776716      0.044520
  O      -3.034913     -0.857459      1.445607
  H      -2.039301      4.097624     -0.804556
  H      -0.372327      4.501328     -0.293938
  H      -0.740167      4.148298     -2.007482
  C      -3.093190     -2.279012      1.386321
  H      -2.256336     -2.634031      1.983137
  H      -4.036858     -2.643394      1.792254
  H      -2.997965     -2.621994      0.355817
61
Coordinates from ORCA-job orca E -1383.968933315537
  C       2.019118      0.637427     -1.206365
  H       2.075239      1.543164     -0.601744
  H       3.020011      0.367395     -1.542192
  C       1.372895     -0.483409     -0.398308
  C       2.117447     -0.774519      0.924044
  H       1.627388     -1.624182      1.405241
  H       1.954308      0.085818      1.576183
  C       3.631254     -1.075041      0.914022
  C       1.268208     -1.729346     -1.273681
  O       1.521621     -1.776518     -2.446761
  O       0.808251     -2.791433     -0.591650
  C       4.463640      0.154581      0.558935
  O       5.387428      0.166934     -0.209562
  O       4.086800      1.237827      1.254141
  C       4.009658     -2.216786     -0.026578
  H       5.066485     -2.460749      0.076200
  H       3.423627     -3.104485      0.218946
  H       3.840641     -1.963174     -1.072940
  C       4.028123     -1.457287      2.352129
  H       3.533509     -2.388848      2.633616
  H       5.106333     -1.610578      2.430422
  H       3.738479     -0.683612      3.063887
  C       0.656312     -3.989305     -1.349793
  H       0.274578     -4.732935     -0.654913
  H      -0.044538     -3.836837     -2.170885
  H       1.615794     -4.306487     -1.758613
  C       4.829590      2.426166      0.992270
  H       4.717708      2.720362     -0.051688
  H       4.414299      3.186089      1.649170
  H       5.887019      2.272520      1.205600
  H       1.435729      0.858726     -2.099471
  C      -0.076897     -0.076995      0.018069
  C      -1.004785      0.262841     -1.097116
  H       0.013175      0.776036      0.689597
  H      -0.510509     -0.905938      0.583197
  C      -2.992752      1.843359      1.656484
  C      -1.331348      1.637756     -1.430712
  C      -1.659413     -0.793806     -1.912443
  C      -3.852012      1.278711      0.815748
  H      -2.340223      1.251419      2.283144
  H      -2.923173      2.922067      1.731569
  O      -2.125510      1.958317     -2.290697
  O      -0.668019      2.548834     -0.686859
  H      -1.224093     -0.835028     -2.916778
  H      -1.540628     -1.776304     -1.455689
  H      -2.723166     -0.586484     -2.045380
  C      -4.774144      2.041129     -0.083988
  C      -3.954859     -0.207915      0.712472
  C      -0.984952      3.905155     -0.967997
  H      -4.660899      3.113550      0.072465
  H      -4.557014      1.817403     -1.129797
  H      -5.812724      1.762744      0.099913
  O      -4.774475     -0.773500      0.036317
  O      -3.039892     -0.861608      1.443877
  H      -2.045384      4.095098     -0.796258
  H      -0.377439      4.501166     -0.291151
  H      -0.750068      4.151215     -2.003838
  C      -3.100276     -2.282744      1.382565
  H      -2.265773     -2.638739      1.982170
  H      -4.045246     -2.645362      1.787155
  H      -3.002803     -2.625513      0.352200
61
Coordinates from ORCA-job orca E -1383.968954033300
  C       2.020178      0.636814     -1.209173
  H       2.075606      1.544048     -0.606777
  H       3.021445      0.366341     -1.543631
  C       1.373483     -0.482551     -0.399698
  C       2.115779     -0.771470      0.924085
  H       1.624071     -1.619582      1.406290
  H       1.953415      0.090490      1.574159
  C       3.629301     -1.073105      0.915419
  C       1.267930     -1.729673     -1.272974
  O       1.521633     -1.778789     -2.445958
  O       0.806827     -2.790411     -0.589658
  C       4.462752      0.155438      0.559387
  O       5.387647      0.166080     -0.207743
  O       4.085851      1.240023      1.252675
  C       4.007707     -2.216353     -0.023403
  H       5.064203     -2.460903      0.081174
  H       3.420656     -3.103336      0.222213
  H       3.840090     -1.963903     -1.070269
  C       4.025223     -1.453619      2.354378
  H       3.531029     -2.384935      2.637159
  H       5.103470     -1.606410      2.433436
  H       3.735477     -0.678333      3.064337
  C       0.653673     -3.989054     -1.346667
  H       0.272153     -4.731566     -0.650549
  H      -0.047357     -3.836761     -2.167617
  H       1.612810     -4.306666     -1.755939
  C       4.830088      2.427456      0.990155
  H       4.720974      2.719481     -0.054707
  H       4.413553      3.188710      1.644657
  H       5.886961      2.273219      1.205789
  H       1.437247      0.855736     -2.103170
  C      -0.076806     -0.074126      0.014483
  C      -1.004499      0.265238     -1.100812
  H       0.013510      0.779469      0.685224
  H      -0.513109     -0.901409      0.579807
  C      -2.981845      1.834238      1.658149
  C      -1.332023      1.639844     -1.434294
  C      -1.656903     -0.792010     -1.916878
  C      -3.844961      1.274414      0.818208
  H      -2.329278      1.238928      2.281628
  H      -2.908283      2.912432      1.736826
  O      -2.126328      1.960476     -2.293951
  O      -0.669442      2.551362     -0.689758
  H      -1.213547     -0.840254     -2.917413
  H      -1.545121     -1.772610     -1.454112
  H      -2.718746     -0.581927     -2.058769
  C      -4.766948      2.042701     -0.077005
  C      -3.952293     -0.211348      0.710738
  C      -0.989145      3.907298     -0.968635
  H      -4.646899      3.114335      0.079941
  H      -4.555777      1.817926     -1.123767
  H      -5.806253      1.769814      0.111128
  O      -4.772123     -0.772630      0.031039
  O      -3.041851     -0.870241      1.443012
  H      -2.049284      4.095533     -0.792845
  H      -0.380370      4.502978     -0.292568
  H      -0.757631      4.155909     -2.004597
  C      -3.107037     -2.290939      1.380020
  H      -2.275875     -2.649298      1.982945
  H      -4.054565     -2.649246      1.782677
  H      -3.008795     -2.634934      0.350097
61
Coordinates from ORCA-job orca E -1383.968969024877
  C       2.021942      0.637305     -1.212138
  H       2.076772      1.546230     -0.612323
  H       3.023691      0.365812     -1.544416
  C       1.373575     -0.479854     -0.400965
  C       2.113332     -0.766901      0.924432
  H       1.619241     -1.612775      1.408061
  H       1.952573      0.097167      1.572032
  C       3.626392     -1.071226      0.917698
  C       1.266834     -1.728431     -1.271725
  O       1.521867     -1.780482     -2.444290
  O       0.802884     -2.786919     -0.586760
  C       4.462056      0.155169      0.559347
  O       5.388508      0.162447     -0.205861
  O       4.085319      1.242504      1.248760
  C       4.004055     -2.217251     -0.018076
  H       5.060285     -2.462336      0.087972
  H       3.415885     -3.103059      0.228944
  H       3.837634     -1.967165     -1.065719
  C       4.020701     -1.448685      2.357939
  H       3.525262     -2.378669      2.642796
  H       5.098719     -1.602487      2.438165
  H       3.731358     -0.670954      3.065382
  C       0.647719     -3.986570     -1.341645
  H       0.265177     -4.727207     -0.644128
  H      -0.052987     -3.834611     -2.162970
  H       1.606130     -4.306419     -1.750913
  C       4.832016      2.427852      0.984564
  H       4.726943      2.716710     -0.061627
  H       4.414585      3.191921      1.635179
  H       5.888161      2.272887      1.203388
  H       1.440302      0.853374     -2.107683
  C      -0.076749     -0.068273      0.010286
  C      -1.003344      0.271155     -1.105789
  H       0.013991      0.785987      0.680124
  H      -0.516827     -0.893734      0.575474
  C      -2.967754      1.820956      1.659100
  C      -1.331937      1.645478     -1.439001
  C      -1.653702     -0.786875     -1.922439
  C      -3.835393      1.266058      0.820623
  H      -2.315363      1.221789      2.279150
  H      -2.889487      2.898579      1.741512
  O      -2.125850      1.966591     -2.298677
  O      -0.670663      2.557216     -0.692869
  H      -1.201174     -0.843484     -2.918464
  H      -1.550280     -1.765112     -1.452513
  H      -2.713366     -0.573294     -2.074608
  C      -4.757181      2.040108     -0.069888
  C      -3.948011     -0.218920      0.709417
  C      -0.994044      3.912738     -0.968637
  H      -4.629791      3.110906      0.086680
  H      -4.552830      1.813605     -1.117616
  H      -5.797132      1.773129      0.123300
  O      -4.768043     -0.775401      0.025961
  O      -3.042744     -0.883425      1.443015
  H      -2.054143      4.098638     -0.789869
  H      -0.385110      4.508157     -0.292407
  H      -0.765529      4.164601     -2.004465
  C      -3.114512     -2.303746      1.377720
  H      -2.287960     -2.666315      1.984473
  H      -4.065080     -2.658133      1.776820
  H      -3.015274     -2.648019      0.348069
61
Coordinates from ORCA-job orca E -1383.968984007173
  C       2.023384      0.638721     -1.214475
  H       2.077326      1.548836     -0.616431
  H       3.025767      0.366589     -1.544368
  C       1.373086     -0.476671     -0.402255
  C       2.111186     -0.762729      0.924236
  H       1.615431     -1.607010      1.408884
  H       1.951644      0.102792      1.570149
  C       3.623846     -1.069547      0.919264
  C       1.265805     -1.726528     -1.271203
  O       1.522609     -1.781237     -2.443220
  O       0.798809     -2.782925     -0.584966
  C       4.461781      0.154906      0.559482
  O       5.389928      0.159146     -0.203615
  O       4.085235      1.244578      1.245597
  C       4.000709     -2.217628     -0.014297
  H       5.056786     -2.463121      0.092483
  H       3.411627     -3.102516      0.233816
  H       3.835289     -1.969180     -1.062477
  C       4.016393     -1.445006      2.360410
  H       3.518791     -2.373546      2.646296
  H       5.094034     -1.600622      2.441788
  H       3.727370     -0.665769      3.066334
  C       0.641339     -3.983230     -1.337833
  H       0.257652     -4.722318     -0.639278
  H      -0.059402     -3.831482     -2.159241
  H       1.598677     -4.305872     -1.747466
  C       4.834611      2.427697      0.980831
  H       4.733847      2.714555     -0.066387
  H       4.416632      3.194395      1.628002
  H       5.889983      2.271944      1.203022
  H       1.443518      0.852411     -2.111740
  C      -0.076851     -0.062384      0.006669
  C      -1.002176      0.276611     -1.110500
  H       0.014178      0.792932      0.675181
  H      -0.519391     -0.886142      0.572456
  C      -2.956634      1.809169      1.661867
  C      -1.331058      1.650559     -1.444636
  C      -1.651593     -0.782547     -1.926627
  C      -3.826296      1.258307      0.822844
  H      -2.305612      1.206292      2.279864
  H      -2.874680      2.886172      1.748597
  O      -2.123627      1.971398     -2.305503
  O      -0.671701      2.562760     -0.696795
  H      -1.190117     -0.848092     -2.918040
  H      -1.557206     -1.758092     -1.449084
  H      -2.708829     -0.564889     -2.088909
  C      -4.747017      2.036310     -0.065426
  C      -3.942385     -0.226319      0.708416
  C      -0.998867      3.917855     -0.969901
  H      -4.614282      3.106498      0.090149
  H      -4.547443      1.808338     -1.113735
  H      -5.787492      1.773649      0.131094
  O      -4.761057     -0.778805      0.020209
  O      -3.042383     -0.894900      1.445004
  H      -2.059073      4.101646     -0.788818
  H      -0.390243      4.513583     -0.293627
  H      -0.773114      4.171962     -2.005770
  C      -3.121279     -2.314948      1.378701
  H      -2.299327     -2.682383      1.988688
  H      -4.074637     -2.665416      1.774763
  H      -3.021848     -2.660415      0.349429
61
Coordinates from ORCA-job orca E -1383.968999907146
  C       2.024164      0.640161     -1.215554
  H       2.077784      1.550436     -0.617748
  H       3.026926      0.367496     -1.543883
  C       1.371974     -0.474273     -0.403248
  C       2.109891     -0.761035      0.923319
  H       1.613929     -1.605251      1.407896
  H       1.950470      0.104442      1.569378
  C       3.622404     -1.068856      0.919108
  C       1.264421     -1.724579     -1.271851
  O       1.521914     -1.780355     -2.443600
  O       0.795905     -2.780013     -0.585095
  C       4.461518      0.155201      0.560411
  O       5.391040      0.158826     -0.201019
  O       4.084231      1.245345      1.245469
  C       3.999019     -2.216768     -0.014733
  H       5.055116     -2.462386      0.091758
  H       3.409696     -3.101572      0.233090
  H       3.834051     -1.967933     -1.062883
  C       4.013715     -1.445232      2.360249
  H       3.513911     -2.372994      2.645097
  H       5.090977     -1.602829      2.442209
  H       3.724899     -0.666486      3.066819
  C       0.637417     -3.980538     -1.336772
  H       0.253305     -4.719149     -0.637874
  H      -0.063758     -3.829250     -2.157965
  H       1.594040     -4.304853     -1.746833
  C       4.834799      2.427636      0.982279
  H       4.736859      2.714971     -0.065110
  H       4.416269      3.195115      1.628239
  H       5.889704      2.271758      1.206817
  H       1.445851      0.853287     -2.113963
  C      -0.077072     -0.058014      0.005082
  C      -1.001625      0.280738     -1.113017
  H       0.014762      0.798336      0.672200
  H      -0.520318     -0.880629      0.572284
  C      -2.951599      1.803471      1.663010
  C      -1.329084      1.654591     -1.448958
  C      -1.653328     -0.779264     -1.926544
  C      -3.821161      1.253085      0.823572
  H      -2.302072      1.199256      2.281345
  H      -2.867827      2.880293      1.751081
  O      -2.120251      1.975222     -2.311174
  O      -0.670104      2.566866     -0.700819
  H      -1.189556     -0.850312     -2.916521
  H      -1.563609     -1.752834     -1.444291
  H      -2.709517     -0.558562     -2.092022
  C      -4.741159      2.030559     -0.065655
  C      -3.937847     -0.231850      0.709287
  C      -0.997804      3.921909     -0.973883
  H      -4.608302      3.100823      0.088709
  H      -4.541986      1.801942     -1.113905
  H      -5.781608      1.767903      0.131119
  O      -4.753102     -0.783395      0.016496
  O      -3.042579     -0.901021      1.451344
  H      -2.058125      4.105636     -0.793378
  H      -0.389807      4.518114     -0.297501
  H      -0.772200      4.175534     -2.009910
  C      -3.124699     -2.320952      1.384630
  H      -2.305129     -2.691571      1.995810
  H      -4.078533     -2.671084      1.779979
  H      -3.025555     -2.666771      0.355520
61
Coordinates from ORCA-job orca E -1383.969015914187
  C       2.023530      0.642977     -1.215225
  H       2.077625      1.552870     -0.616844
  H       3.026274      0.369462     -1.542832
  C       1.369425     -0.470707     -0.403220
  C       2.107601     -0.758789      0.923150
  H       1.611523     -1.603138      1.407433
  H       1.948032      0.106243      1.569857
  C       3.619862     -1.067828      0.919446
  C       1.261413     -1.721060     -1.272138
  O       1.520129     -1.777325     -2.443559
  O       0.790703     -2.775760     -0.585709
  C       4.460418      0.155316      0.560793
  O       5.391304      0.157262     -0.199035
  O       4.082655      1.246542      1.243720
  C       3.995500     -2.216416     -0.013928
  H       5.051434     -2.462933      0.092203
  H       3.405472     -3.100590      0.234555
  H       3.830689     -1.967886     -1.062186
  C       4.010326     -1.444177      2.360786
  H       3.507881     -2.370592      2.645645
  H       5.087152     -1.604374      2.443013
  H       3.722620     -0.665187      3.067575
  C       0.630970     -3.976019     -1.337064
  H       0.246008     -4.714525     -0.638431
  H      -0.070509     -3.824356     -2.157993
  H       1.587009     -4.301932     -1.747238
  C       4.834566      2.427760      0.980770
  H       4.738940      2.714404     -0.067032
  H       4.415712      3.196623      1.624942
  H       5.888920      2.271677      1.207862
  H       1.446329      0.856956     -2.114144
  C      -0.078680     -0.052981      0.004960
  C      -1.001786      0.285758     -1.114234
  H       0.013938      0.804135      0.671030
  H      -0.521756     -0.874947      0.573121
  C      -2.946160      1.795286      1.665281
  C      -1.326251      1.659786     -1.452322
  C      -1.656362     -0.774704     -1.924973
  C      -3.813744      1.245236      0.823549
  H      -2.299613      1.190034      2.285773
  H      -2.860880      2.871919      1.753522
  O      -2.115534      1.980306     -2.316335
  O      -0.667247      2.571758     -0.704110
  H      -1.190725     -0.850619     -2.913771
  H      -1.571473     -1.746824     -1.438817
  H      -2.711151     -0.550346     -2.093255
  C      -4.731823      2.021905     -0.068386
  C      -3.930794     -0.240075      0.709607
  C      -0.993441      3.927124     -0.978328
  H      -4.598437      3.092473      0.083844
  H      -4.532271      1.791949     -1.116239
  H      -5.772613      1.760331      0.128155
  O      -4.742239     -0.790845      0.011948
  O      -3.040575     -0.909786      1.457672
  H      -2.054125      4.111375     -0.800533
  H      -0.386663      4.523653     -0.301206
  H      -0.765749      4.179086     -2.014312
  C      -3.125773     -2.329604      1.391215
  H      -2.307751     -2.703634      2.002298
  H      -4.080887     -2.677720      1.785368
  H      -3.027297     -2.676188      0.362202
61
Coordinates from ORCA-job orca E -1383.969030455404
  C       2.024238      0.645338     -1.216023
  H       2.079969      1.554974     -0.617358
  H       3.026509      0.369707     -1.543256
  C       1.367589     -0.466831     -0.403885
  C       2.105536     -0.756035      0.922565
  H       1.608913     -1.600343      1.406443
  H       1.945632      0.108607      1.569762
  C       3.617412     -1.066325      0.919656
  C       1.258288     -1.717433     -1.272502
  O       1.518703     -1.774809     -2.443489
  O       0.784096     -2.770700     -0.586321
  C       4.459581      0.155907      0.561905
  O       5.391100      0.156689     -0.197227
  O       4.082150      1.247475      1.244173
  C       3.992032     -2.215261     -0.013618
  H       5.047491     -2.463633      0.092904
  H       3.400519     -3.098509      0.234679
  H       3.828057     -1.966341     -1.061908
  C       4.006667     -1.443457      2.361110
  H       3.501608     -2.368539      2.645807
  H       5.083033     -1.606444      2.443596
  H       3.720576     -0.664093      3.068155
  C       0.622524     -3.970845     -1.337288
  H       0.235395     -4.708504     -0.638911
  H      -0.078302     -3.818085     -2.158563
  H       1.578245     -4.299063     -1.746341
  C       4.835292      2.428034      0.981769
  H       4.740525      2.714739     -0.066077
  H       4.416700      3.197429      1.625520
  H       5.889224      2.271115      1.210193
  H       1.447917      0.860893     -2.115142
  C      -0.079776     -0.047054      0.004189
  C      -1.001929      0.291282     -1.116122
  H       0.013949      0.810918      0.668987
  H      -0.522645     -0.868285      0.573615
  C      -2.940443      1.786257      1.666994
  C      -1.323408      1.665509     -1.456503
  C      -1.660025     -0.769765     -1.923168
  C      -3.806503      1.236096      0.823722
  H      -2.296455      1.180606      2.289743
  H      -2.853688      2.862957      1.753652
  O      -2.111393      1.985942     -2.321897
  O      -0.663813      2.577156     -0.709040
  H      -1.193750     -0.851200     -2.911285
  H      -1.579570     -1.740196     -1.432907
  H      -2.713558     -0.540992     -2.093510
  C      -4.723111      2.011659     -0.070514
  C      -3.924339     -0.249390      0.710831
  C      -0.988128      3.932858     -0.984726
  H      -4.591141      3.082495      0.081020
  H      -4.522074      1.782168     -1.118156
  H      -5.764027      1.749571      0.124706
  O      -4.731319     -0.799951      0.007885
  O      -3.040498     -0.919526      1.466169
  H      -2.049008      4.117276     -0.808768
  H      -0.381835      4.529605     -0.307455
  H      -0.758879      4.182897     -2.020832
  C      -3.127129     -2.339033      1.399002
  H      -2.309970     -2.715685      2.009622
  H      -4.082684     -2.686745      1.792489
  H      -3.028420     -2.684742      0.369830
61
Coordinates from ORCA-job orca E -1383.969044631537
  C       2.023658      0.647035     -1.216615
  H       2.081025      1.556704     -0.618122
  H       3.025279      0.369657     -1.544357
  C       1.365903     -0.463943     -0.403898
  C       2.103376     -0.752947      0.922957
  H       1.605923     -1.596636      1.407137
  H       1.943419      0.112027      1.569707
  C       3.614915     -1.064319      0.920710
  C       1.255429     -1.714906     -1.271795
  O       1.516438     -1.773174     -2.442640
  O       0.779424     -2.767211     -0.585458
  C       4.458217      0.156564      0.561243
  O       5.389759      0.155179     -0.197917
  O       4.081790      1.249381      1.241812
  C       3.988393     -2.215309     -0.010496
  H       5.043347     -2.465361      0.096943
  H       3.395460     -3.097243      0.239218
  H       3.824930     -1.967952     -1.059221
  C       4.003852     -1.439371      2.362867
  H       3.497545     -2.363090      2.649711
  H       5.080007     -1.603839      2.445330
  H       3.719424     -0.658042      3.068415
  C       0.616626     -3.967509     -1.336181
  H       0.229025     -4.704637     -0.637495
  H      -0.084337     -3.814204     -2.157194
  H       1.572187     -4.296406     -1.745002
  C       4.835900      2.429119      0.977393
  H       4.740734      2.714063     -0.070858
  H       4.417963      3.199663      1.620185
  H       5.889637      2.271442      1.206085
  H       1.447133      0.863746     -2.115334
  C      -0.081507     -0.043179      0.003788
  C      -1.002521      0.295446     -1.117295
  H       0.012667      0.814836      0.668413
  H      -0.524113     -0.864402      0.573186
  C      -2.934948      1.775620      1.671037
  C      -1.320775      1.670145     -1.458909
  C      -1.662765     -0.764852     -1.923288
  C      -3.799296      1.227678      0.824471
  H      -2.294324      1.168287      2.295574
  H      -2.846001      2.852114      1.757578
  O      -2.107584      1.991205     -2.325283
  O      -0.660458      2.580917     -0.711567
  H      -1.193300     -0.851175     -2.909557
  H      -1.588619     -1.734359     -1.430107
  H      -2.714118     -0.530235     -2.098273
  C      -4.712946      2.005158     -0.071261
  C      -3.919647     -0.257472      0.710485
  C      -0.983067      3.937213     -0.987221
  H      -4.581031      3.075837      0.081806
  H      -4.510006      1.777847     -1.118969
  H      -5.754487      1.743744      0.121439
  O      -4.724362     -0.806334      0.003488
  O      -3.041128     -0.929985      1.469934
  H      -2.043944      4.121503     -0.811233
  H      -0.376260      4.533117     -0.309735
  H      -0.753306      4.186680     -2.023323
  C      -3.130291     -2.349078      1.400956
  H      -2.314010     -2.728724      2.010838
  H      -4.087459     -2.694461      1.792531
  H      -3.031125     -2.693233      0.371264
61
Coordinates from ORCA-job orca E -1383.969059754837
  C       2.024785      0.649149     -1.218008
  H       2.084389      1.559163     -0.620278
  H       3.025553      0.369161     -1.546166
  C       1.365389     -0.460074     -0.404592
  C       2.101279     -0.748717      0.923096
  H       1.601845     -1.591062      1.407558
  H       1.942069      0.117130      1.568860
  C       3.612263     -1.062231      0.921918
  C       1.252559     -1.711360     -1.271367
  O       1.514051     -1.770878     -2.442111
  O       0.773879     -2.762199     -0.584758
  C       4.457523      0.156991      0.561751
  O       5.388981      0.153548     -0.197517
  O       4.082977      1.250710      1.241757
  C       3.984386     -2.214812     -0.007891
  H       5.038532     -2.467366      0.101351
  H       3.389163     -3.095199      0.241864
  H       3.822449     -1.968016     -1.056991
  C       4.000086     -1.436509      2.364702
  H       3.492831     -2.359211      2.652900
  H       5.076047     -1.602250      2.447504
  H       3.717176     -0.653388      3.068848
  C       0.608949     -3.962665     -1.335300
  H       0.220012     -4.698565     -0.636110
  H      -0.091488     -3.808038     -2.156447
  H       1.564311     -4.292840     -1.743464
  C       4.839033      2.429389      0.976237
  H       4.743499      2.713321     -0.072215
  H       4.422228      3.200597      1.618913
  H       5.892451      2.269622      1.204676
  H       1.448069      0.866993     -2.116310
  C      -0.082493     -0.037782      0.002231
  C      -1.003272      0.300035     -1.119349
  H       0.012181      0.820703      0.666152
  H      -0.524572     -0.858663      0.572484
  C      -2.929130      1.763925      1.674730
  C      -1.318687      1.674949     -1.463186
  C      -1.666118     -0.759867     -1.923504
  C      -3.792506      1.217619      0.826070
  H      -2.291207      1.155676      2.301057
  H      -2.837938      2.840342      1.759863
  O      -2.104889      1.996248     -2.330207
  O      -0.657314      2.585637     -0.717090
  H      -1.193647     -0.852746     -2.907821
  H      -1.599132     -1.727901     -1.426492
  H      -2.714975     -0.517958     -2.103655
  C      -4.703278      1.996966     -0.070921
  C      -3.915939     -0.267023      0.712188
  C      -0.979038      3.942165     -0.993431
  H      -4.573296      3.067438      0.085431
  H      -4.496854      1.773398     -1.118759
  H      -5.745300      1.734523      0.117605
  O      -4.718797     -0.814910      0.002073
  O      -3.042712     -0.941509      1.475732
  H      -2.039647      4.126074     -0.815655
  H      -0.370747      4.537480     -0.316801
  H      -0.750276      4.190885     -2.029878
  C      -3.133067     -2.360230      1.404383
  H      -2.317145     -2.741427      2.013705
  H      -4.091173     -2.704481      1.794529
  H      -3.032656     -2.701619      0.374001
61
Coordinates from ORCA-job orca E -1383.969070886950
  C       2.025567      0.651188     -1.219416
  H       2.086273      1.561780     -0.622708
  H       3.025973      0.369595     -1.547320
  C       1.364926     -0.456708     -0.405480
  C       2.099030     -0.744747      0.923139
  H       1.597563     -1.585533      1.408167
  H       1.941224      0.122328      1.567553
  C       3.609533     -1.060631      0.922919
  C       1.250268     -1.708396     -1.271147
  O       1.511505     -1.768992     -2.441937
  O       0.770318     -2.758186     -0.583877
  C       4.456658      0.157100      0.562116
  O       5.387717      0.152049     -0.197602
  O       4.084513      1.251497      1.242456
  C       3.980403     -2.214420     -0.005970
  H       5.034000     -2.468712      0.104571
  H       3.383441     -3.093671      0.243625
  H       3.819660     -1.967974     -1.055324
  C       3.996166     -1.434458      2.366182
  H       3.488588     -2.356767      2.654899
  H       5.072047     -1.600595      2.449674
  H       3.713664     -0.650212      3.069227
  C       0.603520     -3.958899     -1.334024
  H       0.214263     -4.693804     -0.634017
  H      -0.096998     -3.803513     -2.154914
  H       1.558404     -4.289911     -1.742608
  C       4.842789      2.428891      0.976445
  H       4.747233      2.712597     -0.072049
  H       4.427461      3.200633      1.619383
  H       5.895984      2.266770      1.204158
  H       1.449004      0.869020     -2.117828
  C      -0.083289     -0.032707      0.000151
  C      -1.003948      0.303965     -1.121524
  H       0.011957      0.826557      0.662966
  H      -0.525469     -0.852624      0.571526
  C      -2.923862      1.753889      1.678605
  C      -1.317704      1.678737     -1.467527
  C      -1.668221     -0.755946     -1.924418
  C      -3.786551      1.209248      0.828210
  H      -2.287996      1.144855      2.306275
  H      -2.830924      2.830111      1.763241
  O      -2.102900      1.999933     -2.335487
  O      -0.656330      2.589964     -0.721880
  H      -1.191227     -0.855949     -2.905900
  H      -1.608910     -1.722379     -1.423062
  H      -2.714352     -0.507782     -2.110810
  C      -4.694227      1.990938     -0.070008
  C      -3.912717     -0.274952      0.714046
  C      -0.978029      3.946326     -0.999231
  H      -4.563907      3.061209      0.088053
  H      -4.485706      1.768485     -1.117690
  H      -5.736988      1.729390      0.115724
  O      -4.715529     -0.821612      0.002749
  O      -3.042174     -0.951262      1.478987
  H      -2.038387      4.130526     -0.820008
  H      -0.368725      4.541555     -0.323389
  H      -0.750154      4.194733     -2.035917
  C      -3.134742     -2.369941      1.407168
  H      -2.319747     -2.752065      2.017116
  H      -4.094707     -2.711478      1.795027
  H      -3.033582     -2.710702      0.376615
61
Coordinates from ORCA-job orca E -1383.969074356074
  C       2.027747      0.653178     -1.220512
  H       2.089945      1.564136     -0.624528
  H       3.027596      0.370207     -1.548914
  C       1.366353     -0.453820     -0.406272
  C       2.098777     -0.741298      0.923122
  H       1.594987     -1.580084      1.409105
  H       1.943412      0.127391      1.565895
  C       3.608728     -1.060310      0.923485
  C       1.249663     -1.705623     -1.271207
  O       1.509012     -1.766488     -2.442449
  O       0.770099     -2.755029     -0.583154
  C       4.457703      0.155713      0.561207
  O       5.387528      0.149087     -0.199935
  O       4.088837      1.250810      1.242433
  C       3.977875     -2.215612     -0.004311
  H       5.030995     -2.471467      0.107216
  H       3.379328     -3.093700      0.245542
  H       3.817913     -1.969860     -1.053941
  C       3.994356     -1.433213      2.367231
  H       3.487302     -2.355601      2.656439
  H       5.070295     -1.598788      2.451598
  H       3.711557     -0.647914      3.068958
  C       0.601145     -3.955749     -1.333327
  H       0.212473     -4.689988     -0.632381
  H      -0.100093     -3.799433     -2.153381
  H       1.555258     -4.287048     -1.743452
  C       4.849210      2.426837      0.975229
  H       4.752600      2.710471     -0.073184
  H       4.436120      3.198974      1.619047
  H       5.902451      2.262170      1.200820
  H       1.450747      0.871283     -2.118587
  C      -0.082222     -0.028218     -0.001464
  C      -1.003809      0.307284     -1.122696
  H       0.013814      0.831972      0.659996
  H      -0.523821     -0.847080      0.572159
  C      -2.928707      1.746601      1.685332
  C      -1.316375      1.681947     -1.470800
  C      -1.670220     -0.752144     -1.924563
  C      -3.787663      1.202296      0.830945
  H      -2.295223      1.137965      2.315790
  H      -2.836213      2.822912      1.769804
  O      -2.099856      2.003083     -2.340311
  O      -0.656036      2.593993     -0.724739
  H      -1.188467     -0.860707     -2.902834
  H      -1.620262     -1.716497     -1.418506
  H      -2.713293     -0.496215     -2.118149
  C      -4.690097      1.985529     -0.071068
  C      -3.913921     -0.281592      0.715811
  C      -0.977588      3.949982     -1.003833
  H      -4.564745      3.055369      0.093327
  H      -4.472382      1.768306     -1.118055
  H      -5.733594      1.719906      0.104499
  O      -4.714527     -0.828189      0.001915
  O      -3.045696     -0.957815      1.483248
  H      -2.037374      4.135791     -0.822470
  H      -0.366627      4.545266     -0.329417
  H      -0.751019      4.197793     -2.040899
  C      -3.137650     -2.376816      1.409746
  H      -2.323262     -2.757349      2.021210
  H      -4.097568     -2.718743      1.797189
  H      -3.033868     -2.715522      0.378937
61
Coordinates from ORCA-job orca E -1383.969094864866
  C       2.028220      0.654675     -1.222062
  H       2.090951      1.566181     -0.626987
  H       3.028069      0.370769     -1.549727
  C       1.365325     -0.450944     -0.407029
  C       2.096643     -0.737905      0.922959
  H       1.591312     -1.575111      1.410019
  H       1.943266      0.132133      1.564356
  C       3.606179     -1.059605      0.924125
  C       1.247417     -1.703455     -1.270718
  O       1.506452     -1.765780     -2.441943
  O       0.767004     -2.751633     -0.581374
  C       4.456956      0.155106      0.561442
  O       5.386423      0.147283     -0.200069
  O       4.090018      1.250861      1.242917
  C       3.974171     -2.215655     -0.003176
  H       5.027062     -2.472333      0.108767
  H       3.374584     -3.093049      0.246533
  H       3.815115     -1.970018     -1.052981
  C       3.990411     -1.432494      2.368144
  H       3.482501     -2.354618      2.656740
  H       5.066168     -1.598697      2.453585
  H       3.707273     -0.647035      3.069548
  C       0.596494     -3.952943     -1.330065
  H       0.206942     -4.685858     -0.628234
  H      -0.104475     -3.796740     -2.150407
  H       1.549953     -4.286126     -1.740248
  C       4.852204      2.425520      0.975684
  H       4.756516      2.709416     -0.072781
  H       4.440342      3.198446      1.619342
  H       5.905298      2.259380      1.201046
  H       1.451805      0.871956     -2.120729
  C      -0.082657     -0.022636     -0.003485
  C      -1.003740      0.312524     -1.124852
  H       0.014659      0.838457      0.656650
  H      -0.526064     -0.839842      0.571024
  C      -2.923460      1.738209      1.686569
  C      -1.316324      1.686832     -1.474109
  C      -1.670339     -0.747604     -1.925816
  C      -3.783531      1.194692      0.832902
  H      -2.290246      1.129510      2.317252
  H      -2.830057      2.814449      1.770419
  O      -2.098753      2.007956     -2.344367
  O      -0.656746      2.599513     -0.727453
  H      -1.183707     -0.862997     -2.900899
  H      -1.627174     -1.710242     -1.415315
  H      -2.711159     -0.488235     -2.125323
  C      -4.683409      1.979971     -0.069921
  C      -3.912040     -0.289119      0.718005
  C      -0.978085      3.955091     -1.008042
  H      -4.555358      3.049543      0.094643
  H      -4.464787      1.760947     -1.116355
  H      -5.727796      1.716902      0.104365
  O      -4.714649     -0.834650      0.005641
  O      -3.042937     -0.966279      1.483632
  H      -2.037734      4.142439     -0.827439
  H      -0.367345      4.550968     -0.333867
  H      -0.751049      4.202545     -2.045105
  C      -3.136627     -2.385665      1.411341
  H      -2.323588     -2.765915      2.024983
  H      -4.098557     -2.725731      1.795319
  H      -3.031689     -2.725018      0.380827
61
Coordinates from ORCA-job orca E -1383.969111168483
  C       2.029224      0.656544     -1.222498
  H       2.092354      1.567749     -0.626953
  H       3.029173      0.372639     -1.549933
  C       1.364986     -0.448622     -0.407410
  C       2.096588     -0.736820      0.922129
  H       1.591033     -1.573725      1.409494
  H       1.944916      0.133369      1.563764
  C       3.605990     -1.060368      0.923009
  C       1.246196     -1.701127     -1.271147
  O       1.505265     -1.764054     -2.442279
  O       0.764762     -2.748448     -0.581265
  C       4.457796      0.154309      0.562074
  O       5.386673      0.147340     -0.200127
  O       4.092351      1.249193      1.246041
  C       3.973139     -2.214988     -0.006285
  H       5.026143     -2.471801      0.104642
  H       3.373286     -3.092611      0.241941
  H       3.814450     -1.967454     -1.055718
  C       3.989317     -1.436109      2.366378
  H       3.480533     -2.358794      2.651796
  H       5.064904     -1.602885      2.452601
  H       3.705079     -0.652875      3.069824
  C       0.592182     -3.949587     -1.329055
  H       0.200797     -4.681612     -0.627254
  H      -0.108278     -3.792737     -2.149805
  H       1.544698     -4.285589     -1.739260
  C       4.855628      2.423204      0.981381
  H       4.760956      2.709990     -0.066442
  H       4.444963      3.195684      1.626405
  H       5.908722      2.256084      1.206320
  H       1.453327      0.873740     -2.121521
  C      -0.081573     -0.017990     -0.003935
  C      -1.003093      0.315616     -1.125355
  H       0.017311      0.844878      0.653801
  H      -0.525989     -0.832699      0.573519
  C      -2.926757      1.735492      1.689151
  C      -1.317403      1.688889     -1.476795
  C      -1.668898     -0.746544     -1.924594
  C      -3.786086      1.190715      0.835360
  H      -2.293723      1.128061      2.321256
  H      -2.834443      2.811962      1.772441
  O      -2.098973      2.008025     -2.348316
  O      -0.659501      2.603489     -0.730337
  H      -1.174649     -0.871616     -2.894665
  H      -1.634834     -1.705997     -1.407222
  H      -2.707005     -0.484602     -2.133572
  C      -4.681646      1.976188     -0.071668
  C      -3.914102     -0.293635      0.721800
  C      -0.980240      3.958023     -1.015156
  H      -4.553463      3.045229      0.095340
  H      -4.455952      1.756780     -1.116589
  H      -5.727093      1.712783      0.095530
  O      -4.719069     -0.839906      0.013011
  O      -3.040225     -0.968428      1.484052
  H      -2.039440      4.148854     -0.835187
  H      -0.369184      4.556410     -0.343417
  H      -0.753448      4.202306     -2.053085
  C      -3.133247     -2.388710      1.415283
  H      -2.321365     -2.765432      2.032539
  H      -4.095619     -2.728871      1.797993
  H      -3.025794     -2.730569      0.385871
61
Coordinates from ORCA-job orca E -1383.969124273702
  C       2.029476      0.657712     -1.223237
  H       2.093438      1.568909     -0.627714
  H       3.029235      0.372665     -1.550100
  C       1.363388     -0.446073     -0.407591
  C       2.095002     -0.734543      0.922018
  H       1.589055     -1.570945      1.409843
  H       1.943669      0.135845      1.563497
  C       3.604079     -1.059562      0.923538
  C       1.243825     -1.699261     -1.270502
  O       1.503861     -1.763668     -2.441314
  O       0.759893     -2.745105     -0.580146
  C       4.457273      0.153884      0.561790
  O       5.386712      0.145092     -0.199733
  O       4.092095      1.249968      1.243870
  C       3.970144     -2.215491     -0.004466
  H       5.022906     -2.473292      0.106499
  H       3.369406     -3.092190      0.244838
  H       3.811808     -1.968919     -1.054172
  C       3.986523     -1.434342      2.367344
  H       3.475731     -2.355812      2.653282
  H       5.061730     -1.603032      2.454081
  H       3.703176     -0.650408      3.070380
  C       0.585303     -3.946368     -1.326882
  H       0.191730     -4.677260     -0.625070
  H      -0.114424     -3.788926     -2.148157
  H       1.537293     -4.285122     -1.736064
  C       4.856493      2.422872      0.978625
  H       4.763432      2.708678     -0.069614
  H       4.445938      3.196792      1.622040
  H       5.909188      2.255526      1.205357
  H       1.454307      0.875293     -2.122630
  C      -0.082080     -0.012884     -0.004400
  C      -1.002874      0.321452     -1.126482
  H       0.018312      0.850478      0.652469
  H      -0.528023     -0.826364      0.573658
  C      -2.924621      1.727071      1.691588
  C      -1.316034      1.694838     -1.478618
  C      -1.669399     -0.741106     -1.924634
  C      -3.783585      1.182812      0.837143
  H      -2.292682      1.119241      2.324382
  H      -2.831831      2.803490      1.774921
  O      -2.096292      2.014225     -2.351253
  O      -0.658636      2.609126     -0.731525
  H      -1.170351     -0.872811     -2.891407
  H      -1.642580     -1.698455     -1.402773
  H      -2.705329     -0.475887     -2.139784
  C      -4.676440      1.969082     -0.071793
  C      -3.912574     -0.301582      0.723421
  C      -0.976357      3.963816     -1.018579
  H      -4.547501      3.037720      0.096983
  H      -4.446544      1.750387     -1.115950
  H      -5.722574      1.706047      0.091235
  O      -4.718348     -0.847308      0.015188
  O      -3.038236     -0.976714      1.484797
  H      -2.035437      4.157254     -0.840572
  H      -0.365196      4.562643     -0.347349
  H      -0.747882      4.205875     -2.056684
  C      -3.131029     -2.396845      1.416036
  H      -2.320421     -2.773600      2.035022
  H      -4.094011     -2.737894      1.796411
  H      -3.021477     -2.738683      0.386836
61
Coordinates from ORCA-job orca E -1383.969140802910
  C       2.029012      0.658628     -1.224561
  H       2.094351      1.569852     -0.629178
  H       3.028345      0.371625     -1.550929
  C       1.360717     -0.443133     -0.407953
  C       2.092907     -0.732295      0.921468
  H       1.586985     -1.568831      1.409170
  H       1.940778      0.137520      1.563568
  C       3.601684     -1.057833      0.923556
  C       1.239350     -1.697088     -1.269800
  O       1.501314     -1.763651     -2.440059
  O       0.751391     -2.740811     -0.579050
  C       4.456248      0.154593      0.561897
  O       5.387242      0.143920     -0.197774
  O       4.090348      1.251760      1.241514
  C       3.967013     -2.214862     -0.003280
  H       5.019471     -2.473837      0.107717
  H       3.365497     -3.090734      0.247158
  H       3.808844     -1.969176     -1.053220
  C       3.983420     -1.432065      2.367765
  H       3.469920     -2.351796      2.654662
  H       5.058136     -1.603632      2.454462
  H       3.702059     -0.647192      3.070569
  C       0.573816     -3.942163     -1.324580
  H       0.177418     -4.671627     -0.622793
  H      -0.125177     -3.783726     -2.146282
  H       1.525165     -4.284438     -1.732288
  C       4.856154      2.423672      0.976717
  H       4.765838      2.708438     -0.072028
  H       4.444880      3.199056      1.617983
  H       5.908047      2.256080      1.206981
  H       1.454546      0.877078     -2.124191
  C      -0.083247     -0.007023     -0.003958
  C      -1.003659      0.328243     -1.126624
  H       0.019125      0.856735      0.652045
  H      -0.530251     -0.819272      0.575054
  C      -2.924375      1.716477      1.696932
  C      -1.313823      1.702003     -1.480194
  C      -1.671150     -0.734609     -1.923357
  C      -3.780982      1.172806      0.839740
  H      -2.294844      1.107799      2.331297
  H      -2.831264      2.792775      1.781057
  O      -2.092168      2.021653     -2.354668
  O      -0.656240      2.615532     -0.733137
  H      -1.165479     -0.874903     -2.885524
  H      -1.654305     -1.688769     -1.395483
  H      -2.704000     -0.465178     -2.147562
  C      -4.670097      1.959374     -0.072722
  C      -3.910187     -0.311529      0.725597
  C      -0.967100      3.970833     -1.024850
  H      -4.541029      3.027489      0.099014
  H      -4.432430      1.743110     -1.115690
  H      -5.717059      1.695814      0.082996
  O      -4.717066     -0.857185      0.018597
  O      -3.034379     -0.986654      1.485266
  H      -2.025797      4.169240     -0.849987
  H      -0.354709      4.569893     -0.355033
  H      -0.735637      4.207622     -2.063536
  C      -3.125249     -2.406185      1.416259
  H      -2.315826     -2.782824      2.036784
  H      -4.088159     -2.749548      1.794899
  H      -3.012684     -2.748714      0.387468
61
Coordinates from ORCA-job orca E -1383.969153276272
  C       2.028547      0.659339     -1.225776
  H       2.095270      1.571251     -0.631593
  H       3.027334      0.370272     -1.551959
  C       1.358976     -0.440390     -0.407635
  C       2.091063     -0.728943      0.922119
  H       1.584037     -1.564390      1.410573
  H       1.939327      0.141520      1.563446
  C       3.599303     -1.056148      0.924669
  C       1.235940     -1.695304     -1.267766
  O       1.499081     -1.764051     -2.437661
  O       0.745252     -2.737179     -0.576176
  C       4.455477      0.154234      0.560424
  O       5.387046      0.140244     -0.198526
  O       4.090346      1.253591      1.236716
  C       3.962844     -2.215983      0.000606
  H       5.014804     -2.476674      0.112175
  H       3.359971     -3.090252      0.253398
  H       3.804698     -1.972667     -1.049859
  C       3.980997     -1.427500      2.369735
  H       3.465511     -2.345086      2.659836
  H       5.055369     -1.601448      2.456022
  H       3.702285     -0.639851      3.070492
  C       0.565733     -3.939012     -1.320550
  H       0.168125     -4.667178     -0.618085
  H      -0.133081     -3.780221     -2.142300
  H       1.516700     -4.283108     -1.727577
  C       4.857759      2.424000      0.969317
  H       4.768587      2.705710     -0.080322
  H       4.446621      3.201630      1.607937
  H       5.909131      2.255790      1.201439
  H       1.454179      0.877766     -2.125494
  C      -0.084509     -0.002213     -0.003618
  C      -1.004160      0.334317     -1.126766
  H       0.018840      0.861254      0.652535
  H      -0.532603     -0.814222      0.574806
  C      -2.924757      1.705470      1.703110
  C      -1.311414      1.708685     -1.480728
  C      -1.671702     -0.727963     -1.924054
  C      -3.778438      1.163699      0.841811
  H      -2.297737      1.095186      2.338389
  H      -2.831340      2.781542      1.789248
  O      -2.087572      2.029455     -2.356936
  O      -0.654173      2.621080     -0.732521
  H      -1.159829     -0.874630     -2.882039
  H      -1.663315     -1.680065     -1.392070
  H      -2.701514     -0.454255     -2.156588
  C      -4.664416      1.952071     -0.072261
  C      -3.907979     -0.320207      0.724931
  C      -0.960260      3.977108     -1.026432
  H      -4.535489      3.019705      0.102690
  H      -4.421471      1.739263     -1.114722
  H      -5.711969      1.688138      0.078016
  O      -4.714792     -0.864705      0.016885
  O      -3.032680     -0.997069      1.483665
  H      -2.018643      4.178500     -0.853244
  H      -0.346700      4.575220     -0.356913
  H      -0.726778      4.211234     -2.065261
  C      -3.122606     -2.415880      1.412328
  H      -2.314550     -2.793776      2.033958
  H      -4.085932     -2.760880      1.788514
  H      -3.007090     -2.757686      0.383542
61
Coordinates from ORCA-job orca E -1383.969167413109
  C       2.028960      0.661406     -1.227721
  H       2.097553      1.574429     -0.635505
  H       3.027101      0.369302     -1.553245
  C       1.357058     -0.435457     -0.407880
  C       2.087732     -0.723446      0.922794
  H       1.578104     -1.556850      1.412066
  H       1.937454      0.148370      1.562611
  C       3.595076     -1.053988      0.926438
  C       1.231154     -1.691479     -1.265678
  O       1.496728     -1.763439     -2.434876
  O       0.735504     -2.730373     -0.573191
  C       4.454142      0.153530      0.559744
  O       5.386314      0.135386     -0.198381
  O       4.091023      1.255388      1.232966
  C       3.956102     -2.217021      0.005294
  H       5.007149     -2.480579      0.118492
  H       3.350590     -3.089060      0.259695
  H       3.799196     -1.975771     -1.045812
  C       3.975813     -1.422716      2.372534
  H       3.458018     -2.337980      2.665696
  H       5.049759     -1.599395      2.458881
  H       3.699840     -0.631896      3.070804
  C       0.553289     -3.932966     -1.315977
  H       0.153253     -4.658811     -0.612501
  H      -0.144468     -3.773348     -2.138437
  H       1.503783     -4.279955     -1.721595
  C       4.861224      2.423583      0.962742
  H       4.773523      2.701862     -0.087907
  H       4.450663      3.203802      1.598527
  H       5.911914      2.253667      1.196561
  H       1.455133      0.879524     -2.127878
  C      -0.085937      0.006062     -0.004543
  C      -1.004852      0.342921     -1.128214
  H       0.018774      0.869756      0.651010
  H      -0.535491     -0.805125      0.573753
  C      -2.922701      1.689457      1.711741
  C      -1.308640      1.717577     -1.484139
  C      -1.672718     -0.719424     -1.925071
  C      -3.772795      1.150082      0.845454
  H      -2.298622      1.077320      2.348145
  H      -2.828773      2.765246      1.800192
  O      -2.082113      2.039006     -2.362621
  O      -0.651649      2.629509     -0.735385
  H      -1.151931     -0.876962     -2.876551
  H      -1.676610     -1.667840     -1.386048
  H      -2.697768     -0.439189     -2.169912
  C      -4.655015      1.941013     -0.070157
  C      -3.902965     -0.333275      0.725227
  C      -0.953052      3.986026     -1.032798
  H      -4.526396      3.008162      0.108195
  H      -4.406888      1.732143     -1.112195
  H      -5.703198      1.676774      0.074508
  O      -4.709052     -0.876229      0.015078
  O      -3.029121     -1.012403      1.483713
  H      -2.010890      4.190926     -0.860594
  H      -0.337560      4.583308     -0.364352
  H      -0.718247      4.216565     -2.072098
  C      -3.118447     -2.430460      1.409732
  H      -2.312454     -2.809905      2.033275
  H      -4.082768     -2.776743      1.782260
  H      -2.999154     -2.771677      0.381037
61
Coordinates from ORCA-job orca E -1383.969179417993
  C       2.029132      0.663494     -1.229780
  H       2.099767      1.577601     -0.639527
  H       3.026575      0.368365     -1.554806
  C       1.354762     -0.430456     -0.408287
  C       2.083845     -0.717913      0.923393
  H       1.571506     -1.549111      1.413601
  H       1.935578      0.155486      1.561470
  C       3.590347     -1.052010      0.928210
  C       1.225997     -1.687640     -1.263768
  O       1.494057     -1.762927     -2.432227
  O       0.725472     -2.723504     -0.570283
  C       4.452188      0.153013      0.559915
  O       5.384870      0.131498     -0.197477
  O       4.091026      1.256846      1.231019
  C       3.949169     -2.217361      0.009071
  H       4.999303     -2.483719      0.124164
  H       3.340914     -3.087393      0.263852
  H       3.794137     -1.977189     -1.042545
  C       3.969843     -1.419219      2.375082
  H       3.450145     -2.332792      2.670014
  H       5.043418     -1.598087      2.461813
  H       3.695735     -0.626138      3.071525
  C       0.540635     -3.926969     -1.311322
  H       0.138673     -4.650502     -0.606591
  H      -0.156353     -3.766746     -2.134304
  H       1.490475     -4.276613     -1.716134
  C       4.863979      2.423030      0.958973
  H       4.778189      2.698600     -0.092537
  H       4.453721      3.205373      1.592291
  H       5.913996      2.251393      1.194467
  H       1.455760      0.881171     -2.130358
  C      -0.087653      0.014978     -0.006149
  C      -1.005498      0.352000     -1.130533
  H       0.018599      0.879123      0.648512
  H      -0.539103     -0.795133      0.572130
  C      -2.918253      1.673526      1.719108
  C      -1.305843      1.726739     -1.489061
  C      -1.674261     -0.710802     -1.926084
  C      -3.765772      1.136178      0.849135
  H      -2.296129      1.059970      2.356064
  H      -2.824003      2.749071      1.809437
  O      -2.076886      2.048835     -2.369485
  O      -0.648455      2.638514     -0.740283
  H      -1.146224     -0.879107     -2.871770
  H      -1.689001     -1.655221     -1.380323
  H      -2.694926     -0.424946     -2.181598
  C      -4.645417      1.929394     -0.066914
  C      -3.896335     -0.346708      0.725718
  C      -0.945641      3.995363     -1.041439
  H      -4.516780      2.996276      0.113358
  H      -4.395003      1.722925     -1.108891
  H      -5.694009      1.665358      0.074957
  O      -4.700880     -0.888084      0.012659
  O      -3.024554     -1.027670      1.485040
  H      -2.002928      4.203839     -0.870427
  H      -0.328502      4.591885     -0.373845
  H      -0.709502      4.222467     -2.081170
  C      -3.113369     -2.445306      1.408758
  H      -2.309512     -2.825887      2.034442
  H      -4.078823     -2.792649      1.777454
  H      -2.990550     -2.786173      0.380185
61
Coordinates from ORCA-job orca E -1383.969190294053
  C       2.029493      0.664628     -1.232334
  H       2.101276      1.580008     -0.644225
  H       3.026612      0.367174     -1.556310
  C       1.352951     -0.426587     -0.409103
  C       2.080446     -0.712680      0.923765
  H       1.565671     -1.541504      1.415374
  H       1.934166      0.162690      1.559568
  C       3.586251     -1.050047      0.930146
  C       1.222407     -1.685265     -1.261992
  O       1.493650     -1.764234     -2.429497
  O       0.716709     -2.717891     -0.567475
  C       4.450701      0.152646      0.560166
  O       5.384024      0.127898     -0.196309
  O       4.091093      1.258547      1.228810
  C       3.943486     -2.217708      0.013285
  H       4.992745     -2.486482      0.130740
  H       3.332574     -3.085853      0.268218
  H       3.790811     -1.978751     -1.038926
  C       3.964046     -1.415385      2.377927
  H       3.443095     -2.327847      2.674014
  H       5.037341     -1.595393      2.465760
  H       3.690404     -0.620543      3.072540
  C       0.529830     -3.922502     -1.306392
  H       0.126032     -4.643628     -0.600286
  H      -0.166277     -3.762161     -2.130101
  H       1.479116     -4.274671     -1.710264
  C       4.866558      2.422788      0.954826
  H       4.783040      2.695358     -0.097655
  H       4.456245      3.207389      1.585272
  H       5.915913      2.249869      1.192285
  H       1.456861      0.881056     -2.133720
  C      -0.089092      0.022038     -0.008479
  C      -1.005733      0.359390     -1.133624
  H       0.018041      0.886379      0.645747
  H      -0.542399     -0.787322      0.569463
  C      -2.913359      1.659765      1.726261
  C      -1.304134      1.734133     -1.493514
  C      -1.674779     -0.703694     -1.928520
  C      -3.759269      1.124999      0.852968
  H      -2.292677      1.044366      2.362839
  H      -2.818610      2.735080      1.819337
  O      -2.074218      2.056810     -2.374519
  O      -0.645558      2.645591     -0.745062
  H      -1.139697     -0.881536     -2.868581
  H      -1.698958     -1.644377     -1.377114
  H      -2.691361     -0.413498     -2.194594
  C      -4.637584      1.921160     -0.061820
  C      -3.890103     -0.357540      0.725349
  C      -0.940353      4.002743     -1.047923
  H      -4.508949      2.987609      0.120800
  H      -4.387576      1.717518     -1.104455
  H      -5.686359      1.657271      0.079294
  O      -4.693141     -0.896741      0.009111
  O      -3.020152     -1.040555      1.485016
  H      -1.996959      4.213640     -0.876036
  H      -0.321287      4.598297     -0.381257
  H      -0.704731      4.227910     -2.088165
  C      -3.109379     -2.458101      1.405742
  H      -2.307799     -2.840084      2.033325
  H      -4.075981     -2.805846      1.771053
  H      -2.983467     -2.797984      0.377149
61
Coordinates from ORCA-job orca E -1383.969199965381
  C       2.030224      0.665737     -1.234656
  H       2.102377      1.582019     -0.648035
  H       3.027400      0.366746     -1.557070
  C       1.351344     -0.423320     -0.410439
  C       2.077051     -0.708425      0.923621
  H       1.560148     -1.535225      1.416407
  H       1.932561      0.168668      1.557410
  C       3.582280     -1.048901      0.931992
  C       1.220171     -1.683293     -1.261307
  O       1.494115     -1.765204     -2.427972
  O       0.710326     -2.713325     -0.566001
  C       4.449282      0.151748      0.561103
  O       5.382907      0.124436     -0.194880
  O       4.091488      1.259164      1.228330
  C       3.938522     -2.218323      0.017013
  H       4.986951     -2.489287      0.137017
  H       3.325029     -3.084816      0.271393
  H       3.788737     -1.980052     -1.035744
  C       3.957714     -1.412903      2.380654
  H       3.435695     -2.324786      2.676654
  H       5.030757     -1.593531      2.470374
  H       3.683408     -0.617210      3.074021
  C       0.522545     -3.919004     -1.302972
  H       0.117320     -4.638332     -0.595861
  H      -0.172685     -3.759056     -2.127520
  H       1.471556     -4.272970     -1.705895
  C       4.869581      2.421444      0.953478
  H       4.788355      2.692300     -0.099637
  H       4.459711      3.207885      1.581885
  H       5.918306      2.246903      1.192553
  H       1.458843      0.881056     -2.137103
  C      -0.090332      0.028088     -0.011748
  C      -1.005850      0.365893     -1.137686
  H       0.017489      0.892681      0.642026
  H      -0.545576     -0.780302      0.566205
  C      -2.907951      1.649793      1.730602
  C      -1.303749      1.740541     -1.498191
  C      -1.675764     -0.697559     -1.931297
  C      -3.754050      1.116138      0.856732
  H      -2.287169      1.033747      2.366459
  H      -2.813065      2.725034      1.824975
  O      -2.074488      2.063660     -2.378344
  O      -0.643228      2.651900     -0.750900
  H      -1.136700     -0.882621     -2.867784
  H      -1.706016     -1.635303     -1.375782
  H      -2.689652     -0.405036     -2.204555
  C      -4.633001      1.913792     -0.055907
  C      -3.884868     -0.366378      0.726868
  C      -0.936579      4.009147     -1.055022
  H      -4.504793      2.980036      0.127965
  H      -4.385721      1.711423     -1.099444
  H      -5.681572      1.649641      0.086868
  O      -4.687895     -0.904461      0.010014
  O      -3.014568     -1.050124      1.485469
  H      -1.992607      4.222062     -0.882194
  H      -0.316116      4.604224     -0.389199
  H      -0.701678      4.233010     -2.095690
  C      -3.103961     -2.468003      1.403852
  H      -2.303817     -2.850358      2.032980
  H      -4.071331     -2.815990      1.766785
  H      -2.975759     -2.806482      0.375027
61
Coordinates from ORCA-job orca E -1383.969208553057
  C       2.030857      0.665512     -1.237695
  H       2.103308      1.582518     -0.652220
  H       3.028129      0.365157     -1.558514
  C       1.349622     -0.421376     -0.412441
  C       2.073756     -0.705245      0.922717
  H       1.555723     -1.530726      1.416513
  H       1.929997      0.173165      1.554847
  C       3.578715     -1.047356      0.933284
  C       1.218327     -1.682857     -1.261167
  O       1.494855     -1.767856     -2.426983
  O       0.704470     -2.710263     -0.564872
  C       4.447172      0.152388      0.562634
  O       5.381271      0.124075     -0.192735
  O       4.089789      1.260422      1.229160
  C       3.935205     -2.217636      0.019562
  H       4.983034     -2.489905      0.141936
  H       3.319903     -3.083161      0.272897
  H       3.788225     -1.979566     -1.033619
  C       3.951565     -1.410758      2.382711
  H       3.428727     -2.322559      2.677678
  H       5.024378     -1.591560      2.474647
  H       3.675848     -0.615095      3.075557
  C       0.515277     -3.916920     -1.299666
  H       0.108857     -4.634599     -0.591550
  H      -0.179619     -3.757481     -2.124652
  H       1.463718     -4.272992     -1.702088
  C       4.869021      2.421831      0.954536
  H       4.789914      2.692000     -0.098934
  H       4.458824      3.209269      1.581504
  H       5.917326      2.246930      1.195320
  H       1.460761      0.879895     -2.141193
  C      -0.091528      0.032647     -0.015840
  C      -1.005772      0.371098     -1.142619
  H       0.016966      0.897614      0.637357
  H      -0.548954     -0.774325      0.562367
  C      -2.900414      1.641423      1.734410
  C      -1.303218      1.745806     -1.503028
  C      -1.677292     -0.692573     -1.934443
  C      -3.747489      1.109010      0.860595
  H      -2.279519      1.024520      2.369342
  H      -2.805015      2.716523      1.830229
  O      -2.075697      2.069565     -2.381265
  O      -0.639726      2.656642     -0.757377
  H      -1.134202     -0.885492     -2.867144
  H      -1.714134     -1.627570     -1.374371
  H      -2.688349     -0.397296     -2.215122
  C      -4.627863      1.908043     -0.049426
  C      -3.878798     -0.373560      0.728839
  C      -0.931343      4.014178     -1.061831
  H      -4.500148      2.974044      0.135780
  H      -4.384827      1.706841     -1.094222
  H      -5.676083      1.643504      0.096078
  O      -4.682357     -0.910146      0.011545
  O      -3.008304     -1.058559      1.486274
  H      -1.986661      4.229327     -0.887366
  H      -0.309185      4.608713     -0.397070
  H      -0.697645      4.237117     -2.102968
  C      -3.099386     -2.476822      1.402450
  H      -2.300901     -2.860198      2.032954
  H      -4.067969     -2.823497      1.763269
  H      -2.969495     -2.813485      0.373327
61
Coordinates from ORCA-job orca E -1383.969218172269
  C       2.031271      0.666713     -1.239096
  H       2.104336      1.583902     -0.653949
  H       3.028501      0.364878     -1.558560
  C       1.347478     -0.418462     -0.413646
  C       2.069867     -0.701791      0.922624
  H       1.550218     -1.525800      1.417188
  H       1.926846      0.177685      1.553449
  C       3.574309     -1.046465      0.935576
  C       1.216077     -1.680806     -1.261184
  O       1.493433     -1.767437     -2.426661
  O       0.700494     -2.706916     -0.564161
  C       4.445262      0.151012      0.563473
  O       5.379883      0.119678     -0.191133
  O       4.089237      1.260929      1.227550
  C       3.929940     -2.219193      0.024750
  H       4.976959     -2.493534      0.149470
  H       3.312278     -3.082868      0.278653
  H       3.785459     -1.982781     -1.029145
  C       3.944665     -1.407585      2.386178
  H       3.420050     -2.318167      2.681813
  H       5.017059     -1.589707      2.480125
  H       3.668942     -0.610574      3.077449
  C       0.510422     -3.914089     -1.297635
  H       0.104117     -4.631179     -0.588841
  H      -0.185062     -3.755234     -2.122260
  H       1.458390     -4.271013     -1.700429
  C       4.870714      2.420342      0.951599
  H       4.793859      2.688534     -0.102545
  H       4.461049      3.210010      1.576129
  H       5.918361      2.244379      1.194533
  H       1.462473      0.881342     -2.143347
  C      -0.093387      0.037657     -0.019395
  C      -1.006123      0.377380     -1.147244
  H       0.015433      0.902674      0.633733
  H      -0.553090     -0.768251      0.558532
  C      -2.894462      1.633338      1.737104
  C      -1.302543      1.752487     -1.507167
  C      -1.679377     -0.686040     -1.937734
  C      -3.742377      1.100974      0.864168
  H      -2.272487      1.016447      2.371010
  H      -2.799844      2.708403      1.833940
  O      -2.076059      2.077550     -2.384001
  O      -0.636689      2.662295     -0.762377
  H      -1.134567     -0.884181     -2.868395
  H      -1.720518     -1.619145     -1.374967
  H      -2.688593     -0.388978     -2.222688
  C      -4.625424      1.899811     -0.043239
  C      -3.873146     -0.381641      0.731396
  C      -0.925021      4.020227     -1.067790
  H      -4.498587      2.965881      0.142124
  H      -4.386778      1.698628     -1.089011
  H      -5.673019      1.634457      0.105772
  O      -4.678251     -0.917882      0.015609
  O      -3.000557     -1.067058      1.486016
  H      -1.979873      4.238089     -0.893944
  H      -0.302048      4.614122     -0.403205
  H      -0.690292      4.242042     -2.108947
  C      -3.091867     -2.485548      1.400011
  H      -2.294333     -2.869371      2.031509
  H      -4.061301     -2.831762      1.758746
  H      -2.960059     -2.820069      0.370370
61
Coordinates from ORCA-job orca E -1383.969222923858
  C       2.031585      0.669085     -1.239524
  H       2.105301      1.586097     -0.654175
  H       3.028723      0.366010     -1.558079
  C       1.345621     -0.415035     -0.414430
  C       2.066556     -0.698944      0.922497
  H       1.545547     -1.522168      1.416982
  H       1.923917      0.180815      1.553049
  C       3.570487     -1.045737      0.937016
  C       1.213297     -1.677363     -1.261887
  O       1.491128     -1.764516     -2.427206
  O       0.696376     -2.702881     -0.564894
  C       4.443488      0.150181      0.564958
  O       5.378531      0.117093     -0.189057
  O       4.088603      1.260927      1.228187
  C       3.925110     -2.219647      0.027304
  H       4.971499     -2.495876      0.153186
  H       3.305615     -3.082026      0.281114
  H       3.782181     -1.983589     -1.026886
  C       3.938954     -1.406549      2.388180
  H       3.412334     -2.315973      2.683872
  H       5.010914     -1.590599      2.483213
  H       3.664094     -0.608785      3.078929
  C       0.505104     -3.909837     -1.298139
  H       0.098536     -4.626815     -0.589344
  H      -0.190817     -3.750675     -2.122349
  H       1.452593     -4.267648     -1.701282
  C       4.871739      2.419043      0.952201
  H       4.796299      2.686770     -0.102167
  H       4.462699      3.209862      1.575706
  H       5.918927      2.242079      1.196480
  H       1.463805      0.884566     -2.144203
  C      -0.094867      0.042807     -0.021833
  C      -1.006753      0.381880     -1.150589
  H       0.014273      0.908648      0.630157
  H      -0.556020     -0.761600      0.556755
  C      -2.888560      1.626256      1.739837
  C      -1.302032      1.756844     -1.511872
  C      -1.681152     -0.682294     -1.939010
  C      -3.736745      1.093857      0.867185
  H      -2.266205      1.009274      2.373318
  H      -2.794482      2.701290      1.837460
  O      -2.075849      2.081613     -2.388542
  O      -0.634786      2.666659     -0.768508
  H      -1.131832     -0.888242     -2.865398
  H      -1.729346     -1.612770     -1.371202
  H      -2.687448     -0.381519     -2.230599
  C      -4.621108      1.892339     -0.039427
  C      -3.867299     -0.388771      0.734397
  C      -0.920434      4.024559     -1.075951
  H      -4.494805      2.958451      0.145924
  H      -4.384411      1.691177     -1.085618
  H      -5.668377      1.626379      0.110981
  O      -4.673556     -0.925024      0.019705
  O      -2.993570     -1.074500      1.487505
  H      -1.974801      4.244905     -0.902190
  H      -0.296294      4.618756     -0.412728
  H      -0.685441      4.244283     -2.117514
  C      -3.086032     -2.492979      1.401624
  H      -2.289871     -2.877276      2.034600
  H      -4.056803     -2.837619      1.758122
  H      -2.952490     -2.826907      0.372056
61
Coordinates from ORCA-job orca E -1383.969228761378
  C       2.031264      0.669368     -1.240713
  H       2.105746      1.586663     -0.655898
  H       3.028185      0.364786     -1.558530
  C       1.343716     -0.413366     -0.415124
  C       2.063367     -0.696819      0.922494
  H       1.541541     -1.519529      1.417040
  H       1.920152      0.183172      1.552633
  C       3.566974     -1.044413      0.938323
  C       1.210158     -1.676055     -1.261763
  O       1.487271     -1.763941     -2.427202
  O       0.692835     -2.700959     -0.564034
  C       4.441085      0.150459      0.566015
  O       5.376666      0.116056     -0.187297
  O       4.086494      1.261893      1.228137
  C       3.920984     -2.219480      0.029821
  H       4.967056     -2.496703      0.156087
  H       3.300632     -3.081032      0.284364
  H       3.778353     -1.984241     -1.024622
  C       3.934472     -1.404531      2.389971
  H       3.406101     -2.312586      2.686730
  H       5.006096     -1.590518      2.485267
  H       3.661247     -0.605506      3.079940
  C       0.500303     -3.908080     -1.296480
  H       0.093336     -4.624472     -0.587270
  H      -0.195959     -3.749110     -2.120438
  H       1.447446     -4.267076     -1.699393
  C       4.870254      2.419376      0.951722
  H       4.795621      2.686305     -0.102893
  H       4.461237      3.211056      1.574173
  H       5.917145      2.242351      1.197270
  H       1.464086      0.885183     -2.145666
  C      -0.096628      0.046034     -0.023936
  C      -1.007827      0.385944     -1.153327
  H       0.012800      0.912084      0.627724
  H      -0.559640     -0.757244      0.554830
  C      -2.884130      1.620366      1.741397
  C      -1.300315      1.761560     -1.514641
  C      -1.684169     -0.677504     -1.940936
  C      -3.732929      1.087653      0.869610
  H      -2.260121      1.003274      2.373172
  H      -2.791696      2.695403      1.840795
  O      -2.073682      2.087926     -2.391244
  O      -0.630903      2.669801     -0.771726
  H      -1.133227     -0.887973     -2.865285
  H      -1.737194     -1.606099     -1.370957
  H      -2.688604     -0.373741     -2.235622
  C      -4.620324      1.885096     -0.034990
  C      -3.862244     -0.394761      0.736286
  C      -0.910623      4.028356     -1.081036
  H      -4.494671      2.951343      0.150112
  H      -4.386089      1.683871     -1.081756
  H      -5.666947      1.618021      0.117807
  O      -4.669922     -0.931163      0.023136
  O      -2.986216     -1.080670      1.486633
  H      -1.964382      4.252921     -0.909376
  H      -0.285113      4.621364     -0.418059
  H      -0.673080      4.245974     -2.122500
  C      -3.078473     -2.499102      1.399755
  H      -2.283395     -2.883680      2.033704
  H      -4.049676     -2.843191      1.755546
  H      -2.942792     -2.831774      0.370120
61
Coordinates from ORCA-job orca E -1383.969234820059
  C       2.031777      0.670452     -1.242975
  H       2.108302      1.588478     -0.659563
  H       3.028018      0.362923     -1.560085
  C       1.341442     -0.409465     -0.416056
  C       2.059451     -0.692255      0.922484
  H       1.535753     -1.513363      1.417703
  H       1.917093      0.188761      1.551350
  C       3.562395     -1.042348      0.939706
  C       1.205221     -1.673158     -1.260683
  O       1.482779     -1.763530     -2.425838
  O       0.684694     -2.695586     -0.561780
  C       4.438904      0.150630      0.566968
  O       5.374985      0.113883     -0.185605
  O       4.086068      1.263189      1.228161
  C       3.914723     -2.218908      0.032448
  H       4.960229     -2.497916      0.159394
  H       3.292681     -3.079106      0.287520
  H       3.772896     -1.984383     -1.022281
  C       3.928430     -1.401855      2.391854
  H       3.398054     -2.308450      2.689441
  H       4.999637     -1.590002      2.487712
  H       3.656665     -0.601446      3.080800
  C       0.488692     -3.903066     -1.292727
  H       0.078627     -4.617028     -0.582829
  H      -0.206283     -3.742957     -2.117527
  H       1.435012     -4.265952     -1.694073
  C       4.872364      2.418981      0.951665
  H       4.799469      2.685088     -0.103270
  H       4.464010      3.211955      1.572913
  H       5.918594      2.240265      1.198730
  H       1.465296      0.886383     -2.148335
  C      -0.098259      0.053676     -0.026377
  C      -1.008534      0.393826     -1.156482
  H       0.012651      0.920383      0.624134
  H      -0.563356     -0.748307      0.552196
  C      -2.877406      1.607834      1.745065
  C      -1.297990      1.769637     -1.519705
  C      -1.686950     -0.669600     -1.942761
  C      -3.725579      1.075464      0.872614
  H      -2.253204      0.990530      2.376430
  H      -2.786006      2.682736      1.845386
  O      -2.068658      2.096662     -2.398467
  O      -0.628858      2.677547     -0.776192
  H      -1.130317     -0.889725     -2.861400
  H      -1.750626     -1.594916     -1.367094
  H      -2.686815     -0.358694     -2.244931
  C      -4.612736      1.873315     -0.031903
  C      -3.854653     -0.406834      0.738371
  C      -0.904058      4.036233     -1.088819
  H      -4.486209      2.939634      0.152547
  H      -4.378082      1.671801     -1.078397
  H      -5.659468      1.606758      0.120714
  O      -4.663091     -0.943148      0.025898
  O      -2.978050     -1.093575      1.487129
  H      -1.957442      4.264513     -0.919831
  H      -0.277843      4.628922     -0.426213
  H      -0.663892      4.251140     -2.130261
  C      -3.071685     -2.511562      1.400876
  H      -2.278859     -2.897435      2.037210
  H      -4.045089     -2.854558      1.751609
  H      -2.933263     -2.844129      0.371326
61
Coordinates from ORCA-job orca E -1383.969238034266
  C       2.032016      0.670661     -1.241938
  H       2.109144      1.588329     -0.658045
  H       3.027965      0.362962     -1.559795
  C       1.341962     -0.409721     -0.415478
  C       2.060318     -0.693547      0.922608
  H       1.537021     -1.515386      1.416991
  H       1.917677      0.186663      1.552507
  C       3.563345     -1.042983      0.938617
  C       1.204923     -1.672665     -1.261046
  O       1.480589     -1.761637     -2.426774
  O       0.686375     -2.696180     -0.562378
  C       4.439216      0.150941      0.567394
  O       5.375182      0.115636     -0.185380
  O       4.086201      1.262356      1.230410
  C       3.915624     -2.217897      0.029150
  H       4.961415     -2.496435      0.154673
  H       3.294381     -3.078886      0.283431
  H       3.772601     -1.981817     -1.025064
  C       3.930426     -1.404622      2.389984
  H       3.400587     -2.311769      2.686761
  H       5.001755     -1.592570      2.484733
  H       3.658950     -0.605150      3.080119
  C       0.489692     -3.902868     -1.294571
  H       0.080037     -4.617470     -0.585092
  H      -0.205723     -3.741718     -2.118755
  H       1.435799     -4.265353     -1.696776
  C       4.872304      2.418803      0.955638
  H       4.798888      2.686631     -0.098815
  H       4.463961      3.210551      1.578464
  H       5.918614      2.239728      1.202042
  H       1.465045      0.887444     -2.146798
  C      -0.097826      0.053214     -0.025221
  C      -1.008957      0.392096     -1.154998
  H       0.012996      0.920612      0.624357
  H      -0.562165     -0.748012      0.555151
  C      -2.881580      1.611485      1.744513
  C      -1.297587      1.767677     -1.519671
  C      -1.687573     -0.671296     -1.941057
  C      -3.728615      1.077265      0.871892
  H      -2.256705      0.995296      2.376294
  H      -2.791847      2.686628      1.844554
  O      -2.067010      2.093827     -2.399876
  O      -0.629289      2.676027     -0.776044
  H      -1.130867     -0.891837     -2.859502
  H      -1.752294     -1.595748     -1.365289
  H      -2.687193     -0.359618     -2.243256
  C      -4.616139      1.873103     -0.034239
  C      -3.855491     -0.405328      0.738873
  C      -0.903156      4.034525     -1.090405
  H      -4.490453      2.939633      0.149166
  H      -4.379455      1.671045     -1.080277
  H      -5.662700      1.605513      0.117302
  O      -4.662944     -0.943198      0.026455
  O      -2.977976     -1.090136      1.488436
  H      -1.956514      4.263923     -0.922761
  H      -0.276932      4.627432     -0.428004
  H      -0.661736      4.248097     -2.131842
  C      -3.070842     -2.508567      1.403968
  H      -2.278342     -2.893347      2.040818
  H      -4.043729     -2.851244      1.756439
  H      -2.931722     -2.842760      0.375307
61
Coordinates from ORCA-job orca E -1383.969243029876
  C       2.032466      0.670609     -1.242110
  H       2.110372      1.588455     -0.658617
  H       3.028114      0.362235     -1.560323
  C       1.342132     -0.409208     -0.415217
  C       2.060431     -0.693099      0.922892
  H       1.536726     -1.514577      1.417390
  H       1.918476      0.187358      1.552614
  C       3.563304     -1.043166      0.938424
  C       1.204121     -1.672325     -1.260311
  O       1.479358     -1.761730     -2.426138
  O       0.685302     -2.695306     -0.561200
  C       4.439489      0.150650      0.567369
  O       5.375803      0.115076     -0.184955
  O       4.086327      1.262281      1.229992
  C       3.915070     -2.217711      0.028310
  H       4.960911     -2.496260      0.153366
  H       3.293879     -3.078775      0.282421
  H       3.771643     -1.981233     -1.025746
  C       3.930703     -1.405318      2.389572
  H       3.401071     -2.312642      2.686176
  H       5.002076     -1.593148      2.484004
  H       3.659181     -0.605976      3.079840
  C       0.487519     -3.902102     -1.293171
  H       0.076839     -4.615857     -0.583469
  H      -0.207199     -3.740233     -2.117778
  H       1.433439     -4.265580     -1.694915
  C       4.873031      2.418502      0.955343
  H       4.800072      2.686056     -0.099210
  H       4.464560      3.210292      1.577999
  H       5.919177      2.238872      1.201983
  H       1.465215      0.887369     -2.146813
  C      -0.097340      0.054839     -0.024795
  C      -1.008562      0.393625     -1.154433
  H       0.014133      0.922533      0.624243
  H      -0.561856     -0.745860      0.556383
  C      -2.882327      1.610438      1.742831
  C      -1.296790      1.769241     -1.519370
  C      -1.687489     -0.669488     -1.940783
  C      -3.729361      1.075187      0.870773
  H      -2.256637      0.995047      2.374588
  H      -2.793287      2.685775      1.841899
  O      -2.065148      2.095492     -2.400408
  O      -0.629234      2.677594     -0.774880
  H      -1.130292     -0.891098     -2.858641
  H      -1.754412     -1.593150     -1.364819
  H      -2.686362     -0.356517     -2.244068
  C      -4.617177      1.870394     -0.035611
  C      -3.855234     -0.407577      0.738307
  C      -0.902547      4.036185     -1.089750
  H      -4.491301      2.936950      0.147267
  H      -4.379495      1.668330     -1.081504
  H      -5.663708      1.602663      0.115688
  O      -4.661377     -0.946098      0.025071
  O      -2.978056     -1.091364      1.489231
  H      -1.956042      4.265838     -0.923694
  H      -0.276969      4.628693     -0.426386
  H      -0.659695      4.249628     -2.130882
  C      -3.070180     -2.510053      1.405513
  H      -2.278546     -2.894337      2.043660
  H      -4.043159     -2.853091      1.757356
  H      -2.929508     -2.844990      0.377392
61
Coordinates from ORCA-job orca E -1383.969247474730
  C       2.033525      0.668715     -1.244111
  H       2.112396      1.587530     -0.662304
  H       3.028854      0.358995     -1.562132
  C       1.342380     -0.409161     -0.415408
  C       2.060750     -0.691956      0.922980
  H       1.536502     -1.512479      1.418454
  H       1.920010      0.189501      1.551573
  C       3.563500     -1.042821      0.938103
  C       1.202948     -1.673511     -1.258402
  O       1.477898     -1.764970     -2.424198
  O       0.683258     -2.694730     -0.557626
  C       4.440089      0.150741      0.566665
  O       5.377186      0.114290     -0.184636
  O       4.086335      1.263205      1.227637
  C       3.914970     -2.217336      0.027928
  H       4.960912     -2.495579      0.152884
  H       3.293920     -3.078489      0.282104
  H       3.771357     -1.980970     -1.026113
  C       3.931348     -1.404624      2.389222
  H       3.402637     -2.312502      2.685779
  H       5.002909     -1.591380      2.483646
  H       3.658796     -0.605419      3.079237
  C       0.483001     -3.902268     -1.288157
  H       0.070507     -4.613894     -0.577430
  H      -0.210634     -3.739486     -2.113469
  H       1.428343     -4.268024     -1.689180
  C       4.874143      2.418845      0.952611
  H       4.802316      2.685173     -0.102329
  H       4.465256      3.211132      1.574281
  H       5.919949      2.238403      1.200031
  H       1.466209      0.884223     -2.149098
  C      -0.096157      0.057885     -0.024994
  C      -1.006880      0.397325     -1.154608
  H       0.017170      0.926123      0.622938
  H      -0.561825     -0.741118      0.557865
  C      -2.880996      1.606708      1.739103
  C      -1.295100      1.773250     -1.518481
  C      -1.686025     -0.664558     -1.942591
  C      -3.729208      1.070810      0.868295
  H      -2.253986      0.991941      2.370158
  H      -2.792017      2.682281      1.836580
  O      -2.062041      2.100160     -2.400362
  O      -0.629182      2.681020     -0.771417
  H      -1.124932     -0.890320     -2.857053
  H      -1.760943     -1.586350     -1.365350
  H      -2.681637     -0.347387     -2.251972
  C      -4.617729      1.866281     -0.037375
  C      -3.854633     -0.412183      0.736027
  C      -0.903449      4.040017     -1.084337
  H      -4.490151      2.932625      0.145074
  H      -4.380011      1.664944     -1.083487
  H      -5.664287      1.599326      0.114704
  O      -4.658540     -0.950777      0.020580
  O      -2.979331     -1.095292      1.489847
  H      -1.957383      4.268420     -0.919586
  H      -0.279408      4.631243     -0.418392
  H      -0.659175      4.255490     -2.124707
  C      -3.072531     -2.514369      1.407437
  H      -2.284262     -2.899259      2.049215
  H      -4.047206     -2.856130      1.755743
  H      -2.928065     -2.850919      0.380505
61
Coordinates from ORCA-job orca E -1383.969254512626
  C       2.034409      0.666625     -1.246543
  H       2.113947      1.586536     -0.666545
  H       3.029540      0.355642     -1.563963
  C       1.342287     -0.409047     -0.415705
  C       2.060889     -0.690414      0.922978
  H       1.536168     -1.509758      1.419886
  H       1.921391      0.192217      1.550169
  C       3.563426     -1.042334      0.938081
  C       1.201416     -1.674897     -1.256196
  O       1.476819     -1.769191     -2.421678
  O       0.680033     -2.693898     -0.553519
  C       4.440603      0.150480      0.565353
  O       5.378003      0.112675     -0.185521
  O       4.086897      1.264019      1.224563
  C       3.914238     -2.217896      0.029036
  H       4.960035     -2.496529      0.154412
  H       3.292683     -3.078494      0.283892
  H       3.770938     -1.982466     -1.025249
  C       3.931288     -1.402792      2.389538
  H       3.402467     -2.310398      2.686807
  H       5.002824     -1.589529      2.484222
  H       3.658655     -0.602946      3.078781
  C       0.478061     -3.902603     -1.281760
  H       0.064198     -4.612116     -0.569750
  H      -0.214863     -3.740107     -2.107733
  H       1.422953     -4.270517     -1.681907
  C       4.875280      2.419029      0.948254
  H       4.803715      2.684058     -0.107035
  H       4.466587      3.212172      1.568956
  H       5.920999      2.238268      1.195798
  H       1.467308      0.880596     -2.152040
  C      -0.095293      0.060743     -0.025544
  C      -1.005264      0.401840     -1.155293
  H       0.019889      0.929067      0.621916
  H      -0.562450     -0.736835      0.558226
  C      -2.878841      1.602469      1.734403
  C      -1.293785      1.778451     -1.516717
  C      -1.684364     -0.658707     -1.945151
  C      -3.728485      1.065972      0.865426
  H      -2.250403      0.988383      2.364668
  H      -2.789941      2.678176      1.830272
  O      -2.060437      2.107143     -2.398103
  O      -0.628474      2.685009     -0.767375
  H      -1.120411     -0.887151     -2.857205
  H      -1.765122     -1.579689     -1.367506
  H      -2.677551     -0.338922     -2.259491
  C      -4.618476      1.861491     -0.038668
  C      -3.853739     -0.417097      0.733383
  C      -0.903429      4.044661     -1.077363
  H      -4.490010      2.927735      0.143820
  H      -4.382241      1.660860     -1.085234
  H      -5.664832      1.594786      0.115139
  O      -4.656212     -0.955820      0.016550
  O      -2.979869     -1.099907      1.489258
  H      -1.957930      4.271701     -0.914242
  H      -0.281336      4.634426     -0.408314
  H      -0.657336      4.262936     -2.116712
  C      -3.073229     -2.519088      1.407092
  H      -2.287765     -2.904157      2.052358
  H      -4.049406     -2.860173      1.751830
  H      -2.924806     -2.856351      0.380895
61
Coordinates from ORCA-job orca E -1383.969262359659
  C       2.035562      0.663608     -1.249498
  H       2.115980      1.584766     -0.671557
  H       3.030388      0.351133     -1.566312
  C       1.342363     -0.409316     -0.415852
  C       2.061690     -0.688837      0.922971
  H       1.536651     -1.506796      1.421835
  H       1.923509      0.195161      1.548490
  C       3.563979     -1.041897      0.938127
  C       1.199767     -1.677002     -1.253348
  O       1.476369     -1.774962     -2.418239
  O       0.675647     -2.693197     -0.548599
  C       4.441714      0.149682      0.562766
  O       5.378937      0.109865     -0.188245
  O       4.088485      1.264771      1.219562
  C       3.913726     -2.219578      0.031465
  H       4.959177     -2.499129      0.157629
  H       3.291226     -3.079047      0.287856
  H       3.770953     -1.986048     -1.023313
  C       3.931947     -1.399805      2.390216
  H       3.402327     -2.306400      2.689174
  H       5.003322     -1.587330      2.485090
  H       3.660197     -0.598561      3.078207
  C       0.472197     -3.903344     -1.273901
  H       0.057006     -4.610680     -0.560504
  H      -0.220161     -3.741810     -2.100544
  H       1.416656     -4.273596     -1.672940
  C       4.876616      2.419155      0.940276
  H       4.803847      2.682357     -0.115401
  H       4.468814      3.213581      1.559925
  H       5.922638      2.238832      1.186866
  H       1.468647      0.875879     -2.155523
  C      -0.093913      0.063718     -0.025729
  C      -1.002956      0.407291     -1.155664
  H       0.023882      0.932163      0.621110
  H      -0.562828     -0.731620      0.559730
  C      -2.877427      1.598084      1.728286
  C      -1.292210      1.784892     -1.513071
  C      -1.680885     -0.651162     -1.948973
  C      -3.728158      1.060781      0.860949
  H      -2.247857      0.984856      2.358217
  H      -2.788660      2.673923      1.822254
  O      -2.059021      2.116066     -2.393372
  O      -0.627719      2.689579     -0.760678
  H      -1.111337     -0.883175     -2.856702
  H      -1.770067     -1.571554     -1.371020
  H      -2.670177     -0.327822     -2.271756
  C      -4.619832      1.855930     -0.041818
  C      -3.853273     -0.422367      0.729611
  C      -0.904665      4.050047     -1.065265
  H      -4.491069      2.922168      0.140794
  H      -4.385779      1.656049     -1.088921
  H      -5.665872      1.589137      0.114014
  O      -4.654891     -0.961766      0.012293
  O      -2.980477     -1.104767      1.487267
  H      -1.960153      4.274191     -0.903877
  H      -0.285783      4.638058     -0.391733
  H      -0.656358      4.273378     -2.103011
  C      -3.074487     -2.523935      1.405890
  H      -2.293231     -2.909119      2.056339
  H      -4.053207     -2.863304      1.745062
  H      -2.920117     -2.862833      0.380996
61
Coordinates from ORCA-job orca E -1383.969273326251
  C       2.036587      0.661884     -1.251751
  H       2.117735      1.583929     -0.675273
  H       3.031126      0.348275     -1.568274
  C       1.342781     -0.408920     -0.415806
  C       2.062915     -0.686944      0.922915
  H       1.537447     -1.503544      1.423600
  H       1.925976      0.198224      1.547010
  C       3.564865     -1.041566      0.938255
  C       1.198776     -1.678045     -1.250929
  O       1.478338     -1.779615     -2.414773
  O       0.670003     -2.691246     -0.545187
  C       4.443664      0.148033      0.559500
  O       5.379969      0.105565     -0.192510
  O       4.092451      1.264824      1.214370
  C       3.912899     -2.222127      0.034705
  H       4.957853     -2.503207      0.161646
  H       3.289056     -3.079958      0.293352
  H       3.770518     -1.991083     -1.020670
  C       3.932803     -1.396342      2.391129
  H       3.401744     -2.301306      2.692490
  H       5.003896     -1.585440      2.486135
  H       3.662858     -0.593091      3.077497
  C       0.465574     -3.902489     -1.268043
  H       0.049052     -4.608154     -0.553720
  H      -0.226349     -3.742026     -2.095313
  H       1.409727     -4.274874     -1.665833
  C       4.881315      2.417724      0.932010
  H       4.807331      2.679349     -0.123988
  H       4.475472      3.213942      1.550676
  H       5.927511      2.236984      1.177608
  H       1.469645      0.872992     -2.158039
  C      -0.092441      0.066462     -0.025394
  C      -1.001103      0.411977     -1.155240
  H       0.027683      0.935087      0.620789
  H      -0.562265     -0.726974      0.561833
  C      -2.879396      1.594766      1.723478
  C      -1.291285      1.790421     -1.508879
  C      -1.676892     -0.645086     -1.951886
  C      -3.729464      1.056309      0.856432
  H      -2.249586      0.982646      2.354198
  H      -2.791302      2.670699      1.816069
  O      -2.058426      2.123849     -2.388108
  O      -0.627648      2.693540     -0.753980
  H      -1.102041     -0.879428     -2.855762
  H      -1.771843     -1.565694     -1.374276
  H      -2.663143     -0.319793     -2.281809
  C      -4.622071      1.850223     -0.046368
  C      -3.853623     -0.426858      0.725834
  C      -0.907238      4.054520     -1.053335
  H      -4.495135      2.916694      0.136526
  H      -4.389136      1.650665     -1.093689
  H      -5.667727      1.582089      0.110079
  O      -4.654368     -0.967526      0.008317
  O      -2.981405     -1.108474      1.484983
  H      -1.963798      4.275130     -0.893707
  H      -0.291863      4.641551     -0.375732
  H      -0.656830      4.283051     -2.089442
  C      -3.074327     -2.527399      1.404478
  H      -2.296399     -2.911331      2.059791
  H      -4.054772     -2.866477      1.738932
  H      -2.914043     -2.868050      0.380982
61
Coordinates from ORCA-job orca E -1383.969276459655
  C       2.037606      0.659215     -1.254535
  H       2.120853      1.582107     -0.679687
  H       3.031257      0.343367     -1.571524
  C       1.342842     -0.408818     -0.415821
  C       2.064140     -0.685897      0.922398
  H       1.538743     -1.501816      1.424336
  H       1.927921      0.199850      1.545854
  C       3.565945     -1.041084      0.937148
  C       1.195869     -1.679302     -1.248346
  O       1.476829     -1.784606     -2.411499
  O       0.663221     -2.689337     -0.540818
  C       4.444883      0.147776      0.556707
  O       5.380040      0.104564     -0.196673
  O       4.095230      1.264940      1.211775
  C       3.912729     -2.222881      0.034648
  H       4.957479     -2.504884      0.161287
  H       3.288378     -3.080009      0.294610
  H       3.769839     -1.992822     -1.020842
  C       3.934462     -1.394745      2.390147
  H       3.402774     -2.298905      2.692770
  H       5.005452     -1.584744      2.484648
  H       3.665882     -0.590686      3.076093
  C       0.456598     -3.901702     -1.260796
  H       0.040430     -4.605780     -0.544658
  H      -0.236736     -3.742555     -2.087167
  H       1.399675     -4.276048     -1.659260
  C       4.883939      2.417398      0.928039
  H       4.808336      2.679149     -0.127823
  H       4.479600      3.214103      1.547118
  H       5.930482      2.236657      1.172219
  H       1.470084      0.869782     -2.160615
  C      -0.090892      0.070106     -0.024428
  C      -0.999771      0.417168     -1.153705
  H       0.032500      0.939321      0.620342
  H      -0.561519     -0.720919      0.565340
  C      -2.882523      1.591381      1.719570
  C      -1.289453      1.796309     -1.505031
  C      -1.673989     -0.638492     -1.953330
  C      -3.730625      1.051283      0.851741
  H      -2.253235      0.980515      2.352041
  H      -2.795337      2.667451      1.811055
  O      -2.056127      2.131592     -2.384045
  O      -0.626253      2.698084     -0.748283
  H      -1.092596     -0.877025     -2.852021
  H      -1.776428     -1.558531     -1.375218
  H      -2.656155     -0.309408     -2.291361
  C      -4.622962      1.843119     -0.053083
  C      -3.853270     -0.431993      0.722654
  C      -0.907212      4.059428     -1.043942
  H      -4.498721      2.910061      0.129202
  H      -4.389250      1.642698     -1.099987
  H      -5.668378      1.573284      0.102397
  O      -4.653047     -0.974538      0.005295
  O      -2.981131     -1.112171      1.483248
  H      -1.964777      4.277513     -0.887336
  H      -0.295258      4.645725     -0.362601
  H      -0.653620      4.292080     -2.078374
  C      -3.072939     -2.530929      1.405009
  H      -2.298762     -2.913128      2.065789
  H      -4.055378     -2.869741      1.733849
  H      -2.906029     -2.874189      0.383383
61
Coordinates from ORCA-job orca E -1383.969283441535
  C       2.038720      0.658309     -1.255375
  H       2.124343      1.581493     -0.681334
  H       3.031311      0.340382     -1.573523
  C       1.343241     -0.407816     -0.414918
  C       2.065448     -0.685194      0.922723
  H       1.539761     -1.500625      1.425166
  H       1.930100      0.200650      1.546260
  C       3.566928     -1.041480      0.936572
  C       1.193199     -1.678752     -1.246172
  O       1.476536     -1.786808     -2.408476
  O       0.655600     -2.686046     -0.538391
  C       4.446414      0.146294      0.554329
  O       5.380656      0.101807     -0.200076
  O       4.098415      1.264202      1.209043
  C       3.911828     -2.224347      0.034735
  H       4.956355     -2.507455      0.160658
  H       3.286934     -3.080683      0.296078
  H       3.768046     -1.995030     -1.020765
  C       3.936382     -1.394251      2.389538
  H       3.404145     -2.297593      2.693555
  H       5.007292     -1.585216      2.483142
  H       3.669357     -0.589324      3.075066
  C       0.447015     -3.898749     -1.257019
  H       0.030784     -4.601915     -0.539981
  H      -0.247299     -3.739821     -2.082647
  H       1.389188     -4.274613     -1.656101
  C       4.887589      2.415812      0.923587
  H       4.811354      2.676694     -0.132437
  H       4.484310      3.213504      1.542114
  H       5.934187      2.234894      1.167424
  H       1.470251      0.869390     -2.160756
  C      -0.089055      0.074110     -0.022181
  C      -0.998501      0.421647     -1.150757
  H       0.037084      0.943979      0.621142
  H      -0.559883     -0.715061      0.569937
  C      -2.889001      1.589410      1.717345
  C      -1.287848      1.801085     -1.501149
  C      -1.670496     -0.633598     -1.952747
  C      -3.733692      1.046904      0.847683
  H      -2.260515      0.980200      2.352229
  H      -2.803614      2.665674      1.808267
  O      -2.054026      2.137128     -2.380411
  O      -0.625015      2.702342     -0.743598
  H      -1.083558     -0.875095     -2.847117
  H      -1.777808     -1.553080     -1.374606
  H      -2.649702     -0.302532     -2.297106
  C      -4.625362      1.835624     -0.060390
  C      -3.853237     -0.436666      0.720055
  C      -0.907147      4.063698     -1.037653
  H      -4.505160      2.903229      0.120688
  H      -4.389326      1.633649     -1.106458
  H      -5.670471      1.563204      0.092975
  O      -4.651539     -0.981665      0.002903
  O      -2.980171     -1.114328      1.481722
  H      -1.965630      4.279435     -0.884490
  H      -0.298325      4.650059     -0.353575
  H      -0.650361      4.298841     -2.070776
  C      -3.068992     -2.533127      1.405916
  H      -2.297471     -2.912281      2.071472
  H      -4.052332     -2.873469      1.730416
  H      -2.895585     -2.878691      0.386144
61
Coordinates from ORCA-job orca E -1383.969288147178
  C       2.039342      0.657449     -1.256705
  H       2.127174      1.581167     -0.683847
  H       3.030982      0.337506     -1.575822
  C       1.343114     -0.406717     -0.414431
  C       2.065965     -0.684089      0.922919
  H       1.539834     -1.498891      1.425887
  H       1.931643      0.202045      1.546259
  C       3.567162     -1.041542      0.935873
  C       1.190435     -1.678381     -1.244064
  O       1.473576     -1.788514     -2.406242
  O       0.651223     -2.683786     -0.534895
  C       4.447411      0.145462      0.552878
  O       5.381506      0.099947     -0.201627
  O       4.100373      1.263982      1.207151
  C       3.910591     -2.224725      0.033908
  H       4.955019     -2.508473      0.159192
  H       3.285379     -3.080664      0.295830
  H       3.766195     -1.995526     -1.021520
  C       3.937431     -1.394281      2.388625
  H       3.405126     -2.297381      2.693226
  H       5.008338     -1.585600      2.481443
  H       3.671107     -0.589036      3.074052
  C       0.440569     -3.897146     -1.251907
  H       0.025603     -4.599400     -0.533239
  H      -0.255523     -3.738658     -2.076134
  H       1.381696     -4.273733     -1.652721
  C       4.890597      2.414771      0.920982
  H       4.815163      2.674628     -0.135340
  H       4.487470      3.213265      1.538563
  H       5.936910      2.233259      1.165585
  H       1.469985      0.868613     -2.161526
  C      -0.087998      0.078456     -0.020711
  C      -0.997937      0.426397     -1.148680
  H       0.040552      0.948867      0.621360
  H      -0.559504     -0.709253      0.572927
  C      -2.893927      1.585977      1.716800
  C      -1.286377      1.806056     -1.498942
  C      -1.669527     -0.628277     -1.952029
  C      -3.735911      1.042009      0.845309
  H      -2.266028      0.977639      2.353123
  H      -2.809984      2.662368      1.808132
  O      -2.051801      2.142638     -2.378645
  O      -0.623458      2.706870     -0.740867
  H      -1.077772     -0.874264     -2.842009
  H      -1.783196     -1.546211     -1.372436
  H      -2.645295     -0.293509     -2.302330
  C      -4.626542      1.828944     -0.065287
  C      -3.852834     -0.441861      0.717933
  C      -0.905261      4.068363     -1.034825
  H      -4.509215      2.896859      0.115540
  H      -4.387320      1.626629     -1.110607
  H      -5.671524      1.554381      0.085260
  O      -4.649281     -0.988156     -0.000253
  O      -2.979526     -1.117837      1.480717
  H      -1.964153      4.283484     -0.884255
  H      -0.297957      4.654432     -0.349161
  H      -0.646062      4.304214     -2.067210
  C      -3.066398     -2.536839      1.406330
  H      -2.297339     -2.914045      2.075739
  H      -4.050599     -2.878399      1.726814
  H      -2.887576     -2.883143      0.387807
61
Coordinates from ORCA-job orca E -1383.969291913770
  C       2.040192      0.656098     -1.257434
  H       2.130868      1.580247     -0.685730
  H       3.030580      0.333856     -1.578152
  C       1.343277     -0.405980     -0.413103
  C       2.067423     -0.683717      0.923556
  H       1.541034     -1.497988      1.427120
  H       1.934510      0.202562      1.546990
  C       3.568270     -1.042430      0.934648
  C       1.187304     -1.678264     -1.241140
  O       1.470477     -1.790652     -2.403124
  O       0.645738     -2.681463     -0.530758
  C       4.449137      0.143893      0.550612
  O       5.383124      0.097272     -0.203945
  O       4.102838      1.263140      1.204140
  C       3.909664     -2.225879      0.032223
  H       4.954053     -2.510299      0.156261
  H       3.284248     -3.081427      0.294990
  H       3.764134     -1.996705     -1.023042
  C       3.940119     -1.395194      2.386979
  H       3.407804     -2.297984      2.692509
  H       5.011038     -1.586976      2.478416
  H       3.674866     -0.589566      3.072370
  C       0.433466     -3.895667     -1.246065
  H       0.019761     -4.596962     -0.525751
  H      -0.264225     -3.737804     -2.069074
  H       1.373747     -4.272739     -1.648334
  C       4.893766      2.413266      0.916680
  H       4.819366      2.671210     -0.140175
  H       4.490206      3.212789      1.532628
  H       5.939784      2.231694      1.162491
  H       1.469466      0.867685     -2.161332
  C      -0.086122      0.082928     -0.017450
  C      -0.996624      0.431521     -1.144449
  H       0.045488      0.953724      0.623362
  H      -0.558335     -0.703065      0.578066
  C      -2.902875      1.584888      1.714364
  C      -1.284722      1.811467     -1.493938
  C      -1.667018     -0.622439     -1.949847
  C      -3.741094      1.038028      0.840959
  H      -2.275374      0.978269      2.352761
  H      -2.821461      2.661456      1.805989
  O      -2.050060      2.148736     -2.373469
  O      -0.621354      2.711676     -0.735454
  H      -1.071699     -0.870476     -2.836862
  H      -1.785401     -1.539470     -1.371173
  H      -2.640335     -0.285705     -2.304433
  C      -4.631154      1.821186     -0.073371
  C      -3.853498     -0.446448      0.714764
  C      -0.903158      4.073377     -1.028979
  H      -4.517448      2.889898      0.104971
  H      -4.388438      1.616287     -1.117467
  H      -5.675835      1.544157      0.074924
  O      -4.647788     -0.995275     -0.003682
  O      -2.978607     -1.119056      1.478501
  H      -1.962922      4.286887     -0.883044
  H      -0.298894      4.659025     -0.340295
  H      -0.639808      4.310610     -2.060032
  C      -3.061775     -2.538690      1.406420
  H      -2.295144     -2.912632      2.080240
  H      -4.046846     -2.882536      1.721570
  H      -2.876087     -2.886004      0.389500
61
Coordinates from ORCA-job orca E -1383.969294234243
  C       2.040892      0.656425     -1.258165
  H       2.132691      1.581060     -0.687432
  H       3.030881      0.332790     -1.578724
  C       1.342734     -0.404003     -0.412774
  C       2.066700     -0.681539      0.924132
  H       1.539207     -1.494598      1.428511
  H       1.935354      0.205552      1.546711
  C       3.567023     -1.042341      0.935107
  C       1.185113     -1.676899     -1.239508
  O       1.468533     -1.790878     -2.401305
  O       0.641745     -2.678495     -0.528370
  C       4.449339      0.142626      0.550070
  O       5.383799      0.093986     -0.203775
  O       4.103712      1.263126      1.201791
  C       3.906785     -2.226853      0.033466
  H       4.950789     -2.512581      0.157819
  H       3.280133     -3.081357      0.296679
  H       3.761723     -1.998206     -1.021959
  C       3.938837     -1.394445      2.387657
  H       3.405697     -2.296508      2.693890
  H       5.009595     -1.587192      2.479061
  H       3.674354     -0.588026      3.072423
  C       0.428009     -3.893172     -1.242645
  H       0.013300     -4.593170     -0.521679
  H      -0.269195     -3.734915     -2.065981
  H       1.367919     -4.271635     -1.644465
  C       4.896079      2.412111      0.913188
  H       4.823440      2.667859     -0.144318
  H       4.492130      3.213061      1.526996
  H       5.941581      2.229970      1.160738
  H       1.470291      0.867705     -2.162226
  C      -0.085790      0.087365     -0.017249
  C      -0.996128      0.436440     -1.144428
  H       0.047240      0.958370      0.622960
  H      -0.559194     -0.697736      0.578490
  C      -2.903885      1.579652      1.714013
  C      -1.283758      1.816667     -1.493610
  C      -1.667592     -0.617308     -1.949547
  C      -3.741052      1.031904      0.840181
  H      -2.275640      0.973578      2.352196
  H      -2.824015      2.656291      1.806277
  O      -2.049361      2.154758     -2.372549
  O      -0.619367      2.716346     -0.735263
  H      -1.069799     -0.870231     -2.833524
  H      -1.791819     -1.532398     -1.368013
  H      -2.638161     -0.277415     -2.308736
  C      -4.631783      1.814150     -0.074165
  C      -3.851143     -0.452741      0.713133
  C      -0.899601      4.078427     -1.029324
  H      -4.519667      2.882838      0.104938
  H      -4.387649      1.610657     -1.118162
  H      -5.676102      1.535271      0.073017
  O      -4.643063     -1.002174     -0.007467
  O      -2.977088     -1.124463      1.478596
  H      -1.959313      4.292885     -0.884727
  H      -0.295501      4.663264     -0.339832
  H      -0.634858      4.315029     -2.060162
  C      -3.058166     -2.544155      1.405884
  H      -2.293347     -2.917005      2.082503
  H      -4.043707     -2.889094      1.718269
  H      -2.868231     -2.890288      0.389293
61
Coordinates from ORCA-job orca E -1383.969296948618
  C       2.041458      0.656428     -1.258502
  H       2.133393      1.581270     -0.688127
  H       3.031402      0.332654     -1.579037
  C       1.343130     -0.403552     -0.412646
  C       2.067356     -0.680908      0.924249
  H       1.539477     -1.493359      1.429189
  H       1.936894      0.206624      1.546360
  C       3.567454     -1.042713      0.935078
  C       1.185150     -1.676731     -1.238810
  O       1.468165     -1.791122     -2.400677
  O       0.641824     -2.677931     -0.527143
  C       4.450452      0.141570      0.549528
  O       5.385041      0.091958     -0.204107
  O       4.105250      1.262615      1.200475
  C       3.906450     -2.227756      0.033897
  H       4.950312     -2.513995      0.158323
  H       3.279281     -3.081784      0.297421
  H       3.761531     -1.999441     -1.021613
  C       3.939359     -1.394537      2.387705
  H       3.405835     -2.296302      2.694172
  H       5.010046     -1.587739      2.479080
  H       3.675221     -0.587846      3.072298
  C       0.427649     -3.892906     -1.240902
  H       0.012743     -4.592384     -0.519565
  H      -0.269392     -3.734631     -2.064359
  H       1.367471     -4.271756     -1.642572
  C       4.898307      2.411058      0.911384
  H       4.826776      2.665608     -0.146480
  H       4.493988      3.212751      1.523959
  H       5.943504      2.228688      1.160034
  H       1.470853      0.867362     -2.162630
  C      -0.085107      0.088355     -0.016934
  C      -0.995443      0.437616     -1.144095
  H       0.048306      0.959296      0.623291
  H      -0.558765     -0.696478      0.578977
  C      -2.907552      1.579845      1.713922
  C      -1.283752      1.817875     -1.492638
  C      -1.667359     -0.615813     -1.949045
  C      -3.743670      1.031258      0.839604
  H      -2.278913      0.974237      2.352152
  H      -2.829055      2.656529      1.806844
  O      -2.050303      2.156224     -2.370653
  O      -0.618790      2.717275     -0.734475
  H      -1.070670     -0.868425     -2.833816
  H      -1.792312     -1.530967     -1.368269
  H      -2.638238     -0.275948     -2.307568
  C      -4.634924      1.812376     -0.075258
  C      -3.851895     -0.453635      0.712306
  C      -0.899196      4.079497     -1.027878
  H      -4.523612      2.881264      0.103243
  H      -4.390012      1.608772     -1.119054
  H      -5.679033      1.532612      0.071659
  O      -4.642875     -1.003980     -0.008657
  O      -2.977326     -1.124311      1.477999
  H      -1.959035      4.293623     -0.883529
  H      -0.295547      4.663877     -0.337620
  H      -0.634079      4.316576     -2.058502
  C      -3.056586     -2.544288      1.404561
  H      -2.291789     -2.916387      2.081605
  H      -4.041992     -2.890560      1.715836
  H      -2.865201     -2.889171      0.387912
