44
Coordinates from ORCA-job orca E -886.402454340861
  O           3.47325398807920     -2.42029615743280     -2.19492584079133
  C           3.82886796408088     -1.87636860389167     -1.17995506142892
  C           3.29803469528235     -2.33187697750997      0.19487919516633
  C           3.82557621607416     -1.49159049032911      1.38603462839199
  H           3.07288610638686     -1.47228050724524      2.18701941003785
  H           4.70049681903207     -2.00827270565882      1.81622742895982
  C           4.27004777371113     -0.08412496364509      1.00137163053913
  H           4.74206861705308      0.40657177861349      1.86711104278474
  H           3.42497000689699      0.55391921230264      0.70396848895958
  C           5.27559617993772     -0.16597878759863     -0.13313691240663
  H           6.15336702716422     -0.75281435535462      0.20160162822556
  C           5.75534315798366      1.17615624024423     -0.67251470872969
  C           6.58930101677214      1.99042615192236      0.31873040064612
  H           5.98199891782796      2.24208540266338      1.20578116246317
  H           7.42593988348397      1.36938604880246      0.68934054007754
  C           7.14074225895122      3.27792023448391     -0.29412889421126
  H           7.73639551508894      3.84996445357020      0.43504472411542
  H           6.32566374306373      3.93205210265763     -0.64660039064352
  H           7.78791466506617      3.06247170234822     -1.16078464717688
  H           4.87533233301103      1.75801546508856     -0.99984239902173
  H           6.34767424817719      0.97443948711944     -1.58110410864987
  C           3.79491852607981     -3.78857666769598      0.35795111931952
  H           3.44830536628753     -4.19676518051847      1.32105744636687
  H           4.89575614002960     -3.83547086566696      0.34481847935692
  H           3.41652213063270     -4.42365695641418     -0.45503598517465
  C           1.74737411245699     -2.41577970264571      0.11825447615862
  H           1.40917864349654     -2.95202703806172      1.01835009429529
  C           0.87234399533657     -1.14461741562873     -0.02655138757355
  C           0.90920786822553     -0.27236519690685      1.24283888395877
  O           0.63725994105772     -0.98810997560079      2.35388579822833
  C           0.58850399629627     -0.25639473031846      3.57738273486151
  H           0.33353380575972     -0.98300227048124      4.35903563151641
  H           1.56236142813714      0.21034538213444      3.79327397588777
  H          -0.17278854322998      0.53688844657118      3.52797430755279
  O           1.11147684581999      0.91765558753981      1.27058988125073
  C          -0.56293868943487     -1.59102170122059     -0.14102707494604
  H          -0.92743297848078     -2.43326881743535      0.45162933410899
  H          -1.28582229284710     -0.97207206188064     -0.67819522391590
  C           1.23362793818260     -0.27659589910178     -1.24135219270471
  H           2.23714683377472      0.15840752517558     -1.16069692768157
  H           0.52718206356839      0.56109853095898     -1.33114431280691
  H           1.19753117932905     -0.88055629999961     -2.15778797284204
  H           1.50987007614602     -3.05376855749535     -0.74507390126469
  O           4.71356048025091     -0.86436086645815     -1.26701450125996
