44
Coordinates from ORCA-job orca E -886.380482708675
  O           3.60361252635730     -2.79906141528967     -2.07942801771715
  C           3.98048424019654     -2.26098795253677     -1.07049314111687
  C           3.71586288940679     -2.86511174824730      0.32907392158184
  C           4.67237319334097     -2.29586927547435      1.38960478225656
  H           4.32687582417734     -2.60803998782693      2.38937612883299
  H           5.67326043365192     -2.74210595085316      1.25144472423155
  C           4.77282707384788     -0.77961566661973      1.28981081738226
  H           5.47172642348844     -0.38829092221391      2.04575536095462
  H           3.79794364031545     -0.30211287300892      1.47289997140866
  C           5.27553059817619     -0.37698619829534     -0.08797476302223
  H           6.32680015078414     -0.70790618441405     -0.19586554774644
  C           5.18094801010012      1.11415988836499     -0.38916674263244
  C           6.06858730759304      1.98866930269316      0.49909843534072
  H           5.76177340880960      1.88471449851187      1.55452476103516
  H           7.11392640671027      1.63042394730455      0.44816975476602
  C           6.01269747500019      3.46528559396471      0.10669877610761
  H           6.64945872783566      4.08306639814841      0.76023196887487
  H           4.98285563138733      3.85340773393927      0.17596438084310
  H           6.35232507551543      3.61601964067621     -0.93186394104244
  H           4.12667372673027      1.41902808860977     -0.28574591714567
  H           5.45843679994988      1.25722598455631     -1.44738787788055
  C           3.86335523834556     -4.39900859225470      0.22711288832198
  H           3.61045326555915     -4.86520886378318      1.19207055623292
  H           4.89892065507006     -4.67372291900922     -0.03329384496130
  H           3.20012353128791     -4.79868439064527     -0.55116304893413
  C           2.28258227538136     -2.51359116860004      0.62445378113243
  H           1.98467359762295     -2.11508359498974      1.59602453471137
  C           0.48875523490665     -0.35151635145629     -0.36703538463595
  C           1.01433907256135      0.31251069631820      0.86128308739499
  O           0.35739467782593     -0.02787898883957      1.98775130536156
  C           0.79750725906032      0.60098018584698      3.18825590946155
  H           0.10965646348220      0.27073724439960      3.97685160373228
  H           1.82764398535660      0.29832170780869      3.43500747806659
  H           0.77286825510216      1.69693154264096      3.09094122606308
  O           1.94631561849137      1.09007683149869      0.86583591641966
  C          -0.63713191812214     -1.08227043859909     -0.32034267191423
  H          -1.16812197644083     -1.24990256130513      0.61800974041503
  H          -1.04159169513020     -1.54229697591063     -1.22647238648953
  C           1.23777857978338     -0.03961700555943     -1.63219244772874
  H           2.31900066839863     -0.18726176609121     -1.51178441395961
  H           1.09870518916441      1.02049327533173     -1.90469003814131
  H           0.88687193758184     -0.66578356489189     -2.46386194655664
  H           1.50833530392453     -2.87906898436984     -0.04846741587141
  O           4.54473521741030     -1.03927821952855     -1.15174226343306
