44
Coordinates from ORCA-job orca E -886.384724165885
  O           2.87559360579978     -2.61691158752265     -1.62806390887265
  C           3.58100572170960     -2.16805107293688     -0.76081313807120
  C           3.69437978790355     -2.84735500256003      0.62478779567335
  C           4.87245334971026     -2.29964649260124      1.44827721308794
  H           4.76817801204631     -2.63625900893864      2.49314542986707
  H           5.81654609557202     -2.73366743497607      1.07391931956552
  C           4.94206950461562     -0.78085789914437      1.35529318849654
  H           5.76665498690383     -0.38938709603424      1.97111912394522
  H           4.00966393416736     -0.31643954570999      1.71618870602668
  C           5.17663264295558     -0.37516587619206     -0.09053204081189
  H           6.17306889197196     -0.74226187921658     -0.40484788159501
  C           5.08077189662933      1.12001214959699     -0.36971227169514
  C           6.14118154136552      1.95836691071853      0.34738546269912
  H           6.01534915766532      1.86812266016456      1.44056920731158
  H           7.14779647234979      1.55831540333774      0.12246122059376
  C           6.07831536652070      3.43551523260196     -0.04230754888907
  H           6.83936258462500      4.02862687987135      0.48984446414985
  H           5.09070344695058      3.86493521233360      0.19495934602240
  H           6.24424253795931      3.57040731047374     -1.12438915426156
  H           4.06974103894150      1.45618441246567     -0.08953527108589
  H           5.17634678646613      1.25915628615277     -1.46037933612618
  C           3.85040327967170     -4.36915828379164      0.39019738715795
  H           3.87185486968016     -4.89675387306513      1.35642035362740
  H           4.78902992356686     -4.58574795898605     -0.14672622745901
  H           3.01458491176554     -4.75089866623868     -0.21068023913298
  C           2.38509080300410     -2.57438772816837      1.31054149397439
  H           2.35571744112928     -2.35948553214322      2.38157475543710
  C           0.53063149627620     -0.18764035078708     -0.62968721513694
  C           0.98089552041982      0.26032367037519      0.72163128784373
  O           0.20297072915759     -0.18344438361207      1.72759891740497
  C           0.58600991412315      0.20958206632213      3.04043952627298
  H          -0.18523506860202     -0.18231256424450      3.71568228643204
  H           1.56892090077292     -0.21135683582529      3.30470639681159
  H           0.64622630910863      1.30564638834318      3.12207205373960
  O           1.94955785536034      0.96635903560453      0.91598760347000
  C          -0.45742919147073     -1.08746514622673     -0.75494606163053
  H          -0.96248653784120     -1.50316857615253      0.11840040220916
  H          -0.77349547942591     -1.43494996713749     -1.74224914555382
  C           1.26435544579584      0.42334175564135     -1.78959728987132
  H           2.33335187120019      0.16948243994591     -1.75538693707646
  H           1.19052567594429      1.52313164107397     -1.75973699378692
  H           0.85269874245658      0.06189908805673     -2.74196799620027
  H           1.45035904888048     -2.75465831095539      0.77887758775169
  O           4.22355417619455     -1.00618746991272     -0.98324187231523
