44
Coordinates from ORCA-job orca E -886.376940421150
  O           3.33072279259360     -2.29763107869339     -2.19997221798232
  C           3.76463869758847     -1.79552031779631     -1.19401277983279
  C           3.34219399339289     -2.30858658955987      0.19951643248594
  C           3.82934934113042     -1.43750655675767      1.38915754078198
  H           3.04354631065199     -1.38831814744791      2.15723832388986
  H           4.68308797048209     -1.94371699042059      1.87017830612048
  C           4.28540127192692     -0.04102202880456      0.98116521900699
  H           4.76749923185913      0.45640222274654      1.83726323204068
  H           3.43661823976597      0.59341797958617      0.68627160991955
  C           5.27377243493331     -0.14369574100551     -0.16564141299838
  H           6.13202312707879     -0.77273470200622      0.14295449251251
  C           5.80088665753248      1.18527488313577     -0.69228192934349
  C           6.68713218673849      1.94629207874267      0.29574010906708
  H           6.10630404736366      2.21224353932501      1.19613372834204
  H           7.50075678868571      1.28303598886958      0.64392663384636
  C           7.28670947762385      3.21607656432174     -0.30878762979531
  H           7.91889246577838      3.75039072902255      0.41823724425360
  H           6.49673923477089      3.91109006622152     -0.63939397970728
  H           7.91015255711097      2.98395961205144     -1.18846411477852
  H           4.94066572667616      1.80894049386043     -0.99386381518580
  H           6.36763695731391      0.97338315711422     -1.61487016343157
  C           3.98191401070061     -3.72097994437787      0.31163018637463
  H           3.70627867446041     -4.18269265486412      1.27300400506726
  H           5.08164306011107     -3.65407517303763      0.26772886256090
  H           3.64349826352123     -4.37020461439926     -0.50796787193725
  C           1.82963404272013     -2.53243901271146      0.19192977624408
  H           1.47501887149276     -2.96594233676122      1.13486920210592
  C           0.62137801933883     -1.00436096327932     -0.00848056148945
  C           0.78139596310245     -0.25657959095620      1.29159694022723
  O           0.34170584745325     -0.96012379636479      2.35566595043287
  C           0.43953192410915     -0.31148179352835      3.62141202784262
  H           0.02150057312631     -1.01005674275458      4.35714937332297
  H           1.48922103551940     -0.08436014779946      3.86549293533013
  H          -0.12685563487274      0.63229247459998      3.62412808781576
  O           1.25403971549257      0.85207765094169      1.40017052255785
  C          -0.68128402600344     -1.64355436659265     -0.14929300933402
  H          -1.22309889896818     -2.01059578103004      0.72334432991818
  H          -1.05444408598013     -1.89343643165181     -1.14552428544110
  C           1.06163391560195     -0.18697506825947     -1.21305708934691
  H           2.07032418114914      0.22450671749740     -1.09044987863571
  H           0.37873508107003      0.66594581168922     -1.35612564799757
  H           1.05413310645460     -0.80542466689206     -2.12043484418168
  H           1.52068043686584     -3.13217255608100     -0.67036500033300
  O           4.65683641253603     -0.79535217589256     -1.29963884031546
