44
Coordinates from ORCA-job orca E -886.399779003142
  O           3.41896947719168     -2.37097089031342     -2.20441655454763
  C           3.80101809453750     -1.84233869697548     -1.19081536110455
  C           3.30289507368470     -2.31646417054391      0.19002692896491
  C           3.82308475440033     -1.47096337350839      1.38156317805966
  H           3.06163786555996     -1.44129279903965      2.17453062189334
  H           4.68980988534889     -1.98962427745220      1.82538675226736
  C           4.27813524765403     -0.06795841944718      0.99327000342423
  H           4.75909404380968      0.41806003817924      1.85667512957523
  H           3.43535592407766      0.57594064815025      0.70228934890049
  C           5.27450744540970     -0.15710053023921     -0.14835863948085
  H           6.14516390024042     -0.76172442025518      0.17331845727425
  C           5.77185117102638      1.18127847424432     -0.68094183713506
  C           6.62359664904018      1.97617008997271      0.31079528362846
  H           6.02506514530986      2.23102895409408      1.20282373811573
  H           7.45300558853331      1.34042524476082      0.67269937531599
  C           7.19070267724739      3.25932106287029     -0.29686030570810
  H           7.79891096564300      3.81765098515324      0.43257542022969
  H           6.38346047531962      3.92777505704947     -0.64035432447920
  H           7.82971459157582      3.04008906666667     -1.16861355423973
  H           4.89865117832120      1.77828671196423     -0.99899219572012
  H           6.35569722965308      0.97710162585622     -1.59449672425538
  C           3.83493972853580     -3.76398221807277      0.33563371937879
  H           3.50723094407940     -4.18806739478462      1.29831734730988
  H           4.93664621227013     -3.78404159872045      0.31205878741678
  H           3.46391017156072     -4.40076620684521     -0.47948886658905
  C           1.75915705444040     -2.43763126915356      0.13668398468186
  H           1.42241418149573     -2.95777896443424      1.04467587941749
  C           0.80498905477162     -1.09636708505031     -0.00457165733222
  C           0.87945642953664     -0.26473917481863      1.27591270728430
  O           0.54752229638210     -0.98311997072835      2.36816169251431
  C           0.54453940973654     -0.27891765486512      3.60881024674974
  H           0.22588014560579     -1.00137299954234      4.37067929506813
  H           1.55031242544999      0.10361582728341      3.84306494746857
  H          -0.15074860965405      0.57337859209822      3.57315808875618
  O           1.17936164518546      0.90366592810516      1.33528963230605
  C          -0.60018820477615     -1.60405790546066     -0.13439142158114
  H          -1.09591332103157     -2.08018040697962      0.71360953575245
  H          -1.08147702546520     -1.62566859595483     -1.11501347326585
  C           1.17962669231958     -0.23577777889143     -1.21404847142532
  H           2.18293485727653      0.19741873528694     -1.12530086354023
  H           0.47292986926483      0.60123884457213     -1.31406149230121
  H           1.15321463220597     -0.84124417702680     -2.13020716674189
  H           1.50228856617558     -3.05977424898669     -0.73071933215406
  O           4.68879546104933     -0.83473065821708     -1.28307786015238
