44
Coordinates from ORCA-job orca E -886.384023662930
  O           3.06120010607005     -2.66387865155958     -1.76877338196832
  C           3.68128636253422     -2.18717395219247     -0.85279976899680
  C           3.69444152641321     -2.84276060813147      0.54900764336575
  C           4.82000128316895     -2.28928270698323      1.43852879220802
  H           4.65183680445539     -2.61889412262704      2.47733041840666
  H           5.78376531179065     -2.72757958082100      1.12399524461441
  C           4.90063793879661     -0.77121828025951      1.34128374008121
  H           5.69770101285156     -0.38238058430597      1.99412293513657
  H           3.95675832764410     -0.29777395251075      1.65628291359091
  C           5.20597061870694     -0.36985724786671     -0.09305457710607
  H           6.21846563209285     -0.73363167145772     -0.35555971285069
  C           5.11646525777652      1.12432136342686     -0.37912766715500
  C           6.13725766151037      1.96880177101323      0.38653450184121
  H           5.96168034594197      1.87657741039584      1.47262567864561
  H           7.15540274476326      1.57482411227573      0.20767019784817
  C           6.08374475951239      3.44587574039873     -0.00461575301051
  H           6.81734867809764      4.04241953682773      0.56119803106382
  H           5.08440779285902      3.87002045828764      0.18910415551215
  H           6.29679794689352      3.58276385418558     -1.07817167466674
  H           4.09173731650306      1.45541021013220     -0.14565096917022
  H           5.26174360688213      1.26265162318901     -1.46431346440505
  C           3.84837332109885     -4.36898099397918      0.35564378076900
  H           3.80215143380295     -4.87703194060713      1.33141213261405
  H           4.81676622959105     -4.60507231087156     -0.11593750400907
  H           3.04961547071169     -4.75595617602272     -0.29057746920447
  C           2.34257614209525     -2.53835679326237      1.13101717746560
  H           2.23952231780760     -2.19929799024948      2.16393081460971
  C           0.51390200214312     -0.24562200537213     -0.56441022843663
  C           0.98868111414780      0.25037009358368      0.76131888472472
  O           0.23193931434207     -0.15990925182037      1.79751454819528
  C           0.63715524838026      0.28341978553835      3.08765960661108
  H          -0.12231742881967     -0.08200882212317      3.79045089217998
  H           1.62462383503752     -0.12790879809159      3.35216835939441
  H           0.69974325232758      1.38161917463738      3.12629736788534
  O           1.95727533752494      0.96705412902151      0.91156828736407
  C          -0.51757986163454     -1.10116892625720     -0.64506602462841
  H          -1.03056954713064     -1.45985385620908      0.24870797764931
  H          -0.86218602518956     -1.46876122109108     -1.61549416924308
  C           1.24957365355936      0.29831432637336     -1.75608892135085
  H           2.32605562475610      0.08753064100515     -1.69183297556938
  H           1.14139002550063      1.39503380447176     -1.80647081773011
  H           0.86401378599326     -0.14173177174471     -2.68583266000080
  H           1.44661326860460     -2.79951659892445      0.56814679420183
  O           4.30218045008311     -1.00560921942179     -1.03246313647710
