44
Coordinates from ORCA-job orca E -886.365840679354
  O           3.31002516141815     -2.29991819168287     -2.17536221906956
  C           3.76528804177214     -1.80065454254636     -1.17753132222295
  C           3.37656176870906     -2.32113369938551      0.22398538042789
  C           3.87132445771420     -1.44562875546313      1.40779403760229
  H           3.08724749445442     -1.38897699073047      2.17735704825704
  H           4.72723125863784     -1.94950524379325      1.88734698050741
  C           4.31876254440674     -0.04927266516891      0.99102339241987
  H           4.81346134221468      0.44977289581943      1.83892947163396
  H           3.46004680833754      0.57964665040701      0.71323596531409
  C           5.28690780059417     -0.14711336801927     -0.17292106959957
  H           6.15200503344471     -0.77523051294165      0.11803039959637
  C           5.80157191296438      1.18419989916186     -0.70604850137430
  C           6.70230687085628      1.94627035229012      0.26793530631285
  H           6.13564172102760      2.21008377728360      1.17789526148266
  H           7.52300413665418      1.28458110391102      0.60221498332660
  C           7.28907812206573      3.21783836429255     -0.34534809252514
  H           7.93118006630046      3.75353767092371      0.37190160790096
  H           6.49226989659507      3.91096407984531     -0.66332367508174
  H           7.89929710325451      2.98777427948504     -1.23480345902213
  H           4.93456854898176      1.80594880450395     -0.99166161998770
  H           6.35316366686793      0.97551691073622     -1.63853260806136
  C           4.03912881008977     -3.72771738936136      0.31962908936569
  H           3.78522717056073     -4.19768538175413      1.28277803874400
  H           5.13732598954975     -3.64244752402655      0.25908545140833
  H           3.69722950347551     -4.37694755817998     -0.49834817963049
  C           1.87725090326047     -2.55873779997407      0.24107259942862
  H           1.49194378341428     -2.91669872839135      1.20141958445054
  C           0.49898323713486     -0.91373951947719     -0.02494414558571
  C           0.72507076657524     -0.25368467056958      1.30104131040629
  O           0.20765193677146     -0.94814204367932      2.33602635268970
  C           0.35861059774647     -0.35813461812015      3.62426402855088
  H          -0.13821509998392     -1.03445970590516      4.33134813646762
  H           1.42323026905461     -0.25052274227551      3.88559739558109
  H          -0.10618656786130      0.63909944666385      3.65740929778582
  O           1.30875186139582      0.79679128814690      1.45512414640286
  C          -0.71734488127728     -1.60969106196579     -0.18559104346304
  H          -1.27516240656567     -1.97793331734687      0.67619633174371
  H          -1.06248786757700     -1.88299714634121     -1.18597555879942
  C           1.04380902195146     -0.14110547653482     -1.20947054239751
  H           2.06521009014170      0.21697643902163     -1.03824638528613
  H           0.41876936074110      0.74845102939343     -1.39437766297965
  H           1.04677861410107     -0.76529139340736     -2.11272744146852
  H           1.52093466387356     -3.13139543737695     -0.61840394831412
  O           4.65069648615493     -0.79689750746681     -1.29774412293826
