44
Coordinates from ORCA-job orca E -886.393166547762
  O           3.38524533394355     -2.34168170360497     -2.20587393727916
  C           3.78651675563271     -1.82378196881155     -1.19419387147983
  C           3.31462061058680     -2.31255630964100      0.19117119267398
  C           3.82179116731432     -1.45747138969651      1.38249408138739
  H           3.04997966623367     -1.41885965209911      2.16515928852012
  H           4.68191455596304     -1.97262095880168      1.84263439183990
  C           4.27995897805450     -0.05762608070205      0.98719543147168
  H           4.76128558124145      0.43162018287212      1.84851438663418
  H           3.43630401684559      0.58420981545848      0.69402722965845
  C           5.27447375395418     -0.15287431215924     -0.15520728272980
  H           6.13991705665122     -0.76715369114357      0.16244294119407
  C           5.78388347676877      1.18195077303897     -0.68514250344908
  C           6.64671179154104      1.96501529471709      0.30638719446306
  H           6.05339714292673      2.22355731505492      1.20080896624476
  H           7.47050630054723      1.31969754624353      0.66417981920594
  C           7.22542642137266      3.24393560337911     -0.29923326174363
  H           7.84151138873014      3.79376453907927      0.43004734816601
  H           6.42419656724042      3.92174165910814     -0.63842417530075
  H           7.85964107436597      3.02066303217833     -1.17346106148754
  H           4.91572010125304      1.78855971438513     -0.99870284428803
  H           6.36286051129714      0.97468542287528     -1.60111511846900
  C           3.88542764855953     -3.74815355153611      0.32533241373284
  H           3.57375603063209     -4.18666030784816      1.28676105388027
  H           4.98728176006459     -3.73713565946539      0.29693638525574
  H           3.52780570360434     -4.38928900803665     -0.49244040466944
  C           1.78125893111905     -2.47154600041945      0.15405313607640
  H           1.44023722107450     -2.96428904615198      1.07426141796057
  C           0.74519919546510     -1.06481526325412     -0.00339382539043
  C           0.84653276231033     -0.25981142610816      1.28330000781071
  O           0.47348277036660     -0.97413713402651      2.36492174049721
  C           0.50891090597797     -0.28908539221083      3.61539616762307
  H           0.15590755950042     -1.00559087812709      4.36770534041357
  H           1.53318209270647      0.03887973564018      3.85233556045209
  H          -0.14218466750577      0.59799674175919      3.59498207200890
  O           1.21009142799050      0.89003298898840      1.36070894325803
  C          -0.62846019455742     -1.62046283645100     -0.14024055488069
  H          -1.15325792737722     -2.02686263066069      0.72594533109813
  H          -1.05098354271926     -1.77215190273354     -1.13651808968767
  C           1.13749378593508     -0.21705335614522     -1.21165429702554
  H           2.14115178539761      0.21305247753699     -1.11216442521609
  H           0.43460674939396      0.62225993619360     -1.32571382474412
  H           1.11944222035249     -0.82674549943071     -2.12504009838110
  H           1.50758450643278     -3.08685188099795     -0.71154363365366
  O           4.67782102281157     -0.82056493824542     -1.29035863165162
