44
Coordinates from ORCA-job orca E -886.370861690343
  O           3.66055617426803     -2.72010981395026     -2.17515255934196
  C           3.99605999875785     -2.19674702748115     -1.14376847415189
  C           3.62048580494028     -2.78991040657821      0.23168020703013
  C           4.51370015157983     -2.24555787534489      1.35800671168924
  H           4.08617037097121     -2.54104472337364      2.33075843609204
  H           5.50581765483139     -2.72714350249420      1.29503735491952
  C           4.67614560343094     -0.73605901133956      1.26499366912945
  H           5.33657392094644     -0.36794497880947      2.06587118343358
  H           3.71027224141624     -0.22525738656923      1.38396733729092
  C           5.28393409927793     -0.34989059085842     -0.07482198772098
  H           6.33621333886975     -0.69288503444384     -0.10433096739256
  C           5.22653339152984      1.14138421095363     -0.38684287829980
  C           6.04790764399044      2.01200387757366      0.56655879164496
  H           5.65434661644873      1.91721960814782      1.59360721975063
  H           7.09003239371547      1.64275712230445      0.60286258815245
  C           6.04002626692379      3.48673936606086      0.16331764539315
  H           6.62631041914865      4.10204950719950      0.86463907423035
  H           5.01207750397995      3.88543408617234      0.14424488110111
  H           6.46677941986524      3.62791547138744     -0.84394155753374
  H           4.16980155286187      1.45536333111241     -0.36593979286511
  H           5.58619935498234      1.27966250530218     -1.42062998698115
  C           3.75714865514634     -4.32765946513338      0.13886962960522
  H           3.42772156545650     -4.79267963364152      1.08116901710077
  H           4.80675721191707     -4.61350049736421     -0.04167161436014
  H           3.15104631504198     -4.71872822424310     -0.68861905768393
  C           2.15883639341563     -2.45520195354031      0.43778738124279
  H           1.79819765593239     -2.25624758738403      1.44975917446656
  C           0.61169803164517     -0.52725663289647     -0.26831034963606
  C           1.11314199483891      0.27093466153024      0.88723722713241
  O           0.54382842908042     -0.06316928811313      2.06324560868235
  C           0.95041676571071      0.69632905347356      3.19857308228528
  H           0.35752211781068      0.32427483237545      4.04369406279406
  H           2.02435235395704      0.55834264141969      3.40023178314144
  H           0.76303459880114      1.76964118946270      3.04252721485181
  O           1.95096609068863      1.14428969964460      0.79966415539325
  C          -0.55692996477638     -1.19242646490683     -0.16324356511011
  H          -1.08186994603206     -1.27451776254415      0.78961747980259
  H          -0.99033069438624     -1.69777728817577     -1.03126711148285
  C           1.29689616274152     -0.26549769168502     -1.58462761561682
  H           2.37729192327790     -0.12959180837367     -1.46598731518379
  H           0.90733453921216      0.66651704541067     -2.02908982197224
  H           1.12337740062382     -1.08648757963590     -2.29361781436005
  H           1.46280726493784     -2.93283671133367     -0.24985083055324
  O           4.62896121222118     -1.00893926931701     -1.18892761610989
