44
Coordinates from ORCA-job orca E -886.378857399916
  O           3.65650089691415     -2.79327622021407     -2.11674083815932
  C           4.00689617733869     -2.25365489660537     -1.09913271149174
  C           3.70000020643402     -2.85154219053916      0.29358910026696
  C           4.63162100497203     -2.28711448335920      1.37853466704486
  H           4.25652748875269     -2.59485127322890      2.36897613404853
  H           5.63239082512573     -2.74151990502337      1.26863369159778
  C           4.74532638089282     -0.77215640767146      1.27962764533650
  H           5.42835201527671     -0.38444776939732      2.05177679804530
  H           3.76951962872919     -0.28900179587428      1.43960339255633
  C           5.28315053057392     -0.37240343491340     -0.08571354250552
  H           6.33665610327044     -0.70374593131322     -0.16665677776034
  C           5.19580356557581      1.11852851238156     -0.39056254205221
  C           6.05817372137963      1.99442213047984      0.52092161958566
  H           5.72123620520357      1.89248632701955      1.56729360629491
  H           7.10439156356788      1.63571695054885      0.50040882648637
  C           6.01409687535124      3.47033191984742      0.12439383641449
  H           6.63141006140430      4.08916003754895      0.79536469408743
  H           4.98275111483915      3.85874527518899      0.16248744147890
  H           6.38435004452609      3.61917706099075     -0.90392712299400
  H           4.13888677560910      1.42277112786516     -0.31534857989474
  H           5.50126686374763      1.26139785073981     -1.44106223207094
  C           3.84081585115335     -4.38709396737256      0.20043731622842
  H           3.55731345506517     -4.84911988007192      1.15889230357927
  H           4.88198314952844     -4.66872514199973     -0.02861596774664
  H           3.19822441621327     -4.78496392388878     -0.59582121475332
  C           2.25899875543388     -2.49633188579440      0.55069396784356
  H           1.93216982718709     -2.14850838998949      1.53269289660787
  C           0.50825784246023     -0.39116762488238     -0.33293373329585
  C           1.03362142005541      0.31022824443633      0.87402857025432
  O           0.39938025722140     -0.02302981895368      2.01591479695301
  C           0.83706049258177      0.64327341783109      3.19714117850175
  H           0.17306262276468      0.30564171428737      4.00286657776620
  H           1.88060809907933      0.38045394718150      3.43241494355777
  H           0.77347043680819      1.73574956332987      3.07993284581912
  O           1.94682427510386      1.10929046472311      0.85097182159070
  C          -0.62539948342756     -1.10863083982595     -0.26448528334470
  H          -1.15504672795357     -1.24729719488811      0.67930696199083
  H          -1.03743882395964     -1.58735871962643     -1.15744903517220
  C           1.24511123898306     -0.10510292383624     -1.61166255866593
  H           2.33168746075047     -0.19426129651581     -1.48692460256738
  H           1.05491044079862      0.93322287318440     -1.93348107214841
  H           0.92550886909941     -0.78443277600049     -2.41371297990123
  H           1.50734659681980     -2.87930019485532     -0.13768637038327
  O           4.58037147874689     -1.03576853094333     -1.16770846902938
