44
Coordinates from ORCA-job orca E -886.376727319397
  O           3.68629844918043     -2.78063757883289     -2.14602322339050
  C           4.02137726139959     -2.24375429596907     -1.12178195469854
  C           3.67967514058370     -2.83741133001403      0.26407478206301
  C           4.59268832514368     -2.28038000719423      1.36800870886014
  H           4.19488456385902     -2.58448491464424      2.35073552343708
  H           5.59176869324439     -2.74311467490582      1.27922990267807
  C           4.72097998180438     -0.76686590543896      1.27211988665505
  H           5.39206791975772     -0.38491978868505      2.05748106729101
  H           3.74633417419234     -0.27693435996737      1.41415278630939
  C           5.28842139673806     -0.36913314946513     -0.08185904116124
  H           6.34384631957969     -0.69917377809137     -0.13908552898615
  C           5.20627979599016      1.12171585179174     -0.38962835037954
  C           6.04369109244236      2.00016602764923      0.54237528635275
  H           5.68084685569798      1.89818650559594      1.58000872948244
  H           7.09099805641120      1.64406851336050      0.54814224413668
  C           6.00564827759353      3.47561207158632      0.14348914966484
  H           6.60419942144847      4.09675740160976      0.82914184826518
  H           4.97253838211064      3.86098995618033      0.15529612372708
  H           6.40115159827104      3.62457418681152     -0.87536095321455
  H           4.14738187122652      1.42460754851795     -0.34035424043090
  H           5.53721693250078      1.26454864537356     -1.43238873963739
  C           3.81321562205070     -4.37422721024020      0.17506146984646
  H           3.50482751862491     -4.83403397638209      1.12693238250283
  H           4.85787778761392     -4.66216519585176     -0.02903354420425
  H           3.18743792722598     -4.76900603133413     -0.63593866234142
  C           2.23208509312184     -2.47973249641965      0.49150386474030
  H           1.88377925482598     -2.18729881202613      1.48453320533064
  C           0.53818356478447     -0.43081083011455     -0.30426170786590
  C           1.06139276904949      0.30721563419660      0.88133839934247
  O           0.45119039195050     -0.02078254233592      2.03784336501804
  C           0.88332241825634      0.68252247866351      3.19953408863008
  H           0.24702210562287      0.33383392092152      4.02272898837272
  H           1.94025094084238      0.46491893133701      3.42037049647499
  H           0.77479895533626      1.76953379251934      3.06519742672610
  O           1.95289654408868      1.12916581434761      0.83096883766115
  C          -0.60621852650997     -1.13080929315993     -0.21646833665341
  H          -1.13334279791369     -1.24381074205144      0.73211288222940
  H          -1.02610835200280     -1.62586581092275     -1.09690243907819
  C           1.26097266732071     -0.16557430990809     -1.59682912102802
  H           2.34988524258389     -0.19244147249581     -1.46993676230844
  H           1.01483437242966      0.84503807086506     -1.96549305113314
  H           0.97763235701508     -0.89646562633429     -2.36658019394980
  H           1.50214428250094     -2.88406329099195     -0.20769090561813
  O           4.61177535200457     -1.03376792755050     -1.17948468971867
