44
Coordinates from ORCA-job orca E -886.384905287755
  O           2.76915682963282     -2.59273694383129     -1.51482026574547
  C           3.52749677863056     -2.16012518929129     -0.68450398796286
  C           3.70861784524474     -2.85572924086593      0.68525594414732
  C           4.90919304640684     -2.30024938341464      1.47145603271419
  H           4.84093674538957     -2.63715701036814      2.51908073602369
  H           5.84397216177550     -2.72794358868496      1.06753355716886
  C           4.96670637625723     -0.78103993509230      1.37492268793226
  H           5.80418163597576     -0.38317187646396      1.96868094836828
  H           4.04009304135138     -0.32278837471240      1.75893074555707
  C           5.16104985146615     -0.37923091731464     -0.07763321461486
  H           6.14691892917700     -0.75015731891003     -0.41959029620258
  C           5.06223430397978      1.11503950499838     -0.36086603274887
  C           6.14127035315435      1.95361482548354      0.32766576412389
  H           6.03985485527942      1.86978410303288      1.42390417475494
  H           7.14140972540148      1.54915097911957      0.08246675972919
  C           6.07454716039934      3.42879331735726     -0.06889303321605
  H           6.84947967150108      4.02227282058320      0.44239846138008
  H           5.09400034408458      3.86304404946620      0.18800487814180
  H           6.21645928130243      3.55680428448368     -1.15521285665842
  H           4.05826371733945      1.45478800415165     -0.06119849811442
  H           5.13350872407537      1.24897022063096     -1.45410106270628
  C           3.88557008421866     -4.37140757476188      0.41797180475120
  H           3.96118467713600     -4.91406602479674      1.37310568075976
  H           4.80416685941148     -4.55841630003427     -0.16308377603042
  H           3.03209888725524     -4.76106574162476     -0.15225781120554
  C           2.42528751981427     -2.62619860505645      1.43331311535230
  H           2.43601479252326     -2.54255890824823      2.52334043799704
  C           0.50443310770889     -0.13015661539489     -0.68528150571829
  C           0.96547273202306      0.26659682974798      0.67836143072954
  O           0.18935728374335     -0.20384949248837      1.67333443047777
  C           0.58166100504326      0.14450064367430      2.99617115897390
  H          -0.18797896779689     -0.26556931528663      3.66247993521616
  H           1.56341912140655     -0.29021728105149      3.24071918513171
  H           0.64692149992513      1.23713444601125      3.11297762275932
  O           1.94344496357224      0.95426778478225      0.89077516377780
  C          -0.50071587072473     -1.00646660047746     -0.83677669683920
  H          -1.01403332815811     -1.43724979399952      0.02438101204058
  H          -0.82340872417774     -1.31862067370045     -1.83362409129360
  C           1.25827114225836      0.49168230897443     -1.82618987222053
  H           2.31643720155426      0.19374018432957     -1.79892098766538
  H           1.22906225099941      1.59186057783020     -1.76002050133717
  H           0.83268373616449      0.17940290025250     -2.78981072230740
  H           1.46924452129100     -2.74795681231045      0.92157193425294
  O           4.18020412698089     -1.01152826672834     -0.93873838967473
