44
Coordinates from ORCA-job orca E -886.367411743372
  O           3.63836191849836     -2.68942021744566     -2.18201238370813
  C           3.97498706165508     -2.17075504784560     -1.14844038386530
  C           3.58688786347949     -2.76272468548699      0.22272337955801
  C           4.46725837136974     -2.21861414509150      1.35947753967625
  H           4.02345429868630     -2.50542685856037      2.32752092443200
  H           5.45528389240487     -2.71028842822626      1.31317159664369
  C           4.65011398054691     -0.71214591639086      1.26329885918435
  H           5.30761784467421     -0.35072508227536      2.06961602441988
  H           3.69135888560137     -0.18720144298084      1.37106425661903
  C           5.27631469337157     -0.33752339239451     -0.07136762559137
  H           6.32531816324072     -0.69109340988918     -0.08870545402524
  C           5.23689884047006      1.15336512194908     -0.38802381904833
  C           6.05587151567642      2.01824635527290      0.57270932830042
  H           5.64703502001501      1.93290229366249      1.59459510796769
  H           7.09264243865948      1.63609085366026      0.62498366580472
  C           6.07236010943272      3.49113730749335      0.16305843484712
  H           6.65568846521690      4.10217540612455      0.87054068888837
  H           5.04995969989739      3.90271564057718      0.12678888250938
  H           6.51600554672079      3.62236765301396     -0.83821044193035
  H           4.18287109946521      1.47730764295040     -0.37987007953580
  H           5.60926200730692      1.28570223080721     -1.41806986596194
  C           3.73601923305251     -4.30028818183163      0.13116036355391
  H           3.39860247926300     -4.76831002002358      1.06917624125852
  H           4.79006379856050     -4.57810231125280     -0.03579088843051
  H           3.14364999263467     -4.69568020727259     -0.70410912342300
  C           2.11402199535632     -2.45416211161949      0.41891994649071
  H           1.75191608395695     -2.31745258337176      1.44114325311700
  C           0.65522032790476     -0.57976497287989     -0.25432579278743
  C           1.13982303426396      0.24479615726688      0.89016587409266
  O           0.59604479653028     -0.10251022987857      2.07454787491225
  C           0.98188196764097      0.68231008467090      3.19981171903137
  H           0.40607683409852      0.29914504692503      4.05179335409859
  H           2.06076704665242      0.58267103881739      3.39782818438627
  H           0.75769531125489      1.74694701112153      3.03361190836059
  O           1.94089846887380      1.15023630335581      0.78693326280343
  C          -0.53047956406757     -1.22605211050998     -0.14756868545267
  H          -1.05117592304556     -1.30618075515836      0.80775455135929
  H          -0.97250224520631     -1.72440463737701     -1.01522757636860
  C           1.30878922425388     -0.29579619029349     -1.58404887964646
  H           2.38051465231102     -0.09626048834507     -1.48140606909054
  H           0.85819097345130      0.60454582552204     -2.03556662171754
  H           1.17596187157249     -1.13572521010987     -2.27939549753258
  H           1.44413659115329     -2.97694480244497     -0.26271936402911
  O           4.62648133314300     -0.99331853423465     -1.19025667017086
