44
Coordinates from ORCA-job orca E -886.384918796081
  O           2.72210318645809     -2.57621636530919     -1.45354836174447
  C           3.50625380365332     -2.15179158803924     -0.64294805581434
  C           3.71776494242401     -2.85398278153488      0.71800720852018
  C           4.92873521583505     -2.29495089089578      1.48724725278428
  H           4.87606208882788     -2.63088912180494      2.53603337296803
  H           5.85946856194423     -2.71953818296086      1.07087414300543
  C           4.97832734186783     -0.77563026272093      1.38740079970406
  H           5.81805342390030     -0.37133971139963      1.97346463474412
  H           4.05069857037222     -0.32310204632128      1.77594594727482
  C           5.15801436766911     -0.37822191786673     -0.06825264150873
  H           6.13941401849948     -0.75228339961808     -0.41959714432300
  C           5.05926171968945      1.11505217037273     -0.35634534899080
  C           6.15033586570601      1.95322855766488      0.31330523430288
  H           6.06452731400444      1.87411044296053      1.41124119312818
  H           7.14562977967703      1.54463742246021      0.05554496718340
  C           6.08265637625428      3.42696279788001     -0.08837715682082
  H           6.86700615261249      4.01995104604578      0.40892745100917
  H           5.10745658342335      3.86563072315382      0.18106970079427
  H           6.20889370654795      3.54997976654394     -1.17720614875941
  H           4.06003122920461      1.45869107923117     -0.04570984971012
  H           5.11622099879461      1.24333217322423     -1.45111458493534
  C           3.90356663324956     -4.36671650059479      0.43574484169227
  H           4.00459194625535     -4.91578823669726      1.38488892659344
  H           4.81181392946757     -4.54023068546905     -0.16547677383969
  H           3.04188582331745     -4.76015049382733     -0.11934899109432
  C           2.44922966059042     -2.64440479551071      1.49658036988454
  H           2.47782000303304     -2.66341063667856      2.58969707891533
  C           0.48320921072248     -0.10595848754867     -0.71357995026235
  C           0.95209689519217      0.25757685203878      0.65643759341921
  O           0.16938362097700     -0.21817205303845      1.64343634917109
  C           0.57312266257943      0.09342519402570      2.97245897628809
  H          -0.19809727502171     -0.32343665535036      3.63264712566809
  H           1.55064791559777     -0.36002407365272      3.19835962098599
  H           0.65231915137316      1.18210064859431      3.11489308691160
  O           1.94241370790150      0.92384028132641      0.88004088963655
  C          -0.54079051643472     -0.95749785752360     -0.87946943423329
  H          -1.06205090704058     -1.39253115022385     -0.02527621538774
  H          -0.87044720603426     -1.24594598486604     -1.88117644496086
  C           1.25166412684802      0.51776955562166     -1.84360798918246
  H           2.29988883741707      0.18511702821815     -1.82934395794264
  H           1.25874730115639      1.61639372905862     -1.75198608212090
  H           0.81163256442180      0.24243712369723     -2.81211911185322
  H           1.48230071339846     -2.69001678381078      0.99300122394387
  O           4.16628595366393     -1.01221592885412     -0.91548374504492
