44
Coordinates from ORCA-job orca E -886.384853353090
  O           3.35791923735855     -2.31950982342100     -2.20415522379135
  C           3.77527906642772     -1.80988655656076     -1.19487754408233
  C           3.32818044916724     -2.31173387029194      0.19445448540864
  C           3.82486096635277     -1.44891521396465      1.38532419889100
  H           3.04594679138469     -1.40610085607414      2.16080776469065
  H           4.68221989291265     -1.95930024292797      1.85558022529868
  C           4.28160055324663     -0.05038971659703      0.98442332253950
  H           4.76315618903505      0.44256220629479      1.84345793138402
  H           3.43560673215247      0.58804912889163      0.69048530226956
  C           5.27323030962113     -0.14857098374288     -0.16012110602890
  H           6.13526682994328     -0.77022405352745      0.15264512688716
  C           5.79116320134399      1.18385202734448     -0.68749140062054
  C           6.66569708723229      1.95533634884915      0.30284947071531
  H           6.07868967796756      2.21666124487540      1.20059953429335
  H           7.48469837396378      1.30092505387347      0.65512007002011
  C           7.25441739556102      3.23044938569201     -0.30113083009411
  H           7.87867740872707      3.77197171324804      0.42740958869456
  H           6.45853559028488      3.91705877379689     -0.63513593116001
  H           7.88308255678707      3.00370786055908     -1.17847859223789
  H           4.92677969477773      1.79908623697759     -0.99453570633155
  H           6.36401111453102      0.97502858251358     -1.60698149797436
  C           3.93338325930323     -3.73614316408877      0.31756767476250
  H           3.63890351733996     -4.18669284612419      1.27873954769044
  H           5.03456550983360     -3.69730950213117      0.28210365215383
  H           3.58586162975385     -4.38118777163728     -0.50151307280871
  C           1.80537131910792     -2.50418523350925      0.17212789805674
  H           1.45765567712376     -2.96679134757174      1.10435808277558
  C           0.68571521550299     -1.03440760587655     -0.00616401188167
  C           0.81546171492764     -0.25537437964516      1.28607338411562
  O           0.41027344631740     -0.96442533108052      2.35981625657715
  C           0.47873356661298     -0.29604172337810      3.61759347114023
  H           0.09422639361684     -1.00409086404454      4.36246413121622
  H           1.51712655408627     -0.01777748348362      3.85678021382977
  H          -0.13093765168615      0.62025508202220      3.60891248422605
  O           1.23334727454488      0.87564790783611      1.37787519994419
  C          -0.65491228129359     -1.63272736679505     -0.14426405971214
  H          -1.18916225231881     -2.01372226894852      0.72733959782621
  H          -1.05070050306559     -1.84229760793951     -1.14104935834431
  C           1.09892818937083     -0.20236757197422     -1.21395510453556
  H           2.10456371414919      0.22051578412585     -1.10464830029332
  H           0.40394827153267      0.64224733432292     -1.34283500677054
  H           1.08633250513336     -0.81750121967552     -2.12367065775762
  H           1.51385462951162     -3.11215161603808     -0.69149076626319
  O           4.66659118181598     -0.80773845017353     -1.29513044471910
