44
Coordinates from ORCA-job orca E -886.364506678952
  O           3.37355689354312     -2.39190591850907     -2.13859939710709
  C           3.82267243441011     -1.87385518957578     -1.14753245348122
  C           3.44289363052067     -2.38814008652252      0.26027570288131
  C           4.00076852076326     -1.54108445377418      1.43395299543438
  H           3.26320928394317     -1.51960963844953      2.25136149190756
  H           4.89414725373825     -2.04309257676499      1.84253549683845
  C           4.39441409505702     -0.12530361468630      1.02999378542930
  H           4.91272837637675      0.36865850762992      1.86684827470076
  H           3.50912381598832      0.48701359984953      0.80263851622177
  C           5.31723970218456     -0.17254656747476     -0.17316181223676
  H           6.21797537972002     -0.76753170028938      0.07567837864761
  C           5.75469450816076      1.18523911782553     -0.70939555250490
  C           6.66220442078145      1.97265061729972      0.23787470019491
  H           6.12342187514807      2.19887206789991      1.17450320777074
  H           7.52401346364604      1.34293984282372      0.52731458427328
  C           7.16716680015112      3.27705297287035     -0.37929443850891
  H           7.81495100240839      3.83051453130753      0.31912944598403
  H           6.32846538510828      3.93882364885554     -0.65332046497949
  H           7.74897948232022      3.08626142906963     -1.29665639071442
  H           4.85175048745955      1.77382509941676     -0.95008512790221
  H           6.27564308357847      1.01096318088269     -1.66620047294421
  C           4.03158702616236     -3.82889089620359      0.34283746909198
  H           3.76797525553925     -4.28517136586775      1.30983842850335
  H           5.13183718649897     -3.80338474782990      0.26269905907391
  H           3.63914930273624     -4.45509537310773     -0.46994580673208
  C           1.93825677674490     -2.53373420182130      0.29816878661811
  H           1.50282448021969     -2.77893410683246      1.27069080941403
  C           0.40174927685172     -0.76996525883817     -0.06151814063672
  C           0.68744755058473     -0.20373123579265      1.29059805804066
  O           0.08845345740658     -0.87649547276263      2.29460643689330
  C           0.29393429435500     -0.35816929375727      3.60555950334472
  H          -0.26982657020858     -1.01016060166368      4.28478021911789
  H           1.36325918043005     -0.36769719336265      3.86948208625877
  H          -0.06950563963819      0.67818720614496      3.68109263184224
  O           1.37927061920669      0.77213095349108      1.48855108396791
  C          -0.73823800051656     -1.49996594489620     -0.24660803138257
  H          -1.32321665262279     -1.86281292301252      0.59956921316483
  H          -1.05441671537488     -1.78795719221270     -1.25293420949423
  C           1.09170296643980     -0.07920189727039     -1.21465437168190
  H           2.13379827529720      0.16899115913924     -0.98551493822803
  H           0.58127824033669      0.87226215351213     -1.44107280347287
  H           1.07766064021577     -0.70852075297410     -2.11451202507406
  H           1.50562090200240     -3.04828223294704     -0.56043773987512
  O           4.66752825232429     -0.83735565081893     -1.28185618865918
