44
Coordinates from ORCA-job orca E -886.363885616236
  O           3.33342580841484     -2.34113946882902     -2.15615883076170
  C           3.78787601475286     -1.83259838382230     -1.16262107966996
  C           3.40536242043640     -2.34898445916527      0.24290123234329
  C           3.92845847912389     -1.48401608880563      1.42127219099791
  H           3.16324303460146     -1.43876781302262      2.21092430674995
  H           4.79965318714227     -1.98809033707389      1.87256432552527
  C           4.35516633707503     -0.08046922519441      1.00766873203821
  H           4.86328123095237      0.41532839712582      1.84959279883961
  H           3.48492770739984      0.54300940960824      0.75454298355985
  C           5.30111620814555     -0.15825308988376     -0.17571027108619
  H           6.18222340600114     -0.77267809090080      0.09554885203057
  C           5.78212001361212      1.18413927977459     -0.71294056979279
  C           6.68589383362570      1.95907303267920      0.24803907489303
  H           6.13056288162455      2.20885443342514      1.16886979493538
  H           7.52439800696437      1.31138723114951      0.56508280854676
  C           7.23821605483194      3.24365000574746     -0.37008228113046
  H           7.88261411728616      3.78847709956507      0.33818770844078
  H           6.42331415087942      3.92307965384007     -0.67138943055416
  H           7.83706176610903      3.02845340948803     -1.27092405280663
  H           4.89888783819798      1.79103174574904     -0.98009374868342
  H           6.32058537361041      0.98913270600473     -1.65598701372688
  C           4.03926688845636     -3.77006415065863      0.33261293464969
  H           3.78328095313983     -4.23425145741076      1.29791566748291
  H           5.13860320107397     -3.70778805356041      0.26218699922975
  H           3.67561850763558     -4.41057737443269     -0.48263751277236
  C           1.90424581261064     -2.54942878367331      0.27135529712252
  H           1.49326247691281     -2.85248469693999      1.23893454275343
  C           0.44893445796299     -0.84257701454515     -0.04019464984780
  C           0.70488263599882     -0.23621817483645      1.30252537557974
  O           0.13953906692694     -0.92249351431865      2.31734291823639
  C           0.31504579576905     -0.37258640507101      3.61991870762785
  H          -0.22223703515512     -1.03734588219019      4.30816921707510
  H           1.38230551403224     -0.32958233613271      3.88887759746445
  H          -0.09481496019206      0.64752922654002      3.67535079217686
  O           1.34733370895214      0.77529802062273      1.48501195086912
  C          -0.72519771992739     -1.55518732806173     -0.21894750063688
  H          -1.29890891270840     -1.92381098662231      0.63226668956744
  H          -1.05349303492692     -1.83220445892071     -1.22422245197042
  C           1.07309520717663     -0.10740416348763     -1.20607440432744
  H           2.10455634148677      0.19901263397666     -1.00024287451001
  H           0.50310946896642      0.81340913756144     -1.41589795768341
  H           1.07439944899982     -0.73380249126540     -2.10786518954209
  H           1.51093611264066     -3.09732104475929     -0.58673817499815
  O           4.65599819337998     -0.81495014927298     -1.29165550423529
