44
Coordinates from ORCA-job orca E -886.384905402202
  O           2.67596074354980     -2.55476527665848     -1.38672842634726
  C           3.48848977409070     -2.14035163969645     -0.59884782083408
  C           3.73243693371648     -2.85008045590674      0.75227371188924
  C           4.95453724469023     -2.28841437566252      1.50279732076661
  H           4.91652513761247     -2.62060114601826      2.55338673965050
  H           5.87902879091821     -2.71507397070952      1.07485500362772
  C           5.00477906458296     -0.76959198780582      1.39744897438750
  H           5.85618119653712     -0.36610391416944      1.96713458070729
  H           4.08616613490656     -0.31315850968851      1.80237876854603
  C           5.16133647297469     -0.37626414159130     -0.06189146981460
  H           6.13662402462937     -0.75222753558590     -0.42792006648898
  C           5.06016782974332      1.11652371822821     -0.35189243289498
  C           6.16419021584791      1.95438905652834      0.29681061773973
  H           6.09554548799075      1.88031965391746      1.39633148146274
  H           7.15404223207876      1.54149037417158      0.02531647276914
  C           6.09492536508822      3.42658255065735     -0.11014151940923
  H           6.88863121152227      4.01919732052991      0.37255242433743
  H           5.12538101544420      3.86961718122540      0.17231151703767
  H           6.20482299243544      3.54464102032681     -1.20129268192015
  H           4.06674641226141      1.46249134999964     -0.02562472553135
  H           5.09841277020498      1.24294918889679     -1.44769965316957
  C           3.92579168350058     -4.35901218646562      0.45250564107911
  H           4.05206991658783     -4.91546598545183      1.39436403130608
  H           4.82266773449589     -4.51904862932224     -0.16921794406878
  H           3.05594355225790     -4.75547314923849     -0.08755291164308
  C           2.47696074804630     -2.66058169147169      1.55693090007983
  H           2.52266602168976     -2.73664254270532      2.64713014183982
  C           0.45476704822273     -0.08490172632915     -0.74015529278995
  C           0.93445420872676      0.23181132548344      0.63783092741566
  O           0.13719161941445     -0.24264824890375      1.61372822867740
  C           0.54298204276296      0.03782480879480      2.94907953871925
  H          -0.23329780603269     -0.38368224115931      3.60038189590971
  H           1.51550583099480     -0.42973058845688      3.16597105372858
  H           0.63213172180999      1.12273735270871      3.11362553918026
  O           1.94489376490612      0.86141762799276      0.87668213414422
  C          -0.60523840447636     -0.88734969636120     -0.92335678005594
  H          -1.14607584910389     -1.31696260139267     -0.07868522838856
  H          -0.94644256962402     -1.13910595776831     -1.93116774844595
  C           1.25069094447658      0.53049172902428     -1.85572060311744
  H           2.28416999675583      0.15437113815105     -1.84916943539121
  H           1.30288186527061      1.62562889954244     -1.74029155207711
  H           0.79903680580642      0.29500991739949     -2.82953501172680
  H           1.50366691835544     -2.68360670727889      1.06387242528411
  O           4.15580115432701     -1.01085930777985     -0.89152876617116
