44
Coordinates from ORCA-job orca E -886.374047306333
  O           3.67712617028894     -2.75285757668226     -2.16190699332181
  C           4.01223180005254     -2.22250702382382     -1.13412926933916
  C           3.65195142730372     -2.81456027716967      0.24675640203100
  C           4.55576619750770     -2.26471722883282      1.36182940717415
  H           4.14288348559818     -2.56460829332096      2.33957504070700
  H           5.55133296337621     -2.73720468289951      1.28584847756493
  C           4.70065223620314     -0.75305529323982      1.26703497242370
  H           5.36541130758845     -0.37725993391415      2.06072460089995
  H           3.72965608424643     -0.25340644968265      1.39643983853632
  C           5.28925544402850     -0.36095733950186     -0.07958639394795
  H           6.34359139443248     -0.69638838908930     -0.12184730473749
  C           5.21782164815729      1.12988334067379     -0.39038831238119
  C           6.04492900738887      2.00613201281025      0.55282656301399
  H           5.66594114181866      1.90735936911977      1.58497452434246
  H           7.09040794922379      1.64535914806661      0.57486262917726
  C           6.01953427582043      3.48111410519758      0.15116830875790
  H           6.61038922501422      4.10063568101476      0.84491083392429
  H           4.98815696185107      3.87127835758411      0.14669205002157
  H           6.43115004536195      3.62666926153948     -0.86176564206580
  H           4.15944357507906      1.43685730454090     -0.35658085508596
  H           5.56398697319795      1.27058257541442     -1.42846154323221
  C           3.78381778060936     -4.35223651781044      0.15681977500223
  H           3.46407844420889     -4.81338288928340      1.10430181626723
  H           4.83039546492522     -4.64138795023370     -0.03557623282898
  H           3.16690956608290     -4.74440194465047     -0.66217251174524
  C           2.19868036160246     -2.46393172647478      0.46237585420624
  H           1.84300017422626     -2.21325520978859      1.46423268463450
  C           0.57383285492776     -0.47727753376819     -0.28432283971471
  C           1.08549111999421      0.28960503077370      0.88775419824545
  O           0.49184832020922     -0.04024927282454      2.05265797342089
  C           0.91031006862748      0.69062428352091      3.20234848708701
  H           0.29269821999727      0.33084601659245      4.03496598529487
  H           1.97564517574481      0.51093225193184      3.41652433046178
  H           0.76444261704101      1.77180165153368      3.05660885915639
  O           1.95305493301203      1.13547973626105      0.82105382742382
  C          -0.58084284329407     -1.16185639362852     -0.18937061685108
  H          -1.10869087737516     -1.25905925902433      0.76051849817169
  H          -1.00550117000348     -1.66323512554739     -1.06393669691383
  C           1.28185907570751     -0.21463095440884     -1.58645028693000
  H           2.36971605461714     -0.16948248408677     -1.46133947187858
  H           0.97198735751014      0.76484845349311     -1.98980414868985
  H           1.04502896232503     -0.98740175513320     -2.33054229268967
  H           1.48358735894526     -2.90090462303326     -0.23232866919926
  O           4.62518166681764     -1.02400245221500     -1.18601585639408
