44
Coordinates from ORCA-job orca E -886.384835684707
  O           2.84345080919658     -2.62037434383328     -1.58621876493829
  C           3.56749208781706     -2.17537036767491     -0.73232450377654
  C           3.70948981715577     -2.86139870556669      0.64797513550137
  C           4.89352439367894     -2.30611120341976      1.45764843080330
  H           4.80469228878568     -2.64436243472052      2.50336628676474
  H           5.83635931183114     -2.73250314818389      1.07145382416810
  C           4.94949263633815     -0.78650444753044      1.36408666812258
  H           5.77282816466495     -0.38630466147056      1.97564261954318
  H           4.01285727283370     -0.33284054026535      1.72830606006636
  C           5.17010587891258     -0.38112326207598     -0.08389381747483
  H           6.16372081591794     -0.74745678754709     -0.40796598611197
  C           5.07040759933018      1.11340736652222     -0.36511043336579
  C           6.12945345788772      1.95526634766210      0.34997824848330
  H           6.00346539590661      1.86792030367615      1.44334734377854
  H           7.13688333970455      1.55639911873208      0.12642634904890
  C           6.06437136029855      3.43122102162692     -0.04395049920767
  H           6.82448119487236      4.02704927864988      0.48652801734739
  H           5.07606981484131      3.85981880817802      0.19189003975893
  H           6.23029048386612      3.56318890206946     -1.12639598256561
  H           4.05855610757657      1.44757614638377     -0.08614485394231
  H           5.16527705711046      1.25144487481490     -1.45604779408473
  C           3.87725090802785     -4.38029065654209      0.40189663755360
  H           3.91972632427021     -4.91312794075308      1.36452530391685
  H           4.80935753587276     -4.58384240419498     -0.15131718673181
  H           3.03585173099511     -4.76730500390596     -0.18777022318291
  C           2.40810543095870     -2.60533672218103      1.35509188895238
  H           2.39003342134835     -2.39986146228238      2.42813596362742
  C           0.51180205516013     -0.15394157116059     -0.65450612097827
  C           0.97723868157143      0.27196273328934      0.69892048306942
  O           0.20681889939012     -0.18216948384286      1.70617235409265
  C           0.60139692908227      0.19394323153956      3.02051579759827
  H          -0.17050768708119     -0.19605422450120      3.69615906557096
  H           1.58047915504134     -0.24129931222800      3.27590204075087
  H           0.67446206088764      1.28836122559925      3.11266777744547
  O           1.95272226216471      0.96815591140554      0.89430418801293
  C          -0.49385212373197     -1.03367346866125     -0.78337457723116
  H          -1.00322987816587     -1.44663123743286      0.08891808940211
  H          -0.82172633007053     -1.36531165162769     -1.77223421159251
  C           1.25516221671051      0.44881399833033     -1.81247413073953
  H           2.32133628760894      0.18263080266803     -1.77416766294894
  H           1.19503563735862      1.54959571560498     -1.78405760042052
  H           0.84212435130726      0.09315156151806     -2.76641244730028
  H           1.46732202958067     -2.76613814100753      0.82679700208300
  O           4.20797081318329     -1.01478416566036     -0.96500881886943
