44
Coordinates from ORCA-job orca E -886.400185497820
  O       3.467448     -2.382995     -2.192626
  C       3.827091     -1.843348     -1.182029
  C       3.299244     -2.293322      0.188430
  C       3.813111     -1.442751      1.368154
  H       3.054380     -1.405866      2.150938
  H       4.672834     -1.951290      1.814794
  C       4.263610     -0.049577      0.965648
  H       4.719029      0.452647      1.821196
  H       3.429981      0.575724      0.639186
  C       5.281715     -0.161686     -0.145467
  H       6.136673     -0.757205      0.201897
  C       5.785409      1.164832     -0.684868
  C       6.612089      1.962775      0.316972
  H       5.998807      2.227173      1.183149
  H       7.426790      1.336014      0.696115
  C       7.189588      3.233498     -0.292691
  H       7.779251      3.792066      0.435958
  H       6.395784      3.891990     -0.652666
  H       7.838178      3.003133     -1.140938
  H       4.925514      1.753936     -1.020507
  H       6.386424      0.955899     -1.574238
  C       3.817762     -3.733606      0.360821
  H       3.489148     -4.128176      1.324800
  H       4.909430     -3.761495      0.337928
  H       3.443702     -4.379794     -0.432431
  C       1.757163     -2.403148      0.120195
  H       1.439482     -2.952251      1.009971
  C       0.853073     -1.150459     -0.005866
  C       0.869930     -0.291011      1.266510
  O       0.602198     -1.014341      2.364920
  C       0.555710     -0.284046      3.587942
  H       0.329270     -1.014426      4.360252
  H       1.515914      0.194276      3.785328
  H      -0.217735      0.482510      3.547056
  O       1.054259      0.896032      1.301436
  C      -0.562596     -1.632174     -0.127215
  H      -0.902347     -2.485859      0.443794
  H      -1.285443     -1.050468     -0.683495
  C       1.191643     -0.272899     -1.210654
  H       2.172985      0.191073     -1.125533
  H       0.464668      0.533458     -1.305378
  H       1.178278     -0.873975     -2.119206
  H       1.524261     -3.031181     -0.741127
  O       4.724445     -0.853896     -1.279174
44
Coordinates from ORCA-job orca E -886.402030008499
  O       3.449616     -2.403698     -2.201213
  C       3.819499     -1.878316     -1.181101
  C       3.287878     -2.343385      0.188849
  C       3.801206     -1.501188      1.384513
  H       3.040128     -1.484442      2.177290
  H       4.674788     -2.010296      1.824784
  C       4.233475     -0.090869      1.000966
  H       4.689335      0.408583      1.869541
  H       3.382705      0.532777      0.688613
  C       5.250337     -0.167361     -0.122743
  H       6.125320     -0.754096      0.217755
  C       5.731841      1.178467     -0.651330
  C       6.557202      1.987595      0.351748
  H       5.942477      2.235611      1.233913
  H       7.392278      1.366087      0.723417
  C       7.111272      3.278734     -0.251510
  H       7.702676      3.846405      0.484204
  H       6.297028      3.933513     -0.603356
  H       7.762929      3.066597     -1.115051
  H       4.852933      1.760564     -0.979362
  H       6.332589      0.985508     -1.555692
  C       3.794770     -3.796958      0.347789
  H       3.453983     -4.205966      1.312254
  H       4.895588     -3.835786      0.331062
  H       3.417644     -4.434746     -0.463410
  C       1.740815     -2.428946      0.110580
  H       1.402527     -2.961105      1.012953
  C       0.875935     -1.151246     -0.037625
  C       0.949371     -0.261770      1.217264
  O       0.682980     -0.954141      2.342324
  C       0.691724     -0.205424      3.558781
  H       0.452859     -0.920073      4.356228
  H       1.681516      0.244142      3.730849
  H      -0.058418      0.598442      3.524802
  O       1.196702      0.919521      1.222070
  C      -0.563938     -1.583958     -0.126970
  H      -0.930629     -2.413836      0.481158
  H      -1.282484     -0.977366     -0.683236
  C       1.233640     -0.311510     -1.271741
  H       2.242323      0.114950     -1.210127
  H       0.534782      0.530948     -1.373919
  H       1.181156     -0.934196     -2.174621
  H       1.497901     -3.067866     -0.750186
  O       4.699892     -0.864110     -1.263233
44
Coordinates from ORCA-job orca E -886.400545650670
  O       3.448845     -2.386947     -2.191115
  C       3.815413     -1.823164     -1.187149
  C       3.311647     -2.271543      0.203264
  C       3.854632     -1.414728      1.382476
  H       3.103405     -1.369706      2.189392
  H       4.726103     -1.940303      1.821452
  C       4.329850     -0.020428      0.971579
  H       4.818453      0.477273      1.830635
  H       3.494878      0.631989      0.664756
  C       5.326883     -0.142039     -0.170968
  H       6.192932     -0.754627      0.165021
  C       5.845450      1.181961     -0.728722
  C       6.720327      1.981686      0.244852
  H       6.130028      2.264440      1.140724
  H       7.545192      1.334378      0.613287
  C       7.307492      3.247305     -0.389511
  H       7.935432      3.809168      0.329477
  H       6.505402      3.928304     -0.738896
  H       7.938179      3.000352     -1.267140
  H       4.976450      1.791535     -1.052179
  H       6.422539      0.952693     -1.646867
  C       3.838027     -3.722024      0.367048
  H       3.515253     -4.131270      1.344141
  H       4.944439     -3.750184      0.333276
  H       3.454217     -4.372690     -0.438363
  C       1.757458     -2.392199      0.149101
  H       1.444455     -2.951204      1.050363
  C       0.832303     -1.154965      0.023233
  C       0.789654     -0.325882      1.323923
  O       0.469933     -1.086334      2.394322
  C       0.301755     -0.398787      3.636625
  H       0.035971     -1.168031      4.381331
  H       1.237415      0.113725      3.931067
  H      -0.502010      0.357554      3.559822
  O       0.906918      0.876824      1.391975
  C      -0.579811     -1.662600     -0.147318
  H      -0.925144     -2.541637      0.413618
  H      -1.316572     -1.061289     -0.698037
  C       1.189669     -0.227029     -1.152348
  H       2.170968      0.255508     -1.024171
  H       0.442426      0.582564     -1.239380
  H       1.212105     -0.802166     -2.093142
  H       1.526906     -3.031486     -0.720962
  O       4.732283     -0.838209     -1.293210
44
Coordinates from ORCA-job orca E -886.402319685024
  O       3.459709     -2.398153     -2.193910
  C       3.823707     -1.853619     -1.181705
  C       3.296312     -2.303424      0.196541
  C       3.817109     -1.450826      1.383067
  H       3.056411     -1.415478      2.176241
  H       4.683938     -1.967593      1.829758
  C       4.276279     -0.051706      0.984399
  H       4.744599      0.447274      1.847645
  H       3.437880      0.587097      0.669961
  C       5.288374     -0.155855     -0.142604
  H       6.155673     -0.753480      0.201228
  C       5.790496      1.175704     -0.688191
  C       6.634166      1.982899      0.301398
  H       6.027735      2.250243      1.184746
  H       7.460508      1.351156      0.677708
  C       7.207335      3.258323     -0.318099
  H       7.810936      3.824903      0.409301
  H       6.402750      3.923244     -0.675334
  H       7.852729      3.026825     -1.182294
  H       4.919984      1.769246     -1.020812
  H       6.383369      0.960801     -1.593694
  C       3.810970     -3.753624      0.367609
  H       3.471937     -4.158534      1.335128
  H       4.912569     -3.787340      0.351472
  H       3.437697     -4.399209     -0.439846
  C       1.746626     -2.407770      0.123659
  H       1.419071     -2.952908      1.022913
  C       0.848665     -1.152014     -0.015054
  C       0.854783     -0.292938      1.264170
  O       0.592969     -1.026576      2.365373
  C       0.528600     -0.310579      3.598721
  H       0.298699     -1.054829      4.371895
  H       1.489973      0.181420      3.814962
  H      -0.256999      0.459657      3.560945
  O       1.043964      0.899034      1.306569
  C      -0.575403     -1.627368     -0.149697
  H      -0.929984     -2.480579      0.433610
  H      -1.303102     -1.022792     -0.697198
  C       1.203747     -0.264378     -1.217573
  H       2.195668      0.193911     -1.121301
  H       0.478678      0.557587     -1.309342
  H       1.191909     -0.860725     -2.139846
  H       1.515359     -3.046951     -0.740736
  O       4.721754     -0.854287     -1.274501
44
Coordinates from ORCA-job orca E -886.402100124349
  O       3.461094     -2.408300     -2.205756
  C       3.824658     -1.878254     -1.186844
  C       3.300316     -2.347868      0.184919
  C       3.824002     -1.513361      1.380886
  H       3.070922     -1.501785      2.180042
  H       4.700573     -2.026066      1.809429
  C       4.254942     -0.101263      1.003281
  H       4.719678      0.390659      1.870600
  H       3.403181      0.527184      0.705629
  C       5.262066     -0.170272     -0.129737
  H       6.141329     -0.754812      0.201299
  C       5.734985      1.177502     -0.658599
  C       6.565659      1.986358      0.338906
  H       5.958422      2.228266      1.227100
  H       7.404684      1.366823      0.702629
  C       7.110237      3.280806     -0.263991
  H       7.704024      3.848222      0.468271
  H       6.292393      3.933403     -0.608575
  H       7.756051      3.075137     -1.132320
  H       4.852861      1.757521     -0.979452
  H       6.327541      0.986874     -1.567931
  C       3.803148     -3.803468      0.334740
  H       3.462674     -4.218747      1.295560
  H       4.902908     -3.845742      0.316491
  H       3.423898     -4.433668     -0.480076
  C       1.751781     -2.429463      0.115076
  H       1.416987     -2.961839      1.017447
  C       0.888710     -1.149703     -0.025718
  C       0.967136     -0.265069      1.232228
  O       0.663419     -0.953932      2.350684
  C       0.618222     -0.198582      3.560089
  H       0.346018     -0.906311      4.351277
  H       1.597339      0.254872      3.773231
  H      -0.129270      0.604249      3.489658
  O       1.171241      0.924270      1.238501
  C      -0.553515     -1.578284     -0.109527
  H      -0.918742     -2.405884      0.500558
  H      -1.275456     -0.960305     -0.646192
  C       1.239845     -0.301775     -1.256293
  H       2.250039      0.119196     -1.198984
  H       0.544863      0.544145     -1.344077
  H       1.177655     -0.915486     -2.163500
  H       1.505156     -3.066545     -0.744982
  O       4.704477     -0.862912     -1.268695
44
Coordinates from ORCA-job orca E -886.402423789908
  O       3.468658     -2.411231     -2.196831
  C       3.825086     -1.867190     -1.182087
  C       3.295943     -2.323720      0.193033
  C       3.817363     -1.478619      1.384023
  H       3.059738     -1.453975      2.180057
  H       4.688761     -1.993893      1.822848
  C       4.265094     -0.073583      0.994719
  H       4.731859      0.422043      1.860386
  H       3.421481      0.561990      0.687704
  C       5.276268     -0.162510     -0.134213
  H       6.149380     -0.753185      0.205922
  C       5.765143      1.176133     -0.673871
  C       6.600695      1.986981      0.319063
  H       5.992097      2.243544      1.203764
  H       7.432978      1.361912      0.692531
  C       7.160862      3.270783     -0.294074
  H       7.758192      3.840017      0.435902
  H       6.350097      3.929038     -0.648670
  H       7.808682      3.050385     -1.158945
  H       4.889253      1.762441     -1.004223
  H       6.359520      0.970499     -1.580188
  C       3.802928     -3.777048      0.357160
  H       3.459530     -4.186234      1.320962
  H       4.904066     -3.816197      0.343631
  H       3.428630     -4.415684     -0.454971
  C       1.746214     -2.416813      0.117477
  H       1.412394     -2.956210      1.017410
  C       0.864297     -1.150068     -0.024221
  C       0.899932     -0.278749      1.245882
  O       0.629335     -0.995229      2.356439
  C       0.583192     -0.264365      3.581144
  H       0.338040     -0.993737      4.363309
  H       1.555249      0.208648      3.790715
  H      -0.184357      0.523073      3.536318
  O       1.104693      0.910874      1.274020
  C      -0.568595     -1.604220     -0.137398
  H      -0.928896     -2.446494      0.457724
  H      -1.294071     -0.991702     -0.678362
  C       1.219175     -0.279353     -1.238907
  H       2.219874      0.162281     -1.158876
  H       0.507451      0.553957     -1.328367
  H       1.185826     -0.883203     -2.155460
  H       1.510536     -3.055091     -0.746104
  O       4.715558     -0.860508     -1.269095
44
Coordinates from ORCA-job orca E -886.402438714934
  O       3.460826     -2.409351     -2.195434
  C       3.827557     -1.872546     -1.180529
  C       3.299015     -2.327286      0.195474
  C       3.826065     -1.484579      1.385586
  H       3.072374     -1.461973      2.185420
  H       4.699680     -2.000920      1.818856
  C       4.271970     -0.078484      0.997480
  H       4.743184      0.414823      1.862169
  H       3.427078      0.558338      0.696796
  C       5.277682     -0.163922     -0.136625
  H       6.153791     -0.753114      0.198476
  C       5.761125      1.176503     -0.676902
  C       6.599169      1.988221      0.313168
  H       5.993924      2.242159      1.201006
  H       7.434521      1.364602      0.682398
  C       7.153687      3.274027     -0.300802
  H       7.752689      3.843993      0.427320
  H       6.339921      3.930805     -0.651456
  H       7.798474      3.056293     -1.168696
  H       4.882471      1.761190     -1.002946
  H       6.351825      0.972989     -1.586178
  C       3.800554     -3.782504      0.358583
  H       3.456729     -4.190806      1.322676
  H       4.901551     -3.825979      0.343683
  H       3.422749     -4.419364     -0.453349
  C       1.748571     -2.415225      0.121259
  H       1.412983     -2.953002      1.021539
  C       0.870023     -1.146332     -0.022138
  C       0.900503     -0.277407      1.249771
  O       0.621114     -0.995415      2.357327
  C       0.566787     -0.266559      3.582671
  H       0.312139     -0.996163      4.361668
  H       1.538628      0.202779      3.801839
  H      -0.197356      0.523980      3.532702
  O       1.104108      0.912337      1.281314
  C      -0.563432     -1.596957     -0.142890
  H      -0.928118     -2.440289      0.448154
  H      -1.285511     -0.980677     -0.684263
  C       1.233117     -0.273894     -1.233242
  H       2.234715      0.164747     -1.147399
  H       0.524072      0.561586     -1.324104
  H       1.202714     -0.875661     -2.151361
  H       1.511195     -3.053443     -0.741978
  O       4.713283     -0.861728     -1.269764
44
Coordinates from ORCA-job orca E -886.402449035319
  O       3.469874     -2.416197     -2.195531
  C       3.828242     -1.873899     -1.180611
  C       3.297810     -2.329021      0.194533
  C       3.823373     -1.486708      1.385364
  H       3.069012     -1.465168      2.184675
  H       4.697030     -2.002824      1.818780
  C       4.268914     -0.080192      0.998500
  H       4.739080      0.412673      1.863996
  H       3.424227      0.556744      0.697533
  C       5.276280     -0.164776     -0.134203
  H       6.152512     -0.752862      0.202424
  C       5.759116      1.176010     -0.674111
  C       6.593999      1.989258      0.317277
  H       5.986583      2.242749      1.203731
  H       7.429278      1.366867      0.688680
  C       7.148232      3.275405     -0.296063
  H       7.744761      3.846577      0.433097
  H       6.334501      3.930939     -0.649047
  H       7.795310      3.058142     -1.162337
  H       4.880462      1.759412     -1.002371
  H       6.351868      0.972674     -1.582065
  C       3.798065     -3.784553      0.358444
  H       3.452365     -4.192815      1.321857
  H       4.899025     -3.828840      0.345380
  H       3.421171     -4.421043     -0.454162
  C       1.747412     -2.415905      0.118325
  H       1.410594     -2.953523      1.018186
  C       0.870213     -1.146071     -0.024995
  C       0.905966     -0.275338      1.245498
  O       0.631572     -0.991983      2.355242
  C       0.582082     -0.261530      3.579671
  H       0.328928     -0.989620      4.360536
  H       1.555175      0.206849      3.795302
  H      -0.181003      0.530099      3.531254
  O       1.109121      0.914518      1.274686
  C      -0.564253     -1.594863     -0.140486
  H      -0.927970     -2.437274      0.452419
  H      -1.287500     -0.977738     -0.679275
  C       1.230439     -0.275977     -1.238635
  H       2.233022      0.161032     -1.156962
  H       0.522447      0.560501     -1.328002
  H       1.195865     -0.878947     -2.155771
  H       1.510443     -3.053621     -0.745349
  O       4.714509     -0.863371     -1.268136
44
Coordinates from ORCA-job orca E -886.402454340861
  O       3.473254     -2.420296     -2.194926
  C       3.828868     -1.876369     -1.179955
  C       3.298035     -2.331877      0.194879
  C       3.825576     -1.491590      1.386035
  H       3.072886     -1.472281      2.187019
  H       4.700497     -2.008273      1.816227
  C       4.270048     -0.084125      1.001372
  H       4.742069      0.406572      1.867111
  H       3.424970      0.553919      0.703968
  C       5.275596     -0.165979     -0.133137
  H       6.153367     -0.752814      0.201602
  C       5.755343      1.176156     -0.672515
  C       6.589301      1.990426      0.318730
  H       5.981999      2.242085      1.205781
  H       7.425940      1.369386      0.689341
  C       7.140742      3.277920     -0.294129
  H       7.736396      3.849964      0.435045
  H       6.325664      3.932052     -0.646600
  H       7.787915      3.062472     -1.160785
  H       4.875332      1.758015     -0.999842
  H       6.347674      0.974439     -1.581104
  C       3.794919     -3.788577      0.357951
  H       3.448305     -4.196765      1.321057
  H       4.895756     -3.835471      0.344818
  H       3.416522     -4.423657     -0.455036
  C       1.747374     -2.415780      0.118254
  H       1.409179     -2.952027      1.018350
  C       0.872344     -1.144617     -0.026551
  C       0.909208     -0.272365      1.242839
  O       0.637260     -0.988110      2.353886
  C       0.588504     -0.256395      3.577383
  H       0.333534     -0.983002      4.359036
  H       1.562361      0.210345      3.793274
  H      -0.172789      0.536888      3.527974
  O       1.111477      0.917656      1.270590
  C      -0.562939     -1.591022     -0.141027
  H      -0.927433     -2.433269      0.451629
  H      -1.285822     -0.972072     -0.678195
  C       1.233628     -0.276596     -1.241352
  H       2.237147      0.158408     -1.160697
  H       0.527182      0.561099     -1.331144
  H       1.197531     -0.880556     -2.157788
  H       1.509870     -3.053769     -0.745074
  O       4.713560     -0.864361     -1.267015
44
Coordinates from ORCA-job orca E -886.398645185767
  O       3.500018     -2.441974     -2.196331
  C       3.854418     -1.897645     -1.181149
  C       3.330614     -2.359978      0.194138
  C       3.855261     -1.518419      1.385678
  H       3.104596     -1.506311      2.188739
  H       4.735104     -2.029662      1.812393
  C       4.288453     -0.106891      1.002846
  H       4.759243      0.385375      1.868367
  H       3.437929      0.525645      0.709101
  C       5.291531     -0.178984     -0.134557
  H       6.174476     -0.760154      0.196545
  C       5.760055      1.167803     -0.672340
  C       6.590767      1.986006      0.318406
  H       5.984031      2.231335      1.207640
  H       7.432926      1.370254      0.685417
  C       7.131184      3.278832     -0.293170
  H       7.724646      3.853639      0.435626
  H       6.310394      3.927793     -0.642030
  H       7.777582      3.069959     -1.162039
  H       4.874926      1.743965     -0.996035
  H       6.351398      0.972354     -1.582964
  C       3.838538     -3.813413      0.352729
  H       3.497498     -4.226199      1.315893
  H       4.939681     -3.852270      0.336520
  H       3.462565     -4.449495     -0.460603
  C       1.780357     -2.454998      0.121524
  H       1.448496     -2.995645      1.021378
  C       0.838084     -1.106210     -0.027711
  C       0.872032     -0.236424      1.243459
  O       0.608295     -0.956541      2.353699
  C       0.557522     -0.227816      3.578904
  H       0.309951     -0.957963      4.359680
  H       1.528567      0.245544      3.793168
  H      -0.209676      0.560034      3.533262
  O       1.065718      0.955009      1.273227
  C      -0.594260     -1.562810     -0.139269
  H      -0.951025     -2.408986      0.452558
  H      -1.323099     -0.947963     -0.673150
  C       1.189769     -0.232943     -1.241618
  H       2.190341      0.209189     -1.162738
  H       0.476985      0.599805     -1.327697
  H       1.155590     -0.835191     -2.159258
  H       1.545162     -3.092855     -0.742537
  O       4.731512     -0.879013     -1.268420
44
Coordinates from ORCA-job orca E -886.398260182029
  O       3.472800     -2.459958     -2.193858
  C       3.833624     -1.933059     -1.171816
  C       3.307398     -2.409802      0.197702
  C       3.822206     -1.576113      1.397763
  H       3.068885     -1.583624      2.199330
  H       4.710323     -2.076959      1.819730
  C       4.224597     -0.152466      1.028891
  H       4.683623      0.342062      1.899402
  H       3.359321      0.463402      0.740091
  C       5.229743     -0.191346     -0.108273
  H       6.125374     -0.755104      0.218625
  C       5.667845      1.170655     -0.633261
  C       6.478320      1.998726      0.366038
  H       5.865047      2.221883      1.256607
  H       7.334002      1.399255      0.728604
  C       6.989444      3.309145     -0.233008
  H       7.568538      3.890864      0.501820
  H       6.154335      3.942081     -0.577181
  H       7.641544      3.123136     -1.102775
  H       4.770126      1.729175     -0.953002
  H       6.264579      0.997059     -1.544751
  C       3.798475     -3.870047      0.348391
  H       3.447600     -4.286486      1.306423
  H       4.899213     -3.919922      0.338390
  H       3.421208     -4.496184     -0.472091
  C       1.763114     -2.476091      0.116639
  H       1.399630     -2.978052      1.025710
  C       0.887615     -1.086669     -0.063328
  C       1.000860     -0.202088      1.187779
  O       0.743642     -0.892657      2.318054
  C       0.779365     -0.146227      3.533063
  H       0.523880     -0.851718      4.333700
  H       1.781782      0.277002      3.703154
  H       0.054020      0.681097      3.505064
  O       1.271354      0.974612      1.191004
  C      -0.560772     -1.481376     -0.150047
  H      -0.952375     -2.288848      0.473049
  H      -1.263676     -0.853998     -0.703815
  C       1.293625     -0.281314     -1.303213
  H       2.322933      0.094583     -1.238557
  H       0.637332      0.593767     -1.415971
  H       1.216882     -0.909849     -2.200946
  H       1.503942     -3.109074     -0.743035
  O       4.686824     -0.893680     -1.248815
44
Coordinates from ORCA-job orca E -886.399198636200
  O       3.453076     -2.427510     -2.187757
  C       3.819485     -1.884894     -1.176016
  C       3.316519     -2.353919      0.205052
  C       3.847297     -1.511699      1.392315
  H       3.098228     -1.497628      2.197539
  H       4.729491     -2.022317      1.815235
  C       4.279742     -0.101262      1.004502
  H       4.757849      0.391327      1.865834
  H       3.428832      0.532159      0.716072
  C       5.272598     -0.174204     -0.141336
  H       6.156628     -0.759012      0.180122
  C       5.740045      1.172439     -0.680416
  C       6.582189      1.985702      0.304748
  H       5.984336      2.230293      1.200125
  H       7.425911      1.366638      0.662335
  C       7.120531      3.278553     -0.308371
  H       7.722142      3.849868      0.416464
  H       6.298423      3.930575     -0.648113
  H       7.758373      3.070121     -1.183601
  H       4.853721      1.751927     -0.994449
  H       6.322382      0.977471     -1.596878
  C       3.824177     -3.808017      0.357612
  H       3.490787     -4.222396      1.322747
  H       4.925145     -3.846374      0.332878
  H       3.442570     -4.442823     -0.454197
  C       1.772849     -2.449803      0.144241
  H       1.422712     -2.958432      1.054099
  C       0.851561     -1.088956     -0.025180
  C       0.892525     -0.242658      1.253188
  O       0.620188     -0.976766      2.351869
  C       0.554504     -0.262791      3.585047
  H       0.299122     -1.002572      4.354119
  H       1.522359      0.209008      3.816421
  H      -0.213120      0.524686      3.540723
  O       1.072961      0.950438      1.296087
  C      -0.570309     -1.549523     -0.162424
  H      -0.942275     -2.385963      0.433881
  H      -1.284055     -0.948126     -0.731147
  C       1.266203     -0.241636     -1.231333
  H       2.276666      0.172936     -1.123632
  H       0.578710      0.609070     -1.346855
  H       1.244610     -0.851643     -2.144709
  H       1.514269     -3.077750     -0.718580
  O       4.698195     -0.868745     -1.270981
44
Coordinates from ORCA-job orca E -886.399081199924
  O       3.492903     -2.431629     -2.191897
  C       3.841896     -1.883329     -1.177083
  C       3.309414     -2.338870      0.197445
  C       3.821708     -1.490707      1.389394
  H       3.058458     -1.467868      2.180507
  H       4.693040     -2.003236      1.831767
  C       4.270350     -0.085171      1.002177
  H       4.737268      0.408092      1.869195
  H       3.428933      0.553216      0.696999
  C       5.282279     -0.170578     -0.126501
  H       6.157684     -0.757579      0.214051
  C       5.766183      1.170283     -0.665641
  C       6.594384      1.986015      0.329253
  H       5.981473      2.239899      1.211780
  H       7.428127      1.365112      0.706561
  C       7.150767      3.271776     -0.282727
  H       7.741863      3.845065      0.449161
  H       6.338523      3.925630     -0.642174
  H       7.803624      3.053953     -1.144516
  H       4.888610      1.752038     -0.999559
  H       6.364079      0.966398     -1.570082
  C       3.820824     -3.789758      0.368303
  H       3.471922     -4.198890      1.330071
  H       4.922386     -3.824007      0.363339
  H       3.455947     -4.431321     -0.445744
  C       1.764515     -2.445312      0.118228
  H       1.413806     -2.962620      1.022785
  C       0.816013     -1.102296     -0.043106
  C       0.859967     -0.244683      1.228622
  O       0.644662     -0.976629      2.341551
  C       0.633987     -0.258577      3.574009
  H       0.418661     -0.996699      4.356835
  H       1.609466      0.218398      3.757869
  H      -0.138520      0.525301      3.563137
  O       1.077170      0.942757      1.263626
  C      -0.598044     -1.594390     -0.148841
  H      -0.942037     -2.429026      0.466046
  H      -1.332819     -1.021857     -0.720986
  C       1.170563     -0.248118     -1.263458
  H       2.167559      0.200228     -1.184960
  H       0.452651      0.579513     -1.363658
  H       1.144153     -0.861899     -2.173327
  H       1.518391     -3.072566     -0.748965
  O       4.725364     -0.870271     -1.262206
44
Coordinates from ORCA-job orca E -886.399362258239
  O       3.472780     -2.426309     -2.197854
  C       3.839247     -1.892577     -1.181431
  C       3.319354     -2.358440      0.194356
  C       3.843945     -1.519986      1.387820
  H       3.090529     -1.508018      2.188095
  H       4.723215     -2.032061      1.814630
  C       4.277609     -0.108054      1.007897
  H       4.750994      0.381094      1.873734
  H       3.427270      0.526589      0.718095
  C       5.277148     -0.176336     -0.132936
  H       6.160868     -0.759305      0.192761
  C       5.744569      1.172588     -0.666457
  C       6.577996      1.986627      0.325466
  H       5.973484      2.228536      1.217107
  H       7.420861      1.369215      0.687952
  C       7.117227      3.281654     -0.282328
  H       7.712381      3.853581      0.447334
  H       6.295793      3.932035     -0.626903
  H       7.761620      3.075988     -1.153422
  H       4.858730      1.750199     -0.985438
  H       6.333439      0.980742     -1.579416
  C       3.826539     -3.813073      0.348773
  H       3.484734     -4.228511      1.310362
  H       4.927884     -3.851777      0.333474
  H       3.451564     -4.446573     -0.467008
  C       1.774419     -2.453195      0.127041
  H       1.423228     -2.963217      1.035373
  C       0.843129     -1.097964     -0.032415
  C       0.906553     -0.239271      1.237443
  O       0.628119     -0.953491      2.347943
  C       0.591992     -0.222876      3.572501
  H       0.324546     -0.946162      4.353108
  H       1.573804      0.226447      3.789412
  H      -0.155308      0.583699      3.524815
  O       1.127098      0.947769      1.267240
  C      -0.578308     -1.569665     -0.136148
  H      -0.936152     -2.393305      0.485560
  H      -1.302955     -0.993619     -0.717633
  C       1.211606     -0.251288     -1.253311
  H       2.216399      0.180243     -1.175095
  H       0.507823      0.588398     -1.354584
  H       1.174659     -0.865448     -2.162645
  H       1.514884     -3.077960     -0.738045
  O       4.712837     -0.871136     -1.267939
44
Coordinates from ORCA-job orca E -886.399404817372
  O       3.463317     -2.433699     -2.190105
  C       3.819761     -1.885650     -1.177751
  C       3.313727     -2.355592      0.201669
  C       3.840240     -1.513087      1.391267
  H       3.088055     -1.498828      2.193181
  H       4.720853     -2.023018      1.817887
  C       4.271976     -0.102185      1.004936
  H       4.747315      0.390414      1.867777
  H       3.420698      0.530814      0.714595
  C       5.268812     -0.174592     -0.137669
  H       6.152146     -0.758835      0.186839
  C       5.737314      1.172223     -0.675383
  C       6.574549      1.986932      0.312748
  H       5.972623      2.231735      1.205337
  H       7.417271      1.368884      0.674475
  C       7.114395      3.279757     -0.299138
  H       7.712284      3.852269      0.427831
  H       6.293179      3.930734     -0.643072
  H       7.756272      3.071171     -1.171387
  H       4.851713      1.750673     -0.993423
  H       6.323615      0.977338     -1.589352
  C       3.825519     -3.809270      0.353468
  H       3.489971     -4.225877      1.316823
  H       4.926782     -3.844928      0.332312
  H       3.447907     -4.443696     -0.460454
  C       1.771219     -2.452339      0.139711
  H       1.417672     -2.954469      1.051646
  C       0.848209     -1.092437     -0.027907
  C       0.900839     -0.244383      1.248467
  O       0.611692     -0.967371      2.350375
  C       0.578400     -0.249475      3.582489
  H       0.299662     -0.978074      4.354147
  H       1.564147      0.186592      3.808431
  H      -0.159760      0.565758      3.540300
  O       1.137937      0.939110      1.291608
  C      -0.572787     -1.557354     -0.160633
  H      -0.949762     -2.374264      0.458678
  H      -1.280173     -0.983529     -0.764850
  C       1.252756     -0.244135     -1.235583
  H       2.261254      0.175690     -1.132820
  H       0.560740      0.603773     -1.348310
  H       1.229244     -0.853582     -2.148948
  H       1.507552     -3.077663     -0.723504
  O       4.699016     -0.869746     -1.269430
44
Coordinates from ORCA-job orca E -886.399427181164
  O       3.461118     -2.423050     -2.193209
  C       3.826799     -1.885148     -1.178690
  C       3.314132     -2.352710      0.199141
  C       3.837888     -1.510819      1.390726
  H       3.083053     -1.495235      2.190234
  H       4.715818     -2.022717      1.820410
  C       4.274356     -0.100594      1.006890
  H       4.749773      0.389378      1.871180
  H       3.425270      0.535137      0.716828
  C       5.272415     -0.173380     -0.134764
  H       6.154680     -0.759061      0.190052
  C       5.743317      1.173429     -0.670451
  C       6.580221      1.986184      0.319553
  H       5.977341      2.231058      1.211475
  H       7.421597      1.366711      0.681977
  C       7.122705      3.278779     -0.290501
  H       7.720304      3.849907      0.437794
  H       6.302866      3.931143     -0.635111
  H       7.765575      3.070038     -1.161987
  H       4.858852      1.753277     -0.989125
  H       6.330597      0.978726     -1.583833
  C       3.826074     -3.805983      0.353097
  H       3.487375     -4.222203      1.315495
  H       4.927419     -3.841210      0.335657
  H       3.451332     -4.440759     -0.461810
  C       1.771167     -2.451965      0.134225
  H       1.418486     -2.955550      1.045728
  C       0.840513     -1.097080     -0.031760
  C       0.898879     -0.244386      1.241481
  O       0.617935     -0.964055      2.347592
  C       0.591211     -0.242130      3.577501
  H       0.317804     -0.968454      4.353198
  H       1.577865      0.195613      3.796145
  H      -0.147978      0.572248      3.537004
  O       1.133050      0.939925      1.279277
  C      -0.578692     -1.571016     -0.151558
  H      -0.947977     -2.382419      0.479463
  H      -1.291897     -1.010209     -0.761123
  C       1.226431     -0.249596     -1.246304
  H       2.232116      0.178454     -1.155267
  H       0.526850      0.592680     -1.354781
  H       1.198186     -0.861882     -2.157513
  H       1.509790     -3.078398     -0.728926
  O       4.703535     -0.866888     -1.268132
44
Coordinates from ORCA-job orca E -886.399446657042
  O       3.467167     -2.423456     -2.195257
  C       3.828788     -1.883259     -1.180496
  C       3.313902     -2.350457      0.196651
  C       3.834396     -1.507369      1.389022
  H       3.077095     -1.490129      2.186103
  H       4.710339     -2.019518      1.822387
  C       4.273208     -0.097912      1.005150
  H       4.747325      0.391883      1.870259
  H       3.425234      0.538585      0.713195
  C       5.273846     -0.172634     -0.134140
  H       6.154634     -0.759272      0.192982
  C       5.747723      1.173271     -0.669487
  C       6.582617      1.986010      0.322222
  H       5.977360      2.232436      1.212107
  H       7.422225      1.365951      0.687759
  C       7.128370      3.277407     -0.287472
  H       7.724413      3.848599      0.442047
  H       6.310293      3.930341     -0.635188
  H       7.773626      3.067107     -1.156820
  H       4.864743      1.753741     -0.991150
  H       6.337404      0.977252     -1.581046
  C       3.828540     -3.802776      0.351967
  H       3.488486     -4.219453      1.313677
  H       4.930019     -3.835826      0.336978
  H       3.456714     -4.438355     -0.463648
  C       1.771042     -2.452450      0.130443
  H       1.419169     -2.957762      1.041272
  C       0.836720     -1.099636     -0.031782
  C       0.901810     -0.246863      1.241160
  O       0.615721     -0.963822      2.347645
  C       0.593713     -0.241072      3.577154
  H       0.313779     -0.964762      4.352992
  H       1.583756      0.188683      3.796416
  H      -0.138737      0.579303      3.535602
  O       1.141394      0.936411      1.278291
  C      -0.581687     -1.577517     -0.144879
  H      -0.950265     -2.378476      0.499717
  H      -1.294383     -1.031986     -0.768686
  C       1.212653     -0.250546     -1.248345
  H       2.217344      0.180534     -1.163486
  H       0.509993      0.589816     -1.352179
  H       1.180396     -0.862249     -2.159699
  H       1.510528     -3.077975     -0.733588
  O       4.706740     -0.866010     -1.268567
44
Coordinates from ORCA-job orca E -886.399476379769
  O       3.458695     -2.415230     -2.195576
  C       3.826393     -1.878750     -1.181012
  C       3.313614     -2.346057      0.196900
  C       3.833771     -1.501686      1.388936
  H       3.075686     -1.481735      2.185086
  H       4.707804     -2.014915      1.824779
  C       4.275680     -0.093443      1.004013
  H       4.751986      0.395064      1.868663
  H       3.428600      0.544960      0.713466
  C       5.274859     -0.170574     -0.136275
  H       6.154495     -0.759833      0.189274
  C       5.751680      1.174268     -0.671679
  C       6.589008      1.985079      0.319546
  H       5.984749      2.233087      1.209669
  H       7.427325      1.363089      0.684795
  C       7.137536      3.275100     -0.290592
  H       7.735249      3.845011      0.438562
  H       6.320835      3.929905     -0.638035
  H       7.781896      3.063173     -1.160211
  H       4.869802      1.756736     -0.992759
  H       6.340340      0.977005     -1.583643
  C       3.832347     -3.797198      0.351480
  H       3.493547     -4.215062      1.313108
  H       4.933931     -3.827237      0.336234
  H       3.461769     -4.433292     -0.464305
  C       1.770979     -2.451883      0.132272
  H       1.420538     -2.956920      1.043795
  C       0.832481     -1.101883     -0.029280
  C       0.897691     -0.251367      1.245162
  O       0.599790     -0.967329      2.349052
  C       0.582495     -0.247545      3.580358
  H       0.289044     -0.969249      4.353052
  H       1.577654      0.167420      3.805061
  H      -0.137956      0.583296      3.537799
  O       1.151537      0.928816      1.286196
  C      -0.583584     -1.585311     -0.146009
  H      -0.959218     -2.365854      0.519151
  H      -1.287145     -1.068530     -0.803570
  C       1.207179     -0.249515     -1.243826
  H       2.210687      0.183834     -1.157723
  H       0.502743      0.589568     -1.346572
  H       1.176665     -0.859140     -2.156630
  H       1.510748     -3.078379     -0.731078
  O       4.704226     -0.861705     -1.270351
44
Coordinates from ORCA-job orca E -886.399514380940
  O       3.449024     -2.405935     -2.195553
  C       3.820147     -1.870901     -1.181432
  C       3.311473     -2.340001      0.197473
  C       3.830430     -1.493951      1.389093
  H       3.070941     -1.471005      2.184018
  H       4.702279     -2.008116      1.828148
  C       4.275988     -0.087213      1.002778
  H       4.753964      0.400367      1.867034
  H       3.430170      0.552916      0.712638
  C       5.274282     -0.167608     -0.137883
  H       6.151941     -0.760435      0.186544
  C       5.755703      1.175665     -0.673081
  C       6.596086      1.983457      0.317995
  H       5.992889      2.233532      1.208244
  H       7.432336      1.358583      0.683047
  C       7.148925      3.271605     -0.292211
  H       7.748755      3.839430      0.436832
  H       6.334394      3.929227     -0.639422
  H       7.792349      3.057532     -1.161999
  H       4.875669      1.761137     -0.993739
  H       6.343334      0.976604     -1.585322
  C       3.835494     -3.789504      0.350731
  H       3.499226     -4.209036      1.312523
  H       4.937133     -3.815502      0.334245
  H       3.466074     -4.426409     -0.464966
  C       1.769370     -2.451433      0.134780
  H       1.421191     -2.956659      1.047129
  C       0.826748     -1.104400     -0.027531
  C       0.892597     -0.255520      1.247754
  O       0.591413     -0.972250      2.350137
  C       0.577318     -0.255317      3.583130
  H       0.278728     -0.977042      4.353822
  H       1.574907      0.152747      3.809776
  H      -0.137765      0.580184      3.541891
  O       1.151500      0.923451      1.291059
  C      -0.586928     -1.593350     -0.146925
  H      -0.969808     -2.351521      0.539558
  H      -1.280009     -1.109460     -0.839467
  C       1.202554     -0.251483     -1.241199
  H       2.205811      0.182352     -1.153927
  H       0.497841      0.587292     -1.344646
  H       1.173448     -0.860762     -2.154415
  H       1.510514     -3.079848     -0.727509
  O       4.699712     -0.855632     -1.271871
44
Coordinates from ORCA-job orca E -886.399552186652
  O       3.442055     -2.400060     -2.195392
  C       3.815081     -1.864155     -1.182384
  C       3.309709     -2.333021      0.197945
  C       3.826454     -1.483385      1.388129
  H       3.064874     -1.455947      2.180931
  H       4.695642     -1.997534      1.832449
  C       4.275258     -0.078742      0.998048
  H       4.753455      0.410046      1.861506
  H       3.430425      0.561780      0.705615
  C       5.274144     -0.164485     -0.141488
  H       6.149079     -0.760716      0.184080
  C       5.761549      1.176065     -0.678073
  C       6.604038      1.982074      0.312620
  H       6.000870      2.235965      1.201797
  H       7.437471      1.354571      0.679611
  C       7.162531      3.267091     -0.299038
  H       7.763776      3.833752      0.429749
  H       6.350911      3.927302     -0.648140
  H       7.806048      3.049180     -1.167801
  H       4.884045      1.764358     -1.000474
  H       6.349244      0.973409     -1.589483
  C       3.839133     -3.780598      0.352033
  H       3.504888     -4.200677      1.314278
  H       4.940839     -3.802308      0.335096
  H       3.471619     -4.419481     -0.463012
  C       1.767775     -2.449757      0.136650
  H       1.422270     -2.958632      1.048018
  C       0.821885     -1.104682     -0.022869
  C       0.886552     -0.261815      1.256128
  O       0.576920     -0.982017      2.353857
  C       0.562768     -0.271500      3.590543
  H       0.255224     -0.994914      4.356100
  H       1.562566      0.127391      3.823766
  H      -0.145416      0.569896      3.550554
  O       1.153994      0.914888      1.306136
  C      -0.589425     -1.597779     -0.148382
  H      -0.985423     -2.323501      0.565085
  H      -1.262650     -1.164814     -0.892040
  C       1.201782     -0.247283     -1.231836
  H       2.205104      0.185678     -1.140115
  H       0.497733      0.592197     -1.333991
  H       1.175337     -0.852995     -2.147585
  H       1.511270     -3.078019     -0.726397
  O       4.696745     -0.851038     -1.274942
44
Coordinates from ORCA-job orca E -886.399591215807
  O       3.432989     -2.389028     -2.197641
  C       3.808480     -1.854945     -1.184557
  C       3.308058     -2.327672      0.196363
  C       3.824585     -1.478384      1.386976
  H       3.062594     -1.449852      2.179277
  H       4.692488     -1.993491      1.832716
  C       4.275171     -0.074289      0.997209
  H       4.754326      0.413463      1.860700
  H       3.430676      0.566992      0.705379
  C       5.273153     -0.161327     -0.142936
  H       6.146048     -0.761446      0.181010
  C       5.765260      1.178324     -0.677408
  C       6.611441      1.979357      0.314140
  H       6.009900      2.233777      1.204263
  H       7.442875      1.348158      0.679321
  C       7.174118      3.263528     -0.295473
  H       7.778044      3.826542      0.433925
  H       6.364606      3.927385     -0.642544
  H       7.816104      3.045018     -1.165215
  H       4.889655      1.770367     -0.998124
  H       6.351489      0.975145     -1.589647
  C       3.842816     -3.773721      0.346456
  H       3.512405     -4.196847      1.308685
  H       4.944564     -3.791350      0.326918
  H       3.475657     -4.412462     -0.468895
  C       1.765930     -2.449742      0.138231
  H       1.424856     -2.961216      1.049788
  C       0.815659     -1.107622     -0.020137
  C       0.882585     -0.263680      1.257637
  O       0.572473     -0.982112      2.356397
  C       0.559670     -0.270132      3.592255
  H       0.251084     -0.992089      4.358764
  H       1.560209      0.127286      3.824826
  H      -0.146997      0.572495      3.551367
  O       1.153318      0.912244      1.306093
  C      -0.593866     -1.605835     -0.141927
  H      -0.999017     -2.295771      0.601153
  H      -1.248207     -1.233894     -0.933672
  C       1.192291     -0.252201     -1.231295
  H       2.195597      0.181349     -1.142898
  H       0.487397      0.586560     -1.333197
  H       1.164498     -0.859759     -2.145832
  H       1.511145     -3.079836     -0.723989
  O       4.692020     -0.843494     -1.277181
44
Coordinates from ORCA-job orca E -886.399648704836
  O       3.428976     -2.383605     -2.199393
  C       3.806032     -1.849878     -1.186698
  C       3.306038     -2.321525      0.194753
  C       3.819588     -1.469576      1.384727
  H       3.054839     -1.437487      2.174280
  H       4.684988     -1.984368      1.835663
  C       4.272573     -0.067028      0.992207
  H       4.749910      0.422867      1.855450
  H       3.428931      0.573534      0.696251
  C       5.272735     -0.158468     -0.145649
  H       6.142725     -0.761423      0.180918
  C       5.770883      1.178701     -0.680615
  C       6.618117      1.977597      0.311719
  H       6.015909      2.234987      1.200532
  H       7.446634      1.343796      0.679012
  C       7.186472      3.259244     -0.297947
  H       7.791216      3.820605      0.432047
  H       6.379939      3.925763     -0.646831
  H       7.829128      3.037778     -1.166443
  H       4.898054      1.773560     -1.003717
  H       6.358082      0.972331     -1.591519
  C       3.843884     -3.766228      0.346371
  H       3.514273     -4.189262      1.308909
  H       4.945701     -3.781140      0.327278
  H       3.478670     -4.406809     -0.468437
  C       1.763553     -2.447002      0.136797
  H       1.425265     -2.964251      1.046108
  C       0.810690     -1.106035     -0.015643
  C       0.878974     -0.267791      1.264851
  O       0.567078     -0.989616      2.360853
  C       0.553366     -0.281588      3.598995
  H       0.243684     -1.005776      4.362951
  H       1.553828      0.114662      3.833808
  H      -0.152850      0.561513      3.560019
  O       1.152747      0.907175      1.317600
  C      -0.597397     -1.607473     -0.137849
  H      -1.020297     -2.245581      0.640599
  H      -1.216405     -1.329015     -0.993518
  C       1.187167     -0.247355     -1.224266
  H       2.190482      0.185888     -1.135049
  H       0.481959      0.591356     -1.323652
  H       1.160131     -0.852773     -2.140272
  H       1.510807     -3.074741     -0.727740
  O       4.691069     -0.839771     -1.280178
44
Coordinates from ORCA-job orca E -886.399730023142
  O       3.421910     -2.371997     -2.204248
  C       3.801626     -1.841373     -1.190907
  C       3.304036     -2.315753      0.190367
  C       3.817484     -1.465308      1.381440
  H       3.052094     -1.432834      2.170203
  H       4.681873     -1.981040      1.833191
  C       4.271524     -0.062847      0.989886
  H       4.748098      0.427122      1.853436
  H       3.428047      0.577510      0.692785
  C       5.272027     -0.155058     -0.147732
  H       6.139652     -0.761720      0.178372
  C       5.775279      1.181198     -0.680003
  C       6.626142      1.974402      0.313769
  H       6.025526      2.231950      1.203618
  H       7.452428      1.336511      0.679011
  C       7.199108      3.255375     -0.292992
  H       7.806687      3.812337      0.438012
  H       6.394944      3.926033     -0.639390
  H       7.840189      3.033679     -1.162589
  H       4.904757      1.780253     -1.001616
  H       6.361325      0.974363     -1.591543
  C       3.844489     -3.759777      0.338313
  H       3.517484     -4.185282      1.300637
  H       4.946351     -3.772582      0.317367
  H       3.479342     -4.399776     -0.476992
  C       1.760652     -2.444088      0.135044
  H       1.426861     -2.966735      1.042796
  C       0.803988     -1.105055     -0.010430
  C       0.876248     -0.268478      1.269381
  O       0.562004     -0.988553      2.365856
  C       0.549655     -0.279021      3.603251
  H       0.239645     -1.001905      4.368302
  H       1.550523      0.116752      3.836908
  H      -0.155903      0.564600      3.563508
  O       1.157184      0.904788      1.321961
  C      -0.602755     -1.611137     -0.127260
  H      -1.050679     -2.166321      0.699036
  H      -1.163392     -1.490535     -1.056614
  C       1.174487     -0.246685     -1.221045
  H       2.177386      0.188138     -1.136246
  H       0.467065      0.590199     -1.318648
  H       1.146248     -0.853483     -2.136152
  H       1.508322     -3.069703     -0.731196
  O       4.688188     -0.832377     -1.283570
44
Coordinates from ORCA-job orca E -886.399718915191
  O       3.412492     -2.358361     -2.209593
  C       3.796578     -1.831580     -1.195846
  C       3.300426     -2.307026      0.185338
  C       3.813817     -1.457591      1.377277
  H       3.047158     -1.423131      2.164787
  H       4.676231     -1.975119      1.830616
  C       4.271398     -0.056194      0.985921
  H       4.748044      0.433481      1.849555
  H       3.429218      0.585364      0.687709
  C       5.272075     -0.151047     -0.151509
  H       6.136929     -0.761955      0.174143
  C       5.781303      1.183495     -0.682111
  C       6.636456      1.971206      0.312306
  H       6.037734      2.229988      1.203082
  H       7.460146      1.328995      0.675856
  C       7.214727      3.250611     -0.292763
  H       7.825650      3.803389      0.438627
  H       6.413327      3.925627     -0.637095
  H       7.853908      3.027533     -1.163412
  H       4.913558      1.787184     -1.002593
  H       6.365990      0.975046     -1.594162
  C       3.842213     -3.750858      0.330866
  H       3.516797     -4.177858      1.293042
  H       4.944110     -3.762654      0.308694
  H       3.476911     -4.390333     -0.484781
  C       1.756447     -2.437448      0.132279
  H       1.425486     -2.965229      1.037948
  C       0.795940     -1.100134     -0.003346
  C       0.871796     -0.270802      1.278514
  O       0.543658     -0.990358      2.371097
  C       0.537193     -0.285152      3.611182
  H       0.216744     -1.006928      4.372964
  H       1.542203      0.097800      3.848056
  H      -0.158154      0.566941      3.572820
  O       1.171124      0.897665      1.337699
  C      -0.607755     -1.613030     -0.124980
  H      -1.102212     -2.039046      0.749933
  H      -1.063625     -1.740115     -1.109287
  C       1.164317     -0.237579     -1.212209
  H       2.166630      0.198312     -1.127189
  H       0.455111      0.597776     -1.307950
  H       1.137423     -0.842284     -2.128862
  H       1.503341     -3.058332     -0.737158
  O       4.685289     -0.824478     -1.288186
44
Coordinates from ORCA-job orca E -886.399769753264
  O       3.419208     -2.368241     -2.206085
  C       3.800864     -1.839632     -1.192390
  C       3.303127     -2.314230      0.188538
  C       3.818606     -1.465891      1.380278
  H       3.054099     -1.434204      2.170013
  H       4.683436     -1.982903      1.829628
  C       4.273428     -0.063260      0.990151
  H       4.751099      0.425575      1.853740
  H       3.430316      0.578253      0.694618
  C       5.272752     -0.154654     -0.148751
  H       6.140710     -0.761698      0.175771
  C       5.775453      1.182030     -0.680360
  C       6.628065      1.973976      0.312924
  H       6.028966      2.230567      1.204080
  H       7.454859      1.335522      0.676039
  C       7.200216      3.255542     -0.293366
  H       7.809212      3.811522      0.437206
  H       6.395601      3.926775     -0.637600
  H       7.839732      3.034692     -1.164334
  H       4.904727      1.781790     -1.000094
  H       6.360171      0.975914     -1.592918
  C       3.841292     -3.759337      0.334953
  H       3.514287     -4.184981      1.297201
  H       4.943129     -3.774181      0.313111
  H       3.474452     -4.398043     -0.480583
  C       1.759577     -2.440721      0.134513
  H       1.425451     -2.963712      1.041862
  C       0.802371     -1.101556     -0.006107
  C       0.876437     -0.267785      1.274046
  O       0.552074     -0.985952      2.368730
  C       0.545669     -0.278209      3.607316
  H       0.228413     -0.999356      4.371028
  H       1.550027      0.107950      3.841851
  H      -0.152076      0.571908      3.568408
  O       1.169315      0.902545      1.329891
  C      -0.602952     -1.610754     -0.128312
  H      -1.079423     -2.105753      0.720103
  H      -1.110746     -1.600885     -1.095546
  C       1.171779     -0.241076     -1.216560
  H       2.174308      0.194572     -1.131358
  H       0.463293      0.594770     -1.314073
  H       1.144173     -0.846905     -2.132368
  H       1.504875     -3.063222     -0.733315
  O       4.687773     -0.830977     -1.284602
44
Coordinates from ORCA-job orca E -886.399775264850
  O       3.419635     -2.369781     -2.205436
  C       3.801215     -1.841128     -1.191720
  C       3.303247     -2.315611      0.189106
  C       3.820529     -1.468484      1.380865
  H       3.057275     -1.437945      2.171918
  H       4.686375     -1.985906      1.827797
  C       4.274880     -0.065493      0.991539
  H       4.753462      0.422591      1.855063
  H       3.431665      0.576533      0.697515
  C       5.273182     -0.155664     -0.148385
  H       6.142261     -0.761638      0.175105
  C       5.773596      1.181799     -0.680230
  C       6.626116      1.974714      0.312381
  H       6.027523      2.230321      1.204158
  H       7.454117      1.337296      0.674563
  C       7.195958      3.257130     -0.294277
  H       7.804913      3.813839      0.435773
  H       6.390126      3.927330     -0.637680
  H       7.834930      3.037226     -1.165885
  H       4.901827      1.780541     -0.999002
  H       6.357760      0.976611     -1.593355
  C       3.838944     -3.761690      0.335162
  H       3.511676     -4.186752      1.297574
  H       4.940735     -3.778636      0.312637
  H       3.470447     -4.399632     -0.480216
  C       1.759637     -2.439826      0.135330
  H       1.424383     -2.961469      1.043030
  C       0.803808     -1.099711     -0.005605
  C       0.877708     -0.266267      1.274310
  O       0.551584     -0.984372      2.368496
  C       0.546169     -0.277334      3.607509
  H       0.228941     -0.998800      4.370924
  H       1.550838      0.108231      3.841620
  H      -0.151217      0.573121      3.569471
  O       1.171959      0.903712      1.330837
  C      -0.601667     -1.608009     -0.130351
  H      -1.083655     -2.100124      0.716561
  H      -1.101937     -1.604087     -1.101569
  C       1.174914     -0.239370     -1.215993
  H       2.177648      0.195611     -1.129642
  H       0.466940      0.596755     -1.314619
  H       1.147803     -0.845283     -2.131784
  H       1.503774     -3.062027     -0.732354
  O       4.688124     -0.832531     -1.283862
44
Coordinates from ORCA-job orca E -886.399779776138
  O       3.418980     -2.370886     -2.204344
  C       3.801031     -1.842249     -1.190755
  C       3.302975     -2.316410      0.190078
  C       3.822830     -1.470696      1.381659
  H       3.061190     -1.441016      2.174449
  H       4.689538     -1.989178      1.825703
  C       4.277771     -0.067664      0.993250
  H       4.758470      0.418651      1.856637
  H       3.434952      0.576025      0.701953
  C       5.274273     -0.156869     -0.148288
  H       6.144804     -0.761639      0.173468
  C       5.771840      1.181439     -0.680802
  C       6.624036      1.975993      0.310813
  H       6.025837      2.230847      1.203067
  H       7.453415      1.340007      0.672363
  C       7.191225      3.259123     -0.296818
  H       7.799819      3.817178      0.432498
  H       6.384016      3.927827     -0.639910
  H       7.829881      3.039890     -1.168832
  H       4.898754      1.778735     -0.998625
  H       6.355437      0.977185     -1.594493
  C       3.835410     -3.763795      0.335773
  H       3.507661     -4.187989      1.298400
  H       4.937127     -3.783547      0.312399
  H       3.464693     -4.400672     -0.479421
  C       1.759365     -2.437913      0.136671
  H       1.422541     -2.957749      1.044822
  C       0.805000     -1.096797     -0.004659
  C       0.879424     -0.264989      1.275703
  O       0.547623     -0.983259      2.368046
  C       0.544606     -0.278939      3.608649
  H       0.225068     -1.001107      4.370431
  H       1.550574      0.102830      3.843331
  H      -0.150010      0.573876      3.572612
  O       1.179078      0.903506      1.334880
  C      -0.600165     -1.604716     -0.134302
  H      -1.094650     -2.083165      0.713127
  H      -1.083640     -1.622106     -1.113913
  C       1.179194     -0.236138     -1.214252
  H       2.182341      0.197464     -1.125701
  H       0.472227      0.600661     -1.314223
  H       1.152798     -0.841617     -2.130404
  H       1.502296     -3.059973     -0.730714
  O       4.688515     -0.834368     -1.283049
44
Coordinates from ORCA-job orca E -886.399779003142
  O       3.418969     -2.370971     -2.204417
  C       3.801018     -1.842339     -1.190815
  C       3.302895     -2.316464      0.190027
  C       3.823085     -1.470963      1.381563
  H       3.061638     -1.441293      2.174531
  H       4.689810     -1.989624      1.825387
  C       4.278135     -0.067958      0.993270
  H       4.759094      0.418060      1.856675
  H       3.435356      0.575941      0.702289
  C       5.274507     -0.157101     -0.148359
  H       6.145164     -0.761724      0.173318
  C       5.771851      1.181278     -0.680942
  C       6.623597      1.976170      0.310795
  H       6.025065      2.231029      1.202824
  H       7.453006      1.340425      0.672699
  C       7.190703      3.259321     -0.296860
  H       7.798911      3.817651      0.432575
  H       6.383460      3.927775     -0.640354
  H       7.829715      3.040089     -1.168614
  H       4.898651      1.778287     -0.998992
  H       6.355697      0.977102     -1.594497
  C       3.834940     -3.763982      0.335634
  H       3.507231     -4.188067      1.298317
  H       4.936646     -3.784042      0.312059
  H       3.463910     -4.400766     -0.479489
  C       1.759157     -2.437631      0.136684
  H       1.422414     -2.957779      1.044676
  C       0.804989     -1.096367     -0.004572
  C       0.879456     -0.264739      1.275913
  O       0.547522     -0.983120      2.368162
  C       0.544539     -0.278918      3.608810
  H       0.225880     -1.001373      4.370679
  H       1.550312      0.103616      3.843065
  H      -0.150749      0.573379      3.573158
  O       1.179362      0.903666      1.335290
  C      -0.600188     -1.604058     -0.134391
  H      -1.095913     -2.080180      0.713610
  H      -1.081477     -1.625669     -1.115013
  C       1.179627     -0.235778     -1.214048
  H       2.182935      0.197419     -1.125301
  H       0.472930      0.601239     -1.314061
  H       1.153215     -0.841244     -2.130207
  H       1.502289     -3.059774     -0.730719
  O       4.688795     -0.834731     -1.283078
44
Coordinates from ORCA-job orca E -886.392308009987
  O       3.445901     -2.392720     -2.205851
  C       3.826802     -1.863502     -1.192122
  C       3.335793     -2.344230      0.189019
  C       3.853005     -1.497524      1.381000
  H       3.093450     -1.475099      2.176055
  H       4.724678     -2.010847      1.821400
  C       4.296830     -0.090374      0.994529
  H       4.776552      0.397273      1.857706
  H       3.448599      0.548030      0.707179
  C       5.290817     -0.169810     -0.149940
  H       6.166721     -0.768803      0.168118
  C       5.777021      1.173333     -0.680953
  C       6.625626      1.972270      0.310239
  H       6.027613      2.220853      1.204408
  H       7.460616      1.341770      0.668565
  C       7.181795      3.260854     -0.296151
  H       7.787885      3.822027      0.432875
  H       6.368783      3.924185     -0.636056
  H       7.820083      3.048149     -1.170076
  H       4.898638      1.764684     -0.995393
  H       6.359923      0.975372     -1.596500
  C       3.878741     -3.788197      0.330085
  H       3.556672     -4.216743      1.292723
  H       4.980531     -3.800201      0.303539
  H       3.510173     -4.425916     -0.485428
  C       1.792793     -2.476498      0.139516
  H       1.462242     -3.001054      1.047279
  C       0.769575     -1.059025     -0.005030
  C       0.841402     -0.229622      1.277053
  O       0.517590     -0.952775      2.368632
  C       0.512787     -0.251275      3.610810
  H       0.201401     -0.977691      4.371965
  H       1.516403      0.138060      3.843219
  H      -0.188788      0.596047      3.578846
  O       1.132976      0.940834      1.338157
  C      -0.632258     -1.576645     -0.132213
  H      -1.122271     -2.058201      0.716076
  H      -1.115996     -1.599633     -1.111603
  C       1.134746     -0.193100     -1.213643
  H       2.135143      0.247194     -1.126626
  H       0.421702      0.638998     -1.309970
  H       1.110299     -0.796779     -2.131040
  H       1.538140     -3.098634     -0.728549
  O       4.707013     -0.849244     -1.284567
44
Coordinates from ORCA-job orca E -886.391880198235
  O       3.418170     -2.411795     -2.203218
  C       3.805498     -1.899039     -1.183541
  C       3.313665     -2.394450      0.192230
  C       3.821710     -1.555279      1.392346
  H       3.060220     -1.552898      2.186648
  H       4.702265     -2.057961      1.827408
  C       4.233535     -0.135495      1.019278
  H       4.701304      0.355339      1.887160
  H       3.369834      0.485408      0.736754
  C       5.229814     -0.181870     -0.124980
  H       6.118870     -0.763305      0.188929
  C       5.685592      1.176684     -0.643641
  C       6.514904      1.985986      0.355461
  H       5.910639      2.212992      1.251144
  H       7.363718      1.371555      0.709097
  C       7.042070      3.292156     -0.238962
  H       7.634582      3.860518      0.495617
  H       6.214473      3.939744     -0.573870
  H       7.685757      3.101743     -1.114037
  H       4.794200      1.750482     -0.953785
  H       6.273592      1.000178     -1.560277
  C       3.841661     -3.845124      0.325034
  H       3.511037     -4.278040      1.282784
  H       4.943414     -3.866811      0.303817
  H       3.471668     -4.473206     -0.497343
  C       1.775477     -2.499260      0.135334
  H       1.414384     -2.986125      1.051827
  C       0.822645     -1.036912     -0.040024
  C       0.974183     -0.197860      1.224201
  O       0.639221     -0.886511      2.334569
  C       0.718777     -0.172271      3.566836
  H       0.386607     -0.868792      4.346913
  H       1.751962      0.154873      3.762636
  H       0.071626      0.717663      3.546023
  O       1.353591      0.948224      1.260110
  C      -0.597529     -1.489225     -0.141852
  H      -1.104907     -1.917173      0.724757
  H      -1.090001     -1.517370     -1.116773
  C       1.245374     -0.239821     -1.273788
  H       2.275691      0.130459     -1.199904
  H       0.592374      0.636995     -1.396314
  H       1.176397     -0.869273     -2.171919
  H       1.497299     -3.114735     -0.729461
  O       4.662784     -0.864612     -1.265944
44
Coordinates from ORCA-job orca E -886.392906121721
  O       3.399828     -2.377534     -2.195601
  C       3.791531     -1.848056     -1.186235
  C       3.320801     -2.333770      0.200500
  C       3.840787     -1.482831      1.387395
  H       3.080652     -1.455881      2.182499
  H       4.713325     -1.994421      1.828377
  C       4.285632     -0.078149      0.992742
  H       4.770523      0.412265      1.851453
  H       3.437958      0.560497      0.706493
  C       5.272286     -0.162781     -0.157259
  H       6.147319     -0.766019      0.154960
  C       5.761150      1.177850     -0.692114
  C       6.620950      1.972436      0.292904
  H       6.030651      2.224161      1.191256
  H       7.455120      1.337595      0.645285
  C       7.179546      3.257941     -0.317559
  H       7.793724      3.815974      0.407081
  H       6.367682      3.925453     -0.651783
  H       7.810441      3.041752     -1.195947
  H       4.883510      1.773506     -1.000134
  H       6.336362      0.976936     -1.611837
  C       3.867567     -3.776910      0.338106
  H       3.553577     -4.206605      1.302873
  H       4.969200     -3.784980      0.304137
  H       3.496050     -4.415632     -0.475377
  C       1.784757     -2.471289      0.161094
  H       1.436813     -2.966035      1.077910
  C       0.778964     -1.043449     -0.002466
  C       0.860227     -0.244407      1.290706
  O       0.515695     -0.981778      2.366220
  C       0.498795     -0.299268      3.618751
  H       0.172286     -1.035039      4.364390
  H       1.501697      0.079449      3.870844
  H      -0.196599      0.553314      3.591026
  O       1.149988      0.925417      1.370844
  C      -0.609078     -1.561621     -0.155182
  H      -1.119998     -2.031252      0.687407
  H      -1.071353     -1.592769     -1.144685
  C       1.210274     -0.202396     -1.201525
  H       2.222086      0.205338     -1.084822
  H       0.527125      0.651197     -1.325139
  H       1.195345     -0.811732     -2.115901
  H       1.509078     -3.082038     -0.707263
  O       4.675875     -0.838649     -1.287142
44
Coordinates from ORCA-job orca E -886.392807059270
  O       3.429475     -2.373068     -2.201025
  C       3.810005     -1.842909     -1.187750
  C       3.312520     -2.316932      0.193804
  C       3.816187     -1.461388      1.385287
  H       3.043320     -1.425908      2.167167
  H       4.677697     -1.975798      1.844010
  C       4.277660     -0.061628      0.992437
  H       4.753485      0.427882      1.856668
  H       3.439254      0.582892      0.692198
  C       5.280785     -0.157846     -0.142794
  H       6.147452     -0.764674      0.185460
  C       5.786096      1.177331     -0.676073
  C       6.635333      1.971407      0.318478
  H       6.032547      2.231350      1.206145
  H       7.459782      1.333090      0.687133
  C       7.211712      3.250297     -0.289405
  H       7.817817      3.808126      0.442149
  H       6.409518      3.921212     -0.639849
  H       7.855153      3.025727     -1.156534
  H       4.917014      1.776849     -1.000539
  H       6.374318      0.968565     -1.585771
  C       3.864056     -3.756764      0.347313
  H       3.536989     -4.182402      1.309410
  H       4.966275     -3.760240      0.330371
  H       3.507662     -4.401346     -0.468181
  C       1.775514     -2.465508      0.138827
  H       1.427860     -2.965438      1.052588
  C       0.740326     -1.058428     -0.021218
  C       0.825665     -0.243273      1.262235
  O       0.537885     -0.979783      2.355058
  C       0.578980     -0.294023      3.605206
  H       0.293578     -1.029467      4.367866
  H       1.590935      0.090810      3.806760
  H      -0.121596      0.554755      3.609485
  O       1.155237      0.916972      1.330636
  C      -0.637700     -1.610196     -0.142454
  H      -1.123193     -2.078419      0.715538
  H      -1.111637     -1.675861     -1.124721
  C       1.114181     -0.212829     -1.236341
  H       2.113579      0.227652     -1.148891
  H       0.401700      0.618613     -1.347488
  H       1.094469     -0.827793     -2.145949
  H       1.511500     -3.079461     -0.730841
  O       4.698755     -0.836358     -1.279121
44
Coordinates from ORCA-job orca E -886.393070714162
  O       3.413538     -2.366789     -2.207670
  C       3.807660     -1.848646     -1.193375
  C       3.321676     -2.332968      0.188616
  C       3.834433     -1.485695      1.382178
  H       3.068877     -1.459299      2.171137
  H       4.702288     -1.999921      1.828874
  C       4.283483     -0.080406      0.995801
  H       4.763996      0.405647      1.859380
  H       3.437635      0.560856      0.707848
  C       5.277173     -0.162256     -0.148817
  H       6.150193     -0.766431      0.167301
  C       5.770059      1.179725     -0.676563
  C       6.623923      1.971219      0.316096
  H       6.027914      2.221056      1.211212
  H       7.455380      1.334936      0.672329
  C       7.187323      3.257942     -0.287424
  H       7.797011      3.813763      0.442680
  H       6.378081      3.926824     -0.625339
  H       7.823936      3.043610     -1.162150
  H       4.894631      1.776635     -0.988565
  H       6.351035      0.981136     -1.593172
  C       3.872027     -3.775283      0.326794
  H       3.551703     -4.207637      1.288133
  H       4.974098     -3.780488      0.301264
  H       3.508132     -4.413041     -0.490769
  C       1.784858     -2.474164      0.144020
  H       1.438017     -2.969476      1.060386
  C       0.762873     -1.056891     -0.010850
  C       0.868070     -0.242841      1.271568
  O       0.521228     -0.957768      2.361735
  C       0.537368     -0.258129      3.604725
  H       0.204377     -0.975897      4.364941
  H       1.552078      0.100736      3.837908
  H      -0.138531      0.609895      3.574536
  O       1.196595      0.918083      1.335305
  C      -0.621217     -1.593984     -0.127304
  H      -1.111000     -2.051564      0.734013
  H      -1.096006     -1.663166     -1.108943
  C       1.145030     -0.216648     -1.226708
  H       2.150870      0.210122     -1.141421
  H       0.443843      0.624655     -1.336531
  H       1.114664     -0.831314     -2.136265
  H       1.509676     -3.084544     -0.724665
  O       4.689151     -0.835803     -1.284971
44
Coordinates from ORCA-job orca E -886.393074011083
  O       3.403076     -2.374355     -2.199024
  C       3.789251     -1.842216     -1.188946
  C       3.316906     -2.328693      0.196815
  C       3.831250     -1.475877      1.385615
  H       3.066599     -1.445819      2.175682
  H       4.700103     -1.987356      1.833521
  C       4.278361     -0.072276      0.990654
  H       4.760202      0.418850      1.850648
  H       3.431376      0.566516      0.700401
  C       5.270008     -0.160273     -0.154950
  H       6.142087     -0.765708      0.161417
  C       5.764997      1.178491     -0.688701
  C       6.623151      1.971355      0.299134
  H       6.029883      2.225835      1.194754
  H       7.453886      1.334298      0.655663
  C       7.188258      3.254536     -0.310275
  H       7.801084      3.811417      0.416393
  H       6.379854      3.924213     -0.648587
  H       7.822199      3.035546     -1.185780
  H       4.890316      1.776433     -1.000771
  H       6.343337      0.975176     -1.605948
  C       3.872643     -3.769626      0.333512
  H       3.558667     -4.202451      1.296790
  H       4.974507     -3.771059      0.302419
  H       3.506742     -4.409224     -0.481803
  C       1.782507     -2.472233      0.157393
  H       1.433349     -2.961234      1.076439
  C       0.768297     -1.050155     -0.004392
  C       0.860089     -0.250364      1.287022
  O       0.494974     -0.974586      2.364930
  C       0.511056     -0.291689      3.617148
  H       0.162436     -1.014799      4.365190
  H       1.528666      0.050184      3.862867
  H      -0.152732      0.585822      3.593354
  O       1.208028      0.903799      1.369086
  C      -0.614525     -1.580570     -0.153660
  H      -1.127864     -2.034660      0.695686
  H      -1.064757     -1.650110     -1.146798
  C       1.188562     -0.205213     -1.203931
  H       2.197545      0.209823     -1.090648
  H       0.499361      0.644444     -1.324446
  H       1.173876     -0.812902     -2.118977
  H       1.503746     -3.081981     -0.710509
  O       4.676792     -0.835519     -1.287106
44
Coordinates from ORCA-job orca E -886.393130216172
  O       3.395676     -2.358719     -2.202553
  C       3.793274     -1.839003     -1.190414
  C       3.317103     -2.325782      0.194008
  C       3.830608     -1.475488      1.385322
  H       3.064682     -1.445256      2.174219
  H       4.697363     -1.989643      1.834146
  C       4.281712     -0.072012      0.994386
  H       4.764850      0.415245      1.855844
  H       3.436285      0.569694      0.706686
  C       5.272772     -0.158620     -0.151955
  H       6.144066     -0.766290      0.162282
  C       5.769775      1.180882     -0.681993
  C       6.629504      1.969534      0.307832
  H       6.036884      2.222477      1.204317
  H       7.459271      1.330102      0.662364
  C       7.196603      3.253487     -0.298104
  H       7.810525      3.807302      0.429981
  H       6.389232      3.925461     -0.634335
  H       7.829982      3.035921     -1.174374
  H       4.895961      1.781128     -0.992085
  H       6.347511      0.979263     -1.600001
  C       3.873995     -3.766304      0.329404
  H       3.558929     -4.200605      1.291652
  H       4.975903     -3.766645      0.299922
  H       3.509732     -4.404999     -0.487298
  C       1.782382     -2.472250      0.153925
  H       1.435231     -2.961033      1.073871
  C       0.759270     -1.056647     -0.008592
  C       0.856949     -0.248872      1.277513
  O       0.500714     -0.967476      2.362055
  C       0.525376     -0.277681      3.610322
  H       0.183598     -0.997156      4.364995
  H       1.544320      0.067058      3.846307
  H      -0.139866      0.598741      3.586791
  O       1.203209      0.906450      1.350863
  C      -0.620975     -1.597499     -0.144012
  H      -1.126763     -2.045128      0.713224
  H      -1.074456     -1.684793     -1.134272
  C       1.160790     -0.214667     -1.216945
  H       2.167086      0.208943     -1.116179
  H       0.463850      0.629032     -1.334991
  H       1.141405     -0.826981     -2.128680
  H       1.505340     -3.085337     -0.712181
  O       4.678490     -0.830041     -1.285985
44
Coordinates from ORCA-job orca E -886.393168880927
  O       3.406185     -2.361540     -2.205414
  C       3.797026     -1.837444     -1.192887
  C       3.316296     -2.322089      0.190798
  C       3.824161     -1.468945      1.382672
  H       3.053979     -1.435440      2.167306
  H       4.687670     -1.982768      1.838011
  C       4.278487     -0.066992      0.990281
  H       4.758164      0.421838      1.852780
  H       3.434607      0.574575      0.697402
  C       5.274783     -0.157693     -0.151223
  H       6.143550     -0.766188      0.168402
  C       5.776694      1.179779     -0.681742
  C       6.632659      1.969284      0.310649
  H       6.035853      2.225314      1.203475
  H       7.459520      1.329317      0.670966
  C       7.205034      3.250878     -0.295334
  H       7.816115      3.805367      0.434627
  H       6.400541      3.923410     -0.637303
  H       7.842583      3.030223     -1.167804
  H       4.905434      1.780714     -0.997623
  H       6.358771      0.975132     -1.596331
  C       3.876435     -3.761135      0.330175
  H       3.558750     -4.194957      1.291767
  H       4.978458     -3.758612      0.304941
  H       3.516813     -4.401751     -0.487072
  C       1.781872     -2.471906      0.148073
  H       1.435418     -2.963741      1.066643
  C       0.753797     -1.059260     -0.008750
  C       0.858757     -0.252777      1.277505
  O       0.498526     -0.969098      2.362188
  C       0.529732     -0.280107      3.610720
  H       0.184308     -0.997629      4.365595
  H       1.551342      0.057684      3.845239
  H      -0.129569      0.600831      3.588677
  O       1.210027      0.901110      1.350774
  C      -0.624909     -1.605463     -0.137442
  H      -1.128785     -2.046450      0.724356
  H      -1.076660     -1.708029     -1.127040
  C       1.143490     -0.213502     -1.218636
  H       2.148375      0.214237     -1.123979
  H       0.442345      0.627601     -1.330492
  H       1.120269     -0.824005     -2.131310
  H       1.506544     -3.083418     -0.719645
  O       4.684707     -0.830568     -1.286718
44
Coordinates from ORCA-job orca E -886.393160055891
  O       3.394534     -2.351893     -2.204974
  C       3.792171     -1.832075     -1.192874
  C       3.315927     -2.318599      0.191713
  C       3.825017     -1.465367      1.383254
  H       3.055219     -1.430387      2.168127
  H       4.687775     -1.980048      1.838994
  C       4.280598     -0.064029      0.990112
  H       4.762322      0.424105      1.851866
  H       3.436642      0.578233      0.698936
  C       5.274625     -0.155784     -0.153173
  H       6.142646     -0.766630      0.164006
  C       5.778515      1.181068     -0.683333
  C       6.638383      1.967589      0.308049
  H       6.044073      2.224021      1.202419
  H       7.464587      1.325407      0.665932
  C       7.212322      3.248547     -0.297804
  H       7.826259      3.800861      0.431410
  H       6.408594      3.923263     -0.637260
  H       7.847447      3.027418     -1.171919
  H       4.907933      1.784281     -0.996731
  H       6.358172      0.976062     -1.599382
  C       3.879795     -3.756635      0.328081
  H       3.565000     -4.192456      1.289713
  H       4.981742     -3.751281      0.300725
  H       3.520001     -4.396966     -0.489325
  C       1.782004     -2.471505      0.152092
  H       1.437313     -2.961861      1.072129
  C       0.750867     -1.061303     -0.006612
  C       0.853283     -0.255386      1.279947
  O       0.485429     -0.970291      2.362961
  C       0.518578     -0.283137      3.612415
  H       0.167211     -0.999438      4.365698
  H       1.541853      0.047919      3.849297
  H      -0.135035      0.602026      3.590284
  O       1.212212      0.896037      1.355532
  C      -0.625514     -1.611591     -0.140271
  H      -1.136575     -2.042888      0.722179
  H      -1.066260     -1.730643     -1.133000
  C       1.143212     -0.214683     -1.215219
  H       2.147426      0.214139     -1.117208
  H       0.441540      0.625712     -1.329107
  H       1.123389     -0.824808     -2.128275
  H       1.506433     -3.085201     -0.714002
  O       4.680485     -0.826013     -1.288120
44
Coordinates from ORCA-job orca E -886.393165467466
  O       3.384352     -2.341387     -2.205379
  C       3.785990     -1.824025     -1.193570
  C       3.314511     -2.313456      0.191671
  C       3.823073     -1.459676      1.383284
  H       3.052332     -1.422424      2.167157
  H       4.684058     -1.975279      1.841292
  C       4.280956     -0.059351      0.989315
  H       4.763676      0.428400      1.850722
  H       3.437350      0.583472      0.698380
  C       5.274117     -0.153164     -0.154433
  H       6.140339     -0.767221      0.161507
  C       5.782056      1.182461     -0.683776
  C       6.645268      1.965280      0.307618
  H       6.052517      2.222860      1.202686
  H       7.469678      1.320129      0.664296
  C       7.222857      3.244926     -0.297545
  H       7.839186      3.794574      0.431664
  H       6.421029      3.922553     -0.635691
  H       7.856546      3.022575     -1.172397
  H       4.913185      1.788758     -0.995977
  H       6.360324      0.976361     -1.600464
  C       3.884075     -3.749671      0.324847
  H       3.572496     -4.188240      1.286280
  H       4.985920     -3.739810      0.295771
  H       3.525307     -4.390029     -0.493017
  C       1.781288     -2.471536      0.154962
  H       1.439416     -2.961582      1.076275
  C       0.745523     -1.064867     -0.004963
  C       0.847688     -0.258408      1.280912
  O       0.475906     -0.971640      2.363639
  C       0.512710     -0.285383      3.613431
  H       0.159133     -1.000727      4.366577
  H       1.537479      0.041532      3.849666
  H      -0.137320      0.602448      3.592379
  O       1.211090      0.891616      1.356833
  C      -0.628181     -1.620694     -0.140557
  H      -1.147440     -2.036171      0.724700
  H      -1.056341     -1.763693     -1.135679
  C       1.137572     -0.218619     -1.214216
  H       2.141171      0.211755     -1.115491
  H       0.434716      0.620592     -1.329469
  H       1.119388     -0.829427     -2.126897
  H       1.506578     -3.087846     -0.709556
  O       4.676575     -0.820176     -1.289505
44
Coordinates from ORCA-job orca E -886.393174272532
  O       3.385153     -2.342915     -2.205006
  C       3.787215     -1.824932     -1.193681
  C       3.314614     -2.312120      0.191993
  C       3.821424     -1.455928      1.382680
  H       3.049238     -1.416389      2.164977
  H       4.681228     -1.970791      1.843722
  C       4.280012     -0.056539      0.986196
  H       4.761353      0.433269      1.847203
  H       3.436560      0.585294      0.692427
  C       5.274731     -0.152918     -0.155919
  H       6.140098     -0.766982      0.162351
  C       5.784289      1.181409     -0.686976
  C       6.646768      1.965448      0.304091
  H       6.053098      2.224957      1.197994
  H       7.470374      1.320452      0.662905
  C       7.225824      3.243699     -0.302617
  H       7.841624      3.794253      0.426357
  H       6.424789      3.921203     -0.642870
  H       7.860409      3.019471     -1.176335
  H       4.916215      1.787700     -1.001397
  H       6.363585      0.973276     -1.602554
  C       3.885005     -3.747779      0.327769
  H       3.572636     -4.185305      1.289419
  H       4.986871     -3.737072      0.299994
  H       3.527659     -4.389515     -0.489647
  C       1.781380     -2.470691      0.154410
  H       1.439532     -2.963094      1.074499
  C       0.745732     -1.063643     -0.002911
  C       0.845864     -0.261057      1.285384
  O       0.469994     -0.976793      2.365062
  C       0.505247     -0.294446      3.617018
  H       0.149385     -1.011669      4.367295
  H       1.529967      0.030507      3.856168
  H      -0.143635      0.594270      3.597501
  O       1.211500      0.887951      1.365632
  C      -0.627604     -1.619142     -0.143053
  H      -1.152917     -2.028756      0.721321
  H      -1.049026     -1.768341     -1.140166
  C       1.140407     -0.213769     -1.208884
  H       2.143940      0.216079     -1.106695
  H       0.437892      0.625888     -1.322858
  H       1.123995     -0.821755     -2.123447
  H       1.507522     -3.085450     -0.711503
  O       4.678205     -0.821547     -1.290569
44
Coordinates from ORCA-job orca E -886.393166547762
  O       3.385245     -2.341682     -2.205874
  C       3.786517     -1.823782     -1.194194
  C       3.314621     -2.312556      0.191171
  C       3.821791     -1.457471      1.382494
  H       3.049980     -1.418860      2.165159
  H       4.681915     -1.972621      1.842634
  C       4.279959     -0.057626      0.987195
  H       4.761286      0.431620      1.848514
  H       3.436304      0.584210      0.694027
  C       5.274474     -0.152874     -0.155207
  H       6.139917     -0.767154      0.162443
  C       5.783883      1.181951     -0.685143
  C       6.646712      1.965015      0.306387
  H       6.053397      2.223557      1.200809
  H       7.470506      1.319698      0.664180
  C       7.225426      3.243936     -0.299233
  H       7.841511      3.793765      0.430047
  H       6.424197      3.921742     -0.638424
  H       7.859641      3.020663     -1.173461
  H       4.915720      1.788560     -0.998703
  H       6.362861      0.974685     -1.601115
  C       3.885428     -3.748154      0.325332
  H       3.573756     -4.186660      1.286761
  H       4.987282     -3.737136      0.296936
  H       3.527806     -4.389289     -0.492440
  C       1.781259     -2.471546      0.154053
  H       1.440237     -2.964289      1.074261
  C       0.745199     -1.064815     -0.003394
  C       0.846533     -0.259811      1.283300
  O       0.473483     -0.974137      2.364922
  C       0.508911     -0.289085      3.615396
  H       0.155908     -1.005591      4.367705
  H       1.533182      0.038880      3.852336
  H      -0.142185      0.597997      3.594982
  O       1.210091      0.890033      1.360709
  C      -0.628460     -1.620463     -0.140241
  H      -1.153258     -2.026863      0.725945
  H      -1.050984     -1.772152     -1.136518
  C       1.137494     -0.217053     -1.211654
  H       2.141152      0.213052     -1.112164
  H       0.434607      0.622260     -1.325714
  H       1.119442     -0.826745     -2.125040
  H       1.507585     -3.086852     -0.711544
  O       4.677821     -0.820565     -1.290359
44
Coordinates from ORCA-job orca E -886.384015289913
  O       3.412134     -2.363314     -2.207025
  C       3.812427     -1.844715     -1.195315
  C       3.347825     -2.339893      0.190275
  C       3.852076     -1.483735      1.382071
  H       3.082117     -1.452382      2.166921
  H       4.717165     -1.993683      1.838753
  C       4.299080     -0.079731      0.988559
  H       4.779225      0.411117      1.849628
  H       3.450001      0.556660      0.699078
  C       5.291171     -0.165336     -0.156758
  H       6.161906     -0.774067      0.157205
  C       5.789519      1.174308     -0.685187
  C       6.649403      1.961442      0.305692
  H       6.056660      2.213770      1.202289
  H       7.478822      1.321286      0.659843
  C       7.217252      3.245846     -0.298732
  H       7.831360      3.798534      0.430063
  H       6.410214      3.918613     -0.634273
  H       7.850696      3.029038     -1.175171
  H       4.916130      1.775340     -0.995069
  H       6.367496      0.973201     -1.603184
  C       3.929343     -3.771667      0.319771
  H       3.623449     -4.214504      1.281098
  H       5.031040     -3.752647      0.288399
  H       3.574115     -4.413608     -0.498418
  C       1.815508     -2.509853      0.156987
  H       1.480542     -3.007048      1.077055
  C       0.708620     -1.028425     -0.003749
  C       0.807655     -0.225480      1.284414
  O       0.442697     -0.944838      2.365503
  C       0.476592     -0.262241      3.617366
  H       0.130800     -0.982921      4.369083
  H       1.499145      0.072592      3.852228
  H      -0.180952      0.620193      3.600647
  O       1.163138      0.926817      1.363325
  C      -0.661408     -1.593676     -0.138061
  H      -1.180919     -2.005735      0.728673
  H      -1.085550     -1.746250     -1.133517
  C       1.091516     -0.175217     -1.211240
  H       2.092345      0.261906     -1.113550
  H       0.382270      0.659278     -1.321567
  H       1.075372     -0.783060     -2.125898
  H       1.543911     -3.125255     -0.709199
  O       4.696240     -0.834866     -1.291732
44
Coordinates from ORCA-job orca E -886.383607411197
  O       3.386925     -2.386440     -2.203716
  C       3.792545     -1.882042     -1.187028
  C       3.326454     -2.389655      0.193730
  C       3.820443     -1.538753      1.392603
  H       3.048225     -1.526685      2.176527
  H       4.694483     -2.037160      1.845061
  C       4.235288     -0.122419      1.010352
  H       4.702492      0.373365      1.875663
  H       3.371002      0.495864      0.723714
  C       5.230947     -0.176980     -0.133765
  H       6.114660     -0.767842      0.177864
  C       5.699748      1.177307     -0.651757
  C       6.540336      1.976344      0.346139
  H       5.940764      2.209143      1.243462
  H       7.383182      1.352276      0.697209
  C       7.080554      3.277164     -0.248295
  H       7.681109      3.838153      0.485417
  H       6.259395      3.934229     -0.580558
  H       7.720024      3.080539     -1.125092
  H       4.813584      1.760732     -0.958832
  H       6.283449      0.995770     -1.570180
  C       3.894575     -3.827782      0.317972
  H       3.580197     -4.273752      1.275084
  H       4.996565     -3.817394      0.292443
  H       3.538717     -4.461973     -0.506006
  C       1.797774     -2.533690      0.152166
  H       1.432794     -2.995973      1.078795
  C       0.764724     -1.003058     -0.036610
  C       0.941490     -0.197391      1.237432
  O       0.556451     -0.881588      2.334309
  C       0.668707     -0.192404      3.577869
  H       0.295113     -0.881876      4.345385
  H       1.717175      0.074809      3.783291
  H       0.071595      0.732129      3.569363
  O       1.385993      0.924934      1.295333
  C      -0.625404     -1.502540     -0.147992
  H      -1.159518     -1.864101      0.732285
  H      -1.065456     -1.654633     -1.136648
  C       1.207651     -0.216196     -1.265779
  H       2.238834      0.148621     -1.178361
  H       0.560762      0.664223     -1.400145
  H       1.146475     -0.846938     -2.163405
  H       1.503751     -3.138582     -0.713669
  O       4.653577     -0.851964     -1.274350
44
Coordinates from ORCA-job orca E -886.384626177903
  O       3.369056     -2.350688     -2.195634
  C       3.778644     -1.829926     -1.188879
  C       3.332518     -2.327525      0.202212
  C       3.836959     -1.464243      1.388073
  H       3.065121     -1.427140      2.171649
  H       4.702403     -1.971116      1.847759
  C       4.285737     -0.063545      0.984222
  H       4.769467      0.431983      1.840587
  H       3.437910      0.572691      0.692871
  C       5.272565     -0.157221     -0.164693
  H       6.141370     -0.770144      0.146338
  C       5.775618      1.178277     -0.698973
  C       6.646220      1.961982      0.285214
  H       6.060275      2.220295      1.184525
  H       7.473292      1.317101      0.636136
  C       7.219366      3.240971     -0.325453
  H       7.841257      3.791193      0.398579
  H       6.415121      3.918366     -0.658195
  H       7.846409      3.017669     -1.204829
  H       4.904185      1.783969     -1.004958
  H       6.346959      0.971699     -1.619882
  C       3.919711     -3.757496      0.331694
  H       3.621739     -4.199774      1.295737
  H       5.021161     -3.733027      0.293851
  H       3.563169     -4.402668     -0.483439
  C       1.806987     -2.504202      0.176833
  H       1.454465     -2.973939      1.104224
  C       0.716893     -1.012233     -0.000330
  C       0.826156     -0.245516      1.302083
  O       0.436902     -0.980474      2.364027
  C       0.456186     -0.319760      3.627768
  H       0.092312     -1.050220      4.361248
  H       1.477490      0.002168      3.884966
  H      -0.193695      0.568458      3.616383
  O       1.180997      0.905294      1.404331
  C      -0.637364     -1.576665     -0.161275
  H      -1.176938     -1.983192      0.695711
  H      -1.042834     -1.726417     -1.164950
  C       1.168408     -0.181836     -1.195494
  H       2.181481      0.219011     -1.066612
  H       0.492520      0.676591     -1.330635
  H       1.159701     -0.792768     -2.108753
  H       1.515589     -3.105104     -0.692262
  O       4.666665     -0.825096     -1.294496
44
Coordinates from ORCA-job orca E -886.384530068203
  O       3.390599     -2.339110     -2.201284
  C       3.792709     -1.820827     -1.190240
  C       3.323888     -2.310046      0.196484
  C       3.815470     -1.444902      1.387240
  H       3.033422     -1.400961      2.159634
  H       4.670829     -1.955729      1.860918
  C       4.280177     -0.048409      0.987306
  H       4.757503      0.444062      1.848961
  H       3.440933      0.594573      0.685971
  C       5.280000     -0.151278     -0.150009
  H       6.141038     -0.769022      0.172908
  C       5.798642      1.179743     -0.680578
  C       6.662341      1.959602      0.312722
  H       6.066954      2.224135      1.203996
  H       7.480352      1.309725      0.675513
  C       7.252197      3.233100     -0.293556
  H       7.868667      3.780677      0.437079
  H       6.457046      3.915343     -0.638104
  H       7.888848      3.003317     -1.164332
  H       4.935201      1.790724     -0.998581
  H       6.379930      0.967358     -1.593920
  C       3.916287     -3.736851      0.337575
  H       3.608410     -4.176960      1.299378
  H       5.018145     -3.707731      0.313046
  H       3.572236     -4.386161     -0.479536
  C       1.797704     -2.497608      0.158935
  H       1.446563     -2.969079      1.085423
  C       0.675404     -1.029944     -0.020142
  C       0.789202     -0.241383      1.269063
  O       0.459264     -0.974911      2.352051
  C       0.538767     -0.309077      3.610710
  H       0.217640     -1.038878      4.364549
  H       1.569653      0.020536      3.814331
  H      -0.116732      0.574893      3.629085
  O       1.184832      0.897701      1.354493
  C      -0.667478     -1.628548     -0.147622
  H      -1.182124     -2.032765      0.725360
  H      -1.083305     -1.811946     -1.141364
  C       1.070552     -0.198434     -1.234349
  H       2.071572      0.235988     -1.135567
  H       0.364785      0.637363     -1.360857
  H       1.058143     -0.818155     -2.140732
  H       1.517106     -3.105794     -0.708272
  O       4.684780     -0.818542     -1.286407
44
Coordinates from ORCA-job orca E -886.384793838615
  O       3.379080     -2.334800     -2.208227
  C       3.791767     -1.826607     -1.196329
  C       3.332647     -2.325404      0.190156
  C       3.831070     -1.467583      1.383391
  H       3.054800     -1.432079      2.161598
  H       4.692090     -1.978001      1.847038
  C       4.284057     -0.065832      0.989535
  H       4.764466      0.423932      1.851015
  H       3.437946      0.573669      0.698328
  C       5.276600     -0.155463     -0.155245
  H       6.143197     -0.770616      0.157622
  C       5.784362      1.181847     -0.680416
  C       6.651150      1.959550      0.311895
  H       6.060899      2.214844      1.209263
  H       7.475235      1.311627      0.664294
  C       7.229762      3.240298     -0.289941
  H       7.848637      3.786198      0.439916
  H       6.428483      3.920584     -0.624005
  H       7.861239      3.019875     -1.166882
  H       4.915400      1.790337     -0.988013
  H       6.360099      0.978753     -1.599372
  C       3.924516     -3.754220      0.317423
  H       3.622312     -4.200653      1.278078
  H       5.026240     -3.726065      0.286055
  H       3.574504     -4.397464     -0.501972
  C       1.806717     -2.507015      0.161138
  H       1.456552     -2.975397      1.089322
  C       0.696403     -1.029390     -0.010599
  C       0.831060     -0.243082      1.277792
  O       0.446897     -0.953214      2.358721
  C       0.502233     -0.272447      3.610654
  H       0.137289     -0.983292      4.362682
  H       1.534166      0.033159      3.844245
  H      -0.130000      0.628360      3.595951
  O       1.221793      0.898206      1.358094
  C      -0.652547     -1.615019     -0.131344
  H      -1.168275     -2.010897      0.744857
  H      -1.073536     -1.798989     -1.122823
  C       1.096932     -0.202582     -1.225916
  H       2.104025      0.219076     -1.130732
  H       0.401455      0.642347     -1.349626
  H       1.073002     -0.821750     -2.132463
  H       1.516235     -3.110584     -0.705958
  O       4.677188     -0.818423     -1.291916
44
Coordinates from ORCA-job orca E -886.384797432353
  O       3.372895     -2.345423     -2.199780
  C       3.777034     -1.822586     -1.191930
  C       3.328776     -2.320960      0.198062
  C       3.827206     -1.456136      1.386098
  H       3.050825     -1.416184      2.164291
  H       4.688790     -1.962964      1.852641
  C       4.278296     -0.056511      0.982297
  H       4.758477      0.439842      1.840163
  H       3.431198      0.579668      0.686368
  C       5.270653     -0.153710     -0.161699
  H       6.135867     -0.769497      0.153808
  C       5.781212      1.179646     -0.693987
  C       6.650571      1.960148      0.293852
  H       6.061555      2.221384      1.190318
  H       7.473300      1.311981      0.648957
  C       7.231920      3.236426     -0.314771
  H       7.852661      3.784432      0.411923
  H       6.432095      3.917002     -0.651683
  H       7.862220      3.010050     -1.191034
  H       4.913496      1.788659     -1.004010
  H       6.355846      0.970560     -1.612291
  C       3.925507     -3.748229      0.326495
  H       3.628139     -4.193729      1.289147
  H       5.026948     -3.716503      0.291222
  H       3.574719     -4.394316     -0.490402
  C       1.805071     -2.504587      0.172574
  H       1.452075     -2.968527      1.102131
  C       0.702528     -1.021693     -0.003745
  C       0.824097     -0.251901      1.295078
  O       0.419673     -0.971780      2.362025
  C       0.472485     -0.309773      3.624036
  H       0.090170     -1.025967      4.362222
  H       1.506253     -0.022236      3.871986
  H      -0.146775      0.600081      3.616197
  O       1.233331      0.881322      1.395961
  C      -0.645134     -1.600871     -0.156141
  H      -1.182230     -1.997682      0.706688
  H      -1.045868     -1.777642     -1.157312
  C       1.138990     -0.188205     -1.201682
  H       2.148907      0.221760     -1.079231
  H       0.455383      0.665125     -1.333335
  H       1.129439     -0.798875     -2.114644
  H       1.511528     -3.105638     -0.695267
  O       4.668023     -0.820175     -1.294317
44
Coordinates from ORCA-job orca E -886.384839119491
  O       3.361530     -2.327941     -2.202411
  C       3.778825     -1.818631     -1.192971
  C       3.329429     -2.319053      0.195998
  C       3.829502     -1.458283      1.386591
  H       3.053656     -1.419439      2.165369
  H       4.690219     -1.968130      1.851366
  C       4.282991     -0.058072      0.987589
  H       4.765783      0.433767      1.846579
  H       3.436463      0.580793      0.696453
  C       5.272632     -0.152088     -0.159132
  H       6.137847     -0.770169      0.151857
  C       5.783743      1.182786     -0.687072
  C       6.656450      1.958033      0.301951
  H       6.069849      2.216395      1.200828
  H       7.479090      1.307285      0.652518
  C       7.238185      3.236003     -0.302752
  H       7.861317      3.780177      0.424775
  H       6.438539      3.919053     -0.635062
  H       7.866207      3.012371     -1.181356
  H       4.916121      1.794235     -0.992553
  H       6.355960      0.976737     -1.607575
  C       3.926977     -3.746260      0.320364
  H       3.630249     -4.194260      1.282044
  H       5.028376     -3.713788      0.284628
  H       3.576002     -4.390332     -0.497997
  C       1.805476     -2.504710      0.171745
  H       1.454747     -2.966942      1.103006
  C       0.694546     -1.028451     -0.007585
  C       0.820567     -0.249421      1.285350
  O       0.423503     -0.962855      2.359304
  C       0.483900     -0.292926      3.616762
  H       0.106911     -1.004765      4.361867
  H       1.518995     -0.003005      3.856267
  H      -0.136113      0.616400      3.607177
  O       1.229174      0.884892      1.376836
  C      -0.650422     -1.617063     -0.147757
  H      -1.181166     -2.008442      0.721423
  H      -1.054114     -1.807607     -1.145198
  C       1.115549     -0.199096     -1.214165
  H       2.123138      0.218654     -1.102465
  H       0.425113      0.648807     -1.345472
  H       1.102669     -0.815068     -2.123414
  H       1.512741     -3.110275     -0.693193
  O       4.666994     -0.813526     -1.293237
44
Coordinates from ORCA-job orca E -886.384845612818
  O       3.372524     -2.330363     -2.205885
  C       3.782529     -1.816782     -1.195609
  C       3.328803     -2.315961      0.192512
  C       3.823905     -1.453486      1.384055
  H       3.044446     -1.412494      2.159136
  H       4.681882     -1.963183      1.853975
  C       4.279914     -0.054293      0.984714
  H       4.759397      0.438606      1.844941
  H       3.434566      0.584281      0.689257
  C       5.274342     -0.151102     -0.157687
  H       6.137354     -0.769930      0.157930
  C       5.789781      1.182277     -0.685175
  C       6.659174      1.957597      0.306707
  H       6.068824      2.218301      1.202448
  H       7.479088      1.306033      0.662116
  C       7.245875      3.233672     -0.297213
  H       7.866452      3.777949      0.432418
  H       6.448946      3.917521     -0.634378
  H       7.877707      3.007652     -1.172471
  H       4.924451      1.794575     -0.995424
  H       6.365864      0.974079     -1.602781
  C       3.929283     -3.741798      0.319790
  H       3.630468     -4.189799      1.280813
  H       5.030718     -3.706701      0.287591
  H       3.582338     -4.387187     -0.499237
  C       1.805118     -2.504684      0.166064
  H       1.455378     -2.969390      1.096436
  C       0.688515     -1.032151     -0.008601
  C       0.822323     -0.252169      1.282954
  O       0.424728     -0.962058      2.359022
  C       0.492277     -0.290832      3.615390
  H       0.113999     -0.999805      4.362575
  H       1.529531     -0.005747      3.851374
  H      -0.123151      0.621610      3.606503
  O       1.234120      0.881289      1.371623
  C      -0.654920     -1.626390     -0.139700
  H      -1.180894     -2.014587      0.733790
  H      -1.061160     -1.825771     -1.134364
  C       1.095877     -0.200458     -1.218488
  H       2.101895      0.222302     -1.114628
  H       0.400380      0.644227     -1.344093
  H       1.078701     -0.815968     -2.127772
  H       1.513972     -3.109699     -0.699709
  O       4.672827     -0.813389     -1.293640
44
Coordinates from ORCA-job orca E -886.384854092597
  O       3.363697     -2.325251     -2.204196
  C       3.778681     -1.814190     -1.194676
  C       3.328690     -2.314331      0.194301
  C       3.825352     -1.451623      1.385122
  H       3.046721     -1.409861      2.160963
  H       4.683465     -1.961529      1.854546
  C       4.281270     -0.052698      0.984645
  H       4.762269      0.440319      1.843960
  H       3.435403      0.585760      0.690414
  C       5.273619     -0.150046     -0.159419
  H       6.136528     -0.770003      0.154273
  C       5.789551      1.182960     -0.687330
  C       6.661943      1.956748      0.303115
  H       6.073788      2.217692      1.200227
  H       7.481841      1.304049      0.656477
  C       7.248866      3.232448     -0.301380
  H       7.871618      3.775621      0.427221
  H       6.452027      3.917400     -0.636507
  H       7.878586      3.006148     -1.178085
  H       4.924302      1.796431     -0.995474
  H       6.363471      0.974523     -1.606238
  C       3.930851     -3.739743      0.319552
  H       3.634283     -4.188696      1.280829
  H       5.032170     -3.703359      0.285351
  H       3.583038     -4.384921     -0.499283
  C       1.805411     -2.504165      0.170114
  H       1.456211     -2.967352      1.101473
  C       0.688423     -1.032208     -0.006926
  C       0.818507     -0.253807      1.285790
  O       0.415700     -0.964180      2.359579
  C       0.482391     -0.295539      3.617348
  H       0.099842     -1.004609      4.362260
  H       1.520018     -0.014424      3.856472
  H      -0.129859      0.619035      3.608633
  O       1.233960      0.878088      1.377587
  C      -0.653789     -1.627430     -0.144219
  H      -1.185152     -2.013176      0.727082
  H      -1.053885     -1.829803     -1.140770
  C       1.101857     -0.199879     -1.214331
  H       2.107910      0.221966     -1.105443
  H       0.407633      0.645476     -1.342421
  H       1.088267     -0.814604     -2.124293
  H       1.513671     -3.110395     -0.694636
  O       4.669007     -0.811052     -1.294427
44
Coordinates from ORCA-job orca E -886.384853353090
  O       3.357919     -2.319510     -2.204155
  C       3.775279     -1.809887     -1.194878
  C       3.328180     -2.311734      0.194454
  C       3.824861     -1.448915      1.385324
  H       3.045947     -1.406101      2.160808
  H       4.682220     -1.959300      1.855580
  C       4.281601     -0.050390      0.984423
  H       4.763156      0.442562      1.843458
  H       3.435607      0.588049      0.690485
  C       5.273230     -0.148571     -0.160121
  H       6.135267     -0.770224      0.152645
  C       5.791163      1.183852     -0.687491
  C       6.665697      1.955336      0.302849
  H       6.078690      2.216661      1.200600
  H       7.484698      1.300925      0.655120
  C       7.254417      3.230449     -0.301131
  H       7.878677      3.771972      0.427410
  H       6.458536      3.917059     -0.635136
  H       7.883083      3.003708     -1.178479
  H       4.926780      1.799086     -0.994536
  H       6.364011      0.975029     -1.606981
  C       3.933383     -3.736143      0.317568
  H       3.638904     -4.186693      1.278740
  H       5.034566     -3.697310      0.282104
  H       3.585862     -4.381188     -0.501513
  C       1.805371     -2.504185      0.172128
  H       1.457656     -2.966791      1.104358
  C       0.685715     -1.034408     -0.006164
  C       0.815462     -0.255374      1.286073
  O       0.410273     -0.964425      2.359816
  C       0.478734     -0.296042      3.617593
  H       0.094226     -1.004091      4.362464
  H       1.517127     -0.017777      3.856780
  H      -0.130938      0.620255      3.608912
  O       1.233347      0.875648      1.377875
  C      -0.654912     -1.632727     -0.144264
  H      -1.189162     -2.013722      0.727340
  H      -1.050701     -1.842298     -1.141049
  C       1.098928     -0.202368     -1.213955
  H       2.104564      0.220516     -1.104648
  H       0.403948      0.642247     -1.342835
  H       1.086333     -0.817501     -2.123671
  H       1.513855     -3.112152     -0.691491
  O       4.666591     -0.807738     -1.295130
44
Coordinates from ORCA-job orca E -886.376048074807
  O       3.384763     -2.340986     -2.204975
  C       3.801310     -1.830573     -1.195760
  C       3.361683     -2.338628      0.193734
  C       3.855538     -1.474848      1.385086
  H       3.078489     -1.439277      2.162843
  H       4.717857     -1.980133      1.851835
  C       4.301172     -0.072192      0.985942
  H       4.781613      0.422333      1.844699
  H       3.449797      0.560846      0.695758
  C       5.290298     -0.160810     -0.161591
  H       6.157648     -0.776988      0.147413
  C       5.797243      1.176455     -0.687520
  C       6.669042      1.952033      0.302048
  H       6.082682      2.207219      1.202008
  H       7.493701      1.302703      0.650605
  C       7.246969      3.232659     -0.300813
  H       7.869403      3.777057      0.427155
  H       6.445251      3.914312     -0.631100
  H       7.874797      3.012310     -1.180413
  H       4.927608      1.786185     -0.990809
  H       6.369008      0.973716     -1.609067
  C       3.977399     -3.758984      0.312062
  H       3.688826     -4.213722      1.273080
  H       5.078205     -3.712212      0.273600
  H       3.632189     -4.404732     -0.507446
  C       1.840185     -2.541902      0.175253
  H       1.498382     -3.009013      1.107453
  C       0.647997     -0.998944     -0.006514
  C       0.775799     -0.221790      1.287051
  O       0.378679     -0.936064      2.360389
  C       0.445888     -0.269921      3.619425
  H       0.068521     -0.982332      4.363836
  H       1.482965      0.015237      3.856309
  H      -0.170348      0.642042      3.614440
  O       1.185868      0.912016      1.380138
  C      -0.688746     -1.606535     -0.142160
  H      -1.217836     -1.993235      0.730113
  H      -1.085829     -1.816767     -1.138292
  C       1.051889     -0.161333     -1.213656
  H       2.054812      0.268492     -1.106247
  H       0.350519      0.678600     -1.338757
  H       1.041138     -0.774582     -2.124671
  H       1.550591     -3.150075     -0.688869
  O       4.685187     -0.821845     -1.296333
44
Coordinates from ORCA-job orca E -886.375659905025
  O       3.362602     -2.369107     -2.201211
  C       3.783135     -1.870337     -1.187910
  C       3.340870     -2.388178      0.197407
  C       3.822962     -1.526886      1.394600
  H       3.042918     -1.508940      2.170654
  H       4.693603     -2.019694      1.859328
  C       4.236713     -0.112628      1.004087
  H       4.702999      0.388791      1.866601
  H       3.370427      0.501476      0.714287
  C       5.230993     -0.172733     -0.140768
  H       6.110985     -0.770567      0.168312
  C       5.709351      1.178146     -0.658577
  C       6.560617      1.968186      0.337417
  H       5.965932      2.206235      1.236599
  H       7.398272      1.335617      0.685717
  C       7.112131      3.263916     -0.257741
  H       7.720052      3.818540      0.474739
  H       6.296710      3.929232     -0.587670
  H       7.747502      3.061412     -1.136189
  H       4.827245      1.769660     -0.961728
  H       6.288305      0.992707     -1.579243
  C       3.945109     -3.814346      0.313926
  H       3.647541     -4.271006      1.271259
  H       5.046490     -3.774900      0.282504
  H       3.600775     -4.454266     -0.510519
  C       1.821677     -2.566378      0.169571
  H       1.450288     -3.001817      1.105988
  C       0.707314     -0.969290     -0.036763
  C       0.910905     -0.197493      1.246811
  O       0.485504     -0.876535      2.332174
  C       0.624744     -0.210153      3.585013
  H       0.213759     -0.890442      4.341561
  H       1.683838      0.002892      3.799259
  H       0.073865      0.742760      3.586610
  O       1.409673      0.901526      1.323780
  C      -0.650667     -1.510362     -0.152971
  H      -1.194748     -1.849684      0.729754
  H      -1.065966     -1.714984     -1.142901
  C       1.174282     -0.195493     -1.261556
  H       2.207764      0.159033     -1.160890
  H       0.538311      0.691634     -1.408277
  H       1.117965     -0.828011     -2.158104
  H       1.510776     -3.160009     -0.697239
  O       4.644629     -0.841734     -1.280426
44
Coordinates from ORCA-job orca E -886.376686111511
  O       3.343162     -2.330881     -2.192422
  C       3.768465     -1.816781     -1.188866
  C       3.346011     -2.324710      0.206427
  C       3.838222     -1.450897      1.390692
  H       3.058136     -1.407205      2.165795
  H       4.699695     -1.952282      1.863416
  C       4.286788     -0.052710      0.978543
  H       4.769763      0.448289      1.832099
  H       3.437085      0.579660      0.683919
  C       5.272174     -0.152534     -0.170907
  H       6.136620     -0.772872      0.137801
  C       5.785588      1.178906     -0.705114
  C       6.666732      1.953052      0.277239
  H       6.085695      2.217152      1.178039
  H       7.487831      1.299412      0.626006
  C       7.252018      3.226048     -0.334417
  H       7.881144      3.769562      0.388426
  H       6.454305      3.911915     -0.665484
  H       7.874965      2.996286     -1.215049
  H       4.918892      1.793005     -1.007663
  H       6.352199      0.968045     -1.627993
  C       3.969752     -3.742220      0.327623
  H       3.688781     -4.195227      1.291672
  H       5.070148     -3.688206      0.283840
  H       3.625152     -4.392983     -0.488192
  C       1.830597     -2.534754      0.194450
  H       1.470957     -2.976796      1.132306
  C       0.655537     -0.980413     -0.001331
  C       0.793848     -0.246913      1.310351
  O       0.367788     -0.978867      2.360456
  C       0.416177     -0.338612      3.633489
  H       0.017804     -1.062056      4.355941
  H       1.450914     -0.068106      3.896365
  H      -0.191501      0.579145      3.635428
  O       1.202737      0.884761      1.432076
  C      -0.662502     -1.585320     -0.166871
  H      -1.213081     -1.970402      0.692718
  H      -1.040952     -1.785545     -1.172354
  C       1.133277     -0.163813     -1.192231
  H       2.149232      0.224975     -1.050093
  H       0.469967      0.702996     -1.340142
  H       1.128835     -0.776993     -2.103886
  H       1.522030     -3.125508     -0.674995
  O       4.657161     -0.813811     -1.299829
44
Coordinates from ORCA-job orca E -886.376577389785
  O       3.358400     -2.312611     -2.197553
  C       3.778802     -1.803199     -1.189534
  C       3.336592     -2.305188      0.201914
  C       3.819013     -1.431938      1.391474
  H       3.030557     -1.382129      2.156982
  H       4.670807     -1.938821      1.875464
  C       4.284012     -0.037658      0.984942
  H       4.763053      0.458166      1.843662
  H       3.442757      0.602757      0.683631
  C       5.279576     -0.145347     -0.155513
  H       6.136420     -0.771869      0.161832
  C       5.808544      1.182087     -0.684496
  C       6.685956      1.949452      0.306495
  H       6.097987      2.218519      1.201310
  H       7.498206      1.289336      0.663723
  C       7.287644      3.217496     -0.299572
  H       7.913657      3.756256      0.429498
  H       6.498876      3.909605     -0.639039
  H       7.917761      2.982402     -1.173688
  H       4.949669      1.802915     -0.995645
  H       6.382599      0.966738     -1.601737
  C       3.965511     -3.719650      0.331148
  H       3.677148     -4.171880      1.293266
  H       5.066150     -3.661145      0.297676
  H       3.631018     -4.373135     -0.486635
  C       1.820867     -2.526100      0.180477
  H       1.463673     -2.967045      1.118999
  C       0.609088     -1.001187     -0.022753
  C       0.751761     -0.240282      1.272795
  O       0.389930     -0.971503      2.347385
  C       0.502374     -0.325258      3.613311
  H       0.150322     -1.048786      4.359380
  H       1.547466     -0.044743      3.818348
  H      -0.112261      0.587324      3.644608
  O       1.203878      0.877225      1.373181
  C      -0.695567     -1.641882     -0.153068
  H      -1.221324     -2.023061      0.723330
  H      -1.082607     -1.878595     -1.147200
  C       1.030563     -0.185731     -1.235356
  H       2.034252      0.239169     -1.123893
  H       0.335421      0.657057     -1.378395
  H       1.024508     -0.810573     -2.138168
  H       1.523005     -3.128178     -0.684198
  O       4.672086     -0.803220     -1.291108
44
Coordinates from ORCA-job orca E -886.376875014427
  O       3.349853     -2.309593     -2.205332
  C       3.779149     -1.809490     -1.196406
  C       3.345475     -2.320946      0.194219
  C       3.833264     -1.454731      1.386757
  H       3.049568     -1.413129      2.157213
  H       4.690217     -1.961144      1.861947
  C       4.286745     -0.055162      0.986511
  H       4.767845      0.438216      1.845489
  H       3.438790      0.581525      0.694323
  C       5.276297     -0.149698     -0.160314
  H       6.138413     -0.773480      0.148048
  C       5.794903      1.184021     -0.683644
  C       6.674160      1.949622      0.307089
  H       6.090183      2.209602      1.207193
  H       7.492136      1.291630      0.655058
  C       7.265237      3.224912     -0.294209
  H       7.892701      3.762307      0.434621
  H       6.470654      3.914886     -0.624338
  H       7.891327      2.999043     -1.173634
  H       4.930800      1.802173     -0.985526
  H       6.364539      0.977820     -1.605732
  C       3.974185     -3.737142      0.310145
  H       3.690906     -4.195687      1.270754
  H       5.074670     -3.679164      0.270862
  H       3.634540     -4.384789     -0.510177
  C       1.830011     -2.536609      0.180178
  H       1.474084     -2.975733      1.119762
  C       0.629724     -1.001378     -0.013339
  C       0.795037     -0.243724      1.281357
  O       0.380547     -0.948760      2.354692
  C       0.468701     -0.285544      3.613741
  H       0.074294     -0.988033      4.358745
  H       1.513523     -0.028233      3.848449
  H      -0.122921      0.642630      3.611418
  O       1.239633      0.877473      1.375830
  C      -0.681366     -1.629699     -0.135300
  H      -1.206451     -2.003363      0.744781
  H      -1.075840     -1.866255     -1.126558
  C       1.054505     -0.190443     -1.227546
  H       2.064220      0.221825     -1.121002
  H       0.369332      0.661276     -1.366525
  H       1.035720     -0.814523     -2.130706
  H       1.522935     -3.133116     -0.685008
  O       4.665909     -0.803605     -1.296608
44
Coordinates from ORCA-job orca E -886.376894579603
  O       3.347574     -2.323175     -2.197320
  C       3.767202     -1.807483     -1.192222
  C       3.342006     -2.316437      0.201749
  C       3.827987     -1.441766      1.388706
  H       3.042946     -1.394716      2.157766
  H       4.684756     -1.943851      1.868807
  C       4.279825     -0.044803      0.977281
  H       4.759222      0.456493      1.832668
  H       3.431042      0.587790      0.678127
  C       5.271064     -0.148266     -0.166958
  H       6.131348     -0.772127      0.146393
  C       5.793157      1.180823     -0.698380
  C       6.673033      1.950764      0.288420
  H       6.088589      2.217970      1.186102
  H       7.489037      1.293138      0.641678
  C       7.267848      3.220705     -0.320437
  H       7.895672      3.761381      0.405660
  H       6.475302      3.910352     -0.656071
  H       7.894493      2.987619     -1.197573
  H       4.930770      1.798917     -1.005178
  H       6.363380      0.967398     -1.618460
  C       3.975435     -3.730880      0.321229
  H       3.695658     -4.187384      1.283893
  H       5.075581     -3.669320      0.279529
  H       3.636284     -4.382269     -0.496383
  C       1.828596     -2.533833      0.189699
  H       1.469227     -2.970036      1.129606
  C       0.636463     -0.992561     -0.006185
  C       0.789974     -0.253901      1.300163
  O       0.353089     -0.968650      2.358031
  C       0.437508     -0.326060      3.627927
  H       0.024034     -1.033523      4.357721
  H       1.483426     -0.088546      3.878068
  H      -0.139707      0.611128      3.633325
  O       1.252931      0.857804      1.417058
  C      -0.673348     -1.614375     -0.158828
  H      -1.218556     -1.991213      0.707570
  H      -1.050047     -1.840171     -1.159505
  C       1.095834     -0.173524     -1.201981
  H       2.108283      0.226345     -1.068723
  H       0.423068      0.687088     -1.346324
  H       1.089970     -0.787712     -2.112453
  H       1.518745     -3.125996     -0.677630
  O       4.659450     -0.807347     -1.299286
44
Coordinates from ORCA-job orca E -886.376921511386
  O       3.332649     -2.304604     -2.198556
  C       3.767330     -1.803288     -1.192554
  C       3.343046     -2.315044      0.200737
  C       3.832613     -1.445135      1.390004
  H       3.049353     -1.399568      2.160900
  H       4.689348     -1.950453      1.866694
  C       4.285773     -0.047250      0.983319
  H       4.768830      0.449380      1.839354
  H       3.436803      0.587751      0.690433
  C       5.272634     -0.146679     -0.165141
  H       6.133497     -0.772786      0.142078
  C       5.794175      1.184293     -0.692365
  C       6.678759      1.948640      0.294571
  H       6.098101      2.212326      1.195742
  H       7.495370      1.288461      0.641612
  C       7.272666      3.220738     -0.310675
  H       7.903882      3.757347      0.415499
  H       6.479608      3.912815     -0.640052
  H       7.895682      2.991043     -1.191288
  H       4.931293      1.804773     -0.992918
  H       6.360568      0.974531     -1.615656
  C       3.976763     -3.729764      0.314436
  H       3.698923     -4.189163      1.276276
  H       5.076799     -3.667914      0.270660
  H       3.635844     -4.378526     -0.504488
  C       1.829481     -2.533548      0.191258
  H       1.472287     -2.967001      1.133233
  C       0.629710     -0.998816     -0.009287
  C       0.785903     -0.251425      1.291745
  O       0.353106     -0.959695      2.355576
  C       0.443637     -0.309908      3.621361
  H       0.032678     -1.012772      4.356996
  H       1.490819     -0.071863      3.865677
  H      -0.132708      0.627826      3.623807
  O       1.250356      0.860540      1.400600
  C      -0.677193     -1.628939     -0.152865
  H      -1.218245     -2.000933      0.718178
  H      -1.054906     -1.866640     -1.150386
  C       1.077998     -0.183867     -1.212274
  H       2.088520      0.222558     -1.086785
  H       0.399722      0.672229     -1.357923
  H       1.070568     -0.802993     -2.119320
  H       1.519663     -3.130641     -0.672630
  O       4.656443     -0.800248     -1.298303
44
Coordinates from ORCA-job orca E -886.376927857139
  O       3.342088     -2.304442     -2.202649
  C       3.770260     -1.800105     -1.195347
  C       3.342664     -2.312236      0.196941
  C       3.828807     -1.442482      1.387813
  H       3.042914     -1.395778      2.155962
  H       4.683251     -1.948524      1.867788
  C       4.284261     -0.045086      0.982435
  H       4.765018      0.451260      1.839918
  H       3.436149      0.590069      0.687244
  C       5.274597     -0.145634     -0.163049
  H       6.133716     -0.772761      0.146990
  C       5.799666      1.184621     -0.688567
  C       6.682109      1.947742      0.301241
  H       6.098841      2.212343      1.200455
  H       7.496586      1.286396      0.651064
  C       7.279918      3.218923     -0.302108
  H       7.909418      3.754700      0.426165
  H       6.488991      3.912109     -0.634272
  H       7.905633      2.988251     -1.180557
  H       4.938605      1.806284     -0.991905
  H       6.368772      0.974085     -1.610016
  C       3.979024     -3.725788      0.311270
  H       3.700146     -4.186198      1.272320
  H       5.079026     -3.661595      0.269773
  H       3.640995     -4.374809     -0.508640
  C       1.829306     -2.533618      0.186383
  H       1.473752     -2.968662      1.128184
  C       0.622504     -1.003993     -0.010963
  C       0.787167     -0.252892      1.286902
  O       0.355622     -0.955567      2.354908
  C       0.454284     -0.301949      3.618081
  H       0.043187     -1.000464      4.357777
  H       1.503505     -0.067739      3.857352
  H      -0.117804      0.638389      3.619691
  O       1.254643      0.858427      1.390060
  C      -0.682556     -1.640711     -0.143113
  H      -1.217043     -2.009885      0.733149
  H      -1.064239     -1.887554     -1.136873
  C       1.054996     -0.188346     -1.219476
  H       2.063786      0.224264     -1.103880
  H       0.370540      0.663723     -1.360187
  H       1.042758     -0.808618     -2.125460
  H       1.520823     -3.131691     -0.677158
  O       4.661462     -0.798668     -1.298367
44
Coordinates from ORCA-job orca E -886.376935314032
  O       3.335312     -2.301870     -2.200440
  C       3.767278     -1.798779     -1.194139
  C       3.342545     -2.310777      0.199052
  C       3.829601     -1.439946      1.388817
  H       3.044050     -1.391926      2.157248
  H       4.683997     -1.945779      1.869087
  C       4.284961     -0.043050      0.981460
  H       4.766623      0.454210      1.837911
  H       3.436368      0.591570      0.686438
  C       5.273944     -0.144862     -0.164968
  H       6.132882     -0.772652      0.144242
  C       5.799519      1.184687     -0.691725
  C       6.684036      1.947345      0.296584
  H       6.102249      2.212823      1.196498
  H       7.498374      1.285371      0.645542
  C       7.282204      3.217742     -0.308055
  H       7.913187      3.753215      0.419159
  H       6.491467      3.911529     -0.639411
  H       7.906512      2.986160     -1.187261
  H       4.938618      1.807027     -0.994109
  H       6.367167      0.973271     -1.613872
  C       3.980039     -3.723984      0.312698
  H       3.702764     -4.184561      1.274140
  H       5.079920     -3.658895      0.269777
  H       3.641421     -4.373284     -0.506754
  C       1.829579     -2.532728      0.190022
  H       1.473959     -2.966722      1.132332
  C       0.623351     -1.002887     -0.009145
  C       0.784016     -0.255033      1.290927
  O       0.346777     -0.959327      2.355526
  C       0.443607     -0.309791      3.620920
  H       0.027798     -1.009096      4.357226
  H       1.492831     -0.079815      3.864272
  H      -0.125290      0.632475      3.623478
  O       1.254647      0.854526      1.398810
  C      -0.680694     -1.639706     -0.148634
  H      -1.220543     -2.008570      0.724463
  H      -1.056852     -1.886214     -1.144581
  C       1.063202     -0.185689     -1.213942
  H       2.072209      0.225152     -1.092245
  H       0.380752      0.667667     -1.356529
  H       1.054655     -0.804212     -2.121251
  H       1.520504     -3.131109     -0.673153
  O       4.658601     -0.797714     -1.299135
44
Coordinates from ORCA-job orca E -886.376940421150
  O       3.330723     -2.297631     -2.199972
  C       3.764639     -1.795520     -1.194013
  C       3.342194     -2.308587      0.199516
  C       3.829349     -1.437507      1.389158
  H       3.043546     -1.388318      2.157238
  H       4.683088     -1.943717      1.870178
  C       4.285401     -0.041022      0.981165
  H       4.767499      0.456402      1.837263
  H       3.436618      0.593418      0.686272
  C       5.273772     -0.143696     -0.165641
  H       6.132023     -0.772735      0.142954
  C       5.800887      1.185275     -0.692282
  C       6.687132      1.946292      0.295740
  H       6.106304      2.212244      1.196134
  H       7.500757      1.283036      0.643927
  C       7.286709      3.216077     -0.308788
  H       7.918892      3.750391      0.418237
  H       6.496739      3.911090     -0.639394
  H       7.910153      2.983960     -1.188464
  H       4.940666      1.808940     -0.993864
  H       6.367637      0.973383     -1.614870
  C       3.981914     -3.720980      0.311630
  H       3.706279     -4.182693      1.273004
  H       5.081643     -3.654075      0.267729
  H       3.643498     -4.370205     -0.507968
  C       1.829634     -2.532439      0.191930
  H       1.475019     -2.965942      1.134869
  C       0.621378     -1.004361     -0.008481
  C       0.781396     -0.256580      1.291597
  O       0.341706     -0.960124      2.355666
  C       0.439532     -0.311482      3.621412
  H       0.021501     -1.010057      4.357149
  H       1.489221     -0.084360      3.865493
  H      -0.126856      0.632292      3.624128
  O       1.254040      0.852078      1.400171
  C      -0.681284     -1.643554     -0.149293
  H      -1.223099     -2.010596      0.723344
  H      -1.054444     -1.893436     -1.145524
  C       1.061634     -0.186975     -1.213057
  H       2.070324      0.224507     -1.090450
  H       0.378735      0.665946     -1.356126
  H       1.054133     -0.805425     -2.120435
  H       1.520680     -3.132173     -0.670365
  O       4.656836     -0.795352     -1.299639
44
Coordinates from ORCA-job orca E -886.369605935614
  O       3.357569     -2.318915     -2.200450
  C       3.790830     -1.815921     -1.194649
  C       3.376013     -2.334994      0.198982
  C       3.860435     -1.463054      1.389112
  H       3.076492     -1.421081      2.159558
  H       4.719132     -1.964278      1.866582
  C       4.305452     -0.062463      0.982839
  H       4.786497      0.436509      1.838630
  H       3.451341      0.566622      0.691761
  C       5.291253     -0.155669     -0.167031
  H       6.154833     -0.779316      0.137734
  C       5.807467      1.178167     -0.692304
  C       6.691177      1.943300      0.294822
  H       6.111059      2.203196      1.197462
  H       7.510487      1.285035      0.639232
  C       7.280049      3.218630     -0.308674
  H       7.910548      3.755832      0.417693
  H       6.484220      3.908782     -0.635503
  H       7.902604      2.992825     -1.190646
  H       4.941975      1.796411     -0.990061
  H       6.373063      0.972279     -1.616980
  C       4.026031     -3.743112      0.306193
  H       3.756419     -4.208857      1.267358
  H       5.125161     -3.668345      0.259277
  H       3.689845     -4.392949     -0.513840
  C       1.865013     -2.569513      0.195256
  H       1.516169     -3.007566      1.138274
  C       0.582441     -0.969924     -0.008808
  C       0.740914     -0.223832      1.292432
  O       0.309250     -0.932790      2.356238
  C       0.406133     -0.286203      3.623110
  H      -0.004850     -0.989326      4.358533
  H       1.454919     -0.052197      3.864667
  H      -0.166912      0.653565      3.629501
  O       1.206039      0.887927      1.402052
  C      -0.716111     -1.618012     -0.147263
  H      -1.252826     -1.990773      0.726135
  H      -1.090370     -1.868369     -1.142964
  C       1.013462     -0.146816     -1.212877
  H       2.019599      0.271524     -1.092276
  H       0.324128      0.701592     -1.352133
  H       1.007722     -0.763350     -2.121574
  H       1.557817     -3.169558     -0.667452
  O       4.675660     -0.809223     -1.300669
44
Coordinates from ORCA-job orca E -886.369230499140
  O       3.333195     -2.347383     -2.196628
  C       3.771284     -1.856718     -1.186907
  C       3.355040     -2.386521      0.202337
  C       3.828346     -1.517954      1.398679
  H       3.042151     -1.494807      2.168298
  H       4.695920     -2.006916      1.872888
  C       4.240547     -0.105105      1.002089
  H       4.707867      0.400129      1.861772
  H       3.371165      0.504999      0.712760
  C       5.230720     -0.168285     -0.145974
  H       6.107813     -0.773234      0.157679
  C       5.716949      1.180166     -0.662463
  C       6.580102      1.960247      0.331141
  H       5.991764      2.201967      1.233502
  H       7.413438      1.319265      0.674395
  C       7.141037      3.251895     -0.264088
  H       7.756962      3.799697      0.466834
  H       6.330440      3.925185     -0.589682
  H       7.771053      3.045051     -1.145388
  H       4.838069      1.779649     -0.959185
  H       6.289526      0.992589     -1.586703
  C       3.993536     -3.800637      0.306615
  H       3.715300     -4.268980      1.264013
  H       5.093537     -3.733598      0.266167
  H       3.657379     -4.444030     -0.518491
  C       1.846032     -2.595942      0.189483
  H       1.468557     -3.002598      1.135342
  C       0.645340     -0.937253     -0.039438
  C       0.880921     -0.198998      1.251551
  O       0.419538     -0.868397      2.328462
  C       0.586532     -0.221971      3.587908
  H       0.141230     -0.889271      4.336598
  H       1.653778     -0.061383      3.807636
  H       0.081760      0.756169      3.598009
  O       1.432086      0.874511      1.342965
  C      -0.675431     -1.518638     -0.155778
  H      -1.225004     -1.844386      0.728425
  H      -1.073749     -1.760010     -1.144449
  C       1.140002     -0.183178     -1.262421
  H       2.177114      0.156422     -1.149729
  H       0.519895      0.713101     -1.424141
  H       1.085349     -0.820287     -2.155685
  H       1.517746     -3.179177     -0.676553
  O       4.633309     -0.829598     -1.284566
44
Coordinates from ORCA-job orca E -886.370330449670
  O       3.311062     -2.305818     -2.186341
  C       3.755076     -1.800935     -1.186306
  C       3.359340     -2.321154      0.212500
  C       3.844046     -1.440934      1.395968
  H       3.058303     -1.391697      2.165018
  H       4.702332     -1.939228      1.877466
  C       4.292180     -0.044468      0.978058
  H       4.777508      0.459396      1.828550
  H       3.439690      0.585026      0.685027
  C       5.272136     -0.147599     -0.175556
  H       6.133342     -0.775675      0.126732
  C       5.793629      1.181072     -0.708537
  C       6.687449      1.944240      0.270939
  H       6.113706      2.211903      1.175346
  H       7.503907      1.281822      0.613993
  C       7.282119      3.212764     -0.340947
  H       7.919820      3.748752      0.379998
  H       6.489553      3.906935     -0.667017
  H       7.898785      2.978743     -1.224881
  H       4.930510      1.803600     -1.003925
  H       6.352954      0.968186     -1.635411
  C       4.015850     -3.726798      0.319917
  H       3.754405     -4.191480      1.283785
  H       5.114490     -3.646394      0.266379
  H       3.678358     -4.380168     -0.496765
  C       1.855260     -2.560771      0.215613
  H       1.488465     -2.972039      1.163342
  C       0.589421     -0.950103     -0.005103
  C       0.760664     -0.249316      1.313921
  O       0.303137     -0.975076      2.355328
  C       0.379254     -0.352238      3.635165
  H      -0.049665     -1.066090      4.349666
  H       1.424545     -0.129044      3.900942
  H      -0.188426      0.590763      3.648423
  O       1.217923      0.862854      1.450428
  C      -0.685838     -1.595109     -0.170693
  H      -1.241909     -1.968621      0.690258
  H      -1.046570     -1.828837     -1.175524
  C       1.098862     -0.154902     -1.194098
  H       2.118926      0.217597     -1.038965
  H       0.453275      0.722674     -1.358805
  H       1.096857     -0.774090     -2.101587
  H       1.528644     -3.141892     -0.652006
  O       4.644773     -0.800063     -1.303015
44
Coordinates from ORCA-job orca E -886.370189808383
  O       3.337560     -2.300063     -2.188975
  C       3.771001     -1.793150     -1.185311
  C       3.349377     -2.299663      0.211246
  C       3.822606     -1.415312      1.397062
  H       3.026877     -1.355901      2.154294
  H       4.669667     -1.917492      1.893898
  C       4.288705     -0.024794      0.979562
  H       4.767880      0.477728      1.834263
  H       3.445592      0.611618      0.674480
  C       5.282146     -0.141158     -0.161721
  H       6.135086     -0.773446      0.154890
  C       5.820124      1.181001     -0.694526
  C       6.706864      1.942780      0.292456
  H       6.123454      2.219414      1.187935
  H       7.513918      1.276230      0.649529
  C       7.318717      3.203689     -0.318301
  H       7.950842      3.738916      0.408088
  H       6.535554      3.901832     -0.658381
  H       7.945172      2.960490     -1.192839
  H       4.965401      1.808237     -1.004173
  H       6.389713      0.959313     -1.613060
  C       4.007820     -3.703085      0.335556
  H       3.735102     -4.161831      1.299047
  H       5.106993     -3.620956      0.295169
  H       3.681464     -4.362284     -0.480916
  C       1.844148     -2.546134      0.202074
  H       1.476432     -2.956772      1.149177
  C       0.541770     -0.965849     -0.025583
  C       0.712781     -0.244655      1.282424
  O       0.318218     -0.980191      2.342734
  C       0.458817     -0.363809      3.620250
  H       0.074946     -1.085076      4.352728
  H       1.515081     -0.133318      3.830598
  H      -0.114865      0.574345      3.669614
  O       1.220632      0.847172      1.406025
  C      -0.719249     -1.643066     -0.166371
  H      -1.255181     -2.018408      0.706143
  H      -1.083090     -1.906186     -1.162665
  C       1.003168     -0.162617     -1.228444
  H       2.010759      0.246079     -1.094913
  H       0.325799      0.692313     -1.387442
  H       1.005891     -0.787331     -2.131150
  H       1.528321     -3.136664     -0.662611
  O       4.666138     -0.796160     -1.294579
44
Coordinates from ORCA-job orca E -886.370550970577
  O       3.327862     -2.294268     -2.198297
  C       3.771678     -1.799403     -1.193156
  C       3.359205     -2.317951      0.201690
  C       3.839169     -1.443334      1.392062
  H       3.049147     -1.394088      2.155511
  H       4.692203     -1.946173      1.877792
  C       4.292758     -0.046305      0.983801
  H       4.774857      0.451757      1.839464
  H       3.442370      0.586886      0.690658
  C       5.278840     -0.146176     -0.165416
  H       6.138035     -0.775610      0.139769
  C       5.804529      1.184024     -0.690368
  C       6.693451      1.942937      0.296871
  H       6.114808      2.207746      1.198997
  H       7.507511      1.278683      0.642129
  C       7.292358      3.213309     -0.307094
  H       7.926212      3.746350      0.419395
  H       6.502048      3.909125     -0.635204
  H       7.913971      2.982116     -1.188320
  H       4.943551      1.808354     -0.988374
  H       6.368860      0.974078     -1.614888
  C       4.016742     -3.723628      0.309560
  H       3.749582     -4.190243      1.270802
  H       5.115746     -3.642611      0.262780
  H       3.684159     -4.375352     -0.510412
  C       1.853945     -2.558701      0.200338
  H       1.488266     -2.967266      1.148883
  C       0.562736     -0.967844     -0.017084
  C       0.759465     -0.247410      1.287895
  O       0.314086     -0.950634      2.350310
  C       0.430114     -0.310786      3.618741
  H       0.005678     -1.006746      4.353336
  H       1.484740     -0.101609      3.857632
  H      -0.121193      0.641870      3.630818
  O       1.256075      0.850858      1.401176
  C      -0.705744     -1.632969     -0.145077
  H      -1.238330     -1.999748      0.733172
  H      -1.080614     -1.897044     -1.137037
  C       1.024376     -0.172526     -1.224926
  H       2.038374      0.223336     -1.100130
  H       0.357036      0.691081     -1.380142
  H       1.011553     -0.798694     -2.126559
  H       1.528654     -3.144210     -0.664178
  O       4.659279     -0.795388     -1.299639
44
Coordinates from ORCA-job orca E -886.370553757645
  O       3.321476     -2.301126     -2.191744
  C       3.757141     -1.793908     -1.189242
  C       3.355780     -2.314879      0.207686
  C       3.836641     -1.436359      1.394667
  H       3.047199     -1.384835      2.158854
  H       4.690749     -1.936693      1.881123
  C       4.287712     -0.040403      0.979766
  H       4.770096      0.462144      1.832698
  H       3.435873      0.589877      0.684244
  C       5.272940     -0.144718     -0.169456
  H       6.131242     -0.774996      0.136594
  C       5.800341      1.183008     -0.698809
  C       6.691399      1.943209      0.285488
  H       6.113965      2.211653      1.187316
  H       7.504576      1.278540      0.632018
  C       7.292043      3.210750     -0.322653
  H       7.927412      3.744809      0.401777
  H       6.502692      3.906973     -0.652173
  H       7.912541      2.975893     -1.203689
  H       4.940148      1.807915     -0.997809
  H       6.363526      0.969449     -1.623207
  C       4.017660     -3.719266      0.313104
  H       3.755684     -4.186848      1.275362
  H       5.116166     -3.634984      0.261994
  H       3.683736     -4.371866     -0.505670
  C       1.852591     -2.557445      0.209998
  H       1.484762     -2.961162      1.159939
  C       0.567662     -0.962289     -0.013053
  C       0.758311     -0.253712      1.298703
  O       0.295976     -0.960369      2.351457
  C       0.411027     -0.333334      3.626294
  H      -0.028283     -1.029938      4.351463
  H       1.466449     -0.140369      3.875061
  H      -0.127610      0.626488      3.642621
  O       1.269223      0.836544      1.425710
  C      -0.699408     -1.622975     -0.160885
  H      -1.246395     -1.990178      0.708333
  H      -1.063609     -1.879172     -1.158923
  C       1.057035     -0.166731     -1.209644
  H       2.074125      0.217014     -1.066453
  H       0.401963      0.704937     -1.371332
  H       1.051580     -0.788649     -2.114737
  H       1.523992     -3.140924     -0.654736
  O       4.650020     -0.795283     -1.300773
44
Coordinates from ORCA-job orca E -886.370597902191
  O       3.310465     -2.289976     -2.190788
  C       3.759986     -1.794485     -1.188519
  C       3.357299     -2.314270      0.208543
  C       3.841121     -1.437879      1.396092
  H       3.052903     -1.386129      2.161489
  H       4.695063     -1.940157      1.880776
  C       4.292989     -0.041698      0.982813
  H       4.777960      0.458633      1.835580
  H       3.440770      0.589680      0.691145
  C       5.274984     -0.144068     -0.169375
  H       6.134108     -0.775003      0.132975
  C       5.801096      1.184635     -0.697561
  C       6.695033      1.942782      0.285707
  H       6.120170      2.209522      1.189677
  H       7.509096      1.277336      0.628651
  C       7.294134      3.211445     -0.321632
  H       7.931573      3.744031      0.402064
  H       6.503940      3.908390     -0.647600
  H       7.912158      2.978248     -1.204849
  H       4.940136      1.810241     -0.992885
  H       6.361636      0.972848     -1.623979
  C       4.017262     -3.719635      0.312377
  H       3.755266     -4.187469      1.274509
  H       5.115824     -3.636761      0.260520
  H       3.681739     -4.371052     -0.506643
  C       1.853664     -2.555317      0.211903
  H       1.485882     -2.956867      1.162781
  C       0.564386     -0.964141     -0.014453
  C       0.754324     -0.253360      1.296136
  O       0.290098     -0.957474      2.349702
  C       0.408231     -0.329918      3.623987
  H      -0.033558     -1.024203      4.349877
  H       1.464479     -0.140882      3.872280
  H      -0.126614      0.632031      3.639717
  O       1.270317      0.834657      1.422403
  C      -0.700218     -1.629639     -0.161399
  H      -1.247069     -1.995768      0.708332
  H      -1.062399     -1.891177     -1.158773
  C       1.050582     -0.168011     -1.212093
  H       2.066163      0.219451     -1.069681
  H       0.392660      0.701446     -1.374432
  H       1.046768     -0.790583     -2.116688
  H       1.524572     -3.141037     -0.651082
  O       4.649175     -0.792625     -1.300320
44
Coordinates from ORCA-job orca E -886.370601620381
  O       3.321640     -2.292866     -2.194250
  C       3.764737     -1.793907     -1.190816
  C       3.357751     -2.312612      0.205602
  C       3.839382     -1.436393      1.394194
  H       3.049310     -1.383522      2.157568
  H       4.691570     -1.939352      1.881220
  C       4.292981     -0.040625      0.981829
  H       4.776084      0.459582      1.835708
  H       3.441298      0.590706      0.688399
  C       5.277854     -0.143824     -0.167949
  H       6.136000     -0.774800      0.137084
  C       5.805940      1.184399     -0.695382
  C       6.697324      1.942830      0.289985
  H       6.119925      2.210379      1.192095
  H       7.510120      1.277291      0.635746
  C       7.298697      3.210859     -0.316445
  H       7.934163      3.743718      0.408777
  H       6.509730      3.907864     -0.645260
  H       7.919287      2.976842     -1.197649
  H       4.946029      1.810120     -0.993515
  H       6.369056      0.971900     -1.620074
  C       4.018194     -3.717666      0.311119
  H       3.754397     -4.185383      1.272805
  H       5.116829     -3.634195      0.261539
  H       3.684606     -4.369388     -0.508433
  C       1.853870     -2.554339      0.207715
  H       1.486844     -2.957237      1.158277
  C       0.558881     -0.967355     -0.015451
  C       0.755390     -0.254907      1.293331
  O       0.289675     -0.954351      2.349334
  C       0.414137     -0.325079      3.622156
  H      -0.030287     -1.015346      4.350279
  H       1.471965     -0.141758      3.868049
  H      -0.114983      0.640035      3.637088
  O       1.275843      0.831435      1.416350
  C      -0.704299     -1.637780     -0.154507
  H      -1.245699     -2.003587      0.718741
  H      -1.069537     -1.905198     -1.149171
  C       1.032298     -0.168530     -1.216565
  H       2.046244      0.224568     -1.081316
  H       0.368682      0.697572     -1.374183
  H       1.025403     -0.790741     -2.121142
  H       1.525533     -3.140512     -0.655108
  O       4.655289     -0.793055     -1.300492
44
Coordinates from ORCA-job orca E -886.370605689562
  O       3.314659     -2.289220     -2.192255
  C       3.760763     -1.791475     -1.189551
  C       3.357534     -2.311720      0.207350
  C       3.841173     -1.436020      1.395515
  H       3.052224     -1.382962      2.160064
  H       4.693892     -1.939393      1.881183
  C       4.294337     -0.040212      0.982723
  H       4.779061      0.459709      1.835857
  H       3.441986      0.591030      0.691095
  C       5.276990     -0.143149     -0.168874
  H       6.135348     -0.774872      0.134012
  C       5.804789      1.185113     -0.696475
  C       6.698524      1.942387      0.287650
  H       6.123029      2.209689      1.191047
  H       7.511596      1.276153      0.631411
  C       7.299469      3.210452     -0.319127
  H       7.936623      3.742493      0.405217
  H       6.510277      3.908112     -0.645999
  H       7.918242      2.976638     -1.201660
  H       4.944645      1.811513     -0.992500
  H       6.365976      0.972915     -1.622408
  C       4.018591     -3.716756      0.310295
  H       3.756818     -4.185508      1.272035
  H       5.117082     -3.632783      0.258685
  H       3.683641     -4.367773     -0.509266
  C       1.854022     -2.553778      0.211507
  H       1.487246     -2.954891      1.162946
  C       0.559277     -0.967046     -0.014844
  C       0.753495     -0.255542      1.294668
  O       0.284121     -0.954877      2.349093
  C       0.408006     -0.327387      3.622826
  H      -0.039838     -1.017148      4.349329
  H       1.465885     -0.147433      3.871007
  H      -0.118296      0.639262      3.637789
  O       1.276038      0.829573      1.419779
  C      -0.702927     -1.637974     -0.157964
  H      -1.247660     -2.003178      0.713463
  H      -1.065000     -1.905401     -1.153786
  C       1.038053     -0.169195     -1.214476
  H       2.052379      0.222166     -1.075678
  H       0.376412      0.697967     -1.374435
  H       1.033139     -0.791467     -2.119134
  H       1.524891     -3.141101     -0.650271
  O       4.651639     -0.791121     -1.300563
44
Coordinates from ORCA-job orca E -886.370611740553
  O       3.313150     -2.289371     -2.190989
  C       3.760354     -1.791357     -1.188901
  C       3.357682     -2.310572      0.208572
  C       3.841471     -1.433852      1.395913
  H       3.052254     -1.379257      2.160118
  H       4.693689     -1.937181      1.882501
  C       4.295087     -0.038606      0.981607
  H       4.780054      0.462084      1.834152
  H       3.442506      0.592199      0.689626
  C       5.277423     -0.142802     -0.170079
  H       6.135600     -0.774658      0.133049
  C       5.805651      1.184811     -0.698900
  C       6.699935      1.942547      0.284377
  H       6.124739      2.210893      1.187651
  H       7.512784      1.276261      0.628567
  C       7.301318      3.209815     -0.323624
  H       7.938781      3.742252      0.400156
  H       6.512368      3.907499     -0.651027
  H       7.919887      2.974961     -1.206022
  H       4.945695      1.811315     -0.995241
  H       6.366541      0.971610     -1.624782
  C       4.018869     -3.715539      0.312209
  H       3.757279     -4.183828      1.274226
  H       5.117333     -3.631373      0.260439
  H       3.683899     -4.367000     -0.506986
  C       1.854271     -2.552569      0.213224
  H       1.487339     -2.953418      1.164737
  C       0.559514     -0.965932     -0.013724
  C       0.751728     -0.257507      1.297653
  O       0.277504     -0.957765      2.349273
  C       0.400627     -0.333935      3.624847
  H      -0.051764     -1.023722      4.348501
  H       1.458570     -0.158769      3.876211
  H      -0.121870      0.634755      3.640875
  O       1.277008      0.825858      1.426623
  C      -0.701756     -1.637461     -0.161350
  H      -1.249205     -2.003747      0.707921
  H      -1.060692     -1.903962     -1.158551
  C       1.041478     -0.165906     -1.210624
  H       2.055636      0.224847     -1.068410
  H       0.380484      0.701783     -1.370407
  H       1.038567     -0.786262     -2.116610
  H       1.524895     -3.139944     -0.648441
  O       4.651470     -0.791403     -1.301079
44
Coordinates from ORCA-job orca E -886.364331478400
  O       3.317979     -2.310927     -2.175966
  C       3.771551     -1.813061     -1.176647
  C       3.388047     -2.342130      0.223364
  C       3.872577     -1.463343      1.408963
  H       3.086979     -1.413750      2.178816
  H       4.731045     -1.960946      1.890527
  C       4.308268     -0.063084      0.992070
  H       4.793982      0.441847      1.841698
  H       3.445134      0.558645      0.706513
  C       5.282311     -0.154323     -0.167671
  H       6.150048     -0.777382      0.126729
  C       5.791964      1.179787     -0.698733
  C       6.687164      1.944996      0.277952
  H       6.117268      2.205651      1.186886
  H       7.510042      1.286534      0.613605
  C       7.269891      3.219673     -0.333059
  H       7.908293      3.757393      0.386007
  H       6.470736      3.909750     -0.652080
  H       7.882999      2.992923     -1.221442
  H       4.922823      1.797887     -0.986189
  H       6.346777      0.974171     -1.630042
  C       4.058536     -3.742795      0.325977
  H       3.803813     -4.211600      1.289610
  H       5.156257     -3.651748      0.269647
  H       3.724356     -4.397342     -0.491086
  C       1.892347     -2.583055      0.229369
  H       1.490297     -2.944140      1.158724
  C       0.534215     -0.919123     -0.022061
  C       0.737788     -0.223280      1.287324
  O       0.255299     -0.941076      2.321657
  C       0.390133     -0.346376      3.609374
  H      -0.070128     -1.044788      4.319887
  H       1.452596     -0.193524      3.859130
  H      -0.117596      0.629912      3.647600
  O       1.280712      0.850052      1.430715
  C      -0.739584     -1.567314     -0.168811
  H      -1.295081     -1.920008      0.701117
  H      -1.102290     -1.830716     -1.165484
  C       1.039983     -0.140694     -1.221031
  H       2.068917      0.220012     -1.067556
  H       0.400974      0.741179     -1.394742
  H       1.027258     -0.768344     -2.121992
  H       1.531322     -3.134881     -0.616756
  O       4.652149     -0.804871     -1.294632
44
Coordinates from ORCA-job orca E -886.365509510718
  O       3.320709     -2.311476     -2.182705
  C       3.772653     -1.814109     -1.182561
  C       3.381950     -2.339668      0.216978
  C       3.861861     -1.459238      1.403583
  H       3.072554     -1.408590      2.168681
  H       4.718075     -1.956271      1.889510
  C       4.301532     -0.059925      0.987658
  H       4.785118      0.444837      1.838564
  H       3.441805      0.562759      0.699470
  C       5.279160     -0.153264     -0.168857
  H       6.144969     -0.777139      0.129100
  C       5.792307      1.180188     -0.698205
  C       6.683872      1.945052      0.282022
  H       6.110229      2.206637      1.188275
  H       7.504598      1.286070      0.621581
  C       7.270420      3.218843     -0.326902
  H       7.906002      3.756363      0.394774
  H       6.473399      3.909399     -0.649858
  H       7.887294      2.991106     -1.212355
  H       4.925049      1.798860     -0.989581
  H       6.350903      0.973610     -1.626964
  C       4.052297     -3.740825      0.319211
  H       3.795523     -4.210376      1.281799
  H       5.150229     -3.649477      0.264982
  H       3.719486     -4.394492     -0.499223
  C       1.886180     -2.583517      0.223758
  H       1.482930     -2.948019      1.173625
  C       0.529283     -0.917913     -0.023225
  C       0.748019     -0.233927      1.293394
  O       0.262433     -0.939546      2.336954
  C       0.398700     -0.334023      3.620238
  H      -0.064704     -1.024158      4.336606
  H       1.460639     -0.182395      3.870627
  H      -0.105422      0.644038      3.649982
  O       1.285135      0.842250      1.433509
  C      -0.722618     -1.580049     -0.167546
  H      -1.273343     -1.938937      0.702659
  H      -1.084043     -1.845324     -1.164426
  C       1.042403     -0.144427     -1.223485
  H       2.066882      0.215296     -1.072640
  H       0.407742      0.739327     -1.399550
  H       1.030718     -0.773275     -2.123748
  H       1.522075     -3.143135     -0.640628
  O       4.653147     -0.805351     -1.297800
44
Coordinates from ORCA-job orca E -886.365727359879
  O       3.318261     -2.306543     -2.182648
  C       3.765263     -1.804660     -1.182618
  C       3.374856     -2.329491      0.217275
  C       3.857753     -1.450260      1.403402
  H       3.069187     -1.398410      2.168294
  H       4.713353     -1.949331      1.888369
  C       4.302033     -0.052499      0.987378
  H       4.787853      0.450555      1.837985
  H       3.444698      0.573485      0.699920
  C       5.279156     -0.149853     -0.169198
  H       6.142430     -0.777264      0.128611
  C       5.797249      1.181532     -0.698748
  C       6.691585      1.943203      0.281403
  H       6.118861      2.207176      1.187518
  H       7.509755      1.281202      0.621180
  C       7.282987      3.214580     -0.327752
  H       7.920455      3.749901      0.393886
  H       6.488640      3.908044     -0.651018
  H       7.899113      2.984276     -1.213048
  H       4.932323      1.803419     -0.990205
  H       6.355074      0.972735     -1.627476
  C       4.046835     -3.730948      0.315270
  H       3.792392     -4.202585      1.277422
  H       5.144718     -3.638676      0.258702
  H       3.712409     -4.382855     -0.503774
  C       1.878391     -2.575387      0.228531
  H       1.483233     -2.939804      1.185610
  C       0.512002     -0.918514     -0.024762
  C       0.729817     -0.238337      1.293876
  O       0.255825     -0.945165      2.342486
  C       0.397869     -0.337579      3.624027
  H      -0.056272     -1.030115      4.343938
  H       1.459862     -0.178113      3.868225
  H      -0.112688      0.636998      3.656361
  O       1.285206      0.828720      1.433666
  C      -0.718235     -1.599445     -0.173123
  H      -1.269666     -1.962986      0.694772
  H      -1.072490     -1.869803     -1.171188
  C       1.038150     -0.148726     -1.221206
  H       2.058559      0.217024     -1.063125
  H       0.403487      0.733275     -1.406314
  H       1.038172     -0.780373     -2.119444
  H       1.518896     -3.142319     -0.637206
  O       4.650793     -0.800295     -1.297975
44
Coordinates from ORCA-job orca E -886.365799308828
  O       3.308991     -2.296330     -2.183139
  C       3.765845     -1.802902     -1.183310
  C       3.373518     -2.325769      0.216582
  C       3.858621     -1.448026      1.403020
  H       3.070112     -1.395303      2.167937
  H       4.713766     -1.948713      1.887225
  C       4.305196     -0.050809      0.987940
  H       4.793264      0.450369      1.838394
  H       3.448331      0.577207      0.702900
  C       5.280449     -0.148345     -0.170199
  H       6.143417     -0.777203      0.125384
  C       5.798973      1.182962     -0.699396
  C       6.695607      1.942943      0.279961
  H       6.124627      2.206592      1.187264
  H       7.513769      1.279924      0.617771
  C       7.287043      3.214381     -0.329034
  H       7.926134      3.748547      0.392028
  H       6.492728      3.908801     -0.650360
  H       7.901497      2.984376     -1.215574
  H       4.934149      1.805960     -0.988861
  H       6.355068      0.974528     -1.629262
  C       4.044180     -3.728618      0.312450
  H       3.789993     -4.201013      1.274317
  H       5.142146     -3.637516      0.254930
  H       3.708019     -4.378828     -0.507099
  C       1.875924     -2.570021      0.229864
  H       1.488301     -2.933064      1.189374
  C       0.503579     -0.918285     -0.024778
  C       0.734514     -0.248109      1.295540
  O       0.246164     -0.946489      2.342848
  C       0.388206     -0.336905      3.622947
  H      -0.078890     -1.021822      4.341877
  H       1.450542     -0.189547      3.873412
  H      -0.110667      0.643960      3.649341
  O       1.288878      0.819970      1.434391
  C      -0.714683     -1.609943     -0.170690
  H      -1.263837     -1.975270      0.698047
  H      -1.070073     -1.883307     -1.167505
  C       1.038269     -0.150897     -1.217972
  H       2.059160      0.213181     -1.057393
  H       0.407880      0.734244     -1.404531
  H       1.038880     -0.781961     -2.116453
  H       1.520649     -3.139901     -0.634249
  O       4.649911     -0.797258     -1.298661
44
Coordinates from ORCA-job orca E -886.365816427222
  O       3.315014     -2.299466     -2.182099
  C       3.764199     -1.798738     -1.182351
  C       3.373523     -2.321924      0.217691
  C       3.860120     -1.444301      1.403537
  H       3.071978     -1.390265      2.168907
  H       4.714985     -1.945595      1.887632
  C       4.307729     -0.047771      0.987423
  H       4.796438      0.453568      1.837455
  H       3.451026      0.580600      0.702130
  C       5.282963     -0.147252     -0.170583
  H       6.145247     -0.776721      0.125753
  C       5.802939      1.182969     -0.701095
  C       6.700099      1.943163      0.277640
  H       6.129204      2.208210      1.184599
  H       7.517638      1.279770      0.616246
  C       7.292711      3.213511     -0.332538
  H       7.932158      3.747857      0.388080
  H       6.499021      3.908290     -0.654662
  H       7.907095      2.982125     -1.218774
  H       4.938776      1.806495     -0.991395
  H       6.359033      0.973051     -1.630624
  C       4.044163     -3.724889      0.313448
  H       3.790763     -4.197245      1.275579
  H       5.142024     -3.633734      0.255143
  H       3.707398     -4.375203     -0.505831
  C       1.875587     -2.566087      0.231712
  H       1.490330     -2.928945      1.190453
  C       0.498259     -0.918707     -0.024251
  C       0.729575     -0.250531      1.296815
  O       0.236995     -0.949385      2.341314
  C       0.380762     -0.344176      3.623289
  H      -0.090489     -1.028800      4.339839
  H       1.443578     -0.202709      3.875308
  H      -0.113276      0.639107      3.651894
  O       1.291449      0.813399      1.438446
  C      -0.719596     -1.613605     -0.171920
  H      -1.269483     -1.979588      0.695968
  H      -1.074139     -1.887819     -1.168803
  C       1.034159     -0.149981     -1.215554
  H       2.055046      0.213640     -1.052669
  H       0.404261      0.735807     -1.401548
  H       1.035370     -0.779530     -2.115067
  H       1.521677     -3.136442     -0.630663
  O       4.651842     -0.796364     -1.298594
44
Coordinates from ORCA-job orca E -886.365826122086
  O       3.307412     -2.294236     -2.178071
  C       3.764463     -1.798499     -1.179316
  C       3.374636     -2.320290      0.221294
  C       3.865222     -1.443738      1.406307
  H       3.078929     -1.388566      2.173627
  H       4.720420     -1.946300      1.888469
  C       4.313033     -0.047400      0.989750
  H       4.804453      0.453069      1.838753
  H       3.455689      0.581417      0.707330
  C       5.284950     -0.146510     -0.171060
  H       6.148133     -0.775988      0.122635
  C       5.803346      1.183930     -0.702648
  C       6.703116      1.944102      0.273738
  H       6.134756      2.208685      1.182429
  H       7.521835      1.280855      0.609784
  C       7.293565      3.214850     -0.337747
  H       7.934918      3.749189      0.381185
  H       6.498708      3.909465     -0.657348
  H       7.905463      2.983979     -1.225837
  H       4.938270      1.807380     -0.990390
  H       6.356874      0.974369     -1.633783
  C       4.041798     -3.724768      0.316991
  H       3.788481     -4.196086      1.279666
  H       5.139737     -3.636111      0.257393
  H       3.702551     -4.374624     -0.501649
  C       1.875899     -2.561666      0.236069
  H       1.491276     -2.922864      1.194466
  C       0.495884     -0.917408     -0.025428
  C       0.723402     -0.250222      1.296835
  O       0.225602     -0.950041      2.337716
  C       0.373289     -0.351843      3.622611
  H      -0.103503     -1.036070      4.335893
  H       1.437051     -0.219572      3.875780
  H      -0.113232      0.635058      3.655371
  O       1.297844      0.806397      1.443237
  C      -0.722152     -1.613962     -0.178485
  H      -1.275904     -1.979607      0.686963
  H      -1.072760     -1.889303     -1.176437
  C       1.036345     -0.148431     -1.214140
  H       2.057129      0.213516     -1.046381
  H       0.408397      0.738548     -1.401624
  H       1.039636     -0.776801     -2.114515
  H       1.522425     -3.132944     -0.624577
  O       4.650767     -0.795169     -1.297575
44
Coordinates from ORCA-job orca E -886.365837841085
  O       3.310139     -2.296421     -2.178383
  C       3.764771     -1.798543     -1.179590
  C       3.374898     -2.320219      0.221086
  C       3.865464     -1.443552      1.405976
  H       3.079090     -1.387955      2.173179
  H       4.720532     -1.946171      1.888310
  C       4.313406     -0.047316      0.989295
  H       4.804850      0.453172      1.838256
  H       3.455991      0.581387      0.706956
  C       5.285400     -0.146575     -0.171431
  H       6.148654     -0.775835      0.122528
  C       5.803656      1.183826     -0.703251
  C       6.703051      1.944439      0.273122
  H       6.134446      2.209118      1.181627
  H       7.521849      1.281463      0.609500
  C       7.293340      3.215156     -0.338566
  H       7.934419      3.749826      0.380360
  H       6.498392      3.909506     -0.658514
  H       7.905476      2.984200     -1.226468
  H       4.938506      1.807021     -0.991329
  H       6.357426      0.974132     -1.634215
  C       4.041607     -3.724887      0.317020
  H       3.788098     -4.196001      1.279727
  H       5.139597     -3.636476      0.257518
  H       3.702296     -4.374780     -0.501544
  C       1.876144     -2.561450      0.236125
  H       1.491546     -2.922416      1.195238
  C       0.496233     -0.917054     -0.025055
  C       0.725346     -0.252023      1.298017
  O       0.222474     -0.949742      2.337927
  C       0.370623     -0.352531      3.623224
  H      -0.110982     -1.034453      4.335452
  H       1.434569     -0.225746      3.878421
  H      -0.110930      0.636808      3.655243
  O       1.299759      0.804445      1.445430
  C      -0.720996     -1.613626     -0.178238
  H      -1.274539     -1.979845      0.687162
  H      -1.071550     -1.888790     -1.176242
  C       1.036366     -0.147304     -1.213477
  H       2.057418      0.213735     -1.046070
  H       0.408990      0.740343     -1.399712
  H       1.038567     -0.774674     -2.114524
  H       1.522222     -3.132753     -0.624892
  O       4.651534     -0.795646     -1.297919
44
Coordinates from ORCA-job orca E -886.365824435881
  O       3.310482     -2.297522     -2.177399
  C       3.765012     -1.798916     -1.178912
  C       3.375510     -2.320169      0.222043
  C       3.867396     -1.443803      1.406542
  H       3.081688     -1.387605      2.174410
  H       4.722605     -1.946874      1.888158
  C       4.315291     -0.047615      0.989713
  H       4.807703      0.452525      1.838306
  H       3.457458      0.581064      0.708668
  C       5.286153     -0.146611     -0.171949
  H       6.149913     -0.775547      0.121227
  C       5.803450      1.183979     -0.704267
  C       6.703244      1.945089      0.271340
  H       6.135218      2.209556      1.180264
  H       7.522616      1.282527      0.607126
  C       7.292458      3.216034     -0.340908
  H       7.933832      3.751069      0.377483
  H       6.496933      3.909977     -0.660302
  H       7.904025      2.985310     -1.229265
  H       4.937791      1.806760     -0.991713
  H       6.356605      0.974463     -1.635637
  C       4.040711     -3.725512      0.318032
  H       3.786988     -4.196175      1.280890
  H       5.138786     -3.638158      0.258276
  H       3.700608     -4.375233     -0.500324
  C       1.876552     -2.560307      0.237732
  H       1.491805     -2.920350      1.197456
  C       0.496697     -0.916117     -0.025037
  C       0.725446     -0.253197      1.299151
  O       0.216315     -0.949159      2.337199
  C       0.366154     -0.354890      3.623657
  H      -0.121714     -1.034353      4.333956
  H       1.430529     -0.236248      3.881045
  H      -0.108261      0.637854      3.656188
  O       1.303468      0.800958      1.449011
  C      -0.719951     -1.612714     -0.180464
  H      -1.274739     -1.979568      0.683882
  H      -1.068814     -1.887654     -1.179108
  C       1.037968     -0.145335     -1.212330
  H       2.059231      0.214473     -1.043828
  H       0.411540      0.743137     -1.397814
  H       1.039957     -0.771409     -2.114271
  H       1.521897     -3.131974     -0.623040
  O       4.651595     -0.795971     -1.297907
44
Coordinates from ORCA-job orca E -886.365837381150
  O       3.310263     -2.300095     -2.174384
  C       3.765477     -1.800314     -1.176769
  C       3.376878     -2.320287      0.224929
  C       3.872512     -1.444818      1.408416
  H       3.088676     -1.387222      2.178201
  H       4.728148     -1.949196      1.887929
  C       4.320584     -0.048759      0.991323
  H       4.815942      0.450143      1.838931
  H       3.461898      0.580345      0.714049
  C       5.288051     -0.146984     -0.173170
  H       6.153313     -0.775012      0.117515
  C       5.802390      1.184189     -0.706958
  C       6.703486      1.946755      0.266285
  H       6.137333      2.210470      1.176583
  H       7.524696      1.285469      0.600097
  C       7.289211      3.218495     -0.347635
  H       7.931577      3.754619      0.369049
  H       6.491831      3.911182     -0.665137
  H       7.898888      2.988586     -1.237499
  H       4.935182      1.805743     -0.992375
  H       6.353557      0.975254     -1.639636
  C       4.038310     -3.727317      0.320882
  H       3.784299     -4.196792      1.284220
  H       5.136572     -3.642769      0.260121
  H       3.695840     -4.376584     -0.496813
  C       1.877364     -2.557327      0.242179
  H       1.492139     -2.914858      1.202980
  C       0.498327     -0.913167     -0.025031
  C       0.724775     -0.255335      1.301982
  O       0.200918     -0.947830      2.334985
  C       0.354499     -0.361466      3.624574
  H      -0.148728     -1.035150      4.329643
  H       1.419591     -0.262831      3.887617
  H      -0.102431      0.639348      3.658888
  O       1.312889      0.792304      1.458477
  C      -0.717277     -1.609499     -0.187121
  H      -1.275888     -1.978086      0.674020
  H      -1.061373     -1.883160     -1.187754
  C       1.043983     -0.139876     -1.208768
  H       2.065594      0.217021     -1.036636
  H       0.419971      0.750540     -1.393076
  H       1.046535     -0.762914     -2.112797
  H       1.521019     -3.130008     -0.617470
  O       4.651325     -0.797018     -1.297564
44
Coordinates from ORCA-job orca E -886.365838296308
  O       3.309971     -2.299527     -2.175216
  C       3.765263     -1.800273     -1.177388
  C       3.376535     -2.320694      0.224133
  C       3.871313     -1.445120      1.407905
  H       3.087164     -1.388161      2.177368
  H       4.727038     -1.949112      1.887658
  C       4.319048     -0.048902      0.991020
  H       4.813733      0.450216      1.838894
  H       3.460444      0.580068      0.713044
  C       5.287245     -0.147023     -0.172873
  H       6.152243     -0.775224      0.118212
  C       5.802102      1.184157     -0.706133
  C       6.702885      1.946272      0.267761
  H       6.136283      2.210065      1.177765
  H       7.523653      1.284638      0.601973
  C       7.289484      3.217880     -0.345605
  H       7.931606      3.753654      0.371565
  H       6.492573      3.910921     -0.663511
  H       7.899638      2.987859     -1.235117
  H       4.935179      1.805970     -0.991859
  H       6.353700      0.975294     -1.638574
  C       4.039021     -3.727285      0.319888
  H       3.785131     -4.197174      1.283071
  H       5.137227     -3.642015      0.259335
  H       3.697123     -4.376585     -0.498033
  C       1.877197     -2.558430      0.241122
  H       1.491958     -2.916498      1.201549
  C       0.498447     -0.913857     -0.025024
  C       0.724907     -0.254171      1.301095
  O       0.206116     -0.948039      2.335777
  C       0.358119     -0.358900      3.624299
  H      -0.140006     -1.034595      4.331069
  H       1.422946     -0.253411      3.885677
  H      -0.104813      0.639186      3.657866
  O       1.309601      0.795682      1.455517
  C      -0.717668     -1.610019     -0.185605
  H      -1.275450     -1.978192      0.676238
  H      -1.062815     -1.883710     -1.185880
  C       1.043151     -0.141238     -1.209626
  H       2.064591      0.216680     -1.038377
  H       0.418279      0.748454     -1.394464
  H       1.045919     -0.765282     -2.112973
  H       1.521072     -3.130965     -0.618596
  O       4.650996     -0.796805     -1.297669
44
Coordinates from ORCA-job orca E -886.365840679354
  O       3.310025     -2.299918     -2.175362
  C       3.765288     -1.800655     -1.177531
  C       3.376562     -2.321134      0.223985
  C       3.871324     -1.445629      1.407794
  H       3.087247     -1.388977      2.177357
  H       4.727231     -1.949505      1.887347
  C       4.318763     -0.049273      0.991023
  H       4.813461      0.449773      1.838929
  H       3.460047      0.579647      0.713236
  C       5.286908     -0.147113     -0.172921
  H       6.152005     -0.775231      0.118030
  C       5.801572      1.184200     -0.706049
  C       6.702307      1.946270      0.267935
  H       6.135642      2.210084      1.177895
  H       7.523004      1.284581      0.602215
  C       7.289078      3.217838     -0.345348
  H       7.931180      3.753538      0.371902
  H       6.492270      3.910964     -0.663324
  H       7.899297      2.987774     -1.234803
  H       4.934569      1.805949     -0.991662
  H       6.353164      0.975517     -1.638533
  C       4.039129     -3.727717      0.319629
  H       3.785227     -4.197685      1.282778
  H       5.137326     -3.642448      0.259085
  H       3.697230     -4.376948     -0.498348
  C       1.877251     -2.558738      0.241073
  H       1.491944     -2.916699      1.201420
  C       0.498983     -0.913740     -0.024944
  C       0.725071     -0.253685      1.301041
  O       0.207652     -0.948142      2.336026
  C       0.358611     -0.358135      3.624264
  H      -0.138215     -1.034460      4.331348
  H       1.423230     -0.250523      3.885597
  H      -0.106187      0.639099      3.657409
  O       1.308752      0.796791      1.455124
  C      -0.717345     -1.609691     -0.185591
  H      -1.275162     -1.977933      0.676196
  H      -1.062488     -1.882997     -1.185976
  C       1.043809     -0.141105     -1.209471
  H       2.065210      0.216976     -1.038246
  H       0.418769      0.748451     -1.394378
  H       1.046779     -0.765291     -2.112727
  H       1.520935     -3.131395     -0.618404
  O       4.650696     -0.796898     -1.297744
44
Coordinates from ORCA-job orca E -886.362071556364
  O       3.288426     -2.310111     -2.160198
  C       3.757873     -1.814607     -1.166281
  C       3.393084     -2.349897      0.238339
  C       3.877895     -1.465127      1.413754
  H       3.081516     -1.413316      2.178054
  H       4.738787     -1.957720      1.896264
  C       4.322083     -0.066756      0.996295
  H       4.811309      0.434199      1.846270
  H       3.466115      0.558700      0.713476
  C       5.282307     -0.155794     -0.172998
  H       6.153882     -0.779990      0.107156
  C       5.785469      1.180717     -0.704249
  C       6.690701      1.942810      0.265558
  H       6.130555      2.199364      1.181682
  H       7.517715      1.283774      0.589580
  C       7.265585      3.220330     -0.346758
  H       7.911131      3.755937      0.367479
  H       6.462439      3.910849     -0.654533
  H       7.869289      2.997654     -1.242594
  H       4.912777      1.799343     -0.979393
  H       6.330062      0.979323     -1.642504
  C       4.063754     -3.752617      0.334670
  H       3.815775     -4.221951      1.299689
  H       5.161271     -3.661407      0.270154
  H       3.722618     -4.405467     -0.480754
  C       1.915523     -2.592747      0.256914
  H       1.506912     -2.911673      1.191674
  C       0.479036     -0.866444     -0.034152
  C       0.727757     -0.237539      1.283857
  O       0.212240     -0.940066      2.314919
  C       0.361674     -0.362942      3.610349
  H      -0.135140     -1.047600      4.309470
  H       1.424269     -0.254449      3.877049
  H      -0.105577      0.632832      3.653032
  O       1.315458      0.809583      1.436246
  C      -0.701634     -1.564008     -0.190177
  H      -1.253920     -1.931590      0.675473
  H      -1.048668     -1.842131     -1.188593
  C       1.030545     -0.103898     -1.219070
  H       2.061955      0.231283     -1.037195
  H       0.418877      0.792617     -1.415703
  H       1.037565     -0.740097     -2.117791
  H       1.532668     -3.130489     -0.583465
  O       4.636192     -0.803094     -1.293716
44
Coordinates from ORCA-job orca E -886.363607904558
  O       3.300308     -2.307557     -2.166251
  C       3.766360     -1.814470     -1.170420
  C       3.391766     -2.344254      0.233789
  C       3.879755     -1.460692      1.413884
  H       3.089935     -1.407039      2.177940
  H       4.739710     -1.954714      1.896537
  C       4.320232     -0.062647      0.995224
  H       4.809912      0.439342      1.844093
  H       3.460110      0.562671      0.713061
  C       5.284838     -0.155060     -0.171639
  H       6.154693     -0.780026      0.112269
  C       5.791196      1.179899     -0.703579
  C       6.693864      1.942543      0.268129
  H       6.130847      2.200920      1.181907
  H       7.519102      1.283266      0.595918
  C       7.271955      3.218629     -0.344029
  H       7.915478      3.754723      0.371646
  H       6.470540      3.909353     -0.655600
  H       7.878532      2.994115     -1.237387
  H       4.920164      1.798950     -0.982661
  H       6.338735      0.976340     -1.639598
  C       4.071687     -3.743765      0.326960
  H       3.824691     -4.216313      1.290466
  H       5.169223     -3.647104      0.263897
  H       3.734509     -4.396214     -0.490456
  C       1.902648     -2.588926      0.254064
  H       1.487163     -2.912128      1.212481
  C       0.459615     -0.868060     -0.036822
  C       0.715080     -0.237133      1.291833
  O       0.206843     -0.939213      2.326994
  C       0.366911     -0.357678      3.617924
  H      -0.122877     -1.040002      4.324124
  H       1.432806     -0.248324      3.873207
  H      -0.100428      0.638119      3.661263
  O       1.307631      0.808202      1.449166
  C      -0.724363     -1.574164     -0.194076
  H      -1.277720     -1.944754      0.669882
  H      -1.070489     -1.853440     -1.192667
  C       1.032135     -0.116790     -1.221882
  H       2.060911      0.214884     -1.038980
  H       0.429747      0.783446     -1.423585
  H       1.037111     -0.752002     -2.117727
  H       1.513696     -3.133783     -0.607610
  O       4.643586     -0.803360     -1.294404
44
Coordinates from ORCA-job orca E -886.363734591642
  O       3.310100     -2.310633     -2.168607
  C       3.765586     -1.809597     -1.171966
  C       3.390943     -2.338647      0.231611
  C       3.880586     -1.457229      1.413985
  H       3.093358     -1.403014      2.180131
  H       4.739743     -1.953534      1.895489
  C       4.320157     -0.059189      0.994687
  H       4.811373      0.443198      1.842525
  H       3.458950      0.565772      0.714422
  C       5.286305     -0.153477     -0.171240
  H       6.154297     -0.779775      0.115042
  C       5.795892      1.180133     -0.703778
  C       6.698132      1.942392      0.268660
  H       6.134035      2.202396      1.181300
  H       7.521899      1.282242      0.598366
  C       7.279004      3.217130     -0.343664
  H       7.922128      3.752966      0.372568
  H       6.479063      3.908708     -0.657127
  H       7.886687      2.990987     -1.235854
  H       4.926376      1.800341     -0.984987
  H       6.344700      0.974729     -1.638646
  C       4.073682     -3.737382      0.320665
  H       3.829286     -4.212483      1.283673
  H       5.170764     -3.638651      0.255530
  H       3.735666     -4.388535     -0.497472
  C       1.898317     -2.583320      0.254426
  H       1.486480     -2.905723      1.216903
  C       0.447387     -0.869163     -0.036786
  C       0.707135     -0.237755      1.294033
  O       0.200422     -0.939883      2.329588
  C       0.363684     -0.358247      3.619804
  H      -0.124597     -1.040246      4.327417
  H       1.430526     -0.249868      3.871601
  H      -0.102808      0.637825      3.664428
  O       1.301196      0.806913      1.451446
  C      -0.735204     -1.580823     -0.191470
  H      -1.287785     -1.951709      0.672964
  H      -1.081916     -1.862309     -1.189226
  C       1.031093     -0.126305     -1.220793
  H       2.058825      0.205808     -1.035762
  H       0.432616      0.776089     -1.427195
  H       1.036104     -0.762866     -2.115310
  H       1.511312     -3.129275     -0.609402
  O       4.646650     -0.802198     -1.294699
44
Coordinates from ORCA-job orca E -886.363790712926
  O       3.310076     -2.306802     -2.169198
  C       3.773902     -1.813375     -1.172598
  C       3.392260     -2.336026      0.230441
  C       3.884388     -1.457433      1.414736
  H       3.099499     -1.402244      2.183270
  H       4.742083     -1.957097      1.895205
  C       4.323423     -0.059050      0.995555
  H       4.817173      0.443323      1.842095
  H       3.460876      0.565433      0.719058
  C       5.289364     -0.152648     -0.170851
  H       6.157266     -0.778289      0.116715
  C       5.798225      1.181005     -0.704139
  C       6.699642      1.944732      0.267948
  H       6.135277      2.204527      1.180483
  H       7.524146      1.285647      0.597950
  C       7.279068      3.219882     -0.344884
  H       7.921628      3.756730      0.371096
  H       6.478331      3.910448     -0.658548
  H       7.886934      2.994094     -1.237041
  H       4.928327      1.800386     -0.986036
  H       6.347414      0.975363     -1.638713
  C       4.069808     -3.737318      0.319694
  H       3.823931     -4.211601      1.282820
  H       5.167014     -3.642126      0.254077
  H       3.728940     -4.387041     -0.498325
  C       1.895756     -2.574957      0.253540
  H       1.487917     -2.895446      1.218374
  C       0.437417     -0.867194     -0.038233
  C       0.702781     -0.237760      1.294454
  O       0.194249     -0.939542      2.328925
  C       0.361179     -0.360658      3.619901
  H      -0.128837     -1.041915      4.327067
  H       1.428940     -0.257360      3.869826
  H      -0.101111      0.637201      3.667090
  O       1.301269      0.804195      1.452508
  C      -0.742941     -1.582491     -0.190332
  H      -1.295907     -1.952048      0.674328
  H      -1.090512     -1.865486     -1.187409
  C       1.034096     -0.134242     -1.220105
  H       2.063008      0.192405     -1.033362
  H       0.444641      0.774410     -1.428689
  H       1.033156     -0.769678     -2.115190
  H       1.512090     -3.120697     -0.611877
  O       4.651965     -0.803466     -1.294349
44
Coordinates from ORCA-job orca E -886.363827263387
  O       3.315084     -2.310020     -2.168652
  C       3.772310     -1.810508     -1.171949
  C       3.392328     -2.334332      0.230858
  C       3.886143     -1.457152      1.414904
  H       3.102056     -1.402116      2.184595
  H       4.743961     -1.957894      1.894196
  C       4.325282     -0.058656      0.996076
  H       4.820120      0.443570      1.842105
  H       3.462361      0.565775      0.720869
  C       5.290612     -0.151987     -0.170695
  H       6.158484     -0.777570      0.117232
  C       5.799171      1.181572     -0.704260
  C       6.700653      1.945597      0.267513
  H       6.136510      2.205316      1.180214
  H       7.525432      1.286743      0.597295
  C       7.279546      3.220845     -0.345604
  H       7.922256      3.757866      0.370109
  H       6.478526      3.911219     -0.658978
  H       7.887117      2.995172     -1.237994
  H       4.929143      1.800806     -0.986132
  H       6.348218      0.975788     -1.638879
  C       4.066463     -3.737486      0.319297
  H       3.820581     -4.211828      1.282390
  H       5.163827     -3.644414      0.252649
  H       3.723460     -4.386092     -0.498695
  C       1.896079     -2.570871      0.254301
  H       1.490371     -2.890312      1.219113
  C       0.433952     -0.866513     -0.038424
  C       0.700809     -0.238390      1.293792
  O       0.190651     -0.939583      2.327765
  C       0.359452     -0.362683      3.619582
  H      -0.132483     -1.043329      4.325977
  H       1.427508     -0.262781      3.869572
  H      -0.099974      0.636451      3.668024
  O       1.302415      0.801620      1.451600
  C      -0.743798     -1.583263     -0.189486
  H      -1.297265     -1.951112      0.675420
  H      -1.091332     -1.867438     -1.186295
  C       1.033407     -0.136516     -1.220012
  H       2.062200      0.189644     -1.031390
  H       0.446101      0.773133     -1.431266
  H       1.033035     -0.772778     -2.114693
  H       1.514198     -3.116750     -0.610703
  O       4.653179     -0.802957     -1.294060
44
Coordinates from ORCA-job orca E -886.363843038964
  O       3.317553     -2.312108     -2.167282
  C       3.773987     -1.811505     -1.170705
  C       3.393149     -2.335039      0.232138
  C       3.889523     -1.459122      1.415372
  H       3.106405     -1.404534      2.186274
  H       4.748098     -1.960440      1.892890
  C       4.328433     -0.060374      0.997323
  H       4.824265      0.441334      1.843059
  H       3.465002      0.564033      0.723659
  C       5.292338     -0.152185     -0.170558
  H       6.161406     -0.776522      0.116662
  C       5.798295      1.182197     -0.704361
  C       6.699538      1.947519      0.266600
  H       6.135934      2.206266      1.179914
  H       7.525663      1.289892      0.595454
  C       7.275863      3.223717     -0.346966
  H       7.918547      3.761586      0.368135
  H       6.473474      3.912945     -0.659374
  H       7.882808      2.999087     -1.240046
  H       4.927045      1.800127     -0.985323
  H       6.346757      0.977342     -1.639528
  C       4.061321     -3.740924      0.321742
  H       3.813163     -4.213899      1.284864
  H       5.159124     -3.651956      0.255650
  H       3.716381     -4.388510     -0.496211
  C       1.896918     -2.567238      0.254650
  H       1.491365     -2.885741      1.219077
  C       0.433134     -0.864496     -0.039194
  C       0.701321     -0.238986      1.292961
  O       0.187240     -0.938638      2.326023
  C       0.358968     -0.364454      3.618774
  H      -0.137090     -1.043243      4.324037
  H       1.427441     -0.270872      3.869420
  H      -0.094906      0.637178      3.668310
  O       1.308010      0.797875      1.451666
  C      -0.742737     -1.581291     -0.190823
  H      -1.298005     -1.947000      0.673781
  H      -1.089652     -1.865824     -1.187766
  C       1.034259     -0.135594     -1.220533
  H       2.063708      0.187808     -1.030363
  H       0.449954      0.775711     -1.432946
  H       1.033349     -0.771689     -2.115421
  H       1.515953     -3.112777     -0.610289
  O       4.654849     -0.803866     -1.293465
44
Coordinates from ORCA-job orca E -886.363817007352
  O       3.321542     -2.315773     -2.165285
  C       3.777769     -1.814537     -1.168874
  C       3.394656     -2.336768      0.234127
  C       3.895102     -1.462657      1.416395
  H       3.113960     -1.409073      2.189503
  H       4.755263     -1.964503      1.890631
  C       4.333021     -0.063381      0.999437
  H       4.830181      0.437390      1.844909
  H       3.468770      0.560939      0.728183
  C       5.294838     -0.152775     -0.170244
  H       6.165987     -0.774950      0.115465
  C       5.796502      1.183048     -0.704533
  C       6.697543      1.950492      0.264945
  H       6.134936      2.207738      1.179297
  H       7.525886      1.294868      0.592232
  C       7.269643      3.228168     -0.349499
  H       7.912332      3.767492      0.364506
  H       6.465026      3.915500     -0.660346
  H       7.875503      3.005136     -1.243719
  H       4.923202      1.798831     -0.983823
  H       6.343837      0.979788     -1.640713
  C       4.054646     -3.746204      0.325472
  H       3.802886     -4.216938      1.288699
  H       5.153023     -3.663174      0.260520
  H       3.707163     -4.392476     -0.492412
  C       1.897702     -2.562500      0.255127
  H       1.490949     -2.879801      1.219262
  C       0.432556     -0.861229     -0.040449
  C       0.702473     -0.239726      1.292416
  O       0.181298     -0.936508      2.323852
  C       0.357860     -0.366563      3.617843
  H      -0.145443     -1.041776      4.321400
  H       1.427007     -0.284034      3.869546
  H      -0.086164      0.639397      3.668878
  O       1.317284      0.792073      1.453434
  C      -0.741803     -1.577971     -0.194083
  H      -1.300236     -1.941151      0.669546
  H      -1.087276     -1.862588     -1.191495
  C       1.036436     -0.132959     -1.220980
  H       2.066909      0.186097     -1.028796
  H       0.456116      0.780605     -1.434264
  H       1.034805     -0.768479     -2.116314
  H       1.517080     -3.107467     -0.610123
  O       4.657379     -0.805813     -1.292393
44
Coordinates from ORCA-job orca E -886.363864798940
  O       3.328486     -2.323417     -2.162492
  C       3.783693     -1.820530     -1.166400
  C       3.397075     -2.340044      0.236985
  C       3.903762     -1.468622      1.418101
  H       3.126132     -1.416603      2.194982
  H       4.766493     -1.971310      1.886836
  C       4.339952     -0.068532      1.002396
  H       4.839234      0.430759      1.847484
  H       3.474622      0.555835      0.734866
  C       5.298630     -0.154686     -0.170048
  H       6.173052     -0.773471      0.113033
  C       5.793454      1.183323     -0.705343
  C       6.693276      1.954605      0.262182
  H       6.131631      2.209079      1.177900
  H       7.525362      1.302688      0.587365
  C       7.258030      3.235044     -0.353308
  H       7.899953      3.777134      0.359293
  H       6.449533      3.918769     -0.662060
  H       7.862756      3.015007     -1.249034
  H       4.916862      1.795363     -0.982519
  H       6.339573      0.982547     -1.642778
  C       4.045978     -3.754200      0.330508
  H       3.789409     -4.221583      1.294064
  H       5.145034     -3.679614      0.266841
  H       3.694616     -4.398745     -0.487038
  C       1.898539     -2.556347      0.256209
  H       1.488898     -2.871700      1.219959
  C       0.433461     -0.855508     -0.042177
  C       0.705022     -0.239615      1.292431
  O       0.171817     -0.931759      2.320799
  C       0.355437     -0.368897      3.616821
  H      -0.160309     -1.037892      4.317312
  H       1.425374     -0.305024      3.870704
  H      -0.071860      0.644139      3.670197
  O       1.332102      0.784250      1.457958
  C      -0.740323     -1.571463     -0.199739
  H      -1.303593     -1.931840      0.661944
  H      -1.083224     -1.855600     -1.198145
  C       1.042010     -0.127580     -1.220876
  H       2.073780      0.185553     -1.026009
  H       0.466585      0.788852     -1.434705
  H       1.039608     -0.762149     -2.116949
  H       1.517133     -3.100407     -0.609374
  O       4.661095     -0.810020     -1.290898
44
Coordinates from ORCA-job orca E -886.363868292692
  O       3.330703     -2.326150     -2.161834
  C       3.785285     -1.822356     -1.165919
  C       3.398101     -2.340886      0.237704
  C       3.906597     -1.470134      1.418556
  H       3.130548     -1.419013      2.197075
  H       4.770577     -1.972815      1.884956
  C       4.341595     -0.069662      1.002969
  H       4.841475      0.429205      1.847961
  H       3.475802      0.554579      0.736635
  C       5.299331     -0.155040     -0.170335
  H       6.174640     -0.773071      0.111520
  C       5.792504      1.183512     -0.705957
  C       6.692342      1.955480      0.261030
  H       6.131043      2.209518      1.177074
  H       7.525094      1.304170      0.585721
  C       7.255871      3.236317     -0.354743
  H       7.897781      3.778850      0.357532
  H       6.446741      3.919476     -0.663071
  H       7.860297      3.016718     -1.250783
  H       4.915111      1.794748     -0.982336
  H       6.338097      0.983379     -1.643837
  C       4.044935     -3.755921      0.331487
  H       3.787679     -4.222392      1.295327
  H       5.144081     -3.683205      0.267674
  H       3.692404     -4.400264     -0.485707
  C       1.898977     -2.555147      0.257129
  H       1.487912     -2.869807      1.220812
  C       0.434277     -0.854179     -0.042368
  C       0.704970     -0.239445      1.293152
  O       0.167488     -0.930078      2.320302
  C       0.352762     -0.369477      3.617001
  H      -0.166998     -1.036553      4.316370
  H       1.422828     -0.311463      3.871822
  H      -0.069259      0.645716      3.671118
  O       1.335132      0.782304      1.460497
  C      -0.739921     -1.570090     -0.201880
  H      -1.304478     -1.930813      0.658844
  H      -1.081422     -1.853825     -1.200865
  C       1.043815     -0.125266     -1.220064
  H       2.075728      0.187092     -1.024786
  H       0.468379      0.791279     -1.433181
  H       1.041547     -0.759288     -2.116517
  H       1.516357     -3.099281     -0.608132
  O       4.661420     -0.810928     -1.290674
44
Coordinates from ORCA-job orca E -886.363872874641
  O       3.334631     -2.331677     -2.160540
  C       3.787684     -1.825622     -1.165089
  C       3.400271     -2.342441      0.239006
  C       3.912199     -1.473049      1.419439
  H       3.139426     -1.423807      2.201310
  H       4.778540     -1.975853      1.881228
  C       4.344684     -0.071707      1.004058
  H       4.845996      0.426421      1.848686
  H       3.477869      0.552182      0.740422
  C       5.300275     -0.155563     -0.171138
  H       6.177173     -0.772401      0.108165
  C       5.790449      1.183904     -0.707463
  C       6.690595      1.956934      0.258407
  H       6.130034      2.210433      1.175044
  H       7.524388      1.306514      0.582216
  C       7.252206      3.238262     -0.358087
  H       7.894230      3.781562      0.353505
  H       6.442096      3.920551     -0.665768
  H       7.856015      3.019146     -1.254656
  H       4.911612      1.793805     -0.982175
  H       6.334862      0.984910     -1.646254
  C       4.043540     -3.759112      0.332659
  H       3.785795     -4.224180      1.297083
  H       5.142777     -3.689653      0.267762
  H       3.688320     -4.402932     -0.483758
  C       1.900244     -2.553026      0.259640
  H       1.486859     -2.865818      1.223303
  C       0.436606     -0.851587     -0.042370
  C       0.704337     -0.238688      1.295038
  O       0.158214     -0.926723      2.319307
  C       0.345544     -0.370733      3.617589
  H      -0.181927     -1.034542      4.314300
  H       1.415596     -0.323458      3.874815
  H      -0.066892      0.648285      3.673246
  O       1.339739      0.779247      1.466204
  C      -0.738230     -1.567336     -0.206009
  H      -1.304952     -1.929665      0.652603
  H      -1.076573     -1.850038     -1.206341
  C       1.048462     -0.120638     -1.217636
  H       2.080348      0.190949     -1.021435
  H       0.472573      0.796009     -1.429046
  H       1.046485     -0.753205     -2.115140
  H       1.514802     -3.097562     -0.604425
  O       4.661246     -0.812310     -1.290426
44
Coordinates from ORCA-job orca E -886.363878927609
  O       3.335364     -2.333524     -2.160023
  C       3.788093     -1.826691     -1.164832
  C       3.401178     -2.343144      0.239476
  C       3.914584     -1.474377      1.419697
  H       3.143083     -1.425862      2.202889
  H       4.781753     -1.977357      1.879769
  C       4.346079     -0.072667      1.004464
  H       4.848197      0.425198      1.848771
  H       3.478745      0.551047      0.742199
  C       5.300480     -0.155800     -0.171716
  H       6.177916     -0.772356      0.106468
  C       5.789535      1.183990     -0.708267
  C       6.690016      1.957304      0.257082
  H       6.129921      2.210474      1.174092
  H       7.524279      1.307193      0.580306
  C       7.250698      3.238945     -0.359617
  H       7.892885      3.782461      0.351660
  H       6.440107      3.920908     -0.666766
  H       7.854088      3.020187     -1.256561
  H       4.910167      1.793487     -0.982159
  H       6.333321      0.985436     -1.647518
  C       4.043145     -3.760493      0.332757
  H       3.785704     -4.225255      1.297422
  H       5.142394     -3.692111      0.266972
  H       3.686625     -4.403995     -0.483335
  C       1.900980     -2.552283      0.261135
  H       1.487281     -2.863879      1.225022
  C       0.438006     -0.850497     -0.042130
  C       0.703917     -0.238171      1.296010
  O       0.154362     -0.925459      2.318907
  C       0.341393     -0.371121      3.617931
  H      -0.188676     -1.034193      4.313382
  H       1.411245     -0.326863      3.876553
  H      -0.068429      0.648923      3.674043
  O       1.340880      0.778511      1.468747
  C      -0.736805     -1.566043     -0.207610
  H      -1.304240     -1.929457      0.650054
  H      -1.073677     -1.848171     -1.208617
  C       1.051146     -0.118829     -1.216197
  H       2.082915      0.192595     -1.019257
  H       0.475322      0.798046     -1.426973
  H       1.049292     -0.750526     -2.114312
  H       1.514222     -3.097184     -0.602084
  O       4.660658     -0.812613     -1.290555
44
Coordinates from ORCA-job orca E -886.363875945888
  O       3.335623     -2.336662     -2.158918
  C       3.788265     -1.828642     -1.164312
  C       3.402937     -2.344880      0.240410
  C       3.919479     -1.477442      1.420129
  H       3.150408     -1.430368      2.205832
  H       4.788176     -1.980788      1.876975
  C       4.348970     -0.074957      1.005403
  H       4.852954      0.422371      1.848916
  H       3.480457      0.548378      0.746239
  C       5.300601     -0.156319     -0.173098
  H       6.179112     -0.772383      0.102742
  C       5.787320      1.184166     -0.709981
  C       6.688746      1.957952      0.254138
  H       6.129843      2.210425      1.172068
  H       7.524029      1.308424      0.575903
  C       7.247378      3.240239     -0.363068
  H       7.890019      3.784195      0.347457
  H       6.435737      3.921519     -0.668959
  H       7.849754      3.022243     -1.260879
  H       4.906855      1.792938     -0.981958
  H       6.329585      0.986575     -1.650309
  C       4.042303     -3.763599      0.332499
  H       3.785768     -4.228140      1.297509
  H       5.141560     -3.697172      0.264687
  H       3.683094     -4.406191     -0.483115
  C       1.902596     -2.551111      0.264640
  H       1.489133     -2.859771      1.229393
  C       0.441525     -0.848183     -0.041377
  C       0.703225     -0.237066      1.298252
  O       0.147201     -0.923316      2.318264
  C       0.331962     -0.371583      3.618751
  H      -0.202191     -1.034102      4.311599
  H       1.401144     -0.330888      3.880666
  H      -0.074944      0.649606      3.675299
  O       1.342503      0.777558      1.474191
  C      -0.732922     -1.563064     -0.211040
  H      -1.301785     -1.929103      0.644504
  H      -1.066567     -1.843705     -1.213571
  C       1.057820     -0.115112     -1.212719
  H       2.089298      0.195718     -1.013558
  H       0.482872      0.802650     -1.422435
  H       1.056394     -0.744697     -2.112312
  H       1.513037     -3.096934     -0.596561
  O       4.658877     -0.812986     -1.291017
44
Coordinates from ORCA-job orca E -886.363881139025
  O       3.337866     -2.346405     -2.154964
  C       3.790316     -1.835317     -1.161850
  C       3.407612     -2.350294      0.243947
  C       3.933691     -1.486889      1.422016
  H       3.171246     -1.443352      2.214568
  H       4.806499     -1.991494      1.869723
  C       4.358350     -0.082467      1.008968
  H       4.867788      0.412881      1.850374
  H       3.486906      0.540335      0.758644
  C       5.302062     -0.158477     -0.176200
  H       6.184346     -0.772074      0.093023
  C       5.780500      1.184520     -0.714142
  C       6.684404      1.960660      0.245788
  H       6.129560      2.210064      1.167011
  H       7.523868      1.313949      0.562277
  C       7.234683      3.245744     -0.373097
  H       7.878910      3.791535      0.334575
  H       6.418739      3.924117     -0.673984
  H       7.833135      3.031052     -1.274326
  H       4.896098      1.790245     -0.980065
  H       6.317977      0.990286     -1.657903
  C       4.037266     -3.773537      0.333865
  H       3.781307     -4.236463      1.299783
  H       5.136688     -3.714453      0.261738
  H       3.670488     -4.413334     -0.480514
  C       1.906360     -2.546573      0.273279
  H       1.492858     -2.847736      1.240170
  C       0.450745     -0.840326     -0.040162
  C       0.703383     -0.234604      1.303656
  O       0.128562     -0.917367      2.315335
  C       0.308552     -0.373821      3.619920
  H      -0.238731     -1.033511      4.305179
  H       1.375904     -0.346142      3.890837
  H      -0.087491      0.651560      3.677997
  O       1.351547      0.772613      1.489227
  C      -0.722832     -1.552948     -0.221439
  H      -1.297166     -1.923809      0.628269
  H      -1.048127     -1.829587     -1.227851
  C       1.076800     -0.104152     -1.204111
  H       2.108051      0.202477     -0.997921
  H       0.506477      0.817054     -1.412001
  H       1.076823     -0.728463     -2.107370
  H       1.510345     -3.094101     -0.583610
  O       4.655791     -0.815601     -1.291377
44
Coordinates from ORCA-job orca E -886.363885429928
  O       3.335973     -2.342363     -2.156341
  C       3.789069     -1.832828     -1.162714
  C       3.405755     -2.348585      0.242725
  C       3.928533     -1.483709      1.421290
  H       3.163502     -1.438710      2.211164
  H       4.799736     -1.987898      1.872496
  C       4.355098     -0.080053      1.007698
  H       4.862799      0.415936      1.849769
  H       3.484742      0.543093      0.754343
  C       5.301431     -0.157900     -0.175282
  H       6.182388     -0.772408      0.096239
  C       5.782714      1.184293     -0.712702
  C       6.685986      1.959467      0.248573
  H       6.130035      2.209636      1.168924
  H       7.524196      1.311800      0.566427
  C       7.238793      3.243805     -0.369616
  H       7.882716      3.788838      0.338923
  H       6.424137      3.923180     -0.671716
  H       7.838249      3.028273     -1.269975
  H       4.899639      1.791146     -0.980457
  H       6.321642      0.989012     -1.655424
  C       4.039106     -3.770060      0.333131
  H       3.783044     -4.233790      1.298633
  H       5.138462     -3.708145      0.262542
  H       3.675136     -4.410749     -0.481828
  C       1.904802     -2.548580      0.270497
  H       1.492079     -2.852159      1.237044
  C       0.447877     -0.843002     -0.040488
  C       0.703733     -0.235608      1.301909
  O       0.136437     -0.920222      2.316701
  C       0.316413     -0.372746      3.619678
  H      -0.224761     -1.034550      4.307739
  H       1.384220     -0.337459      3.887790
  H      -0.086263      0.650123      3.676555
  O       1.347984      0.774765      1.484046
  C      -0.726012     -1.556189     -0.218040
  H      -1.298675     -1.925278      0.633618
  H      -1.054277     -1.833992     -1.223146
  C       1.070959     -0.107980     -1.206909
  H       2.102328      0.199651     -1.002560
  H       0.499703      0.812334     -1.415865
  H       1.070898     -0.734162     -2.108859
  H       1.511211     -3.095725     -0.587855
  O       4.656610     -0.814716     -1.291398
44
Coordinates from ORCA-job orca E -886.363882098504
  O       3.334033     -2.340245     -2.156804
  C       3.787991     -1.831719     -1.163043
  C       3.404932     -2.348091      0.242302
  C       3.926614     -1.482629      1.420966
  H       3.160563     -1.437020      2.209772
  H       4.797234     -1.986591      1.873504
  C       4.353875     -0.079289      1.007160
  H       4.861120      0.416895      1.849387
  H       3.483936      0.544081      0.752802
  C       5.300979     -0.157799     -0.175196
  H       6.181462     -0.772680      0.097043
  C       5.783282      1.184146     -0.712307
  C       6.686520      1.958784      0.249405
  H       6.130365      2.209139      1.169579
  H       7.524297      1.310674      0.567504
  C       7.240241      3.242879     -0.368473
  H       7.884234      3.787498      0.340324
  H       6.426054      3.922721     -0.670783
  H       7.839882      3.027104     -1.268648
  H       4.900682      1.791491     -0.980529
  H       6.322593      0.988564     -1.654746
  C       4.040009     -3.768692      0.332500
  H       3.784050     -4.233006      1.297750
  H       5.139322     -3.705456      0.262478
  H       3.677230     -4.409603     -0.482821
  C       1.904066     -2.549735      0.269909
  H       1.492440     -2.853935      1.236809
  C       0.447295     -0.843903     -0.040407
  C       0.704254     -0.236218      1.301573
  O       0.140592     -0.922208      2.317516
  C       0.318564     -0.372159      3.619695
  H      -0.218617     -1.036016      4.308893
  H       1.386287     -0.330638      3.887135
  H      -0.089740      0.648552      3.675464
  O       1.346142      0.775898      1.482544
  C      -0.726768     -1.557111     -0.217098
  H      -1.299155     -1.925512      0.635091
  H      -1.056097     -1.835022     -1.221809
  C       1.069680     -0.109194     -1.207489
  H       2.101113      0.198386     -1.003207
  H       0.498563      0.810988     -1.417137
  H       1.070133     -0.736094     -2.108933
  H       1.511404     -3.097087     -0.588805
  O       4.656494     -0.814360     -1.291589
44
Coordinates from ORCA-job orca E -886.363885616236
  O       3.333426     -2.341139     -2.156159
  C       3.787876     -1.832598     -1.162621
  C       3.405362     -2.348984      0.242901
  C       3.928458     -1.484016      1.421272
  H       3.163243     -1.438768      2.210924
  H       4.799653     -1.988090      1.872564
  C       4.355166     -0.080469      1.007669
  H       4.863281      0.415328      1.849593
  H       3.484928      0.543009      0.754543
  C       5.301116     -0.158253     -0.175710
  H       6.182223     -0.772678      0.095549
  C       5.782120      1.184139     -0.712941
  C       6.685894      1.959073      0.248039
  H       6.130563      2.208854      1.168870
  H       7.524398      1.311387      0.565083
  C       7.238216      3.243650     -0.370082
  H       7.882614      3.788477      0.338188
  H       6.423314      3.923080     -0.671389
  H       7.837062      3.028453     -1.270924
  H       4.898888      1.791032     -0.980094
  H       6.320585      0.989133     -1.655987
  C       4.039267     -3.770064      0.332613
  H       3.783281     -4.234251      1.297916
  H       5.138603     -3.707788      0.262187
  H       3.675619     -4.410577     -0.482638
  C       1.904246     -2.549429      0.271355
  H       1.493262     -2.852485      1.238935
  C       0.448934     -0.842577     -0.040195
  C       0.704883     -0.236218      1.302525
  O       0.139539     -0.922494      2.317343
  C       0.315046     -0.372586      3.619919
  H      -0.222237     -1.037346      4.308169
  H       1.382306     -0.329582      3.888878
  H      -0.094815      0.647529      3.675351
  O       1.347334      0.775298      1.485012
  C      -0.725198     -1.555187     -0.218948
  H      -1.298909     -1.923811      0.632267
  H      -1.053493     -1.832204     -1.224222
  C       1.073095     -0.107404     -1.206074
  H       2.104556      0.199013     -1.000243
  H       0.503109      0.813409     -1.415898
  H       1.074399     -0.733802     -2.107865
  H       1.510936     -3.097321     -0.586738
  O       4.655998     -0.814950     -1.291656
44
Coordinates from ORCA-job orca E -886.362773903273
  O       3.316912     -2.351165     -2.143161
  C       3.783744     -1.846896     -1.152647
  C       3.423210     -2.377793      0.255359
  C       3.934846     -1.504759      1.426469
  H       3.156232     -1.464047      2.209881
  H       4.810352     -1.997477      1.882122
  C       4.357465     -0.099137      1.011661
  H       4.858798      0.399432      1.856046
  H       3.488985      0.519884      0.751807
  C       5.297172     -0.167695     -0.175289
  H       6.184613     -0.777138      0.086681
  C       5.766376      1.179788     -0.710366
  C       6.672643      1.955956      0.247273
  H       6.122590      2.198590      1.173225
  H       7.517265      1.311844      0.555440
  C       7.212912      3.246383     -0.369461
  H       7.859302      3.791992      0.336394
  H       6.391822      3.922310     -0.661930
  H       7.806424      3.038504     -1.275597
  H       4.877631      1.782634     -0.968487
  H       6.299080      0.991924     -1.658179
  C       4.064268     -3.795777      0.343557
  H       3.814039     -4.260648      1.310058
  H       5.163048     -3.728261      0.269079
  H       3.700717     -4.438498     -0.470002
  C       1.943837     -2.579451      0.286620
  H       1.509527     -2.843576      1.229383
  C       0.429756     -0.791624     -0.048562
  C       0.708092     -0.215238      1.286360
  O       0.145095     -0.910777      2.296562
  C       0.318826     -0.375214      3.606382
  H      -0.218213     -1.049016      4.286088
  H       1.384278     -0.331542      3.879815
  H      -0.093824      0.643189      3.672702
  O       1.354532      0.792406      1.467738
  C      -0.707760     -1.503997     -0.220438
  H      -1.276617     -1.872155      0.634250
  H      -1.030611     -1.788106     -1.222649
  C       1.057709     -0.074964     -1.214847
  H       2.100520      0.208359     -1.003409
  H       0.504227      0.851671     -1.443953
  H       1.056102     -0.732862     -2.098360
  H       1.518072     -3.089174     -0.558642
  O       4.644153     -0.822088     -1.287694
44
Coordinates from ORCA-job orca E -886.364240259370
  O       3.325038     -2.348308     -2.147753
  C       3.790054     -1.846146     -1.155906
  C       3.422003     -2.372549      0.252087
  C       3.937708     -1.499539      1.427328
  H       3.166385     -1.457264      2.211343
  H       4.813101     -1.993072      1.882286
  C       4.356048     -0.094031      1.011502
  H       4.858302      0.405615      1.854461
  H       3.483591      0.524631      0.753204
  C       5.299060     -0.166045     -0.174064
  H       6.184703     -0.776977      0.090710
  C       5.772112      1.179849     -0.709685
  C       6.678061      1.954978      0.249052
  H       6.126585      2.199823      1.173520
  H       7.520506      1.309316      0.559701
  C       7.222644      3.243437     -0.367869
  H       7.868715      3.788343      0.338813
  H       6.403814      3.920877     -0.662927
  H       7.817669      3.033155     -1.272402
  H       4.885219      1.784214     -0.970248
  H       6.306341      0.989796     -1.656156
  C       4.073992     -3.786623      0.337568
  H       3.825691     -4.254416      1.303000
  H       5.172769     -3.712647      0.263837
  H       3.714391     -4.429841     -0.477358
  C       1.930561     -2.577426      0.284745
  H       1.490344     -2.844450      1.248817
  C       0.409853     -0.795439     -0.051531
  C       0.692772     -0.216416      1.293515
  O       0.137823     -0.911416      2.308697
  C       0.322884     -0.370829      3.613797
  H      -0.206425     -1.042482      4.301482
  H       1.391871     -0.325422      3.875316
  H      -0.090266      0.647455      3.680081
  O       1.343367      0.789513      1.478657
  C      -0.734618     -1.519839     -0.226322
  H      -1.304628     -1.891395      0.626285
  H      -1.058027     -1.806295     -1.230831
  C       1.058448     -0.084158     -1.218191
  H       2.096311      0.195992     -1.003590
  H       0.513143      0.845607     -1.447349
  H       1.058606     -0.730449     -2.106200
  H       1.502098     -3.092102     -0.576001
  O       4.649531     -0.821235     -1.288142
44
Coordinates from ORCA-job orca E -886.364356186189
  O       3.332421     -2.349266     -2.149441
  C       3.788382     -1.840122     -1.157051
  C       3.421817     -2.366645      0.250408
  C       3.939302     -1.495298      1.427657
  H       3.171161     -1.453082      2.214327
  H       4.814460     -1.990668      1.880791
  C       4.356035     -0.089553      1.011353
  H       4.859921      0.410585      1.853134
  H       3.482376      0.528592      0.755276
  C       5.300205     -0.163432     -0.173705
  H       6.183771     -0.776408      0.092871
  C       5.777245      1.180993     -0.709660
  C       6.684620      1.954042      0.249427
  H       6.133104      2.200959      1.173316
  H       7.524925      1.306099      0.561111
  C       7.233526      3.240569     -0.367683
  H       7.880537      3.783979      0.339293
  H       6.416969      3.920243     -0.663893
  H       7.828780      3.028028     -1.271534
  H       4.892200      1.787652     -0.971168
  H       6.311698      0.989083     -1.655629
  C       4.077833     -3.779170      0.331955
  H       3.833004     -4.249371      1.297211
  H       5.176022     -3.702211      0.255537
  H       3.717454     -4.421797     -0.483182
  C       1.926656     -2.572932      0.285633
  H       1.490813     -2.838980      1.253791
  C       0.396824     -0.798966     -0.051665
  C       0.682587     -0.218141      1.294721
  O       0.129642     -0.912820      2.310862
  C       0.318231     -0.371280      3.614817
  H      -0.209262     -1.042270      4.304588
  H       1.388228     -0.326437      3.872410
  H      -0.094186      0.647199      3.681704
  O       1.333723      0.787853      1.478965
  C      -0.747371     -1.530646     -0.224138
  H      -1.316166     -1.902642      0.629263
  H      -1.072150     -1.819822     -1.227452
  C       1.053957     -0.092918     -1.217119
  H       2.090250      0.188423     -0.999640
  H       0.510548      0.838448     -1.446769
  H       1.055358     -0.734110     -2.108411
  H       1.501214     -3.089525     -0.576589
  O       4.651484     -0.818443     -1.288411
44
Coordinates from ORCA-job orca E -886.364409085177
  O       3.330010     -2.343470     -2.149506
  C       3.795292     -1.842242     -1.157433
  C       3.424001     -2.364106      0.249594
  C       3.943537     -1.495019      1.428334
  H       3.177989     -1.452915      2.217664
  H       4.818068     -1.992840      1.879804
  C       4.358895     -0.088623      1.012373
  H       4.864905      0.411709      1.852915
  H       3.483906      0.528789      0.759708
  C       5.302560     -0.161659     -0.173389
  H       6.185824     -0.774639      0.093813
  C       5.779613      1.182673     -0.709533
  C       6.687953      1.955263      0.249035
  H       6.137156      2.202413      1.173299
  H       7.528110      1.306863      0.560172
  C       7.237189      3.241526     -0.368318
  H       7.884889      3.784569      0.338309
  H       6.420845      3.921657     -0.664074
  H       7.831825      3.028675     -1.272499
  H       4.894632      1.789702     -0.970449
  H       6.313412      0.990628     -1.655833
  C       4.076286     -3.778138      0.331351
  H       3.830888     -4.247594      1.296915
  H       5.174415     -3.703592      0.254073
  H       3.713558     -4.419977     -0.483342
  C       1.925517     -2.566482      0.285153
  H       1.494241     -2.830752      1.255599
  C       0.387483     -0.799798     -0.053062
  C       0.676696     -0.218914      1.293817
  O       0.122657     -0.912455      2.309755
  C       0.314820     -0.372361      3.613826
  H      -0.214015     -1.041929      4.303979
  H       1.385499     -0.331843      3.869227
  H      -0.093694      0.647545      3.682194
  O       1.330545      0.785394      1.477388
  C      -0.755492     -1.535914     -0.222976
  H      -1.323829     -1.906651      0.631236
  H      -1.082227     -1.826771     -1.225082
  C       1.052282     -0.100003     -1.216573
  H       2.089123      0.177358     -0.997459
  H       0.514459      0.835938     -1.443850
  H       1.049011     -0.734573     -2.112404
  H       1.504109     -3.083807     -0.578305
  O       4.655206     -0.817842     -1.288167
44
Coordinates from ORCA-job orca E -886.364444239333
  O       3.334959     -2.345389     -2.149344
  C       3.794257     -1.838944     -1.157076
  C       3.424780     -2.362038      0.249632
  C       3.945873     -1.494574      1.428349
  H       3.181586     -1.453188      2.219224
  H       4.820736     -1.993370      1.878237
  C       4.360620     -0.087852      1.012768
  H       4.867469      0.412669      1.852748
  H       3.485028      0.529104      0.761237
  C       5.303985     -0.160546     -0.173168
  H       6.186983     -0.773696      0.094647
  C       5.781248      1.183604     -0.709338
  C       6.690066      1.955831      0.249073
  H       6.139601      2.203050      1.173524
  H       7.530101      1.307135      0.559916
  C       7.239515      3.242002     -0.368279
  H       7.887565      3.784765      0.338239
  H       6.423308      3.922421     -0.663753
  H       7.833851      3.029066     -1.272641
  H       4.896417      1.790963     -0.970043
  H       6.314801      0.991382     -1.655732
  C       4.073912     -3.777691      0.330144
  H       3.828797     -4.247486      1.295619
  H       5.172114     -3.705083      0.251622
  H       3.709061     -4.418344     -0.484516
  C       1.926303     -2.562171      0.285879
  H       1.498077     -2.825297      1.257021
  C       0.382651     -0.800605     -0.053435
  C       0.673318     -0.219706      1.292631
  O       0.118080     -0.911956      2.308695
  C       0.312557     -0.373106      3.613125
  H      -0.217915     -1.041453      4.303186
  H       1.383491     -0.335970      3.867916
  H      -0.092874      0.647979      3.682320
  O       1.329732      0.782945      1.475217
  C      -0.757831     -1.538571     -0.221392
  H      -1.325929     -1.907517      0.633611
  H      -1.085620     -1.830629     -1.222800
  C       1.049158     -0.103778     -1.216489
  H       2.085979      0.173055     -0.996277
  H       0.513176      0.833375     -1.444365
  H       1.045093     -0.737421     -2.113161
  H       1.507283     -3.080489     -0.577456
  O       4.656788     -0.816684     -1.288036
44
Coordinates from ORCA-job orca E -886.364465445996
  O       3.338731     -2.347357     -2.148489
  C       3.796764     -1.839724     -1.156186
  C       3.426326     -2.362605      0.250429
  C       3.950031     -1.496900      1.428523
  H       3.187100     -1.456589      2.220941
  H       4.825862     -1.996215      1.876166
  C       4.363857     -0.089705      1.013849
  H       4.871260      0.410706      1.853545
  H       3.487522      0.526682      0.763504
  C       5.306179     -0.160612     -0.172881
  H       6.190275     -0.772390      0.094646
  C       5.780928      1.184377     -0.709015
  C       6.689412      1.957725      0.248832
  H       6.139420      2.203717      1.173897
  H       7.530769      1.310254      0.558645
  C       7.236208      3.245025     -0.368534
  H       7.884069      3.788547      0.337577
  H       6.418637      3.924261     -0.662960
  H       7.830011      3.033396     -1.273555
  H       4.894997      1.790518     -0.968801
  H       6.313984      0.993164     -1.655890
  C       4.068833     -3.781194      0.331610
  H       3.821366     -4.249870      1.296978
  H       5.167441     -3.713250      0.253549
  H       3.701747     -4.420392     -0.483140
  C       1.927812     -2.557727      0.285963
  H       1.500682     -2.819903      1.257218
  C       0.380656     -0.799436     -0.054379
  C       0.673029     -0.220086      1.291287
  O       0.114202     -0.909816      2.307102
  C       0.312101     -0.373206      3.612047
  H      -0.222246     -1.038981      4.301576
  H       1.383238     -0.342570      3.866841
  H      -0.087357      0.650185      3.682090
  O       1.334336      0.779255      1.473934
  C      -0.757891     -1.537289     -0.221560
  H      -1.326945     -1.903827      0.633791
  H      -1.086425     -1.829530     -1.222700
  C       1.048210     -0.104590     -1.217385
  H       2.085940      0.168973     -0.997042
  H       0.515820      0.834633     -1.445391
  H       1.041529     -0.738155     -2.114194
  H       1.510314     -3.076222     -0.577606
  O       4.659414     -0.817482     -1.287550
44
Coordinates from ORCA-job orca E -886.364478735336
  O       3.344423     -2.351313     -2.147196
  C       3.801732     -1.843005     -1.154851
  C       3.428571     -2.364611      0.251773
  C       3.956379     -1.501228      1.429087
  H       3.195724     -1.462637      2.223913
  H       4.834028     -2.000898      1.872934
  C       4.368507     -0.093266      1.015695
  H       4.876503      0.406756      1.855232
  H       3.491159      0.522375      0.767035
  C       5.309285     -0.161428     -0.172358
  H       6.195428     -0.770739      0.094136
  C       5.779567      1.185097     -0.708590
  C       6.687333      1.960636      0.248180
  H       6.138146      2.204461      1.174297
  H       7.531125      1.315502      0.556228
  C       7.229243      3.249940     -0.369319
  H       7.876695      3.794947      0.336024
  H       6.409150      3.926926     -0.661909
  H       7.822115      3.040652     -1.275501
  H       4.891603      1.788922     -0.966793
  H       6.311747      0.995706     -1.656329
  C       4.062072     -3.786962      0.334362
  H       3.810669     -4.253591      1.299657
  H       5.161210     -3.725702      0.257595
  H       3.692256     -4.424328     -0.480545
  C       1.929347     -2.552409      0.285801
  H       1.501752     -2.813705      1.256987
  C       0.379386     -0.796828     -0.055762
  C       0.674038     -0.220307      1.290146
  O       0.109044     -0.906029      2.305266
  C       0.311983     -0.372761      3.610796
  H      -0.228596     -1.034307      4.299526
  H       1.383336     -0.352378      3.865751
  H      -0.077966      0.654219      3.681888
  O       1.342836      0.773878      1.473895
  C      -0.758098     -1.533982     -0.223270
  H      -1.329106     -1.897905      0.631901
  H      -1.086998     -1.825844     -1.224415
  C       1.048759     -0.103565     -1.218681
  H       2.087963      0.164671     -0.998514
  H       0.521316      0.838420     -1.446496
  H       1.038581     -0.737292     -2.115381
  H       1.512643     -3.070509     -0.578325
  O       4.663261     -0.819791     -1.286588
44
Coordinates from ORCA-job orca E -886.364501521081
  O       3.352161     -2.357879     -2.145651
  C       3.808061     -1.848216     -1.153315
  C       3.431272     -2.367603      0.253442
  C       3.964191     -1.506884      1.429944
  H       3.206756     -1.470493      2.228028
  H       4.844315     -2.006880      1.868553
  C       4.374032     -0.097957      1.017925
  H       4.882826      0.401347      1.857384
  H       3.495598      0.516997      0.771488
  C       5.312848     -0.162982     -0.171842
  H       6.201686     -0.769151      0.092834
  C       5.777312      1.185489     -0.708370
  C       6.683853      1.964015      0.247122
  H       6.135495      2.205060      1.174468
  H       7.530812      1.322052      0.553090
  C       7.219373      3.255864     -0.370607
  H       7.866051      3.802990      0.333803
  H       6.395991      3.929754     -0.661099
  H       7.811252      3.049545     -1.278113
  H       4.886665      1.786150     -0.964669
  H       6.308531      0.998469     -1.657121
  C       4.054756     -3.794019      0.337819
  H       3.798711     -4.257927      1.303194
  H       5.154409     -3.740552      0.262608
  H       3.681767     -4.429467     -0.477112
  C       1.930793     -2.546827      0.285698
  H       1.501096     -2.807293      1.256430
  C       0.379291     -0.792885     -0.057287
  C       0.676058     -0.219930      1.289472
  O       0.102945     -0.900792      2.303293
  C       0.311626     -0.371985      3.609644
  H      -0.236778     -1.028357      4.297155
  H       1.383066     -0.364405      3.865003
  H      -0.066429      0.659321      3.682217
  O       1.353805      0.767922      1.475307
  C      -0.758329     -1.528901     -0.226343
  H      -1.331913     -1.890714      0.628024
  H      -1.086924     -1.819907     -1.227836
  C       1.051246     -0.100667     -1.219791
  H       2.092079      0.161339     -0.999826
  H       0.528871      0.844125     -1.447055
  H       1.037639     -0.734607     -2.116320
  H       1.513683     -3.063967     -0.578951
  O       4.667601     -0.823402     -1.285356
44
Coordinates from ORCA-job orca E -886.364491096373
  O       3.358670     -2.364248     -2.144459
  C       3.812820     -1.852840     -1.152212
  C       3.433432     -2.370142      0.254751
  C       3.970311     -1.511410      1.430726
  H       3.215843     -1.476979      2.231735
  H       4.852614     -2.011659      1.864622
  C       4.378063     -0.101629      1.019648
  H       4.887670      0.396887      1.859078
  H       3.498801      0.512929      0.775307
  C       5.315175     -0.164317     -0.171622
  H       6.206142     -0.768170      0.091054
  C       5.775127      1.185638     -0.708553
  C       6.680779      1.966440      0.245914
  H       6.133089      2.205438      1.174175
  H       7.530108      1.326869      0.550311
  C       7.211539      3.260149     -0.372046
  H       7.857671      3.808862      0.331638
  H       6.385715      3.931725     -0.660963
  H       7.802646      3.056004     -1.280550
  H       4.882398      1.783850     -0.963322
  H       6.305533      1.000435     -1.658115
  C       4.049951     -3.799346      0.340479
  H       3.791010     -4.260862      1.306244
  H       5.149875     -3.751612      0.265814
  H       3.674145     -4.433675     -0.474007
  C       1.931869     -2.543158      0.285986
  H       1.499452     -2.803014      1.255996
  C       0.380397     -0.789434     -0.058247
  C       0.677728     -0.219097      1.289535
  O       0.097979     -0.896465      2.301879
  C       0.310388     -0.371481      3.609079
  H      -0.243931     -1.024248      4.295292
  H       1.381736     -0.373481      3.864996
  H      -0.058822      0.662914      3.683117
  O       1.361835      0.764069      1.477547
  C      -0.758156     -1.524473     -0.229416
  H      -1.333704     -1.885827      0.623854
  H      -1.085703     -1.814579     -1.231504
  C       1.054467     -0.097268     -1.220055
  H       2.096295      0.160683     -1.000120
  H       0.534712      0.849050     -1.446551
  H       1.039090     -0.731131     -2.116638
  H       1.513197     -3.059247     -0.578722
  O       4.670196     -0.826358     -1.284396
44
Coordinates from ORCA-job orca E -886.364504125626
  O       3.364495     -2.370754     -2.143383
  C       3.816587     -1.857272     -1.151281
  C       3.435432     -2.372676      0.255874
  C       3.975850     -1.515777      1.431498
  H       3.224363     -1.483241      2.235406
  H       4.860111     -2.016453      1.860858
  C       4.381530     -0.105123      1.021284
  H       4.892222      0.392566      1.860581
  H       3.501445      0.509128      0.779351
  C       5.316800     -0.165677     -0.171540
  H       6.209634     -0.767612      0.088988
  C       5.772653      1.185562     -0.708926
  C       6.677742      1.968341      0.244463
  H       6.130865      2.205448      1.173680
  H       7.529273      1.330914      0.547210
  C       7.204044      3.263759     -0.373746
  H       7.849827      3.813872      0.329167
  H       6.375950      3.933248     -0.661009
  H       7.794239      3.061634     -1.283292
  H       4.878020      1.781595     -0.962086
  H       6.302080      1.002000     -1.659346
  C       4.046193     -3.804275      0.342463
  H       3.785329     -4.263794      1.308685
  H       5.146267     -3.761370      0.267635
  H       3.667530     -4.437613     -0.471445
  C       1.932977     -2.540355      0.286802
  H       1.497871     -2.799231      1.256055
  C       0.382581     -0.785974     -0.058929
  C       0.679226     -0.217535      1.289891
  O       0.093528     -0.892299      2.300463
  C       0.308165     -0.370868      3.608651
  H      -0.251062     -1.021068      4.293328
  H       1.379287     -0.380489      3.865444
  H      -0.054116      0.665860      3.684186
  O       1.368028      0.761977      1.480179
  C      -0.757031     -1.519936     -0.232464
  H      -1.334156     -1.881733      0.619560
  H      -1.083023     -1.809174     -1.235304
  C       1.058966     -0.093722     -1.219566
  H       2.101297      0.161542     -0.999131
  H       0.540633      0.853559     -1.445157
  H       1.042774     -0.726821     -2.116699
  H       1.512033     -3.055327     -0.577563
  O       4.671691     -0.829048     -1.283557
44
Coordinates from ORCA-job orca E -886.364500539379
  O       3.366626     -2.373998     -2.142947
  C       3.817675     -1.859403     -1.150968
  C       3.436385     -2.374139      0.256312
  C       3.978457     -1.518130      1.431796
  H       3.228555     -1.486644      2.237233
  H       4.863658     -2.019099      1.858860
  C       4.382949     -0.106975      1.022069
  H       4.894465      0.390228      1.861162
  H       3.502354      0.507146      0.781768
  C       5.316989     -0.166387     -0.171741
  H       6.210646     -0.767650      0.087432
  C       5.770966      1.185441     -0.709265
  C       6.676057      1.968900      0.243566
  H       6.129748      2.205077      1.173348
  H       7.528585      1.332332      0.545307
  C       7.200321      3.265113     -0.374711
  H       7.846137      3.815736      0.327771
  H       6.371197      3.933749     -0.660979
  H       7.789891      3.063945     -1.284876
  H       4.875461      1.780591     -0.961413
  H       6.299726      1.002705     -1.660209
  C       4.044921     -3.806733      0.342968
  H       3.783810     -4.265500      1.309483
  H       5.145010     -3.765691      0.267470
  H       3.664694     -4.439640     -0.470534
  C       1.933701     -2.539583      0.287779
  H       1.497406     -2.797474      1.256754
  C       0.384688     -0.784203     -0.059083
  C       0.679861     -0.216106      1.290271
  O       0.091776     -0.890281      2.299805
  C       0.306214     -0.370198      3.608557
  H      -0.254507     -1.020057      4.292336
  H       1.377142     -0.381713      3.866075
  H      -0.054461      0.667042      3.684719
  O       1.369607      0.762512      1.481728
  C      -0.755368     -1.517561     -0.234108
  H      -1.333055     -1.880272      0.617128
  H      -1.080047     -1.806415     -1.237485
  C       1.062404     -0.091737     -1.218749
  H       2.104641      0.163184     -0.997570
  H       0.544048      0.855678     -1.443871
  H       1.046502     -0.723934     -2.116535
  H       1.510946     -3.053983     -0.576027
  O       4.671370     -0.830084     -1.283343
44
Coordinates from ORCA-job orca E -886.364500336550
  O       3.368985     -2.378405     -2.142272
  C       3.818867     -1.862422     -1.150508
  C       3.437837     -2.376584      0.256926
  C       3.982642     -1.522106      1.432151
  H       3.235161     -1.492362      2.239966
  H       4.869268     -2.023521      1.855760
  C       4.385129     -0.110107      1.023312
  H       4.898084      0.386433      1.861942
  H       3.503584      0.503701      0.785753
  C       5.317046     -0.167490     -0.172202
  H       6.211905     -0.767822      0.084909
  C       5.768169      1.185272     -0.709755
  C       6.673264      1.969712      0.242273
  H       6.127802      2.204478      1.172908
  H       7.527268      1.334412      0.542493
  C       7.194516      3.267131     -0.376029
  H       7.840308      3.818509      0.325882
  H       6.363874      3.934487     -0.660873
  H       7.783238      3.067419     -1.287062
  H       4.871359      1.779112     -0.960318
  H       6.295911      1.003869     -1.661508
  C       4.042839     -3.810773      0.343180
  H       3.781554     -4.268773      1.310006
  H       5.142943     -3.772508      0.266434
  H       3.660102     -4.442692     -0.469885
  C       1.934922     -2.538447      0.289693
  H       1.497684     -2.794193      1.258726
  C       0.388110     -0.781547     -0.059286
  C       0.680757     -0.213601      1.290731
  O       0.089646     -0.887249      2.298787
  C       0.303006     -0.368603      3.608295
  H      -0.259210     -1.018500      4.290801
  H       1.373623     -0.381479      3.867024
  H      -0.056660      0.668943      3.685062
  O       1.371137      0.764237      1.483766
  C      -0.752138     -1.514092     -0.236450
  H      -1.330644     -1.878045      0.613668
  H      -1.074757     -1.802580     -1.240596
  C       1.068135     -0.089040     -1.217328
  H       2.110126      0.165458     -0.994581
  H       0.550190      0.858795     -1.441991
  H       1.052721     -0.719630     -2.116265
  H       1.509409     -3.052199     -0.573073
  O       4.670440     -0.831411     -1.283187
44
Coordinates from ORCA-job orca E -886.364498788562
  O       3.370491     -2.382106     -2.141541
  C       3.819736     -1.865189     -1.149982
  C       3.439170     -2.379227      0.257580
  C       3.986846     -1.526385      1.432485
  H       3.241655     -1.498506      2.242546
  H       4.874917     -2.028103      1.852751
  C       4.387242     -0.113485      1.024736
  H       4.901631      0.382429      1.862874
  H       3.504687      0.499929      0.789901
  C       5.316895     -0.168533     -0.172636
  H       6.212996     -0.767865      0.082456
  C       5.765087      1.185267     -0.709993
  C       6.670540      1.970451      0.241110
  H       6.126242      2.203641      1.172819
  H       7.526071      1.336307      0.539410
  C       7.188647      3.269195     -0.377072
  H       7.834693      3.821106      0.324186
  H       6.356435      3.935396     -0.660027
  H       7.776183      3.071135     -1.289232
  H       4.866944      1.777911     -0.958602
  H       6.291511      1.005348     -1.662753
  C       4.040561     -3.814987      0.343121
  H       3.779022     -4.272504      1.310096
  H       5.140687     -3.779449      0.265284
  H       3.655467     -4.445697     -0.469746
  C       1.936058     -2.537395      0.291740
  H       1.498655     -2.790638      1.261263
  C       0.391482     -0.779001     -0.059609
  C       0.681835     -0.211116      1.290930
  O       0.088372     -0.884433      2.297805
  C       0.300178     -0.366438      3.607846
  H      -0.262763     -1.016728      4.289374
  H       1.370506     -0.379291      3.867742
  H      -0.059723      0.671024      3.684739
  O       1.372472      0.766261      1.485267
  C      -0.748626     -1.510874     -0.238733
  H      -1.328125     -1.875516      0.610392
  H      -1.069348     -1.799201     -1.243534
  C       1.073856     -0.086640     -1.216171
  H       2.115634      0.167149     -0.991708
  H       0.557004      0.861861     -1.440814
  H       1.058874     -0.715997     -2.115986
  H       1.508147     -3.050782     -0.569968
  O       4.669307     -0.832534     -1.283066
44
Coordinates from ORCA-job orca E -886.364506581492
  O       3.375696     -2.393012     -2.139022
  C       3.823263     -1.873624     -1.148006
  C       3.443021     -2.386959      0.259875
  C       3.999331     -1.538997      1.433759
  H       3.260681     -1.516260      2.250171
  H       4.891543     -2.041485      1.844322
  C       4.394061     -0.123650      1.029179
  H       4.912367      0.370413      1.866008
  H       3.508859      0.488739      0.801782
  C       5.317331     -0.171928     -0.173423
  H       6.217346     -0.767762      0.075985
  C       5.756230      1.185136     -0.710201
  C       6.662843      1.972813      0.237758
  H       6.122612      2.200512      1.173179
  H       7.523616      1.342687      0.529394
  C       7.169948      3.276140     -0.379920
  H       7.816984      3.829824      0.319020
  H       6.332286      3.938336     -0.656105
  H       7.753161      3.083898     -1.296085
  H       4.853865      1.773920     -0.952604
  H       6.278359      1.009856     -1.666169
  C       4.032767     -3.827527      0.343752
  H       3.769594     -4.283208      1.311117
  H       5.132982     -3.800938      0.263380
  H       3.640729     -4.454574     -0.468575
  C       1.939027     -2.533590      0.296954
  H       1.501160     -2.780110      1.267886
  C       0.400563     -0.771174     -0.061000
  C       0.685835     -0.204506      1.291085
  O       0.084805     -0.876031      2.294619
  C       0.293339     -0.360299      3.606102
  H      -0.272998     -1.010531      4.284870
  H       1.362827     -0.375335      3.869260
  H      -0.065068      0.677674      3.683299
  O       1.378996      0.770285      1.489297
  C      -0.739398     -1.500941     -0.245626
  H      -1.322559     -1.866138      0.600718
  H      -1.055347     -1.788644     -1.252119
  C       1.089902     -0.079675     -1.213665
  H       2.131548      0.170336     -0.984596
  H       0.577661      0.871342     -1.438605
  H       1.075509     -0.706550     -2.115239
  H       1.505392     -3.046052     -0.562295
  O       4.667484     -0.836622     -1.282236
44
Coordinates from ORCA-job orca E -886.364506571645
  O       3.374115     -2.390896     -2.139316
  C       3.822438     -1.872322     -1.148198
  C       3.442386     -2.386180      0.259622
  C       3.997833     -1.537733      1.433582
  H       3.258405     -1.514555      2.249235
  H       4.889703     -2.039960      1.845199
  C       4.393084     -0.122623      1.028744
  H       4.910847      0.371711      1.865732
  H       3.508200      0.489862      0.800298
  C       5.317120     -0.171543     -0.173282
  H       6.216704     -0.767739      0.076840
  C       5.757077      1.185241     -0.709906
  C       6.663891      1.972351      0.238305
  H       6.123531      2.200462      1.173557
  H       7.524140      1.341654      0.530240
  C       7.172094      3.275285     -0.379293
  H       7.819284      3.828564      0.319826
  H       6.334975      3.938033     -0.655793
  H       7.755481      3.082579     -1.295254
  H       4.855209      1.774635     -0.952669
  H       6.279438      1.009570     -1.665683
  C       4.033668     -3.826050      0.343284
  H       3.770675     -4.282281      1.310449
  H       5.133884     -3.798294      0.263337
  H       3.642615     -4.453360     -0.469317
  C       1.938385     -2.534255      0.296587
  H       1.501451     -2.781224      1.267869
  C       0.399506     -0.772115     -0.060937
  C       0.685553     -0.205236      1.290888
  O       0.086399     -0.877429      2.295148
  C       0.294471     -0.360471      3.606239
  H      -0.270420     -1.011327      4.285610
  H       1.364047     -0.373280      3.869097
  H      -0.065902      0.676865      3.682845
  O       1.377774      0.770389      1.488362
  C      -0.740314     -1.502346     -0.244851
  H      -1.323370     -1.866851      0.601894
  H      -1.056979     -1.790320     -1.251043
  C       1.088056     -0.080701     -1.214262
  H       2.129801      0.169444     -0.985696
  H       0.575796      0.870144     -1.439668
  H       1.073700     -0.708519     -2.115166
  H       1.505833     -3.047367     -0.562846
  O       4.667563     -0.836024     -1.282329
44
Coordinates from ORCA-job orca E -886.364507522186
  O       3.372805     -2.389929     -2.139148
  C       3.821993     -1.872113     -1.147996
  C       3.442197     -2.386509      0.259774
  C       3.998163     -1.538373      1.433673
  H       3.259064     -1.515679      2.249625
  H       4.890489     -2.040330      1.844595
  C       4.393068     -0.123111      1.029076
  H       4.910758      0.371203      1.866113
  H       3.508228      0.489399      0.800455
  C       5.317033     -0.171717     -0.173124
  H       6.216840     -0.767639      0.076866
  C       5.756588      1.185328     -0.709489
  C       6.663947      1.972200      0.238408
  H       6.124278      2.199758      1.174206
  H       7.524555      1.341550      0.529375
  C       7.171431      3.275522     -0.378978
  H       7.819079      3.828582      0.319892
  H       6.333966      3.938239     -0.654500
  H       7.754137      3.083353     -1.295485
  H       4.854561      1.774787     -0.951529
  H       6.278401      1.009995     -1.665627
  C       4.033339     -3.826302      0.342772
  H       3.770124     -4.282967      1.309701
  H       5.133572     -3.798778      0.263090
  H       3.642367     -4.453256     -0.470154
  C       1.937889     -2.534425      0.297060
  H       1.502289     -2.780905      1.269158
  C       0.399755     -0.771772     -0.061142
  C       0.686164     -0.205097      1.290665
  O       0.088309     -0.878031      2.295245
  C       0.294815     -0.359648      3.606020
  H      -0.268587     -1.011480      4.285690
  H       1.364327     -0.369425      3.869193
  H      -0.068324      0.676791      3.681750
  O       1.377572      0.771190      1.487909
  C      -0.740021     -1.502264     -0.245152
  H      -1.323896     -1.865569      0.601591
  H      -1.056928     -1.790428     -1.251209
  C       1.088442     -0.080685     -1.214791
  H       2.130417      0.168594     -0.986270
  H       0.577057      0.870356     -1.440953
  H       1.074258     -0.709824     -2.114769
  H       1.506043     -3.048612     -0.562147
  O       4.667584     -0.836188     -1.282159
44
Coordinates from ORCA-job orca E -886.364506678952
  O       3.373557     -2.391906     -2.138599
  C       3.822672     -1.873855     -1.147532
  C       3.442894     -2.388140      0.260276
  C       4.000769     -1.541084      1.433953
  H       3.263209     -1.519610      2.251361
  H       4.894147     -2.043093      1.842535
  C       4.394414     -0.125304      1.029994
  H       4.912728      0.368659      1.866848
  H       3.509124      0.487014      0.802639
  C       5.317240     -0.172547     -0.173162
  H       6.217975     -0.767532      0.075678
  C       5.754695      1.185239     -0.709396
  C       6.662204      1.972651      0.237875
  H       6.123422      2.198872      1.174503
  H       7.524013      1.342940      0.527315
  C       7.167167      3.277053     -0.379294
  H       7.814951      3.830515      0.319129
  H       6.328465      3.938824     -0.653320
  H       7.748979      3.086261     -1.296656
  H       4.851750      1.773825     -0.950085
  H       6.275643      1.010963     -1.666200
  C       4.031587     -3.828891      0.342837
  H       3.767975     -4.285171      1.309838
  H       5.131837     -3.803385      0.262699
  H       3.639149     -4.455095     -0.469946
  C       1.938257     -2.533734      0.298169
  H       1.502824     -2.778934      1.270691
  C       0.401749     -0.769965     -0.061518
  C       0.687448     -0.203731      1.290598
  O       0.088453     -0.876495      2.294606
  C       0.293934     -0.358169      3.605560
  H      -0.269827     -1.010161      4.284780
  H       1.363259     -0.367697      3.869482
  H      -0.069506      0.678187      3.681093
  O       1.379271      0.772131      1.488551
  C      -0.738238     -1.499966     -0.246608
  H      -1.323217     -1.862813      0.599569
  H      -1.054417     -1.787957     -1.252934
  C       1.091703     -0.079202     -1.214654
  H       2.133798      0.168991     -0.985515
  H       0.581278      0.872262     -1.441073
  H       1.077661     -0.708521     -2.114512
  H       1.505621     -3.048282     -0.560438
  O       4.667528     -0.837356     -1.281856
44
Coordinates from ORCA-job orca E -886.364863820680
  O       3.350794     -2.398195     -2.117033
  C       3.816822     -1.886922     -1.129900
  C       3.465886     -2.418481      0.281316
  C       4.031075     -1.574177      1.452337
  H       3.300586     -1.557628      2.278287
  H       4.930974     -2.072124      1.851653
  C       4.407081     -0.153606      1.044884
  H       4.930187      0.342781      1.877339
  H       3.511307      0.450797      0.826982
  C       5.315062     -0.185452     -0.169645
  H       6.225319     -0.772633      0.063390
  C       5.732626      1.178902     -0.705477
  C       6.646962      1.969644      0.232486
  H       6.119837      2.186396      1.178107
  H       7.518591      1.346145      0.506202
  C       7.131325      3.281618     -0.385533
  H       7.784383      3.837346      0.306204
  H       6.282744      3.937305     -0.644012
  H       7.701446      3.100582     -1.312339
  H       4.820938      1.760667     -0.930048
  H       6.241160      1.014038     -1.670755
  C       4.060224     -3.857340      0.356628
  H       3.804918     -4.316678      1.324450
  H       5.159830     -3.827783      0.268924
  H       3.664362     -4.483137     -0.454816
  C       1.974317     -2.559404      0.316567
  H       1.510474     -2.767550      1.261201
  C       0.380131     -0.715318     -0.074125
  C       0.679352     -0.179754      1.268322
  O       0.079309     -0.863391      2.262847
  C       0.290709     -0.357965      3.576900
  H      -0.272377     -1.014091      4.252711
  H       1.362728     -0.375642      3.833309
  H      -0.067937      0.679252      3.663704
  O       1.377734      0.788801      1.479408
  C      -0.724565     -1.441724     -0.257606
  H      -1.308132     -1.803984      0.589800
  H      -1.039198     -1.733761     -1.263260
  C       1.079544     -0.039600     -1.218981
  H       2.131933      0.183457     -0.971688
  H       0.588094      0.917639     -1.463906
  H       1.064052     -0.695602     -2.102006
  H       1.514641     -3.033038     -0.533151
  O       4.652903     -0.844600     -1.272394
44
Coordinates from ORCA-job orca E -886.366359835998
  O       3.363918     -2.403024     -2.125176
  C       3.826432     -1.892351     -1.136420
  C       3.464551     -2.418249      0.274457
  C       4.027349     -1.571474      1.445933
  H       3.296514     -1.556717      2.270001
  H       4.927708     -2.067571      1.845868
  C       4.402714     -0.150610      1.041282
  H       4.922023      0.347032      1.875387
  H       3.508990      0.452130      0.820113
  C       5.315557     -0.183972     -0.169538
  H       6.224324     -0.771168      0.068627
  C       5.736246      1.180496     -0.703005
  C       6.646983      1.970825      0.238797
  H       6.116252      2.187251      1.182321
  H       7.517374      1.347253      0.515604
  C       7.133828      3.282966     -0.376642
  H       7.784194      3.838405      0.317810
  H       6.286396      3.938654     -0.638091
  H       7.707427      3.102239     -1.301196
  H       4.825931      1.762558     -0.931278
  H       6.248605      1.015415     -1.666018
  C       4.062535     -3.856156      0.348488
  H       3.807139     -4.315967      1.315916
  H       5.162265     -3.825173      0.261226
  H       3.667568     -4.482284     -0.463282
  C       1.965943     -2.558459      0.316515
  H       1.499571     -2.763680      1.283147
  C       0.368635     -0.718027     -0.078636
  C       0.675152     -0.174501      1.273387
  O       0.082718     -0.853230      2.278409
  C       0.304724     -0.346402      3.591183
  H      -0.254891     -1.000561      4.271805
  H       1.377139     -0.364510      3.841856
  H      -0.051764      0.691342      3.679170
  O       1.378112      0.792987      1.476875
  C      -0.748326     -1.457424     -0.261091
  H      -1.332050     -1.820025      0.586258
  H      -1.063184     -1.754353     -1.265548
  C       1.083757     -0.051090     -1.229700
  H       2.129342      0.170335     -0.985510
  H       0.599522      0.907934     -1.476106
  H       1.069578     -0.699529     -2.116199
  H       1.501000     -3.037862     -0.544655
  O       4.660348     -0.847665     -1.275067
44
Coordinates from ORCA-job orca E -886.366453416456
  O       3.375400     -2.407254     -2.128144
  C       3.826139     -1.888400     -1.138347
  C       3.464385     -2.414926      0.271410
  C       4.026883     -1.568642      1.443677
  H       3.296583     -1.556295      2.268047
  H       4.928395     -2.064265      1.841861
  C       4.401932     -0.147394      1.041025
  H       4.920204      0.350125      1.875779
  H       3.508710      0.455714      0.819347
  C       5.316835     -0.181814     -0.168465
  H       6.224126     -0.770563      0.071311
  C       5.740194      1.181906     -0.701408
  C       6.651630      1.970255      0.241273
  H       6.120716      2.187261      1.184541
  H       7.520773      1.345085      0.518325
  C       7.141058      3.281743     -0.373413
  H       7.791961      3.835823      0.321606
  H       6.294901      3.938958     -0.635110
  H       7.714868      3.100302     -1.297681
  H       4.831093      1.765703     -0.930198
  H       6.253020      1.016100     -1.664085
  C       4.063899     -3.852378      0.340971
  H       3.811036     -4.314683      1.307972
  H       5.163272     -3.820252      0.251062
  H       3.667200     -4.476813     -0.471214
  C       1.963812     -2.555355      0.318284
  H       1.503601     -2.757580      1.289757
  C       0.359224     -0.721668     -0.078724
  C       0.669242     -0.173945      1.274235
  O       0.078657     -0.850298      2.281575
  C       0.304340     -0.342152      3.593088
  H      -0.255020     -0.994792      4.275305
  H       1.377030     -0.361025      3.842442
  H      -0.050747      0.696189      3.680386
  O       1.372651      0.794026      1.472113
  C      -0.759658     -1.467542     -0.257286
  H      -1.341543     -1.829570      0.591736
  H      -1.075381     -1.767685     -1.260363
  C       1.078985     -0.060806     -1.231230
  H       2.123382      0.163583     -0.987819
  H       0.595058      0.898687     -1.478448
  H       1.065864     -0.705877     -2.119975
  H       1.499939     -3.037557     -0.542797
  O       4.663499     -0.846134     -1.275142
44
Coordinates from ORCA-job orca E -886.366491773487
  O       3.375454     -2.404141     -2.129000
  C       3.834356     -1.892743     -1.139145
  C       3.466696     -2.415050      0.269716
  C       4.030022     -1.570163      1.442761
  H       3.300533     -1.560237      2.267830
  H       4.932599     -2.065793      1.838773
  C       4.404278     -0.148111      1.042389
  H       4.922438      0.348865      1.877531
  H       3.511001      0.455325      0.821979
  C       5.319106     -0.180888     -0.167423
  H       6.226838     -0.769042      0.071900
  C       5.740730      1.183381     -0.699951
  C       6.652900      1.971385      0.242285
  H       6.123157      2.187182      1.186502
  H       7.522783      1.346457      0.517527
  C       7.140738      3.283728     -0.371825
  H       7.792264      3.837533      0.322829
  H       6.293856      3.940710     -0.631767
  H       7.713404      3.103430     -1.297024
  H       4.831006      1.766875     -0.927123
  H       6.252521      1.018646     -1.663377
  C       4.061297     -3.854249      0.339288
  H       3.807115     -4.315961      1.306306
  H       5.160646     -3.825569      0.248964
  H       3.662076     -4.476912     -0.472887
  C       1.964084     -2.550969      0.318140
  H       1.509565     -2.750294      1.292476
  C       0.353969     -0.722345     -0.079844
  C       0.667089     -0.172891      1.273446
  O       0.075480     -0.846692      2.281158
  C       0.304080     -0.338888      3.592227
  H      -0.257225     -0.989390      4.274866
  H       1.376779     -0.361141      3.841422
  H      -0.047431      0.700728      3.679322
  O       1.372637      0.793839      1.467767
  C      -0.765770     -1.470965     -0.255411
  H      -1.346822     -1.831570      0.594730
  H      -1.082285     -1.772413     -1.257780
  C       1.077332     -0.067434     -1.232364
  H       2.122648      0.154421     -0.990799
  H       0.597266      0.895298     -1.476851
  H       1.059324     -0.706967     -2.124852
  H       1.502074     -3.034403     -0.543029
  O       4.667536     -0.846789     -1.274403
44
Coordinates from ORCA-job orca E -886.366521504571
  O       3.380030     -2.406143     -2.129002
  C       3.834023     -1.890915     -1.138825
  C       3.467660     -2.414251      0.269668
  C       4.032868     -1.571002      1.442798
  H       3.304835     -1.562667      2.269228
  H       4.936503     -2.066740      1.836356
  C       4.406082     -0.148456      1.043136
  H       4.924606      0.348356      1.878188
  H       3.512445      0.454967      0.823610
  C       5.320505     -0.180429     -0.167050
  H       6.228405     -0.768502      0.071862
  C       5.741449      1.184011     -0.699480
  C       6.654295      1.971660      0.242450
  H       6.125387      2.186679      1.187329
  H       7.524592      1.346762      0.516446
  C       7.141215      3.284572     -0.371217
  H       7.793258      3.838073      0.323201
  H       6.293920      3.941521     -0.629915
  H       7.713057      3.105041     -1.297080
  H       4.831520      1.767558     -0.925663
  H       6.252550      1.019745     -1.663331
  C       4.059442     -3.854733      0.338238
  H       3.805363     -4.316847      1.305097
  H       5.158788     -3.827980      0.246948
  H       3.658364     -4.475985     -0.474090
  C       1.964953     -2.547945      0.318681
  H       1.513518     -2.746165      1.294002
  C       0.350837     -0.723025     -0.080099
  C       0.664641     -0.172985      1.272432
  O       0.072195     -0.845395      2.280188
  C       0.302166     -0.337694      3.591121
  H      -0.260132     -0.986907      4.274191
  H       1.374926     -0.361940      3.839966
  H      -0.047270      0.702626      3.678047
  O       1.372057      0.792498      1.465818
  C      -0.767330     -1.472268     -0.254156
  H      -1.348122     -1.831631      0.596543
  H      -1.083856     -1.774465     -1.256351
  C       1.074538     -0.070336     -1.232409
  H       2.120166      0.151132     -0.991112
  H       0.595758      0.893325     -1.476617
  H       1.055081     -0.708768     -2.125763
  H       1.504132     -3.032425     -0.542080
  O       4.668730     -0.846140     -1.274024
44
Coordinates from ORCA-job orca E -886.366541966950
  O       3.385703     -2.409474     -2.128406
  C       3.837072     -1.892281     -1.137977
  C       3.470135     -2.415529      0.270236
  C       4.039619     -1.575429      1.443175
  H       3.314656     -1.569712      2.272437
  H       4.945127     -2.071567      1.831917
  C       4.410436     -0.151840      1.044971
  H       4.929883      0.344510      1.879780
  H       3.515833      0.451052      0.827721
  C       5.323179     -0.180996     -0.166571
  H       6.232590     -0.767317      0.070911
  C       5.740421      1.184680     -0.698683
  C       6.653595      1.973255      0.242257
  H       6.126407      2.185608      1.188702
  H       7.526049      1.350077      0.513277
  C       7.135834      3.288287     -0.370615
  H       7.788215      3.842354      0.323041
  H       6.286308      3.943544     -0.626272
  H       7.705852      3.111518     -1.298138
  H       4.828974      1.766739     -0.922504
  H       6.250034      1.022310     -1.663622
  C       4.054272     -3.859120      0.339020
  H       3.798002     -4.320300      1.305706
  H       5.153780     -3.837945      0.247722
  H       3.650137     -4.478065     -0.473555
  C       1.966853     -2.542849      0.318827
  H       1.518326     -2.739649      1.295315
  C       0.348624     -0.721847     -0.081189
  C       0.663730     -0.172390      1.270632
  O       0.067793     -0.841486      2.278237
  C       0.300418     -0.334793      3.589188
  H      -0.265255     -0.980766      4.272541
  H       1.373106     -0.364884      3.837762
  H      -0.043287      0.707430      3.675903
  O       1.375819      0.789740      1.463998
  C      -0.767894     -1.470553     -0.254165
  H      -1.349516     -1.827580      0.596859
  H      -1.084158     -1.773259     -1.256346
  C       1.073558     -0.071886     -1.233183
  H       2.120286      0.145602     -0.992662
  H       0.599211      0.894432     -1.476163
  H       1.049810     -0.708591     -2.127733
  H       1.507172     -3.028018     -0.541798
  O       4.671441     -0.847221     -1.273275
44
Coordinates from ORCA-job orca E -886.366554992978
  O       3.392374     -2.414838     -2.127589
  C       3.842201     -1.896434     -1.137034
  C       3.473195     -2.418553      0.271089
  C       4.047920     -1.581994      1.443510
  H       3.326798     -1.579179      2.276253
  H       4.955595     -2.078741      1.826372
  C       4.415745     -0.157137      1.047192
  H       4.936390      0.338515      1.881697
  H       3.519852      0.444859      0.832897
  C       5.326123     -0.182512     -0.166211
  H       6.237882     -0.765984      0.069282
  C       5.737861      1.185044     -0.697832
  C       6.650576      1.975588      0.241953
  H       6.125184      2.184201      1.190229
  H       7.526214      1.355362      0.509430
  C       7.125889      3.293614     -0.369921
  H       7.778112      3.848983      0.322838
  H       6.273052      3.945983     -0.621900
  H       7.693880      3.120757     -1.299422
  H       4.824077      1.764471     -0.918915
  H       6.245882      1.025361     -1.664040
  C       4.047614     -3.865851      0.340755
  H       3.787827     -4.325025      1.307429
  H       5.147312     -3.852066      0.250078
  H       3.639976     -4.482369     -0.471908
  C       1.968968     -2.537536      0.318871
  H       1.521585     -2.733038      1.296158
  C       0.348381     -0.718969     -0.082676
  C       0.665031     -0.170852      1.268926
  O       0.063975     -0.835628      2.276317
  C       0.299811     -0.330571      3.587366
  H      -0.270650     -0.972374      4.270661
  H       1.372248     -0.368565      3.835966
  H      -0.036271      0.714126      3.673915
  O       1.383049      0.786875      1.462961
  C      -0.767708     -1.466604     -0.255572
  H      -1.351005     -1.821164      0.595314
  H      -1.083488     -1.769701     -1.257808
  C       1.075429     -0.071298     -1.234467
  H       2.123612      0.140126     -0.994829
  H       0.606795      0.898199     -1.475947
  H       1.046645     -0.706625     -2.129873
  H       1.509410     -3.022711     -0.541752
  O       4.674800     -0.849952     -1.272483
44
Coordinates from ORCA-job orca E -886.366572110332
  O       3.405925     -2.427095     -2.125861
  C       3.852678     -1.906219     -1.135150
  C       3.478903     -2.425515      0.272910
  C       4.063393     -1.595457      1.444195
  H       3.349735     -1.598163      2.283558
  H       4.975128     -2.093421      1.815681
  C       4.425482     -0.168163      1.051750
  H       4.948510      0.325885      1.885723
  H       3.527025      0.431954      0.843381
  C       5.331104     -0.186034     -0.165354
  H       6.247669     -0.763564      0.065990
  C       5.731546      1.185278     -0.696154
  C       6.642888      1.980394      0.241130
  H       6.120897      2.181974      1.192788
  H       7.524944      1.366498      0.502016
  C       7.104101      3.304042     -0.369401
  H       7.755698      3.862620      0.321363
  H       6.244550      3.950160     -0.614549
  H       7.668195      3.138583     -1.302618
  H       4.812967      1.759024     -0.912108
  H       6.236505      1.030849     -1.664810
  C       4.034853     -3.879527      0.344271
  H       3.768062     -4.334328      1.311073
  H       5.134754     -3.880049      0.254975
  H       3.620627     -4.491657     -0.468344
  C       1.972922     -2.528434      0.319178
  H       1.525087     -2.721773      1.296984
  C       0.350795     -0.711937     -0.085506
  C       0.669709     -0.166818      1.266334
  O       0.058058     -0.823464      2.272805
  C       0.299547     -0.322394      3.584334
  H      -0.280783     -0.956269      4.266711
  H       1.371141     -0.376105      3.833753
  H      -0.021522      0.726988      3.670972
  O       1.398819      0.782302      1.462404
  C      -0.766009     -1.457164     -0.259633
  H      -1.353020     -1.807708      0.590384
  H      -1.080580     -1.760758     -1.262096
  C       1.082434     -0.067700     -1.236730
  H       2.133225      0.131679     -0.998326
  H       0.624177      0.907332     -1.475435
  H       1.045052     -0.701115     -2.133224
  H       1.512031     -3.012657     -0.541366
  O       4.680929     -0.856284     -1.270717
44
Coordinates from ORCA-job orca E -886.366594655870
  O       3.419999     -2.441382     -2.124156
  C       3.863020     -1.917462     -1.133373
  C       3.484291     -2.433489      0.274742
  C       4.078046     -1.609483      1.444744
  H       3.371807     -1.617671      2.290472
  H       4.993691     -2.108643      1.804936
  C       4.434565     -0.179803      1.056268
  H       4.960088      0.312488      1.889716
  H       3.533539      0.418403      0.854010
  C       5.335245     -0.190248     -0.164592
  H       6.256718     -0.761662      0.062313
  C       5.723955      1.184796     -0.694719
  C       6.633254      1.985012      0.240160
  H       6.114391      2.179499      1.194988
  H       7.521863      1.377983      0.494768
  C       7.079808      3.314285     -0.369072
  H       7.730418      3.876452      0.319706
  H       6.213356      3.953645     -0.607519
  H       7.640077      3.156333     -1.305879
  H       4.800422      1.752372     -0.905863
  H       6.226071      1.035643     -1.665684
  C       4.022613     -3.893652      0.347677
  H       3.749235     -4.343853      1.314806
  H       5.122507     -3.908004      0.259499
  H       3.601910     -4.501724     -0.464591
  C       1.976855     -2.520625      0.320011
  H       1.526273     -2.711602      1.297373
  C       0.356216     -0.703593     -0.088219
  C       0.676279     -0.161341      1.264336
  O       0.053921     -0.810400      2.269337
  C       0.300209     -0.313882      3.581626
  H      -0.290008     -0.940300      4.262416
  H       1.370588     -0.382861      3.832589
  H      -0.006336      0.739786      3.668752
  O       1.415556      0.779504      1.462799
  C      -0.762469     -1.445995     -0.264611
  H      -1.353329     -1.793339      0.584088
  H      -1.075625     -1.749840     -1.267421
  C       1.092684     -0.062171     -1.238619
  H       2.145674      0.125868     -1.000927
  H       0.643356      0.917490     -1.474721
  H       1.048247     -0.694153     -2.135846
  H       1.512884     -3.002982     -0.540121
  O       4.686284     -0.863612     -1.268918
44
Coordinates from ORCA-job orca E -886.366599106183
  O       3.432657     -2.455439     -2.122655
  C       3.871519     -1.928178     -1.131839
  C       3.488760     -2.441213      0.276343
  C       4.090416     -1.622273      1.445187
  H       3.390838     -1.635632      2.296438
  H       5.009571     -2.122371      1.795160
  C       4.441929     -0.190451      1.060427
  H       4.969851      0.300085      1.893378
  H       3.538567      0.406060      0.863997
  C       5.337927     -0.194270     -0.163925
  H       6.263707     -0.760386      0.058559
  C       5.716087      1.183965     -0.693578
  C       6.623496      1.988851      0.239079
  H       6.107343      2.177481      1.196522
  H       7.517711      1.387937      0.488466
  C       7.057354      3.322725     -0.369334
  H       7.707100      3.888185      0.317566
  H       6.185002      3.956111     -0.602115
  H       7.614229      3.170965     -1.309175
  H       4.788182      1.745951     -0.900535
  H       6.215611      1.039409     -1.666580
  C       4.012679     -3.906248      0.350115
  H       3.734265     -4.352742      1.317559
  H       5.112378     -3.931855      0.262395
  H       3.586362     -4.510770     -0.461792
  C       1.980404     -2.514841      0.321590
  H       1.525773     -2.703035      1.297857
  C       0.363399     -0.695426     -0.090422
  C       0.682833     -0.155129      1.263173
  O       0.051348     -0.798411      2.266271
  C       0.300603     -0.306200      3.579549
  H      -0.298010     -0.926811      4.258329
  H       1.369631     -0.387515      3.832675
  H       0.005730      0.750734      3.667414
  O       1.429512      0.779367      1.463925
  C      -0.757451     -1.435208     -0.269678
  H      -1.351601     -1.780765      0.577488
  H      -1.068962     -1.739048     -1.272974
  C       1.104318     -0.056079     -1.239623
  H       2.158753      0.123431     -1.001929
  H       0.661074      0.926758     -1.473564
  H       1.055390     -0.686751     -2.137566
  H       1.512087     -2.994747     -0.537720
  O       4.689775     -0.870430     -1.267182
44
Coordinates from ORCA-job orca E -886.366598952955
  O       3.441089     -2.465853     -2.121722
  C       3.876429     -1.935861     -1.130870
  C       3.491651     -2.447113      0.277356
  C       4.098780     -1.631607      1.445438
  H       3.404058     -1.649171      2.300588
  H       5.020615     -2.132103      1.787879
  C       4.446386     -0.198130      1.063518
  H       4.976182      0.291081      1.896064
  H       3.541267      0.397168      0.871648
  C       5.338726     -0.197125     -0.163515
  H       6.267410     -0.759831      0.055372
  C       5.709548      1.183245     -0.692789
  C       6.615897      1.991138      0.238265
  H       6.101660      2.176187      1.197424
  H       7.513651      1.394106      0.484235
  C       7.041649      3.327791     -0.369824
  H       7.691036      3.895353      0.315680
  H       6.165587      3.957406     -0.598849
  H       7.596111      3.179803     -1.311689
  H       4.778687      1.741477     -0.896648
  H       6.207054      1.041895     -1.667297
  C       4.006791     -3.915122      0.351028
  H       3.726253     -4.359605      1.318801
  H       5.106225     -3.947387      0.262521
  H       3.576300     -4.517193     -0.460439
  C       1.983008     -2.511696      0.323630
  H       1.524971     -2.696729      1.298937
  C       0.370074     -0.689445     -0.091787
  C       0.687450     -0.149582      1.262689
  O       0.050485     -0.789969      2.264066
  C       0.300307     -0.300384      3.578183
  H      -0.303207     -0.918076      4.255294
  H       1.368350     -0.388203      3.833368
  H       0.011521      0.758194      3.666557
  O       1.437352      0.781942      1.464957
  C      -0.752150     -1.427473     -0.273485
  H      -1.348272     -1.772727      0.572426
  H      -1.062113     -1.731155     -1.277301
  C       1.114143     -0.051353     -1.239697
  H       2.169104      0.124132     -1.001422
  H       0.673478      0.932923     -1.472380
  H       1.063636     -0.680799     -2.138430
  H       1.510308     -2.989373     -0.534574
  O       4.690664     -0.874988     -1.265926
44
Coordinates from ORCA-job orca E -886.366600655204
  O       3.447299     -2.474749     -2.120995
  C       3.879637     -1.942438     -1.130127
  C       3.494127     -2.452681      0.278105
  C       4.106391     -1.640362      1.445518
  H       3.416264     -1.662289      2.304282
  H       5.030887     -2.140881      1.780799
  C       4.449965     -0.205242      1.066284
  H       4.981571      0.282838      1.898349
  H       3.543213      0.388954      0.878818
  C       5.338671     -0.199692     -0.163383
  H       6.269790     -0.759697      0.051942
  C       5.703149      1.182542     -0.692091
  C       6.608691      1.992758      0.237743
  H       6.096007      2.174864      1.198293
  H       7.509244      1.398808      0.480917
  C       7.027976      3.331660     -0.369947
  H       7.677059      3.900849      0.314495
  H       6.148985      3.958279     -0.595945
  H       7.580522      3.186735     -1.313411
  H       4.769806      1.737658     -0.893113
  H       6.198861      1.044122     -1.667925
  C       4.002207     -3.923130      0.350995
  H       3.720829     -4.366530      1.319019
  H       5.101328     -3.960427      0.260916
  H       3.567774     -4.522752     -0.460129
  C       1.985496     -2.509370      0.326257
  H       1.525160     -2.689991      1.301202
  C       0.376720     -0.684305     -0.092914
  C       0.691203     -0.143779      1.262183
  O       0.050730     -0.782652      2.262051
  C       0.299603     -0.294328      3.576818
  H      -0.306840     -0.910589      4.252616
  H       1.366922     -0.385257      3.834001
  H       0.013683      0.765025      3.665199
  O       1.442040      0.786721      1.465443
  C      -0.746135     -1.421058     -0.276662
  H      -1.343586     -1.766558      0.568206
  H      -1.054470     -1.724611     -1.281026
  C       1.123568     -0.047439     -1.239387
  H       2.178648      0.126075     -1.000191
  H       0.684379      0.937736     -1.471370
  H       1.072592     -0.675403     -2.139145
  H       1.508113     -2.985010     -0.530429
  O       4.690074     -0.878616     -1.264980
44
Coordinates from ORCA-job orca E -886.366605686822
  O       3.452556     -2.483039     -2.120394
  C       3.882343     -1.948836     -1.129467
  C       3.496844     -2.458739      0.278732
  C       4.115035     -1.650216      1.445434
  H       3.430168     -1.677402      2.308295
  H       5.042619     -2.150449      1.772590
  C       4.453676     -0.213132      1.069343
  H       4.987259      0.273837      1.900821
  H       3.545095      0.379796      0.886726
  C       5.338217     -0.202304     -0.163323
  H       6.271873     -0.759558      0.048015
  C       5.695997      1.182009     -0.690986
  C       6.601026      1.994238      0.237650
  H       6.090127      2.173214      1.199724
  H       7.504342      1.403228      0.477707
  C       7.013849      3.335472     -0.369341
  H       7.662694      3.906102      0.314127
  H       6.131979      3.959185     -0.592134
  H       7.564399      3.193771     -1.314458
  H       4.760083      1.734015     -0.888556
  H       6.189543      1.046980     -1.668386
  C       3.997335     -3.931819      0.350311
  H       3.715448     -4.374449      1.318517
  H       5.096087     -3.974345      0.258180
  H       3.558465     -4.528506     -0.460559
  C       1.988265     -2.506855      0.329422
  H       1.527166     -2.681365      1.304968
  C       0.383449     -0.679346     -0.094260
  C       0.694816     -0.137346      1.261063
  O       0.052022     -0.775169      2.259856
  C       0.299034     -0.286672      3.574945
  H      -0.309041     -0.902185      4.249955
  H       1.365850     -0.378475      3.833939
  H       0.013930      0.772958      3.662537
  O       1.445450      0.793191      1.464849
  C      -0.739403     -1.415171     -0.279601
  H      -1.337963     -1.760726      0.564432
  H      -1.046000     -1.718870     -1.284473
  C       1.133142     -0.044089     -1.239296
  H       2.188211      0.127977     -0.998998
  H       0.695808      0.942062     -1.471110
  H       1.081776     -0.670484     -2.140137
  H       1.505864     -2.980857     -0.525222
  O       4.688714     -0.881841     -1.264154
44
Coordinates from ORCA-job orca E -886.366606027194
  O       3.460086     -2.494952     -2.119439
  C       3.886803     -1.958463     -1.128436
  C       3.501257     -2.468160      0.279663
  C       4.129080     -1.666090      1.445141
  H       3.452772     -1.701600      2.314534
  H       5.061434     -2.165821      1.759358
  C       4.459766     -0.225902      1.074184
  H       4.996291      0.259460      1.904749
  H       3.548272      0.364804      0.899007
  C       5.337770     -0.206394     -0.163152
  H       6.275543     -0.758965      0.042097
  C       5.684837      1.181394     -0.688675
  C       6.589127      1.996590      0.238158
  H       6.081306      2.170016      1.202867
  H       7.496966      1.410336      0.472738
  C       6.991243      3.341863     -0.367122
  H       7.639661      3.914610      0.314978
  H       6.104671      3.960838     -0.584390
  H       7.538469      3.205884     -1.315010
  H       4.744822      1.728452     -0.880423
  H       6.174765      1.052086     -1.668659
  C       3.988795     -3.945516      0.349133
  H       3.705178     -4.386816      1.317410
  H       5.086933     -3.997118      0.254518
  H       3.543152     -4.537236     -0.461647
  C       1.992563     -2.502448      0.333958
  H       1.531970     -2.667109      1.311333
  C       0.392947     -0.672036     -0.096795
  C       0.700874     -0.127707      1.258350
  O       0.055058     -0.763302      2.256413
  C       0.299716     -0.273336      3.571462
  H      -0.310422     -0.887262      4.246042
  H       1.365937     -0.366085      3.832626
  H       0.015657      0.786727      3.657005
  O       1.451716      0.802653      1.462404
  C      -0.729796     -1.406615     -0.283731
  H      -1.330210     -1.751064      0.559416
  H      -1.034115     -1.711100     -1.289080
  C       1.146861     -0.039803     -1.240255
  H       2.202127      0.128975     -0.998512
  H       0.713808      0.948282     -1.472378
  H       1.094043     -0.664614     -2.142149
  H       1.503268     -2.974883     -0.517425
  O       4.687149     -0.886784     -1.262987
44
Coordinates from ORCA-job orca E -886.366623162310
  O       3.469457     -2.510690     -2.118166
  C       3.892669     -1.971781     -1.126990
  C       3.507098     -2.481644      0.280909
  C       4.148194     -1.688940      1.444677
  H       3.483686     -1.735797      2.322765
  H       5.086673     -2.188067      1.741334
  C       4.468072     -0.244561      1.081209
  H       5.008576      0.238525      1.910559
  H       3.552593      0.342940      0.916272
  C       5.336939     -0.212544     -0.162541
  H       6.280567     -0.758182      0.034244
  C       5.668579      1.180305     -0.684435
  C       6.572232      1.999322      0.239709
  H       6.069726      2.163643      1.208768
  H       7.486986      1.420224      0.465046
  C       6.957565      3.351064     -0.362067
  H       7.605689      3.926560      0.317993
  H       6.063770      3.962858     -0.569881
  H       7.499007      3.224570     -1.314578
  H       4.722683      1.720290     -0.867120
  H       6.152703      1.059573     -1.668374
  C       3.976478     -3.964681      0.347058
  H       3.689986     -4.404349      1.315194
  H       5.073667     -4.028980      0.249510
  H       3.521859     -4.549213     -0.463929
  C       1.998254     -2.496739      0.339951
  H       1.539636     -2.647161      1.320441
  C       0.406371     -0.662023     -0.101017
  C       0.710736     -0.113791      1.253201
  O       0.061984     -0.746019      2.251416
  C       0.303954     -0.252394      3.565693
  H      -0.308161     -0.863824      4.240731
  H       1.369629     -0.345468      3.829061
  H       0.020645      0.808157      3.647380
  O       1.461609      0.816791      1.456589
  C      -0.716547     -1.394684     -0.289104
  H      -1.319553     -1.736218      0.553346
  H      -1.018345     -1.700924     -1.294688
  C       1.165805     -0.034784     -1.243143
  H       2.221275      0.129441     -0.999357
  H       0.739137      0.955761     -1.476999
  H       1.111133     -0.658953     -2.145424
  H       1.500029     -2.967868     -0.506709
  O       4.685102     -0.893955     -1.261252
44
Coordinates from ORCA-job orca E -886.366627532689
  O       3.455985     -2.501096     -2.118762
  C       3.885655     -1.967865     -1.127233
  C       3.505217     -2.483800      0.280222
  C       4.146703     -1.693034      1.444776
  H       3.482385     -1.740812      2.323002
  H       5.084955     -2.192161      1.742248
  C       4.465529     -0.248139      1.083354
  H       5.006168      0.234762      1.912666
  H       3.549669      0.338865      0.919117
  C       5.333158     -0.213162     -0.161509
  H       6.276984     -0.759103      0.033890
  C       5.664711      1.181187     -0.679441
  C       6.572013      1.996138      0.244590
  H       6.072850      2.156943      1.215956
  H       7.487184      1.415643      0.464724
  C       6.955843      3.349989     -0.353120
  H       7.606192      3.922681      0.327180
  H       6.061677      3.962937     -0.555956
  H       7.494254      3.227154     -1.307824
  H       4.718687      1.722650     -0.857301
  H       6.145552      1.063408     -1.665340
  C       3.979186     -3.965129      0.340129
  H       3.693818     -4.409683      1.306350
  H       5.076621     -4.025240      0.242936
  H       3.526985     -4.548076     -0.473465
  C       1.995475     -2.501689      0.342108
  H       1.545927     -2.644437      1.327989
  C       0.406954     -0.665201     -0.103587
  C       0.713532     -0.109991      1.246790
  O       0.078210     -0.746290      2.252011
  C       0.315644     -0.238832      3.562036
  H      -0.284549     -0.855199      4.243249
  H       1.383520     -0.312544      3.822266
  H       0.014961      0.817470      3.636245
  O       1.454190      0.830331      1.443506
  C      -0.715394     -1.399461     -0.286575
  H      -1.317338     -1.736406      0.558508
  H      -1.019048     -1.709432     -1.290410
  C       1.163424     -0.040718     -1.250065
  H       2.217634      0.130139     -1.005405
  H       0.734822      0.946592     -1.492955
  H       1.113356     -0.673408     -2.146519
  H       1.498593     -2.978890     -0.501833
  O       4.680255     -0.891300     -1.261271
44
Coordinates from ORCA-job orca E -886.366629406291
  O       3.468481     -2.513979     -2.118120
  C       3.892595     -1.976464     -1.126541
  C       3.509329     -2.489404      0.280916
  C       4.157657     -1.702668      1.444051
  H       3.500343     -1.756783      2.327215
  H       5.099545     -2.201262      1.730721
  C       4.470870     -0.255607      1.085982
  H       5.013577      0.226032      1.914719
  H       3.552879      0.329635      0.927091
  C       5.334306     -0.215402     -0.161494
  H       6.281062     -0.757458      0.030070
  C       5.658008      1.180751     -0.679562
  C       6.562439      1.999965      0.243624
  H       6.063102      2.159596      1.215108
  H       7.479922      1.423171      0.463656
  C       6.941162      3.354692     -0.355543
  H       7.589857      3.930313      0.323867
  H       6.044675      3.964206     -0.558403
  H       7.479572      3.232785     -1.310379
  H       4.709238      1.717746     -0.856157
  H       6.138394      1.065566     -1.666019
  C       3.971402     -3.974470      0.341974
  H       3.683756     -4.415684      1.309065
  H       5.068159     -4.043497      0.243213
  H       3.513408     -4.554433     -0.470351
  C       2.000025     -2.495993      0.344421
  H       1.546110     -2.635752      1.328712
  C       0.413605     -0.658413     -0.104236
  C       0.717139     -0.104558      1.247650
  O       0.073477     -0.737175      2.249315
  C       0.311695     -0.235210      3.561250
  H      -0.295657     -0.848143      4.239203
  H       1.378071     -0.318703      3.824752
  H       0.019990      0.823437      3.637646
  O       1.463138      0.830857      1.447100
  C      -0.709469     -1.391395     -0.290245
  H      -1.313192     -1.729278      0.553247
  H      -1.011045     -1.700926     -1.294903
  C       1.173789     -0.035129     -1.248394
  H       2.229005      0.130019     -1.003878
  H       0.748284      0.954591     -1.487423
  H       1.120356     -0.663899     -2.147511
  H       1.497415     -2.969927     -0.497975
  O       4.681671     -0.895959     -1.260155
44
Coordinates from ORCA-job orca E -886.366638849073
  O       3.477119     -2.525834     -2.117691
  C       3.897765     -1.986164     -1.125812
  C       3.513833     -2.498871      0.281360
  C       4.172092     -1.719284      1.443025
  H       3.524705     -1.782732      2.332973
  H       5.118675     -2.217214      1.715250
  C       4.477007     -0.268968      1.091168
  H       5.022727      0.210680      1.919106
  H       3.555840      0.313452      0.940328
  C       5.333629     -0.219321     -0.160714
  H       6.284750     -0.755850      0.024495
  C       5.645849      1.180398     -0.676151
  C       6.548349      2.003037      0.245951
  H       6.050999      2.158030      1.219197
  H       7.469715      1.431000      0.462121
  C       6.917878      3.360883     -0.351954
  H       7.565379      3.938894      0.326569
  H       6.017478      3.965803     -0.551180
  H       7.454229      3.243503     -1.308518
  H       4.692974      1.711716     -0.847663
  H       6.123374      1.071123     -1.664683
  C       3.961959     -3.988020      0.339915
  H       3.671838     -4.427723      1.306962
  H       5.057836     -4.067005      0.239153
  H       3.497321     -4.562622     -0.472364
  C       2.004688     -2.491321      0.348768
  H       1.550667     -2.622100      1.334224
  C       0.423435     -0.651055     -0.107066
  C       0.724811     -0.094257      1.244100
  O       0.078215     -0.723613      2.245758
  C       0.315315     -0.219812      3.557187
  H      -0.294293     -0.830431      4.235198
  H       1.381079     -0.304839      3.822699
  H       0.025474      0.839504      3.631350
  O       1.471983      0.840434      1.442527
  C      -0.700412     -1.382964     -0.293384
  H      -1.305839     -1.718539      0.549838
  H      -1.000682     -1.694547     -1.297820
  C       1.186594     -0.031682     -1.251193
  H       2.242348      0.129745     -1.006574
  H       0.764257      0.959237     -1.490926
  H       1.131199     -0.660857     -2.149968
  H       1.495217     -2.964877     -0.489661
  O       4.680772     -0.901148     -1.258623
44
Coordinates from ORCA-job orca E -886.366650175454
  O       3.485075     -2.536775     -2.117613
  C       3.902695     -1.995683     -1.125231
  C       3.518229     -2.508795      0.281463
  C       4.186809     -1.737144      1.441766
  H       3.550081     -1.810434      2.338707
  H       5.137965     -2.234676      1.698786
  C       4.483552     -0.283422      1.097105
  H       5.032658      0.193648      1.924318
  H       3.559104      0.296014      0.955160
  C       5.332819     -0.223427     -0.159348
  H       6.288670     -0.753813      0.018909
  C       5.632641      1.180200     -0.671484
  C       6.532607      2.006338      0.250044
  H       6.036807      2.156524      1.224821
  H       7.457834      1.439224      0.462734
  C       6.893070      3.367333     -0.346296
  H       7.538865      3.947798      0.331765
  H       5.988841      3.967522     -0.542458
  H       7.427961      3.254546     -1.304225
  H       4.675409      1.705241     -0.837811
  H       6.107477      1.077485     -1.662027
  C       3.952120     -4.001933      0.336397
  H       3.659385     -4.440562      1.303181
  H       5.046996     -4.091244      0.233639
  H       3.480742     -4.570701     -0.476034
  C       2.009212     -2.487193      0.353144
  H       1.554882     -2.609391      1.339567
  C       0.433774     -0.643874     -0.110427
  C       0.734130     -0.082860      1.239222
  O       0.085722     -0.708288      2.242039
  C       0.322310     -0.201030      3.552168
  H      -0.288785     -0.808954      4.231270
  H       1.387629     -0.286516      3.819342
  H       0.033664      0.858853      3.623130
  O       1.482285      0.851563      1.434952
  C      -0.691583     -1.374600     -0.295513
  H      -1.298560     -1.706332      0.548142
  H      -0.991546     -1.689496     -1.299006
  C       1.198655     -0.029592     -1.256197
  H       2.255019      0.128834     -1.012491
  H       0.778016      0.961478     -1.497955
  H       1.141491     -0.661575     -2.152946
  H       1.493308     -2.961950     -0.480721
  O       4.680117     -0.906552     -1.256705
44
Coordinates from ORCA-job orca E -886.366654406040
  O       3.488705     -2.541587     -2.118689
  C       3.905510     -2.001993     -1.125156
  C       3.521249     -2.517964      0.280413
  C       4.199224     -1.755239      1.440358
  H       3.572588     -1.837578      2.343606
  H       5.153705     -2.253910      1.683292
  C       4.490430     -0.298285      1.104597
  H       5.043672      0.174360      1.931568
  H       3.563215      0.278869      0.972615
  C       5.332164     -0.227016     -0.156167
  H       6.292973     -0.750923      0.014357
  C       5.619358      1.181136     -0.663364
  C       6.516445      2.009592      0.258960
  H       6.021472      2.154668      1.234897
  H       7.444953      1.446678      0.468694
  C       6.869529      3.373799     -0.334497
  H       7.513327      3.955715      0.344221
  H       5.962250      3.970129     -0.528276
  H       7.403947      3.265752     -1.293233
  H       4.657740      1.699767     -0.824286
  H       6.091888      1.086052     -1.655807
  C       3.943508     -4.014129      0.328213
  H       3.648658     -4.453928      1.293952
  H       5.037407     -4.112382      0.223542
  H       3.466370     -4.576650     -0.485117
  C       2.011810     -2.486039      0.356852
  H       1.556589     -2.603111      1.343605
  C       0.442578     -0.639527     -0.114986
  C       0.746189     -0.070359      1.230592
  O       0.100401     -0.690175      2.238648
  C       0.338523     -0.174251      3.544930
  H      -0.270949     -0.778690      4.228638
  H       1.404070     -0.256074      3.812209
  H       0.048269      0.885645      3.609766
  O       1.494499      0.865449      1.418069
  C      -0.686383     -1.369086     -0.293420
  H      -1.293973     -1.692333      0.553153
  H      -0.989559     -1.691127     -1.293632
  C       1.204435     -0.033743     -1.268069
  H       2.261600      0.125564     -1.028852
  H       0.779788      0.953683     -1.516321
  H       1.146573     -0.676165     -2.157326
  H       1.492890     -2.967781     -0.471555
  O       4.680512     -0.911021     -1.253713
44
Coordinates from ORCA-job orca E -886.366668277875
  O       3.497550     -2.553922     -2.118532
  C       3.910692     -2.012273     -1.124606
  C       3.525548     -2.527986      0.280627
  C       4.212990     -1.772575      1.438935
  H       3.595607     -1.864238      2.347792
  H       5.171503     -2.270002      1.668114
  C       4.495748     -0.312582      1.109583
  H       5.051548      0.158280      1.935874
  H       3.565583      0.261830      0.985080
  C       5.330988     -0.231644     -0.155118
  H       6.295921     -0.749744      0.009465
  C       5.606307      1.179938     -0.659271
  C       6.501761      2.011766      0.261628
  H       6.009967      2.150719      1.240060
  H       7.434884      1.454500      0.465719
  C       6.843096      3.379985     -0.329490
  H       7.486015      3.964281      0.348016
  H       5.930972      3.970742     -0.517481
  H       7.373924      3.278227     -1.290918
  H       4.640543      1.692665     -0.814247
  H       6.075080      1.091222     -1.654090
  C       3.933571     -4.027906      0.326634
  H       3.636161     -4.466064      1.292299
  H       5.026341     -4.135859      0.220083
  H       3.450169     -4.584798     -0.486773
  C       2.016915     -2.481340      0.360649
  H       1.563072     -2.588123      1.349202
  C       0.453036     -0.632132     -0.118351
  C       0.755143     -0.059520      1.226072
  O       0.106882     -0.675573      2.234664
  C       0.344745     -0.157190      3.540079
  H      -0.266623     -0.758747      4.224611
  H       1.409949     -0.240880      3.808276
  H       0.056791      0.903462      3.602226
  O       1.504984      0.875478      1.412082
  C      -0.676476     -1.360222     -0.296354
  H      -1.285335     -1.680860      0.550335
  H      -0.978655     -1.684158     -1.296314
  C       1.218406     -0.030878     -1.271065
  H       2.275871      0.125055     -1.031028
  H       0.798238      0.958272     -1.520565
  H       1.158534     -0.672904     -2.160593
  H       1.490829     -2.961892     -0.463764
  O       4.679377     -0.916618     -1.252270
44
Coordinates from ORCA-job orca E -886.366679506962
  O       3.501740     -2.561336     -2.118572
  C       3.912903     -2.019327     -1.124062
  C       3.527398     -2.535952      0.280725
  C       4.220120     -1.785476      1.438683
  H       3.604426     -1.880616      2.348379
  H       5.179500     -2.283011      1.662982
  C       4.500023     -0.324203      1.113416
  H       5.058029      0.144451      1.939509
  H       3.569828      0.251236      0.993410
  C       5.330732     -0.236550     -0.154123
  H       6.298168     -0.751181      0.006074
  C       5.597056      1.177805     -0.655106
  C       6.494569      2.010699      0.262662
  H       6.010521      2.139692      1.246350
  H       7.433745      1.459518      0.454758
  C       6.818840      3.385488     -0.322677
  H       7.463822      3.970580      0.352196
  H       5.899928      3.969858     -0.497193
  H       7.340402      3.294750     -1.290277
  H       4.627884      1.686767     -0.801211
  H       6.059115      1.095250     -1.653540
  C       3.927388     -4.038112      0.326184
  H       3.628444     -4.476295      1.291183
  H       5.019631     -4.150355      0.218840
  H       3.441351     -4.590848     -0.488480
  C       2.019570     -2.479768      0.361550
  H       1.569420     -2.578031      1.352737
  C       0.459868     -0.628200     -0.121927
  C       0.762453     -0.051583      1.220591
  O       0.113546     -0.663471      2.231198
  C       0.352320     -0.141075      3.535168
  H      -0.259715     -0.739028      4.222175
  H       1.417735     -0.226455      3.801971
  H       0.066676      0.920323      3.593491
  O       1.513859      0.882854      1.404726
  C      -0.669472     -1.353742     -0.297525
  H      -1.278196     -1.671571      0.550304
  H      -0.971666     -1.678404     -1.297372
  C       1.229050     -0.031961     -1.273860
  H       2.285945      0.124972     -1.031166
  H       0.814339      0.958897     -1.527289
  H       1.168975     -0.672168     -2.164721
  H       1.489964     -2.957971     -0.461623
  O       4.677918     -0.920658     -1.251257
44
Coordinates from ORCA-job orca E -886.366687623493
  O       3.508467     -2.571314     -2.119485
  C       3.917015     -2.029124     -1.124003
  C       3.531196     -2.547308      0.279978
  C       4.234123     -1.805853      1.436849
  H       3.628427     -1.910249      2.352284
  H       5.196775     -2.303668      1.646942
  C       4.507336     -0.341443      1.120400
  H       5.069600      0.123397      1.945793
  H       3.574276      0.231408      1.010685
  C       5.329454     -0.241811     -0.151872
  H       6.302087     -0.749087      0.000177
  C       5.581245      1.177081     -0.647603
  C       6.476084      2.013051      0.270058
  H       5.994932      2.134384      1.256108
  H       7.420132      1.468126      0.456270
  C       6.787999      3.392513     -0.310955
  H       7.431262      3.979606      0.363815
  H       5.864219      3.970869     -0.479714
  H       7.306573      3.309402     -1.280839
  H       4.607140      1.678503     -0.786656
  H       6.039408      1.103056     -1.648511
  C       3.917379     -4.052789      0.320077
  H       3.615854     -4.491022      1.284301
  H       5.008340     -4.174829      0.210713
  H       3.425154     -4.598848     -0.495365
  C       2.023739     -2.477358      0.365352
  H       1.574018     -2.566896      1.357558
  C       0.471468     -0.621804     -0.126685
  C       0.775891     -0.037772      1.212235
  O       0.127649     -0.643430      2.227045
  C       0.367761     -0.113500      3.527667
  H      -0.244206     -0.707100      4.218529
  H       1.433214     -0.197731      3.794646
  H       0.082616      0.948373      3.580021
  O       1.528092      0.897293      1.389674
  C      -0.660668     -1.345292     -0.297446
  H      -1.270143     -1.656089      0.552430
  H      -0.964716     -1.675363     -1.294906
  C       1.240492     -0.033686     -1.283130
  H       2.297804      0.122543     -1.042560
  H       0.825780      0.955606     -1.542038
  H       1.179169     -0.680478     -2.169129
  H       1.488530     -2.958708     -0.452514
  O       4.677182     -0.926867     -1.248920
44
Coordinates from ORCA-job orca E -886.366707217730
  O       3.512761     -2.579997     -2.122288
  C       3.919769     -2.040781     -1.124576
  C       3.534509     -2.564187      0.277617
  C       4.250126     -1.836170      1.434703
  H       3.653670     -1.948618      2.355228
  H       5.213943     -2.338115      1.630852
  C       4.520891     -0.368556      1.132068
  H       5.091918      0.087465      1.956387
  H       3.586172      0.203994      1.039206
  C       5.328626     -0.250605     -0.147687
  H       6.309091     -0.746913     -0.009894
  C       5.557579      1.176055     -0.632537
  C       6.450441      2.014165      0.285167
  H       5.977415      2.118427      1.277023
  H       7.403421      1.479793      0.456511
  C       6.738449      3.403754     -0.283592
  H       7.380723      3.991823      0.391258
  H       5.805681      3.971878     -0.437030
  H       7.248394      3.338109     -1.259373
  H       4.575612      1.665815     -0.756882
  H       6.007124      1.117508     -1.638358
  C       3.905851     -4.072962      0.306414
  H       3.601187     -4.514551      1.268213
  H       4.995319     -4.205384      0.194739
  H       3.407324     -4.609188     -0.511827
  C       2.026661     -2.479180      0.368487
  H       1.577870     -2.559500      1.361894
  C       0.486746     -0.616479     -0.135234
  C       0.799476     -0.016312      1.194673
  O       0.156844     -0.608676      2.221226
  C       0.401992     -0.060125      3.513087
  H      -0.207320     -0.644063      4.214513
  H       1.468286     -0.139901      3.777819
  H       0.116387      1.002290      3.551274
  O       1.552294      0.921166      1.355438
  C      -0.651727     -1.335034     -0.292214
  H      -1.260589     -1.629872      0.563651
  H      -0.962667     -1.676237     -1.283622
  C       1.251551     -0.045354     -1.303814
  H       2.309030      0.115843     -1.068574
  H       0.832719      0.937748     -1.578018
  H       1.190270     -0.709075     -2.176985
  H       1.488050     -2.968744     -0.442715
  O       4.676281     -0.935466     -1.244948
44
Coordinates from ORCA-job orca E -886.366719759905
  O       3.525356     -2.598234     -2.123743
  C       3.926860     -2.057424     -1.124710
  C       3.540451     -2.582117      0.276486
  C       4.270725     -1.867132      1.431263
  H       3.686767     -1.992213      2.358237
  H       5.238366     -2.368825      1.608254
  C       4.531816     -0.395386      1.140908
  H       5.109003      0.055411      1.963825
  H       3.593962      0.174592      1.062251
  C       5.326545     -0.259741     -0.145483
  H       6.314046     -0.744967     -0.019539
  C       5.533056      1.173200     -0.621942
  C       6.423747      2.015664      0.293870
  H       5.959524      2.104487      1.291387
  H       7.385741      1.493175      0.450672
  C       6.686148      3.414139     -0.265258
  H       7.327362      4.005161      0.408042
  H       5.743889      3.970383     -0.403518
  H       7.186351      3.364555     -1.247031
  H       4.543797      1.651378     -0.732737
  H       5.973651      1.128162     -1.632395
  C       3.889763     -4.095802      0.300532
  H       3.580904     -4.536146      1.261496
  H       4.976999     -4.242843      0.185954
  H       3.382305     -4.621961     -0.518670
  C       2.034433     -2.474289      0.373144
  H       1.589660     -2.537847      1.369634
  C       0.504948     -0.606251     -0.142453
  C       0.819904      0.004244      1.182142
  O       0.176617     -0.577912      2.214018
  C       0.424016     -0.019206      3.501278
  H      -0.186722     -0.595228      4.207958
  H       1.490262     -0.100438      3.765682
  H       0.141897      1.044372      3.530461
  O       1.575720      0.940904      1.334787
  C      -0.636190     -1.320701     -0.292914
  H      -1.245445     -1.606460      0.565802
  H      -0.949016     -1.667902     -1.281720
  C       1.272733     -0.047612     -1.314629
  H       2.330507      0.111680     -1.079725
  H       0.859420      0.935801     -1.596576
  H       1.208659     -0.716050     -2.184139
  H       1.485563     -2.963627     -0.431112
  O       4.674049     -0.945208     -1.242508
44
Coordinates from ORCA-job orca E -886.366719392573
  O       3.523332     -2.594805     -2.124778
  C       3.925377     -2.055386     -1.125228
  C       3.539639     -2.582356      0.275522
  C       4.269487     -1.868056      1.431491
  H       3.680458     -1.987401      2.355897
  H       5.233692     -2.373983      1.614027
  C       4.538123     -0.397753      1.141546
  H       5.119026      0.049208      1.963874
  H       3.603860      0.176935      1.065153
  C       5.329348     -0.260659     -0.146654
  H       6.316984     -0.746613     -0.024805
  C       5.534064      1.174015     -0.619322
  C       6.429986      2.012747      0.294662
  H       5.974192      2.092272      1.296885
  H       7.395103      1.492566      0.439177
  C       6.681809      3.416473     -0.255701
  H       7.326650      4.004782      0.416530
  H       5.736110      3.969910     -0.381080
  H       7.173299      3.376980     -1.242341
  H       4.544082      1.652477     -0.721752
  H       5.968559      1.132889     -1.632532
  C       3.891744     -4.095519      0.298242
  H       3.583247     -4.537731      1.258392
  H       4.979312     -4.240211      0.183889
  H       3.385741     -4.621417     -0.522064
  C       2.032478     -2.477528      0.370358
  H       1.589890     -2.542154      1.367902
  C       0.500868     -0.610692     -0.143277
  C       0.819332      0.004488      1.178014
  O       0.177801     -0.572786      2.213906
  C       0.426780     -0.007427      3.498175
  H      -0.184304     -0.578690      4.208388
  H       1.493136     -0.089145      3.761728
  H       0.146353      1.056691      3.521385
  O       1.575746      0.941247      1.326406
  C      -0.640647     -1.323855     -0.288113
  H      -1.247889     -1.605528      0.573402
  H      -0.956077     -1.673430     -1.275301
  C       1.267479     -0.057161     -1.318666
  H       2.325214      0.106183     -1.084006
  H       0.854688      0.924746     -1.607126
  H       1.203689     -0.728943     -2.185409
  H       1.486986     -2.966193     -0.436470
  O       4.673401     -0.943395     -1.243045
44
Coordinates from ORCA-job orca E -886.366722829232
  O       3.529287     -2.602288     -2.125591
  C       3.928830     -2.061924     -1.125558
  C       3.542546     -2.588963      0.274831
  C       4.278475     -1.879902      1.429617
  H       3.696715     -2.006068      2.357753
  H       5.245157     -2.384892      1.602220
  C       4.541498     -0.407511      1.145078
  H       5.124329      0.037960      1.966870
  H       3.604719      0.164362      1.074567
  C       5.327824     -0.263423     -0.145449
  H       6.318348     -0.744560     -0.027908
  C       5.524158      1.173326     -0.615349
  C       6.417462      2.014486      0.299068
  H       5.962065      2.091097      1.301676
  H       7.384707      1.497835      0.442298
  C       6.663854      3.419708     -0.250014
  H       7.306768      4.009735      0.422553
  H       5.716090      3.969772     -0.374577
  H       7.155222      3.382881     -1.236813
  H       4.531635      1.647053     -0.715155
  H       5.957363      1.136462     -1.629287
  C       3.885184     -4.104057      0.294966
  H       3.574970     -4.545413      1.255004
  H       4.971642     -4.255707      0.179164
  H       3.374915     -4.625991     -0.525207
  C       2.036279     -2.474856      0.373122
  H       1.593908     -2.533561      1.371049
  C       0.508698     -0.606107     -0.145532
  C       0.827732      0.012530      1.174117
  O       0.185602     -0.561330      2.211535
  C       0.434761      0.007326      3.494220
  H      -0.176982     -0.561633      4.205735
  H       1.500884     -0.074188      3.758781
  H       0.154951      1.071692      3.514597
  O       1.585152      0.949012      1.319280
  C      -0.634336     -1.318398     -0.288578
  H      -1.242170     -1.596756      0.573548
  H      -0.950374     -1.670864     -1.274495
  C       1.275362     -0.056809     -1.322973
  H       2.333540      0.103904     -1.089975
  H       0.863228      0.924841     -1.612801
  H       1.209628     -0.731531     -2.187335
  H       1.485772     -2.964350     -0.429861
  O       4.672752     -0.947112     -1.241909
44
Coordinates from ORCA-job orca E -886.366729006377
  O       3.538624     -2.613195     -2.127727
  C       3.934042     -2.072093     -1.126484
  C       3.547088     -2.600595      0.272960
  C       4.293102     -1.901073      1.426320
  H       3.720979     -2.036404      2.359193
  H       5.262293     -2.406129      1.584611
  C       4.549703     -0.425794      1.151426
  H       5.137202      0.015401      1.972199
  H       3.610403      0.143440      1.091641
  C       5.326337     -0.268771     -0.143570
  H       6.321662     -0.742034     -0.035063
  C       5.507434      1.172308     -0.606573
  C       6.399023      2.015748      0.307487
  H       5.949182      2.082142      1.313321
  H       7.371663      1.506795      0.441553
  C       6.629702      3.426383     -0.234466
  H       7.271326      4.018042      0.437909
  H       5.676369      3.968684     -0.350158
  H       7.115605      3.399874     -1.224307
  H       4.510299      1.638051     -0.697343
  H       5.934972      1.144861     -1.623201
  C       3.874732     -4.118683      0.288315
  H       3.561858     -4.559499      1.247759
  H       4.959362     -4.281006      0.170028
  H       3.357922     -4.633527     -0.532196
  C       2.042127     -2.471752      0.376206
  H       1.602043     -2.520178      1.375663
  C       0.519953     -0.600745     -0.150144
  C       0.842359      0.026582      1.164553
  O       0.200365     -0.538361      2.206967
  C       0.451492      0.039655      3.485045
  H      -0.161422     -0.522288      4.201117
  H       1.517438     -0.042339      3.750161
  H       0.174224      1.104819      3.497238
  O       1.602366      0.962254      1.301577
  C      -0.625643     -1.310760     -0.286485
  H      -1.233049     -1.581093      0.578482
  H      -0.944351     -1.669533     -1.269250
  C       1.286075     -0.061830     -1.332761
  H       2.345054      0.096621     -1.102831
  H       0.875942      0.918862     -1.628381
  H       1.216726     -0.742815     -2.191964
  H       1.484413     -2.961831     -0.421417
  O       4.671152     -0.952400     -1.240128
44
Coordinates from ORCA-job orca E -886.366741760173
  O       3.550228     -2.627392     -2.130839
  C       3.940428     -2.086070     -1.127714
  C       3.552671     -2.617171      0.270264
  C       4.312289     -1.931054      1.421780
  H       3.752434     -2.078459      2.360296
  H       5.284263     -2.436434      1.561391
  C       4.560844     -0.452026      1.160529
  H       5.154881     -0.017018      1.979898
  H       3.618608      0.114109      1.115537
  C       5.324012     -0.276778     -0.140298
  H       6.325862     -0.738740     -0.044201
  C       5.483259      1.170298     -0.592921
  C       6.372750      2.016727      0.320454
  H       5.932173      2.067111      1.331307
  H       7.353445      1.519672      0.439773
  C       6.578867      3.435589     -0.209674
  H       7.219065      4.029341      0.462226
  H       5.617131      3.965845     -0.310592
  H       7.055229      3.425496     -1.204452
  H       4.479653      1.624404     -0.669983
  H       5.901851      1.156723     -1.613531
  C       3.860251     -4.138996      0.278742
  H       3.543702     -4.579634      1.237076
  H       4.942321     -4.315222      0.157199
  H       3.335099     -4.643765     -0.542679
  C       2.049737     -2.468260      0.380046
  H       1.613733     -2.502140      1.381878
  C       0.535812     -0.593776     -0.157602
  C       0.864600      0.046904      1.149010
  O       0.224285     -0.504467      2.199729
  C       0.480011      0.087773      3.470395
  H      -0.133618     -0.463419      4.194178
  H       1.546090      0.005000      3.734658
  H       0.206590      1.153994      3.470387
  O       1.628427      0.981446      1.272952
  C      -0.613652     -1.299854     -0.282678
  H      -1.219766     -1.557631      0.587009
  H      -0.937175     -1.667927     -1.260413
  C       1.300472     -0.070860     -1.348313
  H       2.360341      0.086355     -1.122967
  H       0.892685      0.907743     -1.653842
  H       1.226583     -0.761497     -2.199474
  H       1.482749     -2.960004     -0.409973
  O       4.668928     -0.960146     -1.237288
44
Coordinates from ORCA-job orca E -886.366784979678
  O       3.567200     -2.647909     -2.135979
  C       3.949670     -2.107003     -1.129730
  C       3.560409     -2.642222      0.265841
  C       4.339611     -1.976331      1.414597
  H       3.797754     -2.142118      2.360666
  H       5.315308     -2.481587      1.526703
  C       4.575861     -0.491861      1.174384
  H       5.178947     -0.065798      1.991842
  H       3.629144      0.069052      1.150961
  C       5.319522     -0.289072     -0.134079
  H       6.330864     -0.733197     -0.055553
  C       5.445458      1.166405     -0.570579
  C       6.330595      2.017916      0.342340
  H       5.903827      2.044160      1.360012
  H       7.323094      1.539919      0.440157
  C       6.499062      3.448398     -0.169383
  H       7.136364      4.045727      0.502117
  H       5.524960      3.959383     -0.248584
  H       6.960973      3.463095     -1.170907
  H       4.432410      1.602014     -0.627750
  H       5.850846      1.173765     -1.596545
  C       3.838226     -4.169017      0.263966
  H       3.516178     -4.609451      1.220570
  H       4.916173     -4.365687      0.137581
  H       3.301053     -4.658558     -0.558826
  C       2.061208     -2.463376      0.385382
  H       1.632127     -2.475225      1.390671
  C       0.560492     -0.583399     -0.169832
  C       0.901242      0.078141      1.123262
  O       0.265016     -0.451422      2.187636
  C       0.530384      0.162640      3.445965
  H      -0.083357     -0.371239      4.182522
  H       1.597051      0.077989      3.707146
  H       0.263524      1.230348      3.427334
  O       1.671568      1.010290      1.225529
  C      -0.595303     -1.282671     -0.275888
  H      -1.198520     -1.520119      0.601560
  H      -0.927558     -1.665267     -1.245076
  C       1.321357     -0.086188     -1.373936
  H       2.382530      0.070107     -1.156922
  H       0.916243      0.888394     -1.695342
  H       1.240261     -0.792456     -2.211676
  H       1.480436     -2.958489     -0.392453
  O       4.665938     -0.972291     -1.232428
44
Coordinates from ORCA-job orca E -886.366835814791
  O       3.576765     -2.657757     -2.140047
  C       3.954590     -2.118790     -1.131074
  C       3.564421     -2.658391      0.262284
  C       4.355751     -2.006349      1.409982
  H       3.824928     -2.184413      2.360194
  H       5.333377     -2.511443      1.504390
  C       4.584599     -0.518580      1.184598
  H       5.192943     -0.098726      2.001357
  H       3.635580      0.038581      1.174396
  C       5.316156     -0.296920     -0.127810
  H       6.333247     -0.729402     -0.060171
  C       5.420314      1.163937     -0.552318
  C       6.302240      2.018462      0.360875
  H       5.885047      2.028111      1.382810
  H       7.302416      1.553872      0.444086
  C       6.444863      3.456455     -0.137473
  H       7.079895      4.056168      0.534071
  H       5.462599      3.953686     -0.201918
  H       6.896708      3.488285     -1.143174
  H       4.401340      1.586999     -0.596157
  H       5.816883      1.185667     -1.581500
  C       3.824614     -4.187760      0.252181
  H       3.499381     -4.629395      1.207156
  H       4.899903     -4.396410      0.122491
  H       3.280449     -4.667053     -0.572012
  C       2.067711     -2.461417      0.388120
  H       1.644171     -2.459031      1.395813
  C       0.575034     -0.578712     -0.179385
  C       0.927640      0.099162      1.101983
  O       0.296939     -0.413026      2.178057
  C       0.573185      0.217617      3.425816
  H      -0.039144     -0.302150      4.173561
  H       1.640911      0.130421      3.681934
  H       0.312228      1.286432      3.393293
  O       1.703078      1.028999      1.186082
  C      -0.585403     -1.272811     -0.268193
  H      -1.184681     -1.494031      0.616190
  H      -0.926048     -1.667025     -1.229786
  C       1.330051     -0.101799     -1.395503
  H       2.392637      0.056170     -1.187178
  H       0.924755      0.868344     -1.729842
  H       1.243071     -0.820982     -2.221602
  H       1.478717     -2.959979     -0.381320
  O       4.664289     -0.979225     -1.227978
44
Coordinates from ORCA-job orca E -886.366882694847
  O       3.582519     -2.662752     -2.142711
  C       3.957334     -2.125458     -1.131776
  C       3.566584     -2.668511      0.259911
  C       4.365734     -2.025663      1.407071
  H       3.842223     -2.212335      2.359739
  H       5.344630     -2.530329      1.489462
  C       4.589868     -0.535865      1.191718
  H       5.201259     -0.120040      2.008254
  H       3.639617      0.018606      1.189487
  C       5.313799     -0.301674     -0.122873
  H       6.334309     -0.726922     -0.061898
  C       5.404182      1.162472     -0.539188
  C       6.283492      2.018946      0.374677
  H       5.871902      2.018348      1.398928
  H       7.288372      1.563114      0.449312
  C       6.409885      3.461391     -0.115226
  H       7.042941      4.062828      0.556656
  H       5.422568      3.949567     -0.171073
  H       6.855853      3.503841     -1.123143
  H       4.381559      1.577300     -0.574880
  H       5.795523      1.193541     -1.570119
  C       3.816093     -4.199279      0.243925
  H       3.489090     -4.642240      1.197677
  H       4.889675     -4.415065      0.111872
  H       3.267632     -4.671792     -0.581326
  C       2.071464     -2.460309      0.389963
  H       1.651847     -2.448206      1.399266
  C       0.583500     -0.576515     -0.186241
  C       0.945173      0.112887      1.086309
  O       0.319030     -0.386900      2.170821
  C       0.604438      0.254436      3.411080
  H      -0.006930     -0.254915      4.166735
  H       1.672905      0.163917      3.662972
  H       0.348886      1.324219      3.369416
  O       1.724114      1.040914      1.157217
  C      -0.579857     -1.267182     -0.261952
  H      -1.175517     -1.477098      0.627635
  H      -0.926893     -1.669770     -1.217787
  C       1.333283     -0.113967     -1.411188
  H       2.397094      0.045782     -1.209820
  H       0.927104      0.852688     -1.754521
  H       1.241786     -0.842112     -2.228846
  H       1.476877     -2.961075     -0.373720
  O       4.663206     -0.983032     -1.224538
44
Coordinates from ORCA-job orca E -886.366936412628
  O       3.584243     -2.658361     -2.144495
  C       3.957010     -2.124229     -1.131225
  C       3.566444     -2.673552      0.258135
  C       4.372482     -2.038575      1.405793
  H       3.855710     -2.234904      2.360233
  H       5.352899     -2.541686      1.475267
  C       4.593859     -0.547856      1.199372
  H       5.206244     -0.135347      2.016820
  H       3.644881      0.003306      1.200263
  C       5.312840     -0.302878     -0.115905
  H       6.334328     -0.726112     -0.058820
  C       5.396316      1.163611     -0.524500
  C       6.273457      2.020360      0.391093
  H       5.863831      2.014786      1.416133
  H       7.280864      1.569561      0.462017
  C       6.391196      3.465256     -0.094493
  H       7.021996      4.068217      0.578180
  H       5.400842      3.947622     -0.147026
  H       6.835260      3.513041     -1.102949
  H       4.371877      1.574003     -0.555226
  H       5.785572      1.201359     -1.555988
  C       3.812103     -4.204667      0.234875
  H       3.485811     -4.651584      1.186977
  H       4.884841     -4.422709      0.099592
  H       3.261087     -4.671722     -0.591808
  C       2.071125     -2.460159      0.392089
  H       1.655632     -2.438897      1.403254
  C       0.582055     -0.580165     -0.193588
  C       0.954654      0.122172      1.067815
  O       0.335422     -0.364584      2.161969
  C       0.635096      0.284921      3.394655
  H       0.024305     -0.212065      4.158934
  H       1.704375      0.185380      3.639911
  H       0.389799      1.356715      3.345584
  O       1.736226      1.048458      1.124099
  C      -0.582134     -1.269580     -0.251767
  H      -1.170781     -1.468931      0.644979
  H      -0.936982     -1.682424     -1.200410
  C       1.322577     -0.132188     -1.429238
  H       2.389323      0.032414     -1.237230
  H       0.912695      0.829737     -1.781847
  H       1.224975     -0.868718     -2.237973
  H       1.471497     -2.962185     -0.366595
  O       4.662294     -0.981053     -1.219673
44
Coordinates from ORCA-job orca E -886.366980838116
  O       3.587904     -2.661442     -2.147677
  C       3.958536     -2.129681     -1.132363
  C       3.567927     -2.682946      0.255185
  C       4.380511     -2.056900      1.402587
  H       3.870443     -2.262210      2.358714
  H       5.362186     -2.559161      1.460711
  C       4.596296     -0.564088      1.206844
  H       5.210931     -0.155182      2.024416
  H       3.644239     -0.015980      1.215459
  C       5.308696     -0.306811     -0.110093
  H       6.333396     -0.723061     -0.058820
  C       5.379547      1.162599     -0.510183
  C       6.252626      2.020624      0.408133
  H       5.845779      2.006028      1.434200
  H       7.263740      1.577381      0.473778
  C       6.357724      3.469230     -0.069347
  H       6.985261      4.073341      0.605341
  H       5.363382      3.943810     -0.116804
  H       6.799062      3.526289     -1.078526
  H       4.351810      1.565021     -0.535012
  H       5.765656      1.209519     -1.542464
  C       3.804492     -4.215043      0.225115
  H       3.477348     -4.664119      1.175926
  H       4.875582     -4.438994      0.086752
  H       3.249250     -4.675477     -0.602455
  C       2.074808     -2.460009      0.394503
  H       1.663813     -2.428209      1.407085
  C       0.590065     -0.579723     -0.201136
  C       0.973739      0.135990      1.049536
  O       0.361951     -0.337378      2.153853
  C       0.673723      0.323653      3.377326
  H       0.065078     -0.161362      4.150963
  H       1.743935      0.220019      3.616807
  H       0.434623      1.396334      3.318274
  O       1.757833      1.061357      1.089071
  C      -0.577012     -1.265878     -0.243695
  H      -1.160374     -1.453148      0.659048
  H      -0.939605     -1.688183     -1.185237
  C       1.322983     -0.147529     -1.446820
  H       2.389926      0.019585     -1.263483
  H       0.910716      0.809907     -1.808717
  H       1.220544     -0.894260     -2.245853
  H       1.469002     -2.964457     -0.357600
  O       4.660078     -0.983667     -1.216061
44
Coordinates from ORCA-job orca E -886.367059096342
  O       3.593823     -2.665090     -2.151670
  C       3.960683     -2.136254     -1.133486
  C       3.569988     -2.695496      0.251356
  C       4.392832     -2.082311      1.397886
  H       3.893580     -2.301493      2.356622
  H       5.376356     -2.582881      1.438295
  C       4.601516     -0.586513      1.217374
  H       5.220043     -0.183092      2.034685
  H       3.646923     -0.042227      1.236824
  C       5.303299     -0.311462     -0.101975
  H       6.332284     -0.718038     -0.059594
  C       5.356322      1.161921     -0.489534
  C       6.223016      2.021419      0.433527
  H       5.818745      1.994899      1.460373
  H       7.238869      1.588264      0.493450
  C       6.312072      3.474764     -0.032880
  H       6.934326      4.080254      0.645463
  H       5.312632      3.938959     -0.075118
  H       6.751169      3.544106     -1.042264
  H       4.324072      1.552801     -0.506634
  H       5.738621      1.222119     -1.522553
  C       3.792998     -4.228972      0.211408
  H       3.464499     -4.681138      1.160300
  H       4.861588     -4.461618      0.068477
  H       3.231590     -4.679515     -0.617437
  C       2.079797     -2.459040      0.398459
  H       1.675049     -2.411571      1.412832
  C       0.599609     -0.579947     -0.212101
  C       0.999517      0.154774      1.022424
  O       0.398321     -0.298565      2.140948
  C       0.728638      0.377918      3.350989
  H       0.121958     -0.088347      4.137610
  H       1.799707      0.265614      3.582696
  H       0.501007      1.452170      3.277541
  O       1.787974      1.077280      1.038650
  C      -0.570913     -1.261451     -0.230944
  H      -1.145549     -1.431366      0.680764
  H      -0.945133     -1.697739     -1.161508
  C       1.320807     -0.171260     -1.472457
  H       2.388931     -0.001065     -1.302197
  H       0.904988      0.779460     -1.847778
  H       1.210665     -0.932438     -2.256828
  H       1.464360     -2.965839     -0.344088
  O       4.656566     -0.986206     -1.210629
44
Coordinates from ORCA-job orca E -886.367164992569
  O       3.605887     -2.675689     -2.157850
  C       3.965628     -2.150554     -1.135303
  C       3.573799     -2.717273      0.245704
  C       4.412350     -2.123669      1.390320
  H       3.929151     -2.362690      2.352609
  H       5.398025     -2.621409      1.405224
  C       4.610048     -0.623687      1.232775
  H       5.235020     -0.228819      2.049291
  H       3.652508     -0.085232      1.269603
  C       5.294694     -0.321011     -0.090018
  H       6.330876     -0.709928     -0.061429
  C       5.316507      1.157996     -0.458787
  C       6.173176      2.022160      0.469313
  H       5.776131      1.975810      1.498262
  H       7.197496      1.607788      0.517561
  C       6.231586      3.482528      0.020171
  H       6.846069      4.091717      0.702321
  H       5.223089      3.927622     -0.010828
  H       6.663390      3.572452     -0.990720
  H       4.276692      1.528348     -0.462103
  H       5.690156      1.239052     -1.493553
  C       3.773696     -4.252865      0.192814
  H       3.441342     -4.708006      1.138937
  H       4.838147     -4.500391      0.044334
  H       3.203370     -4.688235     -0.638013
  C       2.089047     -2.456394      0.403382
  H       1.694119     -2.385603      1.420220
  C       0.620361     -0.575039     -0.227645
  C       1.044397      0.184352      0.983874
  O       0.456063     -0.238641      2.120972
  C       0.811178      0.459839      3.311395
  H       0.206953      0.020827      4.115403
  H       1.882980      0.335550      3.533428
  H       0.599388      1.535579      3.216302
  O       1.841891      1.099308      0.968538
  C      -0.556486     -1.245948     -0.214354
  H      -1.120044     -1.389436      0.708778
  H      -0.947401     -1.700192     -1.129343
  C       1.326460     -0.201792     -1.507680
  H       2.396841     -0.029483     -1.356324
  H       0.907809      0.739733     -1.902584
  H       1.204838     -0.983213     -2.270220
  H       1.459046     -2.965810     -0.324970
  O       4.651875     -0.993863     -1.202525
44
Coordinates from ORCA-job orca E -886.367250269266
  O       3.618166     -2.686261     -2.163871
  C       3.970507     -2.164613     -1.137037
  C       3.577326     -2.738414      0.240216
  C       4.430866     -2.163909      1.382799
  H       3.962530     -2.421416      2.347673
  H       5.417930     -2.659121      1.374036
  C       4.619292     -0.660426      1.247814
  H       5.251398     -0.274559      2.063091
  H       3.659252     -0.127254      1.302790
  C       5.286172     -0.330548     -0.078251
  H       6.329210     -0.701334     -0.063497
  C       5.276510      1.153189     -0.428336
  C       6.122420      2.022307      0.504991
  H       5.732635      1.956321      1.535650
  H       7.154974      1.627579      0.542235
  C       6.149471      3.488796      0.073084
  H       6.755655      4.101974      0.759115
  H       5.132133      3.913913      0.052773
  H       6.573719      3.599212     -0.938976
  H       4.229554      1.502065     -0.418573
  H       5.641542      1.254784     -1.464376
  C       3.754754     -4.275529      0.174868
  H       3.418252     -4.733511      1.118154
  H       4.815011     -4.537319      0.021306
  H       3.176293     -4.695992     -0.657995
  C       2.098354     -2.453619      0.407987
  H       1.713306     -2.360344      1.426776
  C       0.641927     -0.569389     -0.242570
  C       1.090848      0.212641      0.945621
  O       0.514735     -0.179309      2.100001
  C       0.894377      0.540208      3.270236
  H       0.292592      0.129064      4.090639
  H       1.966424      0.403475      3.483464
  H       0.698612      1.616775      3.153086
  O       1.897899      1.118296      0.899726
  C      -0.541227     -1.228066     -0.197622
  H      -1.093385     -1.345077      0.736093
  H      -0.949136     -1.698972     -1.096649
  C       1.332160     -0.231914     -1.541464
  H       2.404514     -0.058041     -1.410030
  H       0.910163      0.699869     -1.955481
  H       1.199024     -1.033122     -2.281334
  H       1.454184     -2.965037     -0.306415
  O       4.647209     -1.001581     -1.194464
44
Coordinates from ORCA-job orca E -886.367343262153
  O       3.625128     -2.682533     -2.171678
  C       3.970817     -2.168282     -1.138910
  C       3.577798     -2.756210      0.232821
  C       4.447094     -2.204762      1.375725
  H       3.988791     -2.477571      2.341035
  H       5.432032     -2.704071      1.346641
  C       4.640582     -0.701421      1.268644
  H       5.288672     -0.334396      2.079935
  H       3.683087     -0.169081      1.354356
  C       5.281290     -0.337837     -0.063278
  H       6.330772     -0.690482     -0.070836
  C       5.237716      1.151377     -0.387031
  C       6.067821      2.022064      0.558861
  H       5.679399      1.934041      1.588486
  H       7.108196      1.647645      0.591045
  C       6.065463      3.494988      0.149026
  H       6.658466      4.110203      0.844734
  H       5.039646      3.899232      0.133303
  H       6.488142      3.629187     -0.860926
  H       4.183270      1.473508     -0.365766
  H       5.597319      1.279589     -1.422119
  C       3.739561     -4.292904      0.146077
  H       3.400600     -4.760935      1.083597
  H       4.796669     -4.562774     -0.014026
  H       3.155072     -4.695668     -0.691359
  C       2.101537     -2.455944      0.413729
  H       1.726239     -2.339020      1.433879
  C       0.653655     -0.573843     -0.261592
  C       1.140987      0.239991      0.888770
  O       0.587380     -0.107365      2.068487
  C       1.004727      0.643453      3.205459
  H       0.408780      0.275602      4.050339
  H       2.077080      0.487841      3.404623
  H       0.832405      1.719738      3.053753
  O       1.955286      1.135248      0.794371
  C      -0.535449     -1.216633     -0.164972
  H      -1.064638     -1.297559      0.785604
  H      -0.971115     -1.711924     -1.037540
  C       1.312660     -0.286859     -1.588251
  H       2.386109     -0.102091     -1.486559
  H       0.874809      0.623823     -2.031500
  H       1.169148     -1.119514     -2.290391
  H       1.444194     -2.970903     -0.285927
  O       4.640947     -1.001159     -1.183359
44
Coordinates from ORCA-job orca E -886.367353327003
  O       3.644787     -2.704305     -2.171799
  C       3.981775     -2.181208     -1.140603
  C       3.584965     -2.762031      0.232875
  C       4.464504     -2.215540      1.368871
  H       4.017603     -2.495416      2.337452
  H       5.450542     -2.711518      1.327320
  C       4.654692     -0.710741      1.263486
  H       5.309768     -0.345927      2.070194
  H       3.700077     -0.179691      1.359818
  C       5.284786     -0.342692     -0.071804
  H       6.335723     -0.690023     -0.085470
  C       5.234248      1.146598     -0.396105
  C       6.059851      2.021476      0.549771
  H       5.672119      1.930515      1.579414
  H       7.102327      1.652868      0.581527
  C       6.048670      3.494541      0.140701
  H       6.638723      4.112938      0.836142
  H       5.020463      3.892763      0.126066
  H       6.469492      3.631875     -0.869574
  H       4.178628      1.464065     -0.375875
  H       5.594022      1.276013     -1.430961
  C       3.725731     -4.300965      0.152772
  H       3.381645     -4.760274      1.092681
  H       4.779028     -4.585462     -0.007383
  H       3.134962     -4.699131     -0.682286
  C       2.111165     -2.445024      0.415904
  H       1.738957     -2.319499      1.436475
  C       0.663625     -0.562243     -0.258256
  C       1.140135      0.245833      0.900394
  O       0.575842     -0.107339      2.073115
  C       0.975455      0.643008      3.217407
  H       0.374568      0.266617      4.054953
  H       2.046895      0.497787      3.426877
  H       0.794274      1.718104      3.067829
  O       1.954233      1.141440      0.819600
  C      -0.524106     -1.207219     -0.171358
  H      -1.057537     -1.294013      0.776398
  H      -0.954521     -1.698909     -1.048541
  C       1.332627     -0.268730     -1.578610
  H       2.408245     -0.090244     -1.468478
  H       0.901714      0.646906     -2.018496
  H       1.190009     -1.095155     -2.287557
  H       1.445349     -2.955174     -0.279090
  O       4.642086     -1.009082     -1.188521
44
Coordinates from ORCA-job orca E -886.367399900629
  O       3.636492     -2.693619     -2.173699
  C       3.976574     -2.171829     -1.142785
  C       3.582661     -2.754887      0.230872
  C       4.457609     -2.203992      1.368436
  H       4.005932     -2.479429      2.336321
  H       5.443179     -2.701496      1.333625
  C       4.650504     -0.700319      1.260806
  H       5.306482     -0.336453      2.067221
  H       3.695033     -0.168569      1.359750
  C       5.284823     -0.337873     -0.074158
  H       6.333303     -0.692870     -0.084972
  C       5.248341      1.151116     -0.401433
  C       6.071970      2.020729      0.550973
  H       5.672296      1.935968      1.576574
  H       7.110470      1.642392      0.595154
  C       6.079225      3.492854      0.138439
  H       6.667662      4.107305      0.838709
  H       5.055059      3.900740      0.111836
  H       6.511946      3.623883     -0.867649
  H       4.195078      1.477183     -0.392596
  H       5.619080      1.275635     -1.433009
  C       3.733983     -4.293068      0.148862
  H       3.393842     -4.755784      1.088548
  H       4.789120     -4.570136     -0.012404
  H       3.145050     -4.694313     -0.685978
  C       2.107169     -2.449816      0.417027
  H       1.736111     -2.326226      1.437879
  C       0.651940     -0.572208     -0.255004
  C       1.126372      0.238364      0.902828
  O       0.570280     -0.121199      2.077750
  C       0.964282      0.635810      3.219159
  H       0.371228      0.253170      4.059450
  H       2.038560      0.504387      3.424638
  H       0.768900      1.708297      3.068614
  O       1.931177      1.142420      0.817148
  C      -0.533135     -1.222985     -0.166341
  H      -1.063406     -1.314032      0.782724
  H      -0.963846     -1.715112     -1.043165
  C       1.318309     -0.273647     -1.574653
  H       2.391756     -0.087042     -1.460577
  H       0.880444      0.638390     -2.014970
  H       1.182960     -1.101663     -2.283534
  H       1.443861     -2.962970     -0.277974
  O       4.639475     -1.001319     -1.191159
44
Coordinates from ORCA-job orca E -886.367394734952
  O       3.642133     -2.699613     -2.179486
  C       3.977949     -2.179186     -1.146481
  C       3.585036     -2.765912      0.225368
  C       4.467102     -2.223999      1.360888
  H       4.023665     -2.509422      2.329808
  H       5.453747     -2.718415      1.314387
  C       4.651843     -0.717728      1.265615
  H       5.312906     -0.358604      2.070038
  H       3.693423     -0.190780      1.378834
  C       5.276757     -0.342379     -0.070171
  H       6.327949     -0.688996     -0.086496
  C       5.228722      1.148089     -0.389023
  C       6.040878      2.018905      0.572072
  H       5.636065      1.926264      1.594931
  H       7.081804      1.647792      0.620349
  C       6.039910      3.493080      0.166795
  H       6.620132      4.108291      0.873224
  H       5.012944      3.893634      0.136603
  H       6.477008      3.632299     -0.836285
  H       4.172706      1.465396     -0.382963
  H       5.602852      1.281429     -1.418267
  C       3.724777     -4.304679      0.136822
  H       3.383696     -4.768764      1.075477
  H       4.777377     -4.589018     -0.028479
  H       3.130742     -4.698104     -0.698063
  C       2.114974     -2.448674      0.421218
  H       1.753602     -2.309725      1.443161
  C       0.665044     -0.570294     -0.260044
  C       1.151281      0.252792      0.885126
  O       0.607298     -0.094621      2.069485
  C       1.005467      0.680147      3.197423
  H       0.420902      0.305630      4.047264
  H       2.082027      0.558124      3.396796
  H       0.802427      1.749278      3.033703
  O       1.955462      1.155914      0.781913
  C      -0.522128     -1.215599     -0.154735
  H      -1.044562     -1.294700      0.799724
  H      -0.962431     -1.714956     -1.022681
  C       1.322215     -0.288818     -1.588301
  H       2.395112     -0.098056     -1.483263
  H       0.879371      0.615780     -2.038742
  H       1.184971     -1.127707     -2.284392
  H       1.441886     -2.964200     -0.262426
  O       4.633109     -1.004107     -1.189443
44
Coordinates from ORCA-job orca E -886.367405702552
  O       3.638628     -2.695047     -2.178055
  C       3.976377     -2.174831     -1.145564
  C       3.584444     -2.761629      0.226618
  C       4.464196     -2.216436      1.363196
  H       4.017603     -2.497602      2.331690
  H       5.450432     -2.712051      1.321099
  C       4.652676     -0.710821      1.263274
  H       5.312676     -0.350741      2.068177
  H       3.696430     -0.181800      1.371895
  C       5.279841     -0.340033     -0.071998
  H       6.329756     -0.690728     -0.087132
  C       5.237325      1.150056     -0.393115
  C       6.054947      2.019368      0.564691
  H       5.651917      1.930361      1.588552
  H       7.094424      1.643942      0.611375
  C       6.059486      3.492700      0.156445
  H       6.643874      4.106740      0.860441
  H       5.034234      3.897730      0.127685
  H       6.495159      3.627989     -0.847793
  H       4.182646      1.471936     -0.385363
  H       5.609443      1.280168     -1.423516
  C       3.729828     -4.300006      0.139482
  H       3.389573     -4.764382      1.078295
  H       4.783523     -4.580923     -0.024637
  H       3.137884     -4.696310     -0.695606
  C       2.112133     -2.449901      0.419403
  H       1.747969     -2.317204      1.441322
  C       0.658704     -0.572516     -0.257130
  C       1.140465      0.246536      0.892678
  O       0.592828     -0.105921      2.073794
  C       0.984834      0.665834      3.205930
  H       0.398926      0.286046      4.052516
  H       2.061142      0.546783      3.408184
  H       0.778559      1.734906      3.045686
  O       1.943510      1.150950      0.796453
  C      -0.527457     -1.219718     -0.157333
  H      -1.052481     -1.302627      0.795386
  H      -0.964860     -1.716417     -1.028247
  C       1.318551     -0.285309     -1.583312
  H       2.391446     -0.093934     -1.476200
  H       0.875644      0.620411     -2.031451
  H       1.183170     -1.121442     -2.282736
  H       1.443618     -2.967106     -0.267624
  O       4.634128     -1.001228     -1.190175
44
Coordinates from ORCA-job orca E -886.367407911596
  O       3.639280     -2.694403     -2.178726
  C       3.976802     -2.174401     -1.146074
  C       3.585222     -2.761720      0.226007
  C       4.465484     -2.216853      1.362469
  H       4.019510     -2.498910      2.330901
  H       5.452142     -2.711548      1.319278
  C       4.652694     -0.711183      1.263119
  H       5.312182     -0.350918      2.068374
  H       3.695956     -0.183286      1.371721
  C       5.279771     -0.339751     -0.071941
  H       6.329573     -0.690925     -0.087118
  C       5.237659      1.150289     -0.392796
  C       6.055231      2.019457      0.565204
  H       5.650876      1.931885      1.588662
  H       7.094231      1.642833      0.613377
  C       6.062113      3.492401      0.155546
  H       6.646287      4.106369      0.859781
  H       5.037406      3.898675      0.125024
  H       6.499429      3.626113     -0.848185
  H       4.183086      1.472556     -0.385240
  H       5.609730      1.280416     -1.423227
  C       3.730843     -4.300040      0.138883
  H       3.390913     -4.764494      1.077769
  H       4.784491     -4.580867     -0.025576
  H       3.138741     -4.696338     -0.696136
  C       2.112762     -2.449808      0.419046
  H       1.748701     -2.316956      1.441099
  C       0.658059     -0.573003     -0.256357
  C       1.139940      0.245812      0.893266
  O       0.591732     -0.106351      2.074177
  C       0.981754      0.666677      3.206125
  H       0.396175      0.286240      4.052657
  H       2.058118      0.550018      3.409112
  H       0.773449      1.735280      3.045244
  O       1.943053      1.150203      0.796935
  C      -0.527815     -1.219968     -0.156243
  H      -1.052399     -1.302991      0.796703
  H      -0.965756     -1.716318     -1.027096
  C       1.317369     -0.285518     -1.582559
  H       2.390154     -0.093608     -1.475684
  H       0.873843      0.619998     -2.030569
  H       1.181878     -1.121426     -2.282193
  H       1.443921     -2.967683     -0.267188
  O       4.633559     -1.000164     -1.190289
44
Coordinates from ORCA-job orca E -886.367411526902
  O       3.638812     -2.692025     -2.180426
  C       3.976124     -2.172973     -1.147260
  C       3.586202     -2.762511      0.224305
  C       4.467101     -2.218381      1.360879
  H       4.022172     -2.502515      2.329135
  H       5.454490     -2.711387      1.315730
  C       4.651966     -0.712207      1.263214
  H       5.310754     -0.351800      2.068999
  H       3.694205     -0.186183      1.372204
  C       5.278296     -0.338950     -0.071497
  H       6.327813     -0.691085     -0.087339
  C       5.237167      1.151304     -0.390697
  C       6.054485      2.019152      0.568738
  H       5.647006      1.933484      1.591117
  H       7.092412      1.639908      0.620047
  C       6.066442      3.491736      0.157821
  H       6.649818      4.104786      0.863523
  H       5.042911      3.900657      0.123544
  H       6.507627      3.623306     -0.844486
  H       4.182824      1.474320     -0.383493
  H       5.609523      1.282292     -1.420924
  C       3.733302     -4.300469      0.135213
  H       3.394550     -4.766485      1.073741
  H       4.787031     -4.580144     -0.030506
  H       3.140976     -4.696244     -0.699956
  C       2.113749     -2.451214      0.419061
  H       1.750857     -2.316936      1.441385
  C       0.657133     -0.575479     -0.255187
  C       1.140448      0.245327      0.892411
  O       0.594233     -0.105269      2.074673
  C       0.980695      0.673636      3.203745
  H       0.398818      0.291954      4.052276
  H       2.058045      0.565212      3.405835
  H       0.764869      1.740333      3.039897
  O       1.942536      1.150303      0.793460
  C      -0.528615     -1.221729     -0.152397
  H      -1.051487     -1.303568      0.801584
  H      -0.968641     -1.718428     -1.022013
  C       1.313906     -0.289461     -1.582915
  H       2.386276     -0.094261     -1.478092
  H       0.867183      0.613781     -2.032435
  H       1.179225     -1.126953     -2.280775
  H       1.444205     -2.971709     -0.264641
  O       4.630706     -0.997334     -1.190218
44
Coordinates from ORCA-job orca E -886.367411570357
  O       3.638643     -2.691025     -2.181062
  C       3.975767     -2.172181     -1.147740
  C       3.586576     -2.762644      0.223670
  C       4.467482     -2.218659      1.360267
  H       4.023010     -2.503857      2.328431
  H       5.455145     -2.711056      1.314429
  C       4.651459     -0.712322      1.263272
  H       5.309753     -0.351586      2.069295
  H       3.693167     -0.186910      1.372000
  C       5.277626     -0.338411     -0.071439
  H       6.326963     -0.691067     -0.087792
  C       5.237044      1.152039     -0.389665
  C       6.054805      2.018882      0.570320
  H       5.646463      1.933583      1.592394
  H       7.092260      1.638479      0.622383
  C       6.068719      3.491503      0.159575
  H       6.651907      4.103875      0.866022
  H       5.045667      3.901522      0.124140
  H       6.511225      3.622659     -0.842204
  H       4.182800      1.475351     -0.382137
  H       5.609339      1.283581     -1.419843
  C       3.734350     -4.300434      0.133620
  H       3.396219     -4.767219      1.071995
  H       4.788148     -4.579457     -0.032745
  H       3.141871     -4.696004     -0.701524
  C       2.114006     -2.452141      0.419074
  H       1.751453     -2.317060      1.441402
  C       0.656396     -0.577047     -0.254812
  C       1.140313      0.245051      0.891648
  O       0.595040     -0.104394      2.074695
  C       0.980851      0.676943      3.202324
  H       0.400873      0.294958      4.052016
  H       2.058678      0.571774      3.403442
  H       0.762062      1.742860      3.037272
  O       1.942026      1.150206      0.791091
  C      -0.529343     -1.223196     -0.150592
  H      -1.051382     -1.304450      0.803892
  H      -0.970228     -1.720329     -1.019523
  C       1.311945     -0.291800     -1.583264
  H       2.384056     -0.094991     -1.479363
  H       0.863734      0.610392     -2.033461
  H       1.177756     -1.130089     -2.280302
  H       1.444255     -2.973674     -0.263665
  O       4.629251     -0.995866     -1.190256
44
Coordinates from ORCA-job orca E -886.367411777268
  O       3.638392     -2.689893     -2.181854
  C       3.975162     -2.171194     -1.148349
  C       3.586913     -2.762839      0.222897
  C       4.467610     -2.218854      1.359515
  H       4.023764     -2.505397      2.327616
  H       5.455579     -2.710613      1.313052
  C       4.650593     -0.712371      1.263231
  H       5.308325     -0.351115      2.069440
  H       3.691858     -0.187472      1.371422
  C       5.276591     -0.337775     -0.071497
  H       6.325690     -0.691069     -0.088647
  C       5.236760      1.152993     -0.388425
  C       6.055185      2.018349      0.572360
  H       5.646049      1.933074      1.594135
  H       7.092080      1.636568      0.625004
  C       6.071286      3.491172      0.162398
  H       6.654280      4.102526      0.869883
  H       5.048768      3.902422      0.125856
  H       6.515152      3.622306     -0.838786
  H       4.182639      1.476663     -0.380501
  H       5.609183      1.285284     -1.418464
  C       3.735614     -4.300447      0.131608
  H       3.398153     -4.768221      1.069731
  H       4.789565     -4.578573     -0.035393
  H       3.143082     -4.695811     -0.703571
  C       2.114186     -2.453596      0.419133
  H       1.752091     -2.317159      1.441408
  C       0.655635     -0.579106     -0.254397
  C       1.140187      0.244910      0.890494
  O       0.596223     -0.102933      2.074630
  C       0.981680      0.681467      3.200288
  H       0.404719      0.298817      4.051731
  H       2.060279      0.580701      3.399394
  H       0.758713      1.746336      3.033951
  O       1.941300      1.150371      0.787774
  C      -0.530122     -1.225258     -0.148205
  H      -1.051077     -1.305674      0.806954
  H      -0.972006     -1.723212     -1.016161
  C       1.309597     -0.294892     -1.583843
  H       2.381399     -0.095882     -1.481003
  H       0.859443      0.605820     -2.035079
  H       1.176388     -1.134431     -2.279587
  H       1.444148     -2.976212     -0.262505
  O       4.627095     -0.993987     -1.190357
44
Coordinates from ORCA-job orca E -886.367411743372
  O       3.638362     -2.689420     -2.182012
  C       3.974987     -2.170755     -1.148440
  C       3.586888     -2.762725      0.222723
  C       4.467258     -2.218614      1.359478
  H       4.023454     -2.505427      2.327521
  H       5.455284     -2.710288      1.313172
  C       4.650114     -0.712146      1.263299
  H       5.307618     -0.350725      2.069616
  H       3.691359     -0.187201      1.371064
  C       5.276315     -0.337523     -0.071368
  H       6.325318     -0.691093     -0.088705
  C       5.236899      1.153365     -0.388024
  C       6.055872      2.018246      0.572709
  H       5.647035      1.932902      1.594595
  H       7.092642      1.636091      0.624984
  C       6.072360      3.491137      0.163058
  H       6.655688      4.102175      0.870541
  H       5.049960      3.902716      0.126789
  H       6.516006      3.622368     -0.838210
  H       4.182871      1.477308     -0.379870
  H       5.609262      1.285702     -1.418070
  C       3.736019     -4.300288      0.131160
  H       3.398602     -4.768310      1.069176
  H       4.790064     -4.578102     -0.035791
  H       3.143650     -4.695680     -0.704109
  C       2.114022     -2.454162      0.418920
  H       1.751916     -2.317453      1.441143
  C       0.655220     -0.579765     -0.254326
  C       1.139823      0.244796      0.890166
  O       0.596045     -0.102510      2.074548
  C       0.981882      0.682310      3.199812
  H       0.406077      0.299145      4.051793
  H       2.060767      0.582671      3.397828
  H       0.757695      1.746947      3.033612
  O       1.940898      1.150236      0.786933
  C      -0.530480     -1.226052     -0.147569
  H      -1.051176     -1.306181      0.807755
  H      -0.972502     -1.724405     -1.015228
  C       1.308789     -0.295796     -1.584049
  H       2.380515     -0.096260     -1.481406
  H       0.858191      0.604546     -2.035567
  H       1.175962     -1.135725     -2.279395
  H       1.444137     -2.976945     -0.262719
  O       4.626481     -0.993319     -1.190257
44
Coordinates from ORCA-job orca E -886.369840411979
  O       3.611705     -2.683890     -2.163884
  C       3.965198     -2.172557     -1.131837
  C       3.605996     -2.784497      0.244031
  C       4.487979     -2.237107      1.373447
  H       4.053823     -2.529774      2.344179
  H       5.481241     -2.717698      1.321189
  C       4.651136     -0.722819      1.272027
  H       5.310062     -0.356194      2.074852
  H       3.681688     -0.202488      1.383030
  C       5.269990     -0.339309     -0.066117
  H       6.321762     -0.684352     -0.089851
  C       5.228093      1.151224     -0.390121
  C       6.052927      2.018310      0.563631
  H       5.648040      1.938220      1.587536
  H       7.089041      1.634021      0.613319
  C       6.071101      3.489430      0.147679
  H       6.658686      4.102137      0.850210
  H       5.049488      3.903178      0.113813
  H       6.510984      3.615415     -0.855944
  H       4.179469      1.479083     -0.379483
  H       5.597012      1.278589     -1.422051
  C       3.764696     -4.320699      0.145177
  H       3.437714     -4.794716      1.083954
  H       4.819298     -4.590799     -0.031091
  H       3.168466     -4.716722     -0.687056
  C       2.150761     -2.482683      0.437918
  H       1.763098     -2.312521      1.429908
  C       0.630471     -0.533720     -0.268796
  C       1.133384      0.254286      0.880853
  O       0.589134     -0.104861      2.062688
  C       0.971389      0.660794      3.203712
  H       0.390283      0.263778      4.045882
  H       2.047970      0.558282      3.408626
  H       0.748758      1.728384      3.054331
  O       1.941607      1.150169      0.784810
  C      -0.540893     -1.177717     -0.168967
  H      -1.067265     -1.270045      0.782240
  H      -0.961921     -1.674714     -1.042364
  C       1.289539     -0.261670     -1.594081
  H       2.369745     -0.084143     -1.482013
  H       0.855732      0.640508     -2.058695
  H       1.149749     -1.116984     -2.273101
  H       1.441822     -2.955359     -0.247143
  O       4.609190     -0.991979     -1.179168
44
Coordinates from ORCA-job orca E -886.370634507291
  O       3.613986     -2.694021     -2.166800
  C       3.972736     -2.182440     -1.137046
  C       3.607748     -2.785063      0.239328
  C       4.490920     -2.232091      1.368313
  H       4.057899     -2.522552      2.339995
  H       5.484887     -2.710567      1.315998
  C       4.652521     -0.721766      1.267851
  H       5.309539     -0.351826      2.070828
  H       3.687438     -0.207477      1.376664
  C       5.269406     -0.342854     -0.069757
  H       6.320507     -0.690011     -0.092745
  C       5.227153      1.147872     -0.388147
  C       6.050208      2.013272      0.568982
  H       5.644772      1.928868      1.592367
  H       7.086984      1.630619      0.618100
  C       6.066206      3.485899      0.158223
  H       6.652358      4.097179      0.863166
  H       5.043934      3.898096      0.125198
  H       6.506431      3.616131     -0.844703
  H       4.174263      1.474254     -0.377451
  H       5.596943      1.277790     -1.419358
  C       3.771221     -4.321343      0.140726
  H       3.445784     -4.794723      1.080127
  H       4.826378     -4.589410     -0.036062
  H       3.174847     -4.719324     -0.690527
  C       2.145287     -2.478330      0.438978
  H       1.759788     -2.299772      1.446171
  C       0.621955     -0.532584     -0.270045
  C       1.126354      0.263113      0.883269
  O       0.585154     -0.095117      2.066326
  C       0.977992      0.672863      3.200326
  H       0.401352      0.282047      4.048222
  H       2.056452      0.565449      3.396641
  H       0.759085      1.740831      3.047850
  O       1.940736      1.157189      0.789786
  C      -0.553012     -1.186170     -0.167463
  H      -1.078700     -1.275691      0.784206
  H      -0.980947     -1.686268     -1.041377
  C       1.291848     -0.267051     -1.595279
  H       2.367142     -0.091060     -1.481131
  H       0.863740      0.636044     -2.061318
  H       1.153280     -1.116252     -2.278476
  H       1.443771     -2.949045     -0.248807
  O       4.611805     -0.998920     -1.183871
44
Coordinates from ORCA-job orca E -886.370746265454
  O       3.629945     -2.702648     -2.169955
  C       3.971659     -2.181423     -1.139413
  C       3.608237     -2.784404      0.236101
  C       4.492713     -2.231656      1.365325
  H       4.060347     -2.523031      2.337109
  H       5.486629     -2.710205      1.311099
  C       4.654480     -0.722859      1.267095
  H       5.310075     -0.352357      2.070808
  H       3.689486     -0.210425      1.375778
  C       5.271797     -0.344444     -0.069917
  H       6.322111     -0.694023     -0.093167
  C       5.228568      1.146536     -0.385417
  C       6.051910      2.011697      0.571481
  H       5.648206      1.925627      1.595333
  H       7.089238      1.630294      0.618470
  C       6.065427      3.484735      0.162296
  H       6.652042      4.095925      0.866917
  H       5.042606      3.895712      0.131466
  H       6.503774      3.616625     -0.841227
  H       4.174268      1.470814     -0.372281
  H       5.596120      1.278659     -1.417244
  C       3.772040     -4.320331      0.135260
  H       3.450288     -4.794925      1.075412
  H       4.826463     -4.587638     -0.045986
  H       3.172226     -4.717256     -0.694010
  C       2.143106     -2.474897      0.441257
  H       1.765987     -2.290519      1.452295
  C       0.615454     -0.533372     -0.270041
  C       1.119836      0.267211      0.882666
  O       0.577930     -0.088342      2.065746
  C       0.975924      0.680736      3.196984
  H       0.399979      0.294305      4.047407
  H       2.054664      0.569047      3.389887
  H       0.761131      1.749177      3.042680
  O       1.936305      1.160273      0.788276
  C      -0.558505     -1.192447     -0.162899
  H      -1.081973     -1.277684      0.790512
  H      -0.992221     -1.694612     -1.033320
  C       1.291515     -0.272490     -1.593464
  H       2.365212     -0.093175     -1.476440
  H       0.864557      0.630513     -2.061403
  H       1.156225     -1.119259     -2.279819
  H       1.446532     -2.947362     -0.249119
  O       4.615837     -1.000315     -1.185257
44
Coordinates from ORCA-job orca E -886.370806940636
  O       3.632419     -2.701700     -2.172563
  C       3.981863     -2.186903     -1.141529
  C       3.611554     -2.786077      0.232926
  C       4.496646     -2.235382      1.363197
  H       4.063614     -2.528289      2.334294
  H       5.490116     -2.715008      1.307835
  C       4.658913     -0.726897      1.267674
  H       5.313901     -0.356468      2.071806
  H       3.693043     -0.215767      1.378125
  C       5.274822     -0.345904     -0.069418
  H       6.325006     -0.695628     -0.094368
  C       5.227904      1.145439     -0.382549
  C       6.050618      2.011979      0.573399
  H       5.649360      1.924070      1.598016
  H       7.089096      1.633441      0.617838
  C       6.059104      3.485297      0.165197
  H       6.645613      4.097606      0.868934
  H       5.035070      3.893416      0.136952
  H       6.494805      3.619115     -0.839213
  H       4.172635      1.465982     -0.366831
  H       5.592568      1.280355     -1.415095
  C       3.768991     -4.322194      0.134191
  H       3.447076     -4.794255      1.075654
  H       4.821912     -4.593534     -0.048778
  H       3.165921     -4.717748     -0.693308
  C       2.144916     -2.470147      0.440169
  H       1.776960     -2.280725      1.452638
  C       0.612494     -0.532437     -0.271272
  C       1.117285      0.270938      0.880416
  O       0.572829     -0.081218      2.063006
  C       0.974675      0.687302      3.193615
  H       0.397436      0.304612      4.044890
  H       2.053024      0.570317      3.385260
  H       0.765194      1.756593      3.038546
  O       1.935343      1.162520      0.785038
  C      -0.559396     -1.194765     -0.159095
  H      -1.079767     -1.275228      0.796485
  H      -0.999283     -1.698504     -1.025144
  C       1.291863     -0.275513     -1.592799
  H       2.366106     -0.099172     -1.474611
  H       0.869544      0.631046     -2.059155
  H       1.152337     -1.117514     -2.284123
  H       1.453202     -2.944596     -0.253677
  O       4.620813     -1.002661     -1.185292
44
Coordinates from ORCA-job orca E -886.370833025427
  O       3.637326     -2.703221     -2.173199
  C       3.982440     -2.186627     -1.141515
  C       3.612391     -2.786568      0.232492
  C       4.498696     -2.237932      1.362572
  H       4.066324     -2.532079      2.333561
  H       5.491912     -2.718001      1.305869
  C       4.660807     -0.728825      1.267842
  H       5.315874     -0.358529      2.072044
  H       3.694294     -0.217865      1.379232
  C       5.276321     -0.346165     -0.069260
  H       6.326787     -0.695005     -0.094414
  C       5.227722      1.145195     -0.382205
  C       6.049750      2.012341      0.573735
  H       5.649221      1.923445      1.598608
  H       7.088767      1.635200      0.617408
  C       6.055845      3.485889      0.166232
  H       6.641929      4.098707      0.869889
  H       5.031193      3.892523      0.138822
  H       6.490709      3.620800     -0.838397
  H       4.172375      1.464449     -0.366145
  H       5.591952      1.280988     -1.414747
  C       3.765762     -4.322869      0.133985
  H       3.443107     -4.794349      1.075447
  H       4.818020     -4.596718     -0.049457
  H       3.161678     -4.717147     -0.693448
  C       2.146821     -2.468192      0.439805
  H       1.782519     -2.277179      1.452070
  C       0.612075     -0.532293     -0.271559
  C       1.116681      0.271609      0.879192
  O       0.571117     -0.078023      2.062124
  C       0.974226      0.690015      3.192975
  H       0.396098      0.308422      4.044091
  H       2.052284      0.571141      3.384814
  H       0.766675      1.759677      3.037761
  O       1.935586      1.161758      0.782683
  C      -0.558226     -1.194762     -0.158387
  H      -1.077912     -1.273545      0.797618
  H      -0.998771     -1.699860     -1.023034
  C       1.291568     -0.276222     -1.592271
  H       2.366299     -0.101616     -1.473478
  H       0.871422      0.631722     -2.058195
  H       1.150013     -1.117355     -2.284510
  H       1.456181     -2.944394     -0.254161
  O       4.622293     -1.002750     -1.185211
44
Coordinates from ORCA-job orca E -886.370849815557
  O       3.641032     -2.705289     -2.173557
  C       3.984165     -2.187770     -1.141583
  C       3.613705     -2.787453      0.232267
  C       4.501714     -2.240689      1.361659
  H       4.070662     -2.536016      2.332854
  H       5.494809     -2.720775      1.303253
  C       4.663120     -0.731061      1.267694
  H       5.318647     -0.360865      2.071621
  H       3.696203     -0.220672      1.380412
  C       5.277461     -0.346705     -0.069620
  H       6.328488     -0.693820     -0.095043
  C       5.226842      1.144648     -0.382303
  C       6.047819      2.012407      0.574019
  H       5.647904      1.922057      1.599031
  H       7.087482      1.636981      0.616989
  C       6.051140      3.486329      0.167758
  H       6.636544      4.099587      0.871600
  H       5.025754      3.891148      0.141235
  H       6.485211      3.622823     -0.837004
  H       4.171292      1.462672     -0.366252
  H       5.591103      1.281279     -1.414693
  C       3.762607     -4.324065      0.134434
  H       3.437869     -4.794558      1.075633
  H       4.814285     -4.601029     -0.048112
  H       3.158524     -4.717173     -0.693597
  C       2.149298     -2.465752      0.438984
  H       1.787673     -2.273302      1.451371
  C       0.612097     -0.531527     -0.271629
  C       1.116789      0.272366      0.878612
  O       0.569354     -0.074146      2.061699
  C       0.974079      0.693303      3.192462
  H       0.394743      0.313182      4.043380
  H       2.051786      0.572066      3.384682
  H       0.768913      1.763384      3.036791
  O       1.937646      1.160339      0.781517
  C      -0.557232     -1.193941     -0.158349
  H      -1.076891     -1.271713      0.797755
  H      -0.997362     -1.700562     -1.022189
  C       1.291683     -0.275910     -1.591948
  H       2.367221     -0.105640     -1.473031
  H       0.875431      0.634470     -2.056659
  H       1.146107     -1.115694     -2.285100
  H       1.459008     -2.943624     -0.254273
  O       4.623427     -1.003500     -1.185491
44
Coordinates from ORCA-job orca E -886.370843301089
  O       3.644946     -2.708030     -2.174023
  C       3.986536     -2.189606     -1.141948
  C       3.615229     -2.788465      0.231988
  C       4.504852     -2.243093      1.360575
  H       4.075252     -2.539353      2.332146
  H       5.497907     -2.723019      1.300471
  C       4.665559     -0.733206      1.267416
  H       5.321789     -0.363249      2.070896
  H       3.698438     -0.223461      1.381656
  C       5.278398     -0.347435     -0.070242
  H       6.330008     -0.692751     -0.096120
  C       5.225818      1.143943     -0.382545
  C       6.045963      2.012341      0.573974
  H       5.646863      1.920543      1.599179
  H       7.086286      1.638646      0.616032
  C       6.046467      3.486612      0.168918
  H       6.631349      4.100325      0.872799
  H       5.020341      3.889618      0.143492
  H       6.479525      3.624665     -0.836071
  H       4.169989      1.460885     -0.366286
  H       5.589953      1.281278     -1.414879
  C       3.760235     -4.325381      0.134973
  H       3.433128     -4.794767      1.075889
  H       4.811429     -4.605242     -0.046158
  H       3.156528     -4.717553     -0.693784
  C       2.151670     -2.463201      0.438105
  H       1.791695     -2.269458      1.450811
  C       0.612133     -0.530411     -0.271356
  C       1.116945      0.273108      0.878870
  O       0.566722     -0.070234      2.061602
  C       0.973048      0.696432      3.192280
  H       0.392220      0.318013      4.042932
  H       2.050340      0.572458      3.385083
  H       0.770689      1.766992      3.036120
  O       1.940674      1.158413      0.782024
  C      -0.556891     -1.192902     -0.158614
  H      -1.077028     -1.270291      0.797288
  H      -0.996040     -1.700730     -1.022218
  C       1.292251     -0.274941     -1.591419
  H       2.368736     -0.110493     -1.472545
  H       0.880820      0.638582     -2.054168
  H       1.141747     -1.112811     -2.285853
  H       1.461076     -2.942363     -0.253979
  O       4.624554     -1.004619     -1.186031
44
Coordinates from ORCA-job orca E -886.370852961847
  O       3.651562     -2.712997     -2.174849
  C       3.990692     -2.192915     -1.142800
  C       3.617666     -2.789987      0.231531
  C       4.509416     -2.246082      1.358921
  H       4.081845     -2.543296      2.331133
  H       5.502407     -2.725830      1.296485
  C       4.669430     -0.736052      1.266841
  H       5.327027     -0.366619      2.069446
  H       3.702255     -0.227062      1.383482
  C       5.279790     -0.348656     -0.071489
  H       6.332216     -0.691447     -0.098359
  C       5.224304      1.142751     -0.383148
  C       6.043660      2.012080      0.573247
  H       5.646269      1.918066      1.598905
  H       7.085005      1.641009      0.613401
  C       6.039777      3.486837      0.169988
  H       6.624318      4.101207      0.873579
  H       5.012555      3.887175      0.146835
  H       6.470712      3.627215     -0.835600
  H       4.168009      1.458123     -0.365986
  H       5.587710      1.281025     -1.415616
  C       3.757520     -4.327297      0.135937
  H       3.427105     -4.794894      1.076595
  H       4.808032     -4.611096     -0.043062
  H       3.154257     -4.718334     -0.693686
  C       2.155077     -2.459344      0.436885
  H       1.796398     -2.263743      1.449962
  C       0.612234     -0.528473     -0.270616
  C       1.117061      0.274047      0.880160
  O       0.561436     -0.064524      2.061665
  C       0.969964      0.700457      3.192578
  H       0.386359      0.324790      4.042556
  H       2.046464      0.571752      3.386694
  H       0.772523      1.771872      3.035891
  O       1.946111      1.154673      0.784721
  C      -0.556851     -1.191171     -0.159423
  H      -1.078279     -1.268663      0.795799
  H      -0.994033     -1.700129     -1.023389
  C       1.293678     -0.272859     -1.590184
  H       2.371702     -0.118669     -1.471511
  H       0.890381      0.646243     -2.048870
  H       1.134819     -1.106944     -2.287280
  H       1.463215     -2.939841     -0.253017
  O       4.626355     -1.006607     -1.187072
44
Coordinates from ORCA-job orca E -886.370854948458
  O       3.657105     -2.717130     -2.175535
  C       3.994136     -2.195592     -1.143605
  C       3.619479     -2.790972      0.231139
  C       4.512374     -2.247622      1.357810
  H       4.085848     -2.545040      2.330439
  H       5.505221     -2.727524      1.294074
  C       4.672497     -0.737676      1.266320
  H       5.331362     -0.368874      2.068150
  H       3.705563     -0.228808      1.384752
  C       5.281071     -0.349605     -0.072605
  H       6.333920     -0.691054     -0.100495
  C       5.223655      1.141842     -0.383905
  C       6.042830      2.011987      0.571905
  H       5.646952      1.916661      1.598022
  H       7.084882      1.642728      0.610441
  C       6.035829      3.486975      0.169534
  H       6.620403      4.101942      0.872581
  H       5.007866      3.885509      0.148226
  H       6.464947      3.628734     -0.836641
  H       4.166986      1.456083     -0.365591
  H       5.586019      1.280614     -1.416693
  C       3.756240     -4.328496      0.136741
  H       3.424183     -4.794696      1.077534
  H       4.806256     -4.614652     -0.041266
  H       3.152724     -4.718926     -0.692963
  C       2.157402     -2.456688      0.436211
  H       1.798625     -2.259771      1.449295
  C       0.612368     -0.527008     -0.269754
  C       1.116881      0.274248      0.882071
  O       0.555959     -0.060954      2.061906
  C       0.965499      0.702193      3.193645
  H       0.379105      0.328574      4.042611
  H       2.041207      0.569464      3.389442
  H       0.772308      1.774377      3.036899
  O       1.950483      1.150989      0.788751
  C      -0.557013     -1.189992     -0.160315
  H      -1.079793     -1.268194      0.794122
  H      -0.992553     -1.698856     -1.025213
  C       1.295200     -0.270723     -1.588699
  H       2.374408     -0.125149     -1.470290
  H       0.898446      0.653324     -2.043040
  H       1.129464     -1.100854     -2.288872
  H       1.463916     -2.937371     -0.251949
  O       4.627890     -1.008230     -1.187910
44
Coordinates from ORCA-job orca E -886.370856309963
  O       3.659992     -2.719190     -2.175843
  C       3.995846     -2.196766     -1.144060
  C       3.620263     -2.791084      0.230972
  C       4.513320     -2.247492      1.357485
  H       4.086728     -2.544436      2.330237
  H       5.505969     -2.727852      1.293664
  C       4.674153     -0.737736      1.265870
  H       5.333785     -0.369386      2.067266
  H       3.707594     -0.228372      1.384942
  C       5.282089     -0.350001     -0.073399
  H       6.334904     -0.691493     -0.102006
  C       5.224077      1.141423     -0.384673
  C       6.043662      2.011911      0.570419
  H       5.648760      1.916237      1.596869
  H       7.085966      1.643263      0.607941
  C       6.035447      3.486912      0.168156
  H       6.620404      4.102139      0.870656
  H       5.007248      3.884897      0.147947
  H       6.463460      3.629012     -0.838442
  H       4.167247      1.455193     -0.365321
  H       5.585455      1.280251     -1.417804
  C       3.756327     -4.328665      0.137254
  H       3.424486     -4.794215      1.078459
  H       4.806129     -4.615253     -0.041056
  H       3.152056     -4.719076     -0.691892
  C       2.158317     -2.455718      0.436279
  H       1.798644     -2.258122      1.449047
  C       0.612297     -0.526609     -0.269090
  C       1.116164      0.273673      0.883833
  O       0.551761     -0.060210      2.062284
  C       0.961015      0.701665      3.195002
  H       0.372627      0.328942      4.042979
  H       2.036162      0.566773      3.392341
  H       0.770176      1.774296      3.038457
  O       1.952207      1.148403      0.792427
  C      -0.557194     -1.190035     -0.161061
  H      -1.080929     -1.269240      0.792740
  H      -0.991820     -1.697895     -1.027027
  C       1.296048     -0.269195     -1.587383
  H       2.375858     -0.128270     -1.469173
  H       0.902597      0.657962     -2.038271
  H       1.126602     -1.096233     -2.290290
  H       1.463505     -2.935670     -0.251066
  O       4.628744     -1.008945     -1.188391
44
Coordinates from ORCA-job orca E -886.370856237328
  O       3.661181     -2.720089     -2.175839
  C       3.996456     -2.197085     -1.144207
  C       3.620516     -2.790747      0.231022
  C       4.513516     -2.246740      1.357528
  H       4.086461     -2.543026      2.330260
  H       5.505942     -2.727655      1.294069
  C       4.675144     -0.737144      1.265424
  H       5.335220     -0.369037      2.066564
  H       3.708935     -0.227122      1.384577
  C       5.282961     -0.350050     -0.074078
  H       6.335556     -0.692151     -0.103168
  C       5.225022      1.141338     -0.385541
  C       6.045181      2.011937      0.568925
  H       5.650781      1.916502      1.595590
  H       7.087474      1.643212      0.605970
  C       6.036900      3.486838      0.166321
  H       6.622264      4.102155      0.868404
  H       5.008743      3.884956      0.146537
  H       6.464445      3.628679     -0.840507
  H       4.168165      1.455006     -0.365447
  H       5.585643      1.280039     -1.418949
  C       3.756744     -4.328385      0.137801
  H       3.425917     -4.793605      1.079531
  H       4.806436     -4.614711     -0.041438
  H       3.151544     -4.719040     -0.690543
  C       2.158653     -2.455440      0.436747
  H       1.798231     -2.257291      1.449113
  C       0.612072     -0.526780     -0.268619
  C       1.115063      0.272666      0.885367
  O       0.548215     -0.060916      2.062683
  C       0.956582      0.699909      3.196466
  H       0.366447      0.327523      4.043375
  H       2.031258      0.563637      3.395379
  H       0.767261      1.772852      3.040215
  O       1.952288      1.146441      0.795601
  C      -0.557229     -1.190803     -0.161765
  H      -1.081593     -1.271077      0.791585
  H      -0.991361     -1.697472     -1.028679
  C       1.296516     -0.267852     -1.586140
  H       2.376646     -0.129549     -1.467905
  H       0.904941      0.661562     -2.034115
  H       1.124928     -1.092201     -2.291684
  H       1.462975     -2.934366     -0.250421
  O       4.629111     -1.009132     -1.188726
44
Coordinates from ORCA-job orca E -886.370859800760
  O       3.661946     -2.720822     -2.175510
  C       3.996820     -2.197271     -1.144042
  C       3.620741     -2.790309      0.231367
  C       4.513944     -2.246097      1.357762
  H       4.086543     -2.541784      2.330512
  H       5.506098     -2.727606      1.294578
  C       4.676337     -0.736595      1.265106
  H       5.336877     -0.368668      2.065964
  H       3.710451     -0.225928      1.384399
  C       5.283922     -0.350072     -0.074698
  H       6.336321     -0.692701     -0.104289
  C       5.226037      1.141243     -0.386507
  C       6.047134      2.012049      0.566958
  H       5.653690      1.916924      1.594015
  H       7.089435      1.643276      0.603114
  C       6.038547      3.486839      0.163942
  H       6.624654      4.102307      0.865275
  H       5.010411      3.885059      0.145075
  H       6.465095      3.628368     -0.843355
  H       4.169205      1.454888     -0.365472
  H       5.585619      1.279720     -1.420298
  C       3.756892     -4.328044      0.138614
  H       3.427036     -4.792934      1.080837
  H       4.806440     -4.614277     -0.041606
  H       3.150814     -4.718897     -0.688989
  C       2.159077     -2.454968      0.437341
  H       1.798278     -2.256097      1.449342
  C       0.611861     -0.526900     -0.268250
  C       1.113704      0.271451      0.887030
  O       0.544109     -0.061943      2.063062
  C       0.951372      0.697519      3.198178
  H       0.358831      0.325630      4.043625
  H       2.025395      0.559336      3.399259
  H       0.764134      1.770867      3.042202
  O       1.952127      1.144243      0.799241
  C      -0.557041     -1.191696     -0.162902
  H      -1.082056     -1.273293      0.789961
  H      -0.990516     -1.697222     -1.030797
  C       1.297104     -0.265947     -1.584769
  H       2.377570     -0.130599     -1.466295
  H       0.907877      0.666063     -2.029507
  H       1.123141     -1.087208     -2.293328
  H       1.462836     -2.932867     -0.249940
  O       4.629342     -1.009246     -1.188926
44
Coordinates from ORCA-job orca E -886.370861690343
  O       3.660556     -2.720110     -2.175153
  C       3.996060     -2.196747     -1.143768
  C       3.620486     -2.789910      0.231680
  C       4.513700     -2.245558      1.358007
  H       4.086170     -2.541045      2.330758
  H       5.505818     -2.727144      1.295037
  C       4.676146     -0.736059      1.264994
  H       5.336574     -0.367945      2.065871
  H       3.710272     -0.225257      1.383967
  C       5.283934     -0.349891     -0.074822
  H       6.336213     -0.692885     -0.104331
  C       5.226533      1.141384     -0.386843
  C       6.047908      2.012004      0.566559
  H       5.654347      1.917220      1.593607
  H       7.090032      1.642757      0.602863
  C       6.040026      3.486739      0.163318
  H       6.626310      4.102050      0.864639
  H       5.012078      3.885434      0.144245
  H       6.466779      3.627915     -0.843942
  H       4.169802      1.455363     -0.365940
  H       5.586199      1.279663     -1.420630
  C       3.757149     -4.327659      0.138870
  H       3.427722     -4.792680      1.081169
  H       4.806757     -4.613500     -0.041672
  H       3.151046     -4.718728     -0.688619
  C       2.158836     -2.455202      0.437787
  H       1.798198     -2.256248      1.449759
  C       0.611698     -0.527257     -0.268310
  C       1.113142      0.270935      0.887237
  O       0.543828     -0.063169      2.063246
  C       0.950417      0.696329      3.198573
  H       0.357522      0.324275      4.043694
  H       2.024352      0.558343      3.400232
  H       0.763035      1.769641      3.042527
  O       1.950966      1.144290      0.799664
  C      -0.556930     -1.192426     -0.163244
  H      -1.081870     -1.274518      0.789617
  H      -0.990331     -1.697777     -1.031267
  C       1.296896     -0.265498     -1.584628
  H       2.377292     -0.129592     -1.465987
  H       0.907335      0.666517     -2.029090
  H       1.123377     -1.086488     -2.293618
  H       1.462807     -2.932837     -0.249851
  O       4.628961     -1.008939     -1.188928
44
Coordinates from ORCA-job orca E -886.372953988501
  O       3.652969     -2.722346     -2.158585
  C       3.995989     -2.202442     -1.128349
  C       3.641764     -2.812723      0.250546
  C       4.532454     -2.264494      1.372979
  H       4.110922     -2.564408      2.347022
  H       5.529440     -2.735804      1.308134
  C       4.676420     -0.747875      1.274007
  H       5.335423     -0.373511      2.073188
  H       3.701139     -0.242792      1.392762
  C       5.279668     -0.353430     -0.068099
  H       6.334856     -0.687278     -0.100176
  C       5.218581      1.136656     -0.389418
  C       6.041079      2.012515      0.558232
  H       5.648396      1.923785      1.586175
  H       7.083117      1.643143      0.595745
  C       6.033314      3.484926      0.146485
  H       6.620416      4.104095      0.843737
  H       5.005477      3.883840      0.126021
  H       6.459222      3.620151     -0.861966
  H       4.166195      1.452050     -0.370089
  H       5.577844      1.269112     -1.424125
  C       3.788501     -4.349159      0.150808
  H       3.466552     -4.820290      1.092706
  H       4.839236     -4.627094     -0.035699
  H       3.181289     -4.740974     -0.675516
  C       2.195998     -2.480582      0.453289
  H       1.810884     -2.248926      1.436324
  C       0.586120     -0.477474     -0.281785
  C       1.108735      0.282670      0.879350
  O       0.539107     -0.064131      2.052532
  C       0.943699      0.674066      3.203868
  H       0.345466      0.288301      4.039208
  H       2.015251      0.531142      3.410801
  H       0.759432      1.750603      3.066258
  O       1.954416      1.145051      0.800078
  C      -0.569940     -1.135617     -0.182741
  H      -1.100057     -1.228304      0.766355
  H      -0.984123     -1.637988     -1.056004
  C       1.272712     -0.234076     -1.593060
  H       2.367224     -0.127035     -1.467848
  H       0.902775      0.700803     -2.048719
  H       1.082487     -1.063161     -2.288603
  H       1.458359     -2.903666     -0.240154
  O       4.619345     -1.011539     -1.178391
44
Coordinates from ORCA-job orca E -886.373817910876
  O       3.645603     -2.729728     -2.160824
  C       3.999400     -2.211348     -1.133026
  C       3.643085     -2.813340      0.247244
  C       4.537461     -2.259656      1.367183
  H       4.119323     -2.557943      2.342991
  H       5.535177     -2.728512      1.299864
  C       4.679138     -0.746664      1.269500
  H       5.337955     -0.369442      2.067569
  H       3.706953     -0.246644      1.388388
  C       5.278525     -0.356413     -0.072857
  H       6.333010     -0.692489     -0.106534
  C       5.217086      1.134299     -0.387514
  C       6.038879      2.007414      0.563530
  H       5.646267      1.913887      1.591123
  H       7.081380      1.639147      0.599569
  C       6.029427      3.481548      0.157985
  H       6.615799      4.098544      0.857761
  H       5.001127      3.879365      0.139173
  H       6.455173      3.621460     -0.849896
  H       4.160844      1.448756     -0.366881
  H       5.576383      1.270018     -1.421692
  C       3.792678     -4.349802      0.148819
  H       3.473701     -4.819362      1.092341
  H       4.843373     -4.626559     -0.040025
  H       3.183482     -4.743687     -0.675079
  C       2.191267     -2.478369      0.456214
  H       1.809773     -2.238079      1.451820
  C       0.579747     -0.478212     -0.283285
  C       1.101772      0.290491      0.880948
  O       0.535217     -0.055284      2.055613
  C       0.949085      0.685970      3.199931
  H       0.354814      0.306486      4.040732
  H       2.022191      0.538947      3.399581
  H       0.768141      1.762541      3.058228
  O       1.953176      1.150896      0.803231
  C      -0.582183     -1.146856     -0.182488
  H      -1.112480     -1.237189      0.766534
  H      -1.002357     -1.652874     -1.056728
  C       1.278194     -0.236600     -1.595531
  H       2.361696     -0.130355     -1.468113
  H       0.914733      0.699642     -2.051934
  H       1.091708     -1.062176     -2.296060
  H       1.464409     -2.899107     -0.237281
  O       4.618017     -1.016930     -1.182843
44
Coordinates from ORCA-job orca E -886.373926006535
  O       3.660090     -2.737533     -2.163557
  C       3.996608     -2.209639     -1.134820
  C       3.643324     -2.812685      0.244717
  C       4.539874     -2.259353      1.364007
  H       4.123179     -2.558829      2.340175
  H       5.537471     -2.728190      1.293883
  C       4.681851     -0.747783      1.268805
  H       5.339933     -0.370494      2.067289
  H       3.709862     -0.249116      1.388258
  C       5.281273     -0.357953     -0.073097
  H       6.335029     -0.696236     -0.107571
  C       5.218828      1.133080     -0.384813
  C       6.039734      2.005904      0.567091
  H       5.647459      1.910747      1.594584
  H       7.082685      1.638850      0.602424
  C       6.028445      3.480415      0.163162
  H       6.614212      4.097310      0.863518
  H       4.999670      3.877002      0.144985
  H       6.453841      3.621957     -0.844631
  H       4.161236      1.445370     -0.362816
  H       5.577001      1.271188     -1.419165
  C       3.793464     -4.348820      0.144446
  H       3.478057     -4.819459      1.088694
  H       4.843537     -4.624691     -0.048520
  H       3.181257     -4.742025     -0.677544
  C       2.188962     -2.477099      0.459241
  H       1.816132     -2.231369      1.458020
  C       0.574197     -0.480717     -0.283376
  C       1.096205      0.293374      0.879318
  O       0.529703     -0.048885      2.054650
  C       0.948331      0.694796      3.195464
  H       0.354374      0.320850      4.039006
  H       2.021427      0.543718      3.392611
  H       0.771702      1.771535      3.050368
  O       1.949174      1.153038      0.799240
  C      -0.588000     -1.153891     -0.177664
  H      -1.115408     -1.240179      0.773476
  H      -1.014780     -1.661289     -1.048468
  C       1.276182     -0.240374     -1.595513
  H       2.358323     -0.134376     -1.467832
  H       0.915531      0.697982     -2.050195
  H       1.089057     -1.062665     -2.299671
  H       1.467826     -2.899881     -0.237061
  O       4.621293     -1.017794     -1.183840
44
Coordinates from ORCA-job orca E -886.373989758429
  O       3.658764     -2.736365     -2.164854
  C       4.003672     -2.214193     -1.136041
  C       3.645972     -2.813867      0.242842
  C       4.543805     -2.261946      1.362142
  H       4.127423     -2.563034      2.338039
  H       5.541022     -2.731490      1.290024
  C       4.686213     -0.750723      1.269512
  H       5.344850     -0.373808      2.067614
  H       3.713778     -0.253097      1.391940
  C       5.282762     -0.358651     -0.073164
  H       6.336183     -0.697457     -0.110639
  C       5.217660      1.132964     -0.381954
  C       6.040708      2.005820      0.567874
  H       5.652286      1.909277      1.596652
  H       7.084273      1.640143      0.599061
  C       6.025967      3.480621      0.165228
  H       6.613416      4.097696      0.864011
  H       4.996587      3.875785      0.151080
  H       6.447544      3.623584     -0.843958
  H       4.159677      1.443005     -0.355103
  H       5.571086      1.273798     -1.417638
  C       3.791549     -4.350121      0.144755
  H       3.476498     -4.818446      1.090330
  H       4.840413     -4.628981     -0.049824
  H       3.176658     -4.742787     -0.675440
  C       2.189905     -2.474878      0.459791
  H       1.826108     -2.225010      1.459901
  C       0.571778     -0.481930     -0.284726
  C       1.092197      0.295350      0.877260
  O       0.523567     -0.043908      2.052100
  C       0.944938      0.700075      3.191993
  H       0.349203      0.330475      4.036239
  H       2.017361      0.544066      3.388874
  H       0.773583      1.777335      3.045104
  O       1.945814      1.154486      0.796235
  C      -0.588811     -1.158652     -0.175985
  H      -1.113470     -1.242097      0.776997
  H      -1.021209     -1.666004     -1.043713
  C       1.276172     -0.240303     -1.595020
  H       2.358448     -0.134769     -1.465679
  H       0.918387      0.701395     -2.045721
  H       1.087835     -1.057814     -2.304417
  H       1.474628     -2.900662     -0.240840
  O       4.622949     -1.019088     -1.183604
44
Coordinates from ORCA-job orca E -886.374016335242
  O       3.663257     -2.737613     -2.165122
  C       4.004711     -2.214304     -1.135759
  C       3.646854     -2.814281      0.242613
  C       4.545577     -2.264197      1.361905
  H       4.129562     -2.566329      2.337613
  H       5.542449     -2.734388      1.288745
  C       4.688387     -0.752447      1.270019
  H       5.347499     -0.375918      2.067984
  H       3.715708     -0.254745      1.393827
  C       5.283997     -0.358848     -0.072963
  H       6.337642     -0.696902     -0.111062
  C       5.217233      1.132712     -0.381557
  C       6.040329      2.006049      0.567754
  H       5.653090      1.908791      1.596967
  H       7.084312      1.641481      0.597764
  C       6.023450      3.480997      0.165632
  H       6.610878      4.098509      0.864056
  H       4.993581      3.874937      0.152638
  H       6.443854      3.624797     -0.843923
  H       4.159198      1.441593     -0.353705
  H       5.569572      1.274359     -1.417453
  C       3.789119     -4.350737      0.144827
  H       3.473476     -4.818471      1.090465
  H       4.837381     -4.631777     -0.050162
  H       3.173337     -4.742454     -0.675212
  C       2.191407     -2.473529      0.459739
  H       1.831670     -2.222686      1.460037
  C       0.571622     -0.482126     -0.285309
  C       1.091399      0.295721      0.876185
  O       0.521441     -0.041132      2.051127
  C       0.943581      0.702431      3.191378
  H       0.346207      0.334517      4.035163
  H       2.015426      0.543944      3.389205
  H       0.774932      1.780049      3.043962
  O       1.945225      1.154098      0.794413
  C      -0.587104     -1.159102     -0.175866
  H      -1.110445     -1.241831      0.777840
  H      -1.020801     -1.666752     -1.042471
  C       1.275182     -0.239953     -1.594719
  H       2.358383     -0.137077     -1.465246
  H       0.919852      0.704128     -2.042597
  H       1.083723     -1.054823     -2.306282
  H       1.478034     -2.901756     -0.241892
  O       4.623965     -1.019143     -1.183281
44
Coordinates from ORCA-job orca E -886.374026543945
  O       3.666143     -2.739385     -2.164996
  C       4.005872     -2.215187     -1.135474
  C       3.647764     -2.814783      0.242814
  C       4.547659     -2.265990      1.361625
  H       4.132506     -2.568708      2.337487
  H       5.544329     -2.736429      1.287456
  C       4.690401     -0.753878      1.270013
  H       5.350273     -0.377594      2.067509
  H       3.717719     -0.256261      1.395193
  C       5.284695     -0.359190     -0.073368
  H       6.338749     -0.695953     -0.111905
  C       5.216417      1.132278     -0.381852
  C       6.039424      2.005996      0.567247
  H       5.653210      1.907792      1.596785
  H       7.083811      1.642533      0.596209
  C       6.020512      3.481190      0.166012
  H       6.607839      4.098983      0.864278
  H       4.990165      3.873902      0.154141
  H       6.439848      3.626056     -0.843840
  H       4.158292      1.440402     -0.353450
  H       5.568247      1.274426     -1.417818
  C       3.787012     -4.351508      0.145663
  H       3.469917     -4.818455      1.091182
  H       4.834849     -4.634793     -0.048665
  H       3.171260     -4.742570     -0.674737
  C       2.193051     -2.471903      0.459419
  H       1.835751     -2.220934      1.460197
  C       0.572013     -0.481530     -0.285653
  C       1.091304      0.296071      0.875997
  O       0.519520     -0.038631      2.050720
  C       0.942250      0.704114      3.191348
  H       0.343004      0.337607      4.034385
  H       2.013478      0.543133      3.390425
  H       0.776251      1.782100      3.043525
  O       1.946140      1.153183      0.794341
  C      -0.585524     -1.158786     -0.176610
  H      -1.108342     -1.242040      0.777358
  H      -1.019007     -1.666846     -1.042968
  C       1.274984     -0.238449     -1.594564
  H       2.358880     -0.140276     -1.465356
  H       0.923437      0.708574     -2.039241
  H       1.079190     -1.050335     -2.308307
  H       1.480614     -2.902561     -0.241852
  O       4.624241     -1.019577     -1.183392
44
Coordinates from ORCA-job orca E -886.374026096729
  O       3.668833     -2.741682     -2.164848
  C       4.007230     -2.216495     -1.135354
  C       3.648712     -2.815317      0.243111
  C       4.549743     -2.267302      1.361248
  H       4.135593     -2.570322      2.337449
  H       5.546300     -2.737799      1.286103
  C       4.692325     -0.755026      1.269840
  H       5.353160     -0.379037      2.066693
  H       3.719754     -0.257518      1.396462
  C       5.285135     -0.359613     -0.074022
  H       6.339568     -0.695148     -0.113106
  C       5.215587      1.131805     -0.382400
  C       6.038721      2.005878      0.566331
  H       5.653693      1.906769      1.596235
  H       7.083498      1.643441      0.594068
  C       6.017866      3.481287      0.165937
  H       6.605297      4.099322      0.863901
  H       4.987080      3.872881      0.155385
  H       6.435951      3.627145     -0.844295
  H       4.157357      1.439424     -0.353395
  H       5.566889      1.274210     -1.418498
  C       3.785472     -4.352269      0.146764
  H       3.466773     -4.818368      1.092158
  H       4.832996     -4.637512     -0.046527
  H       3.170063     -4.742920     -0.674101
  C       2.194522     -2.470205      0.459117
  H       1.838682     -2.219560      1.460500
  C       0.572462     -0.480575     -0.285717
  C       1.091266      0.296311      0.876528
  O       0.517040     -0.036493      2.050591
  C       0.940133      0.705197      3.191719
  H       0.338786      0.340065      4.033846
  H       2.010684      0.541622      3.392330
  H       0.776919      1.783576      3.043592
  O       1.947852      1.151713      0.795732
  C      -0.584490     -1.158420     -0.177691
  H      -1.107331     -1.242899      0.776182
  H      -1.017046     -1.666692     -1.044359
  C       1.275395     -0.236143     -1.594252
  H       2.359965     -0.144252     -1.465545
  H       0.928761      0.714492     -2.035020
  H       1.074330     -1.044355     -2.310683
  H       1.482344     -2.903225     -0.241035
  O       4.624280     -1.020202     -1.183693
44
Coordinates from ORCA-job orca E -886.374033294449
  O       3.673869     -2.746558     -2.164614
  C       4.009990     -2.219355     -1.135379
  C       3.650472     -2.816251      0.243720
  C       4.553327     -2.268948      1.360519
  H       4.140884     -2.572013      2.337461
  H       5.549677     -2.739596      1.283817
  C       4.695902     -0.756591      1.269201
  H       5.358749     -0.381194      2.064675
  H       3.723744     -0.259046      1.398450
  C       5.285918     -0.360456     -0.075687
  H       6.340928     -0.694069     -0.116023
  C       5.214283      1.130899     -0.383905
  C       6.037978      2.005635      0.563785
  H       5.655439      1.904941      1.594462
  H       7.083451      1.645032      0.588926
  C       6.013567      3.481375      0.164817
  H       6.601554      4.099846      0.861925
  H       4.982028      3.871036      0.157115
  H       6.428927      3.628935     -0.846301
  H       4.155869      1.437738     -0.353399
  H       5.564254      1.273567     -1.420418
  C       3.783265     -4.353532      0.149331
  H       3.461824     -4.817762      1.094721
  H       4.830297     -4.641993     -0.041931
  H       3.168449     -4.743834     -0.672148
  C       2.196977     -2.467112      0.458716
  H       1.842731     -2.217531      1.461146
  C       0.573372     -0.478511     -0.285500
  C       1.090998      0.296342      0.878518
  O       0.511172     -0.033282      2.050633
  C       0.934578      0.705868      3.193170
  H       0.328784      0.343391      4.033264
  H       2.003682      0.536925      3.397111
  H       0.777157      1.785084      3.044795
  O       1.951701      1.147951      0.800425
  C      -0.582996     -1.157789     -0.180322
  H      -1.106695     -1.245311      0.772836
  H      -1.013064     -1.665801     -1.048379
  C       1.277106     -0.230732     -1.593035
  H       2.362881     -0.152621     -1.465349
  H       0.941214      0.727677     -2.025082
  H       1.065076     -1.030661     -2.315573
  H       1.484523     -2.904277     -0.238665
  O       4.624308     -1.021630     -1.184548
44
Coordinates from ORCA-job orca E -886.374034793945
  O       3.677714     -2.750375     -2.164380
  C       4.012151     -2.221561     -1.135470
  C       3.651682     -2.816712      0.244222
  C       4.555419     -2.269241      1.360152
  H       4.143797     -2.571878      2.337601
  H       5.551605     -2.740135      1.282729
  C       4.698342     -0.757022      1.268628
  H       5.362622     -0.382069      2.063106
  H       3.726613     -0.259171      1.399442
  C       5.286653     -0.361046     -0.077026
  H       6.341859     -0.693947     -0.118438
  C       5.213913      1.130269     -0.385374
  C       6.038426      2.005638      0.561022
  H       5.657892      1.904298      1.592368
  H       7.084332      1.646128      0.584144
  C       6.011737      3.481432      0.162433
  H       6.600522      4.100353      0.858464
  H       4.979774      3.870009      0.156949
  H       6.424854      3.629666     -0.849505
  H       4.155368      1.436665     -0.353424
  H       5.562498      1.272804     -1.422390
  C       3.782363     -4.354135      0.151519
  H       3.459564     -4.816933      1.097168
  H       4.829115     -4.644304     -0.038597
  H       3.167656     -4.744513     -0.670000
  C       2.198431     -2.465078      0.458715
  H       1.844338     -2.216499      1.461709
  C       0.573976     -0.477005     -0.285057
  C       1.090345      0.295661      0.880939
  O       0.505399     -0.032123      2.050900
  C       0.928498      0.704515      3.195103
  H       0.318914      0.343904      4.033259
  H       1.996339      0.531202      3.401983
  H       0.775803      1.784448      3.047025
  O       1.954642      1.144074      0.805930
  C      -0.582192     -1.157667     -0.182755
  H      -1.107168     -1.247984      0.769440
  H      -1.010041     -1.664638     -1.052541
  C       1.278979     -0.225759     -1.591429
  H       2.365597     -0.159648     -1.464684
  H       0.952416      0.739492     -2.015224
  H       1.057775     -1.017820     -2.319881
  H       1.485176     -2.904749     -0.236316
  O       4.624453     -1.022756     -1.185177
44
Coordinates from ORCA-job orca E -886.374039368854
  O       3.680336     -2.753216     -2.164063
  C       4.013651     -2.223131     -1.135530
  C       3.652430     -2.816671      0.244715
  C       4.556372     -2.268359      1.360149
  H       4.144788     -2.570159      2.337888
  H       5.552386     -2.739685      1.282728
  C       4.699982     -0.756381      1.267968
  H       5.365191     -0.381621      2.061751
  H       3.728681     -0.257940      1.399366
  C       5.287498     -0.361351     -0.078270
  H       6.342551     -0.694616     -0.120579
  C       5.214499      1.129904     -0.387042
  C       6.040011      2.005765      0.557965
  H       5.660988      1.904484      1.589861
  H       7.086105      1.646702      0.579611
  C       6.012157      3.481431      0.159017
  H       6.601869      4.100742      0.853920
  H       4.980052      3.869656      0.155133
  H       6.423566      3.629555     -0.853631
  H       4.155895      1.436122     -0.353734
  H       5.561693      1.272052     -1.424590
  C       3.782400     -4.354145      0.153552
  H       3.459614     -4.815824      1.099771
  H       4.828992     -4.644847     -0.036429
  H       3.167186     -4.744961     -0.667366
  C       2.199138     -2.463986      0.459233
  H       1.844301     -2.216065      1.462304
  C       0.574304     -0.476206     -0.284493
  C       1.089189      0.294153      0.883744
  O       0.499481     -0.032819      2.051418
  C       0.921631      0.701366      3.197549
  H       0.308611      0.342004      4.033738
  H       1.988341      0.524460      3.407223
  H       0.772828      1.781925      3.050136
  O       1.956446      1.139994      0.812137
  C      -0.581717     -1.158261     -0.185147
  H      -1.108235     -1.251152      0.765930
  H      -1.007723     -1.663409     -1.056928
  C       1.280834     -0.221113     -1.589427
  H       2.368063     -0.165557     -1.463554
  H       0.962493      0.750470     -2.004910
  H       1.051781     -1.005241     -2.324038
  H       1.484798     -2.904662     -0.234086
  O       4.624689     -1.023616     -1.185708
44
Coordinates from ORCA-job orca E -886.374037079339
  O       3.680726     -2.753976     -2.163718
  C       4.013890     -2.223432     -1.135433
  C       3.652515     -2.816144      0.245088
  C       4.556219     -2.267044      1.360458
  H       4.144088     -2.568091      2.338192
  H       5.552089     -2.738797      1.283549
  C       4.700427     -0.755262      1.267491
  H       5.365709     -0.380352      2.061138
  H       3.729330     -0.256295      1.398426
  C       5.288189     -0.361315     -0.078940
  H       6.342933     -0.695488     -0.121537
  C       5.215618      1.129842     -0.388237
  C       6.041777      2.005883      0.555990
  H       5.663137      1.905192      1.588077
  H       7.087774      1.646534      0.577339
  C       6.014214      3.481355      0.156301
  H       6.604471      4.100801      0.850622
  H       4.982255      3.869987      0.152720
  H       6.425215      3.628835     -0.856606
  H       4.157037      1.436128     -0.354335
  H       5.562111      1.271580     -1.426074
  C       3.783016     -4.353621      0.154687
  H       3.461155     -4.814903      1.101412
  H       4.829612     -4.643832     -0.035918
  H       3.167169     -4.744942     -0.665501
  C       2.199093     -2.463933      0.460038
  H       1.843524     -2.215783      1.462798
  C       0.574185     -0.476394     -0.284173
  C       1.087979      0.292621      0.885526
  O       0.495918     -0.034638      2.051891
  C       0.917029      0.698153      3.199350
  H       0.302156      0.339057      4.034289
  H       1.983149      0.519676      3.410655
  H       0.769905      1.779022      3.052554
  O       1.956262      1.137620      0.815971
  C      -0.581574     -1.159362     -0.186538
  H      -1.108993     -1.253655      0.763886
  H      -1.006885     -1.662958     -1.059560
  C       1.281587     -0.218638     -1.588040
  H       2.369085     -0.168167     -1.462605
  H       0.967249      0.756420     -1.998457
  H       1.048785     -0.997971     -2.326571
  H       1.484098     -2.904038     -0.232954
  O       4.624923     -1.023888     -1.185969
44
Coordinates from ORCA-job orca E -886.374042451027
  O       3.681192     -2.755335     -2.162645
  C       4.014141     -2.223941     -1.134780
  C       3.652655     -2.815250      0.246168
  C       4.556348     -2.265165      1.361294
  H       4.143539     -2.565044      2.339085
  H       5.551920     -2.737700      1.285095
  C       4.701533     -0.753587      1.266931
  H       5.367072     -0.378379      2.060235
  H       3.730795     -0.253784      1.397363
  C       5.289344     -0.361219     -0.079962
  H       6.343693     -0.696507     -0.123009
  C       5.217185      1.129705     -0.390387
  C       6.044753      2.006235      0.552097
  H       5.667158      1.906724      1.584670
  H       7.090594      1.646407      0.572633
  C       6.017500      3.481319      0.150960
  H       6.608889      4.101120      0.843997
  H       4.985775      3.870574      0.148186
  H       6.427444      3.627578     -0.862553
  H       4.158674      1.436130     -0.355296
  H       5.562206      1.270643     -1.428818
  C       3.783536     -4.352857      0.157038
  H       3.462875     -4.813415      1.104514
  H       4.830066     -4.642692     -0.034447
  H       3.166800     -4.744904     -0.662129
  C       2.199214     -2.463512      0.461475
  H       1.842982     -2.214666      1.463752
  C       0.574231     -0.476445     -0.283827
  C       1.085854      0.289904      0.888659
  O       0.489442     -0.037932      2.052604
  C       0.908685      0.691936      3.202663
  H       0.289888      0.333476      4.034976
  H       1.973546      0.509983      3.417315
  H       0.765225      1.773444      3.057009
  O       1.955836      1.133459      0.822988
  C      -0.580804     -1.161019     -0.189579
  H      -1.109595     -1.258214      0.759770
  H      -1.004782     -1.661963     -1.064753
  C       1.283101     -0.213599     -1.585584
  H       2.371081     -0.172643     -1.460824
  H       0.976456      0.767844     -1.986601
  H       1.043267     -0.983940     -2.331247
  H       1.483624     -2.902581     -0.231548
  O       4.625211     -1.024399     -1.186209
44
Coordinates from ORCA-job orca E -886.374048068896
  O       3.679360     -2.754016     -2.162462
  C       4.013244     -2.223187     -1.134577
  C       3.652278     -2.814971      0.246272
  C       4.555913     -2.265011      1.361487
  H       4.142985     -2.564972      2.339195
  H       5.551508     -2.737485      1.285439
  C       4.700916     -0.753389      1.267028
  H       5.366007     -0.377932      2.060596
  H       3.730021     -0.253700      1.396928
  C       5.289205     -0.361061     -0.079668
  H       6.343532     -0.696475     -0.122317
  C       5.217422      1.129840     -0.390176
  C       6.044732      2.006173      0.552742
  H       5.666438      1.906933      1.585093
  H       7.090408      1.645913      0.573999
  C       6.018339      3.481236      0.151463
  H       6.609442      4.100867      0.844899
  H       4.986770      3.870903      0.147873
  H       6.429109      3.627242     -0.861751
  H       4.158971      1.436508     -0.355693
  H       5.563006      1.270734     -1.428418
  C       3.783749     -4.352595      0.156660
  H       3.463558     -4.813532      1.104101
  H       4.830331     -4.641996     -0.035264
  H       3.166954     -4.744670     -0.662453
  C       2.198866     -2.463916      0.461742
  H       1.842810     -2.214360      1.463821
  C       0.574017     -0.476924     -0.284051
  C       1.085846      0.289945      0.888006
  O       0.491023     -0.038723      2.052591
  C       0.910103      0.691832      3.202273
  H       0.292212      0.332712      4.034967
  H       1.975297      0.511200      3.416362
  H       0.765227      1.773139      3.056518
  O       1.954575      1.134682      0.821529
  C      -0.580933     -1.161306     -0.189144
  H      -1.109235     -1.258088      0.760526
  H      -1.005441     -1.662578     -1.063861
  C       1.282413     -0.214663     -1.586126
  H       2.370275     -0.170632     -1.461094
  H       0.973366      0.765218     -1.989135
  H       1.044826     -0.986991     -2.330449
  H       1.483555     -2.902009     -0.232118
  O       4.625151     -1.024104     -1.186076
44
Coordinates from ORCA-job orca E -886.374047306333
  O       3.677126     -2.752858     -2.161907
  C       4.012232     -2.222507     -1.134129
  C       3.651951     -2.814560      0.246756
  C       4.555766     -2.264717      1.361829
  H       4.142883     -2.564608      2.339575
  H       5.551333     -2.737205      1.285848
  C       4.700652     -0.753055      1.267035
  H       5.365411     -0.377260      2.060725
  H       3.729656     -0.253406      1.396440
  C       5.289255     -0.360957     -0.079586
  H       6.343591     -0.696388     -0.121847
  C       5.217822      1.129883     -0.390388
  C       6.044929      2.006132      0.552827
  H       5.665941      1.907359      1.584975
  H       7.090408      1.645359      0.574863
  C       6.019534      3.481114      0.151168
  H       6.610389      4.100636      0.844911
  H       4.988157      3.871278      0.146692
  H       6.431150      3.626669     -0.861766
  H       4.159444      1.436857     -0.356581
  H       5.563987      1.270583     -1.428462
  C       3.783818     -4.352237      0.156820
  H       3.464078     -4.813383      1.104302
  H       4.830395     -4.641388     -0.035576
  H       3.166910     -4.744402     -0.662173
  C       2.198680     -2.463932      0.462376
  H       1.843000     -2.213255      1.464233
  C       0.573833     -0.477278     -0.284323
  C       1.085491      0.289605      0.887754
  O       0.491848     -0.040249      2.052658
  C       0.910310      0.690624      3.202348
  H       0.292698      0.330846      4.034966
  H       1.975645      0.510932      3.416524
  H       0.764443      1.771802      3.056609
  O       1.953055      1.135480      0.821054
  C      -0.580843     -1.161856     -0.189371
  H      -1.108691     -1.259059      0.760518
  H      -1.005501     -1.663235     -1.063937
  C       1.281859     -0.214631     -1.586450
  H       2.369716     -0.169482     -1.461339
  H       0.971987      0.764848     -1.989804
  H       1.045029     -0.987402     -2.330542
  H       1.483587     -2.900905     -0.232329
  O       4.625182     -1.024002     -1.186016
44
Coordinates from ORCA-job orca E -886.375508806839
  O       3.671415     -2.754952     -2.146161
  C       4.013864     -2.229235     -1.119569
  C       3.673955     -2.836733      0.264134
  C       4.574142     -2.282997      1.375953
  H       4.166199     -2.586668      2.354625
  H       5.574412     -2.745479      1.299382
  C       4.700488     -0.764319      1.274784
  H       5.362975     -0.382044      2.067309
  H       3.719823     -0.269901      1.402663
  C       5.285534     -0.364623     -0.073602
  H       6.342727     -0.690827     -0.117806
  C       5.210516      1.125109     -0.393467
  C       6.038135      2.006332      0.544678
  H       5.659371      1.913410      1.577468
  H       7.083505      1.645350      0.568458
  C       6.013109      3.479092      0.134836
  H       6.604332      4.102278      0.824993
  H       4.981854      3.869559      0.128449
  H       6.424520      3.618892     -0.879008
  H       4.156522      1.433728     -0.361726
  H       5.556898      1.260175     -1.432232
  C       3.815137     -4.373243      0.167917
  H       3.502129     -4.839944      1.114967
  H       4.862758     -4.655087     -0.029789
  H       3.197389     -4.766230     -0.650049
  C       2.236697     -2.487368      0.476242
  H       1.856929     -2.204313      1.450066
  C       0.545826     -0.427804     -0.298210
  C       1.080092      0.301954      0.878946
  O       0.487451     -0.040480      2.041671
  C       0.903922      0.668825      3.206847
  H       0.281512      0.295275      4.029955
  H       1.966795      0.484464      3.425222
  H       0.760595      1.752899      3.080050
  O       1.955307      1.136289      0.817121
  C      -0.595530     -1.105197     -0.208094
  H      -1.127660     -1.212753      0.738356
  H      -1.001134     -1.604168     -1.086850
  C       1.256298     -0.184231     -1.591965
  H       2.354406     -0.174769     -1.442417
  H       0.971035      0.797531     -2.008681
  H       1.007393     -0.962731     -2.325958
  H       1.479660     -2.871742     -0.225912
  O       4.616849     -1.027534     -1.176316
44
Coordinates from ORCA-job orca E -886.376482476740
  O       3.666915     -2.764069     -2.148622
  C       4.016922     -2.237440     -1.124037
  C       3.674765     -2.837534      0.261236
  C       4.578779     -2.278239      1.370657
  H       4.174404     -2.580417      2.351078
  H       5.579732     -2.738224      1.291367
  C       4.703439     -0.763324      1.271153
  H       5.365946     -0.378596      2.062533
  H       3.726435     -0.273902      1.399549
  C       5.284627     -0.367642     -0.077552
  H       6.341204     -0.695807     -0.123250
  C       5.208743      1.122496     -0.391289
  C       6.035396      2.001696      0.549874
  H       5.656628      1.904507      1.582314
  H       7.081284      1.642078      0.572523
  C       6.008523      3.475896      0.145348
  H       6.598824      4.097440      0.837764
  H       4.976761      3.865051      0.140182
  H       6.419900      3.619838     -0.867932
  H       4.150684      1.429588     -0.358365
  H       5.555043      1.260563     -1.429594
  C       3.819039     -4.373954      0.166280
  H       3.508737     -4.839280      1.114749
  H       4.866750     -4.654261     -0.033339
  H       3.199754     -4.769012     -0.649534
  C       2.230853     -2.486350      0.479418
  H       1.855352     -2.195416      1.463619
  C       0.540488     -0.427927     -0.299161
  C       1.073352      0.309699      0.881326
  O       0.483373     -0.032057      2.045039
  C       0.909697      0.679635      3.203478
  H       0.291028      0.312649      4.032104
  H       1.973952      0.490328      3.414597
  H       0.770611      1.763771      3.072593
  O       1.954598      1.141160      0.823005
  C      -0.608821     -1.115040     -0.207495
  H      -1.141234     -1.220292      0.738873
  H      -1.020661     -1.617508     -1.087589
  C       1.262911     -0.185867     -1.596145
  H       2.350265     -0.176112     -1.452527
  H       0.984260      0.797164     -2.011881
  H       1.015148     -0.960693     -2.334541
  H       1.487547     -2.866110     -0.220417
  O       4.616194     -1.032698     -1.180111
44
Coordinates from ORCA-job orca E -886.376608271115
  O       3.679926     -2.771372     -2.150549
  C       4.015515     -2.236723     -1.125170
  C       3.675090     -2.837253      0.259533
  C       4.580919     -2.277856      1.368354
  H       4.177797     -2.581003      2.349102
  H       5.581690     -2.737962      1.286538
  C       4.706452     -0.764350      1.271153
  H       5.368830     -0.379837      2.062600
  H       3.729912     -0.275914      1.400812
  C       5.287106     -0.369012     -0.077464
  H       6.343036     -0.699103     -0.124196
  C       5.209939      1.121373     -0.388707
  C       6.036274      2.000703      0.552429
  H       5.658375      1.902473      1.585010
  H       7.082568      1.642200      0.574020
  C       6.007560      3.475048      0.148742
  H       6.597669      4.096803      0.841118
  H       4.975383      3.863083      0.144484
  H       6.418113      3.619994     -0.864722
  H       4.150667      1.426197     -0.353853
  H       5.554412      1.261461     -1.427447
  C       3.820037     -4.373302      0.163658
  H       3.512576     -4.839237      1.112822
  H       4.867289     -4.652698     -0.039052
  H       3.198479     -4.768146     -0.650516
  C       2.228212     -2.486502      0.482328
  H       1.860959     -2.191131      1.468952
  C       0.536638     -0.430130     -0.299038
  C       1.068426      0.311760      0.880423
  O       0.477666     -0.027106      2.044245
  C       0.908471      0.685924      3.200058
  H       0.289615      0.324153      4.030890
  H       1.972395      0.491920      3.409050
  H       0.774368      1.770259      3.066476
  O       1.951034      1.142683      0.821320
  C      -0.614171     -1.120222     -0.204082
  H      -1.144409     -1.221952      0.743988
  H      -1.032593     -1.622354     -1.081772
  C       1.261509     -0.187733     -1.596774
  H       2.348348     -0.177512     -1.458812
  H       0.984906      0.797779     -2.008429
  H       1.011033     -0.958420     -2.338671
  H       1.490889     -2.867447     -0.221063
  O       4.619240     -1.033745     -1.180509
44
Coordinates from ORCA-job orca E -886.376669174373
  O       3.678834     -2.771400     -2.151003
  C       4.022798     -2.241750     -1.125807
  C       3.677744     -2.838584      0.258363
  C       4.584859     -2.280051      1.366976
  H       4.182222     -2.584567      2.347599
  H       5.585143     -2.741048      1.283015
  C       4.711443     -0.767055      1.272158
  H       5.375139     -0.383125      2.062700
  H       3.734927     -0.279262      1.405612
  C       5.288481     -0.369827     -0.077579
  H       6.344013     -0.700523     -0.127640
  C       5.208467      1.121069     -0.385942
  C       6.037057      2.000565      0.552828
  H       5.663221      1.901026      1.586724
  H       7.083910      1.643470      0.570104
  C       6.004777      3.475151      0.150389
  H       6.596575      4.097166      0.841086
  H       4.972041      3.861707      0.150238
  H       6.411394      3.621458     -0.864457
  H       4.148774      1.423404     -0.345910
  H       5.547859      1.263807     -1.426053
  C       3.818877     -4.374688      0.165224
  H       3.511873     -4.838142      1.115797
  H       4.865073     -4.656675     -0.038828
  H       3.194926     -4.769533     -0.647071
  C       2.228542     -2.485910      0.483593
  H       1.870878     -2.186703      1.471772
  C       0.535520     -0.431684     -0.300284
  C       1.064681      0.313220      0.878720
  O       0.471223     -0.022588      2.041839
  C       0.905131      0.690132      3.196966
  H       0.284178      0.333201      4.028363
  H       1.968008      0.490136      3.405636
  H       0.777426      1.774941      3.061794
  O       1.947747      1.143985      0.819553
  C      -0.614977     -1.124023     -0.203734
  H      -1.142987     -1.223080      0.745893
  H      -1.039706     -1.624254     -1.079281
  C       1.261231     -0.186176     -1.597042
  H       2.348785     -0.175723     -1.463902
  H       0.986576      0.803197     -2.001522
  H       1.007212     -0.950530     -2.344348
  H       1.497789     -2.869495     -0.225330
  O       4.620463     -1.035450     -1.179931
44
Coordinates from ORCA-job orca E -886.376699356023
  O       3.683968     -2.773368     -2.150889
  C       4.022056     -2.241054     -1.125180
  C       3.678182     -2.838715      0.258557
  C       4.586150     -2.281606      1.366968
  H       4.184018     -2.586869      2.347547
  H       5.586050     -2.743305      1.281968
  C       4.713340     -0.768195      1.272529
  H       5.377754     -0.384697      2.062737
  H       3.736825     -0.279969      1.407334
  C       5.289512     -0.370006     -0.077547
  H       6.345132     -0.700359     -0.128225
  C       5.208348      1.120812     -0.385734
  C       6.036889      2.000510      0.552863
  H       5.663859      1.900263      1.587034
  H       7.084035      1.644255      0.569289
  C       6.002983      3.475272      0.151128
  H       6.594615      4.097504      0.841777
  H       4.969877      3.860840      0.151776
  H       6.408859      3.622434     -0.863889
  H       4.148625      1.422267     -0.344998
  H       5.547055      1.264244     -1.425934
  C       3.817329     -4.374987      0.165349
  H       3.510488     -4.838300      1.116008
  H       4.863063     -4.658305     -0.039550
  H       3.192471     -4.769212     -0.646608
  C       2.229493     -2.485579      0.484416
  H       1.875741     -2.185681      1.473031
  C       0.535702     -0.432541     -0.300906
  C       1.064172      0.313180      0.877537
  O       0.469564     -0.020177      2.040897
  C       0.904168      0.692269      3.196249
  H       0.281708      0.337091      4.027226
  H       1.966382      0.489933      3.405829
  H       0.779082      1.777310      3.060488
  O       1.947108      1.143634      0.817316
  C      -0.613338     -1.124647     -0.204055
  H      -1.140179     -1.223198      0.746239
  H      -1.039493     -1.624499     -1.078845
  C       1.259320     -0.185631     -1.597164
  H       2.347773     -0.177064     -1.465571
  H       0.985995      0.805748     -1.997940
  H       1.002099     -0.946920     -2.346430
  H       1.500603     -2.871609     -0.225718
  O       4.620766     -1.035282     -1.179629
44
Coordinates from ORCA-job orca E -886.376707095019
  O       3.684806     -2.774340     -2.150235
  C       4.022089     -2.241518     -1.124514
  C       3.678713     -2.838983      0.259231
  C       4.587723     -2.282859      1.367081
  H       4.186411     -2.588436      2.347867
  H       5.587399     -2.744860      1.281248
  C       4.714963     -0.769097      1.272622
  H       5.380430     -0.385925      2.062142
  H       3.738634     -0.280615      1.408880
  C       5.289635     -0.370141     -0.077994
  H       6.345486     -0.699657     -0.129459
  C       5.207572      1.120625     -0.386042
  C       6.036553      2.000307      0.552265
  H       5.664681      1.899205      1.586792
  H       7.083940      1.644726      0.567448
  C       6.001169      3.475350      0.151585
  H       6.593036      4.097553      0.842064
  H       4.967767      3.860109      0.153544
  H       6.405896      3.623511     -0.863750
  H       4.147916      1.421819     -0.344571
  H       5.545674      1.264413     -1.426360
  C       3.815932     -4.375504      0.166374
  H       3.508479     -4.838334      1.117049
  H       4.861313     -4.660362     -0.038466
  H       3.190865     -4.769380     -0.645618
  C       2.230706     -2.484820      0.484938
  H       1.879087     -2.185321      1.474152
  C       0.536524     -0.432563     -0.301583
  C       1.064438      0.313054      0.877051
  O       0.468351     -0.018474      2.040228
  C       0.903030      0.693356      3.195977
  H       0.278901      0.339280      4.026144
  H       1.964608      0.489153      3.406914
  H       0.780005      1.778606      3.059873
  O       1.947788      1.142805      0.816691
  C      -0.611412     -1.124770     -0.205381
  H      -1.137711     -1.224309      0.745152
  H      -1.037344     -1.624513     -1.080210
  C       1.258566     -0.183784     -1.597515
  H       2.347334     -0.178607     -1.466377
  H       0.987624      0.809700     -1.994729
  H       0.998122     -0.941883     -2.348829
  H       1.502690     -2.873482     -0.224874
  O       4.619758     -1.035249     -1.179528
44
Coordinates from ORCA-job orca E -886.376705998365
  O       3.685043     -2.775448     -2.149494
  C       4.022100     -2.242142     -1.123925
  C       3.679164     -2.839129      0.260058
  C       4.589291     -2.283561      1.367137
  H       4.188979     -2.589224      2.348303
  H       5.588827     -2.745657      1.280455
  C       4.716506     -0.769649      1.272659
  H       5.383215     -0.386848      2.061338
  H       3.740479     -0.280978      1.410453
  C       5.289439     -0.370221     -0.078595
  H       6.345464     -0.699037     -0.131081
  C       5.206771      1.120550     -0.386393
  C       6.036793      2.000071      0.551236
  H       5.666517      1.898241      1.586270
  H       7.084345      1.644907      0.564710
  C       6.000182      3.475357      0.151525
  H       6.592819      4.097406      0.841484
  H       4.966599      3.859608      0.155306
  H       6.403274      3.624330     -0.864344
  H       4.147210      1.421826     -0.343804
  H       5.543935      1.264489     -1.426984
  C       3.814960     -4.375831      0.167646
  H       3.506811     -4.838153      1.118337
  H       4.860101     -4.661912     -0.036844
  H       3.189970     -4.769577     -0.644478
  C       2.231581     -2.483862      0.485642
  H       1.881378     -2.185410      1.475666
  C       0.537129     -0.432328     -0.302180
  C       1.064438      0.312733      0.877084
  O       0.466396     -0.017302      2.039635
  C       0.900966      0.693670      3.195882
  H       0.274968      0.340700      4.025107
  H       1.961840      0.487461      3.408398
  H       0.780166      1.779146      3.059523
  O       1.948844      1.141342      0.817357
  C      -0.610044     -1.125332     -0.206981
  H      -1.136020     -1.226767      0.743567
  H      -1.035145     -1.624945     -1.082248
  C       1.258329     -0.181095     -1.597883
  H       2.347230     -0.180641     -1.467072
  H       0.990866      0.814958     -1.990916
  H       0.994189     -0.935265     -2.351819
  H       1.503970     -2.875574     -0.222966
  O       4.618277     -1.035121     -1.179494
44
Coordinates from ORCA-job orca E -886.376709758617
  O       3.685766     -2.777768     -2.148241
  C       4.022188     -2.243296     -1.123049
  C       3.679799     -2.839188      0.261556
  C       4.591655     -2.283988      1.367216
  H       4.192963     -2.589479      2.349113
  H       5.590997     -2.746192      1.279216
  C       4.718960     -0.770020      1.272614
  H       5.387870     -0.387890      2.059765
  H       3.743537     -0.280977      1.412957
  C       5.288941     -0.370256     -0.079788
  H       6.345118     -0.698331     -0.134186
  C       5.205630      1.120572     -0.387213
  C       6.037871      1.999793      0.548813
  H       5.670577      1.897015      1.584818
  H       7.085622      1.645091      0.559130
  C       5.999468      3.475392      0.150402
  H       6.593852      4.097170      0.839107
  H       4.965699      3.859102      0.157560
  H       6.399462      3.625385     -0.866546
  H       4.146258      1.422213     -0.342397
  H       5.540860      1.264503     -1.428430
  C       3.813662     -4.376105      0.170197
  H       3.504427     -4.837425      1.121031
  H       4.858492     -4.663898     -0.033550
  H       3.188863     -4.769896     -0.642058
  C       2.232612     -2.482053      0.487170
  H       1.884139     -2.186072      1.478718
  C       0.538008     -0.431594     -0.303122
  C       1.064180      0.311755      0.877783
  O       0.462014     -0.016163      2.038655
  C       0.896157      0.692720      3.196217
  H       0.266509      0.341721      4.023521
  H       1.955645      0.482516      3.411801
  H       0.779760      1.778680      3.059816
  O       1.951177      1.137798      0.820206
  C      -0.608091     -1.126661     -0.210093
  H      -1.133805     -1.232264      0.740183
  H      -1.031294     -1.625626     -1.086643
  C       1.258603     -0.175443     -1.598290
  H       2.347588     -0.185013     -1.468328
  H       0.998679      0.825792     -1.982910
  H       0.987142     -0.921556     -2.357594
  H       1.505019     -2.879428     -0.218342
  O       4.615571     -1.034847     -1.179505
44
Coordinates from ORCA-job orca E -886.376716299074
  O       3.686291     -2.779452     -2.147325
  C       4.022117     -2.243925     -1.122523
  C       3.680028     -2.838850      0.262651
  C       4.592758     -2.283256      1.367353
  H       4.194913     -2.588324      2.349753
  H       5.592003     -2.745559      1.278673
  C       4.720317     -0.769412      1.272456
  H       5.390620     -0.387611      2.058578
  H       3.745323     -0.280043      1.414202
  C       5.288547     -0.370042     -0.080757
  H       6.344602     -0.698291     -0.136586
  C       5.205293      1.120824     -0.388054
  C       6.039582      1.999743      0.546430
  H       5.674485      1.896753      1.583188
  H       7.087310      1.644917      0.554440
  C       6.000552      3.475425      0.148425
  H       6.596582      4.096949      0.835926
  H       4.966863      3.859297      0.157986
  H       6.398286      3.625588     -0.869380
  H       4.146099      1.422915     -0.341334
  H       5.538791      1.264479     -1.429873
  C       3.813139     -4.375775      0.172274
  H       3.503664     -4.836323      1.123424
  H       4.857821     -4.664204     -0.031211
  H       3.188199     -4.769847     -0.639731
  C       2.232818     -2.480802      0.488643
  H       1.884803     -2.186883      1.481161
  C       0.538375     -0.430998     -0.303689
  C       1.063487      0.310441      0.878923
  O       0.457865     -0.016737      2.038081
  C       0.891379      0.690087      3.197072
  H       0.258936      0.340311      4.022767
  H       1.949786      0.476767      3.414940
  H       0.778361      1.776462      3.061166
  O       1.952671      1.134444      0.823924
  C      -0.607037     -1.128069     -0.212646
  H      -1.132980     -1.237080      0.737105
  H      -1.028645     -1.625962     -1.090608
  C       1.259425     -0.170936     -1.598112
  H       2.348366     -0.188496     -1.469108
  H       1.005677      0.834394     -1.975948
  H       0.982437     -0.910522     -2.361803
  H       1.504601     -2.882087     -0.214022
  O       4.613642     -1.034520     -1.179550
44
Coordinates from ORCA-job orca E -886.376722710384
  O       3.686633     -2.780574     -2.146517
  C       4.021813     -2.244058     -1.122082
  C       3.679932     -2.838112      0.263590
  C       4.593001     -2.281663      1.367665
  H       4.195406     -2.586136      2.350366
  H       5.592155     -2.744191      1.278759
  C       4.721007     -0.768023      1.272268
  H       5.392115     -0.386291      2.057723
  H       3.746310     -0.278298      1.414600
  C       5.288338     -0.369533     -0.081553
  H       6.344051     -0.698708     -0.138506
  C       5.205644      1.121361     -0.388999
  C       6.042104      1.999944      0.543777
  H       5.678825      1.897338      1.581197
  H       7.089625      1.644473      0.549928
  C       6.003320      3.475546      0.145504
  H       6.601098      4.096802      0.831729
  H       4.969928      3.860177      0.156952
  H       6.399230      3.625215     -0.873091
  H       4.146647      1.423983     -0.340397
  H       5.537319      1.264542     -1.431477
  C       3.813060     -4.374966      0.174180
  H       3.504038     -4.834917      1.125777
  H       4.857700     -4.663304     -0.029495
  H       3.187680     -4.769479     -0.637262
  C       2.232477     -2.479954      0.490359
  H       1.884351     -2.187530      1.483435
  C       0.538358     -0.430704     -0.304096
  C       1.062272      0.308556      0.880429
  O       0.453425     -0.018777      2.037797
  C       0.886096      0.685805      3.198476
  H       0.251056      0.336906      4.022560
  H       1.943501      0.469584      3.418381
  H       0.776166      1.772598      3.063459
  O       1.953274      1.130924      0.828421
  C      -0.606405     -1.129805     -0.215152
  H      -1.132984     -1.241751      0.733877
  H      -1.026702     -1.626041     -1.094724
  C       1.260461     -0.167061     -1.597424
  H       2.349354     -0.191445     -1.469696
  H       1.012187      0.841964     -1.968929
  H       0.978844     -0.900613     -2.365263
  H       1.503234     -2.883938     -0.209734
  O       4.612200     -1.034057     -1.179532
44
Coordinates from ORCA-job orca E -886.376727319397
  O       3.686298     -2.780638     -2.146023
  C       4.021377     -2.243754     -1.121782
  C       3.679675     -2.837411      0.264075
  C       4.592688     -2.280380      1.368009
  H       4.194885     -2.584485      2.350736
  H       5.591769     -2.743115      1.279230
  C       4.720980     -0.766866      1.272120
  H       5.392068     -0.384920      2.057481
  H       3.746334     -0.276934      1.414153
  C       5.288421     -0.369133     -0.081859
  H       6.343846     -0.699174     -0.139086
  C       5.206280      1.121716     -0.389628
  C       6.043691      2.000166      0.542375
  H       5.680847      1.898187      1.580009
  H       7.090998      1.644069      0.548142
  C       6.005648      3.475612      0.143489
  H       6.604199      4.096757      0.829142
  H       4.972538      3.860990      0.155296
  H       6.401152      3.624574     -0.875361
  H       4.147382      1.424608     -0.340354
  H       5.537217      1.264549     -1.432389
  C       3.813216     -4.374227      0.175061
  H       3.504828     -4.834034      1.126932
  H       4.857878     -4.662165     -0.029034
  H       3.187438     -4.769006     -0.635939
  C       2.232085     -2.479732      0.491504
  H       1.883779     -2.187299      1.484533
  C       0.538184     -0.430811     -0.304262
  C       1.061393      0.307216      0.881338
  O       0.451190     -0.020783      2.037843
  C       0.883322      0.682522      3.199534
  H       0.247022      0.333834      4.022729
  H       1.940251      0.464919      3.420370
  H       0.774799      1.769534      3.065197
  O       1.952897      1.129166      0.830969
  C      -0.606219     -1.130809     -0.216468
  H      -1.133343     -1.243811      0.732113
  H      -1.026108     -1.625866     -1.096902
  C       1.260973     -0.165574     -1.596829
  H       2.349885     -0.192441     -1.469937
  H       1.014834      0.845038     -1.965493
  H       0.977632     -0.896466     -2.366580
  H       1.502144     -2.884063     -0.207691
  O       4.611775     -1.033768     -1.179485
44
Coordinates from ORCA-job orca E -886.377498048219
  O       3.679253     -2.782192     -2.129897
  C       4.021954     -2.250183     -1.106962
  C       3.701234     -2.859218      0.281970
  C       4.610863     -2.297746      1.382109
  H       4.218302     -2.605245      2.365908
  H       5.614515     -2.750456      1.292535
  C       4.720923     -0.777462      1.279499
  H       5.390038     -0.389165      2.063457
  H       3.736916     -0.292316      1.420092
  C       5.284381     -0.372556     -0.076311
  H       6.342470     -0.693648     -0.136019
  C       5.198922      1.117288     -0.392741
  C       6.037531      2.000161      0.534018
  H       5.675348      1.903913      1.572445
  H       7.084620      1.643442      0.540943
  C       6.000128      3.473515      0.127330
  H       6.599545      4.097925      0.809269
  H       4.967267      3.859599      0.137813
  H       6.395013      3.616825     -0.892587
  H       4.144591      1.422310     -0.344939
  H       5.529624      1.254609     -1.436331
  C       3.844163     -4.394908      0.187609
  H       3.542747     -4.859635      1.139362
  H       4.889787     -4.675572     -0.021826
  H       3.217444     -4.791142     -0.621956
  C       2.269775     -2.503307      0.505571
  H       1.896980     -2.178939      1.470578
  C       0.509998     -0.381915     -0.319349
  C       1.056211      0.319210      0.872078
  O       0.447397     -0.021563      2.026734
  C       0.876865      0.659515      3.203938
  H       0.235589      0.296765      4.017331
  H       1.931111      0.437365      3.428725
  H       0.770591      1.749177      3.089231
  O       1.954818      1.129672      0.826537
  C      -0.620528     -1.075507     -0.235614
  H      -1.150709     -1.199518      0.709957
  H      -1.021967     -1.568209     -1.119473
  C       1.236082     -0.132466     -1.604065
  H       2.333998     -0.196649     -1.449786
  H       1.014901      0.879442     -1.985842
  H       0.939612     -0.869922     -2.361719
  H       1.497378     -2.858364     -0.202563
  O       4.602469     -1.037141     -1.169780
44
Coordinates from ORCA-job orca E -886.378582171145
  O       3.674607     -2.791623     -2.131757
  C       4.024671     -2.258128     -1.110950
  C       3.701767     -2.859583      0.279382
  C       4.615003     -2.292561      1.377323
  H       4.225817     -2.598532      2.362735
  H       5.619237     -2.742879      1.285157
  C       4.723420     -0.776041      1.276185
  H       5.392279     -0.385084      2.059112
  H       3.743067     -0.295807      1.416870
  C       5.283370     -0.375525     -0.079980
  H       6.340734     -0.698908     -0.141044
  C       5.197257      1.114525     -0.390956
  C       6.035242      1.995598      0.538371
  H       5.673127      1.895620      1.576520
  H       7.082741      1.640003      0.544246
  C       5.996397      3.470227      0.136417
  H       6.595161      4.093112      0.820321
  H       4.963165      3.855301      0.148061
  H       6.391193      3.617150     -0.883021
  H       4.138850      1.418012     -0.341896
  H       5.527694      1.254438     -1.434190
  C       3.848528     -4.395023      0.185600
  H       3.550037     -4.858958      1.138501
  H       4.894372     -4.673450     -0.025854
  H       3.220537     -4.793226     -0.622034
  C       2.263139     -2.503011      0.509748
  H       1.895348     -2.170706      1.483729
  C       0.505543     -0.381607     -0.319776
  C       1.048989      0.326813      0.874833
  O       0.442107     -0.013962      2.029796
  C       0.881485      0.668425      3.200846
  H       0.243405      0.312209      4.019373
  H       1.936798      0.440403      3.418685
  H       0.780381      1.758176      3.082442
  O       1.953662      1.133779      0.833317
  C      -0.633656     -1.084132     -0.235744
  H      -1.164894     -1.205718      0.709342
  H      -1.040866     -1.579980     -1.121631
  C       1.243082     -0.134436     -1.606849
  H       2.328930     -0.197820     -1.459681
  H       1.028971      0.878784     -1.986200
  H       0.948397     -0.866585     -2.371064
  H       1.507526     -2.851269     -0.193858
  O       4.601531     -1.042232     -1.173146
44
Coordinates from ORCA-job orca E -886.378716132480
  O       3.687146     -2.798952     -2.133233
  C       4.023110     -2.257524     -1.111682
  C       3.701915     -2.858939      0.278062
  C       4.616812     -2.291520      1.375433
  H       4.228712     -2.598210      2.361152
  H       5.620785     -2.742095      1.280984
  C       4.726272     -0.776453      1.276172
  H       5.394930     -0.385493      2.059123
  H       3.746469     -0.297055      1.417864
  C       5.285818     -0.376771     -0.080022
  H       6.342432     -0.702396     -0.141982
  C       5.198710      1.113435     -0.388893
  C       6.036532      1.994651      0.540284
  H       5.675245      1.893884      1.578573
  H       7.084328      1.639932      0.545192
  C       5.996218      3.469383      0.139020
  H       6.594925      4.092407      0.822835
  H       4.962693      3.853618      0.151508
  H       6.390256      3.617090     -0.880592
  H       4.139132      1.414725     -0.337962
  H       5.527308      1.255141     -1.432558
  C       3.850071     -4.394011      0.183465
  H       3.554831     -4.858682      1.137088
  H       4.895541     -4.670964     -0.031234
  H       3.219924     -4.792338     -0.622398
  C       2.259890     -2.504105      0.513569
  H       1.900873     -2.166991      1.489621
  C       0.502219     -0.384111     -0.319392
  C       1.043697      0.328197      0.874365
  O       0.435678     -0.009961      2.029141
  C       0.879774      0.673061      3.197921
  H       0.241148      0.322368      4.018457
  H       1.934384      0.439444      3.413751
  H       0.784597      1.762966      3.077068
  O       1.949698      1.134627      0.832493
  C      -0.639363     -1.088641     -0.233311
  H      -1.169259     -1.206682      0.713065
  H      -1.053105     -1.583076     -1.117523
  C       1.241663     -0.136257     -1.606985
  H       2.327021     -0.199063     -1.466864
  H       1.029708      0.879707     -1.980781
  H       0.944673     -0.862285     -2.376297
  H       1.510399     -2.852942     -0.193717
  O       4.604343     -1.043330     -1.173500
44
Coordinates from ORCA-job orca E -886.378768248813
  O       3.685184     -2.798975     -2.132920
  C       4.030022     -2.262323     -1.111771
  C       3.704330     -2.859770      0.277395
  C       4.620388     -2.292909      1.374563
  H       4.232602     -2.600755      2.360131
  H       5.623778     -2.744586      1.278181
  C       4.731204     -0.778401      1.277334
  H       5.401220     -0.387876      2.059256
  H       3.751613     -0.299390      1.422720
  C       5.287106     -0.377367     -0.080108
  H       6.343110     -0.704085     -0.145434
  C       5.197548      1.113261     -0.386482
  C       6.038090      1.994683      0.539822
  H       5.681059      1.893138      1.579467
  H       7.086223      1.640948      0.540333
  C       5.994775      3.469528      0.139388
  H       6.595522      4.092789      0.821197
  H       4.960936      3.852746      0.156048
  H       6.384746      3.618085     -0.881652
  H       4.137693      1.412239     -0.330175
  H       5.520742      1.257276     -1.431571
  C       3.849633     -4.394943      0.185632
  H       3.555632     -4.857323      1.140796
  H       4.894126     -4.673788     -0.030904
  H       3.216995     -4.793680     -0.618016
  C       2.259514     -2.504742      0.516173
  H       1.911166     -2.163058      1.493648
  C       0.501665     -0.386356     -0.320496
  C       1.039477      0.328538      0.873180
  O       0.428241     -0.006803      2.026855
  C       0.875483      0.675031      3.195457
  H       0.234208      0.329555      4.016170
  H       1.928519      0.434295      3.411201
  H       0.787872      1.765328      3.073430
  O       1.945695      1.135156      0.831844
  C      -0.640600     -1.092009     -0.234321
  H      -1.169147     -1.207520      0.713166
  H      -1.060796     -1.582961     -1.117252
  C       1.241213     -0.134210     -1.606945
  H       2.327604     -0.196357     -1.473619
  H       1.030941      0.885881     -1.971504
  H       0.941283     -0.851467     -2.383386
  H       1.516449     -2.856067     -0.196957
  O       4.605086     -1.044967     -1.172595
44
Coordinates from ORCA-job orca E -886.378816534658
  O       3.689671     -2.800470     -2.132455
  C       4.028172     -2.260982     -1.110736
  C       3.704484     -2.859611      0.277986
  C       4.621567     -2.294071      1.374770
  H       4.234435     -2.602598      2.360357
  H       5.624507     -2.746553      1.277214
  C       4.733200     -0.779174      1.277849
  H       5.404171     -0.389165      2.059274
  H       3.753751     -0.299496      1.424796
  C       5.288048     -0.377365     -0.080051
  H       6.344007     -0.704102     -0.146269
  C       5.197639      1.113192     -0.386231
  C       6.038825      1.994644      0.539418
  H       5.683172      1.892487      1.579521
  H       7.087162      1.641519      0.538482
  C       5.993983      3.469658      0.139708
  H       6.595170      4.092999      0.821057
  H       4.959895      3.852145      0.157861
  H       6.382554      3.618952     -0.881759
  H       4.137875      1.411549     -0.328719
  H       5.519637      1.257790     -1.431571
  C       3.848379     -4.394978      0.185993
  H       3.555412     -4.857387      1.141419
  H       4.892356     -4.674741     -0.032154
  H       3.214402     -4.793292     -0.616866
  C       2.260145     -2.504965      0.518009
  H       1.916379     -2.162049      1.495938
  C       0.501991     -0.387889     -0.321331
  C       1.038773      0.327754      0.872067
  O       0.426028     -0.005119      2.025775
  C       0.873685      0.676224      3.194830
  H       0.230394      0.332861      4.014814
  H       1.925733      0.432605      3.411945
  H       0.789333      1.766704      3.072193
  O       1.944594      1.134459      0.829989
  C      -0.639070     -1.092974     -0.235364
  H      -1.166657     -1.208254      0.712670
  H      -1.060751     -1.582884     -1.117848
  C       1.239109     -0.133262     -1.607333
  H       2.326550     -0.196646     -1.476301
  H       1.029603      0.888692     -1.967520
  H       0.936441     -0.846854     -2.385984
  H       1.518620     -2.859182     -0.196097
  O       4.604775     -1.044381     -1.172067
44
Coordinates from ORCA-job orca E -886.378818514425
  O       3.688381     -2.800466     -2.131340
  C       4.026999     -2.260827     -1.109745
  C       3.704642     -2.859543      0.279104
  C       4.623033     -2.294843      1.375019
  H       4.237008     -2.603621      2.360933
  H       5.625726     -2.747611      1.276393
  C       4.734747     -0.779611      1.277991
  H       5.407039     -0.389992      2.058524
  H       3.755617     -0.299523      1.426594
  C       5.287808     -0.377219     -0.080570
  H       6.343852     -0.703473     -0.147911
  C       5.197016      1.113324     -0.386544
  C       6.039211      1.994393      0.538625
  H       5.684865      1.891584      1.579138
  H       7.087597      1.641443      0.536251
  C       5.993547      3.469681      0.139927
  H       6.595374      4.092728      0.820980
  H       4.959379      3.851868      0.159545
  H       6.380879      3.619736     -0.881900
  H       4.137471      1.411897     -0.328096
  H       5.518259      1.258137     -1.432057
  C       3.847251     -4.395122      0.187148
  H       3.554385     -4.857269      1.142705
  H       4.890876     -4.675982     -0.031553
  H       3.212761     -4.793211     -0.615453
  C       2.261084     -2.504487      0.519588
  H       1.919786     -2.161453      1.498087
  C       0.502916     -0.388457     -0.322360
  C       1.039012      0.327024      0.871463
  O       0.424802     -0.004389      2.024857
  C       0.871919      0.676278      3.194544
  H       0.226849      0.333725      4.013437
  H       1.923237      0.431097      3.413339
  H       0.789344      1.766889      3.071743
  O       1.944983      1.133328      0.829531
  C      -0.637045     -1.093590     -0.237270
  H      -1.164090     -1.210327      0.710927
  H      -1.058356     -1.583103     -1.120005
  C       1.238228     -0.131076     -1.608148
  H       2.325879     -0.196562     -1.477741
  H       1.029925      0.892294     -1.965000
  H       0.933374     -0.841986     -2.388325
  H       1.519798     -2.862052     -0.193313
  O       4.602782     -1.043841     -1.171782
44
Coordinates from ORCA-job orca E -886.378826188183
  O       3.685489     -2.800351     -2.129723
  C       4.025264     -2.260709     -1.108495
  C       3.704682     -2.859298      0.280784
  C       4.624994     -2.295257      1.375256
  H       4.240700     -2.604143      2.361809
  H       5.627440     -2.748169      1.275068
  C       4.736758     -0.779838      1.278173
  H       5.410998     -0.390787      2.057329
  H       3.758181     -0.299301      1.429103
  C       5.287109     -0.376994     -0.081384
  H       6.343154     -0.702886     -0.150596
  C       5.196137      1.113621     -0.386877
  C       6.040376      1.994018      0.537175
  H       5.688337      1.890443      1.578402
  H       7.088742      1.641046      0.532287
  C       5.993830      3.469639      0.139768
  H       6.597153      4.092157      0.819983
  H       4.959686      3.851740      0.162008
  H       6.378856      3.620535     -0.882809
  H       4.136907      1.412791     -0.326619
  H       5.515862      1.258577     -1.432824
  C       3.846180     -4.395051      0.188817
  H       3.553564     -4.856910      1.144582
  H       4.889420     -4.676940     -0.030538
  H       3.211150     -4.793021     -0.613434
  C       2.261772     -2.503559      0.522233
  H       1.923134     -2.160747      1.501701
  C       0.503967     -0.388839     -0.323754
  C       1.039093      0.325921      0.871078
  O       0.422476     -0.004103      2.023532
  C       0.868686      0.675439      3.194131
  H       0.221116      0.333993      4.011506
  H       1.918997      0.428054      3.415300
  H       0.788612      1.766235      3.071204
  O       1.945926      1.131211      0.830239
  C      -0.634968     -1.094938     -0.240074
  H      -1.161450     -1.214510      0.708123
  H      -1.055315     -1.583917     -1.123514
  C       1.237876     -0.127425     -1.609340
  H       2.325475     -0.196395     -1.479558
  H       1.031825      0.897958     -1.961544
  H       0.930190     -0.834450     -2.391889
  H       1.520211     -2.866056     -0.187935
  O       4.599557     -1.042994     -1.171406
44
Coordinates from ORCA-job orca E -886.378838709257
  O       3.681090     -2.800056     -2.127364
  C       4.022398     -2.260181     -1.106764
  C       3.704401     -2.858579      0.283284
  C       4.627342     -2.294964      1.375597
  H       4.245473     -2.603781      2.363127
  H       5.629477     -2.748010      1.273187
  C       4.739367     -0.779495      1.278514
  H       5.416410     -0.391332      2.055702
  H       3.761663     -0.298296      1.432646
  C       5.285928     -0.376446     -0.082502
  H       6.341769     -0.702415     -0.154633
  C       5.195144      1.114336     -0.387267
  C       6.043036      1.993668      0.534537
  H       5.694635      1.889505      1.576925
  H       7.091195      1.640157      0.525752
  C       5.995889      3.469620      0.138406
  H       6.601967      4.091316      0.816920
  H       4.962016      3.852208      0.164641
  H       6.377307      3.621090     -0.885439
  H       4.136400      1.414593     -0.323827
  H       5.512083      1.259247     -1.434066
  C       3.845012     -4.394389      0.191159
  H       3.553033     -4.856053      1.147227
  H       4.887833     -4.677077     -0.029178
  H       3.209231     -4.792270     -0.610552
  C       2.262006     -2.502064      0.526728
  H       1.926472     -2.159984      1.507640
  C       0.505123     -0.389171     -0.325711
  C       1.038665      0.323820      0.871062
  O       0.418170     -0.004995      2.021658
  C       0.862826      0.672606      3.193841
  H       0.211651      0.332628      4.008970
  H       1.911667      0.422018      3.418447
  H       0.786387      1.763689      3.071092
  O       1.947306      1.127228      0.832837
  C      -0.632551     -1.097564     -0.244427
  H      -1.158532     -1.221957      0.703448
  H      -1.051097     -1.585438     -1.129342
  C       1.238110     -0.121732     -1.610776
  H       2.325434     -0.196245     -1.481880
  H       1.035823      0.906685     -1.955957
  H       0.926531     -0.822717     -2.397194
  H       1.519339     -2.871929     -0.178430
  O       4.594722     -1.041484     -1.170760
44
Coordinates from ORCA-job orca E -886.378831773968
  O       3.675347     -2.799500     -2.124286
  C       4.018394     -2.259095     -1.104574
  C       3.703692     -2.857186      0.286515
  C       4.629724     -2.293547      1.376132
  H       4.250699     -2.602101      2.364876
  H       5.631489     -2.746779      1.270963
  C       4.742280     -0.778192      1.279004
  H       5.422641     -0.391016      2.053778
  H       3.765628     -0.296180      1.436834
  C       5.284353     -0.375437     -0.083848
  H       6.339649     -0.702330     -0.159841
  C       5.194282      1.115587     -0.387737
  C       6.047787      1.993465      0.530294
  H       5.704721      1.888953      1.574416
  H       7.095528      1.638874      0.515866
  C       6.000204      3.469723      0.135391
  H       6.610635      4.090286      0.811032
  H       4.966919      3.853466      0.167444
  H       6.376262      3.621451     -0.890398
  H       4.136230      1.417359     -0.319365
  H       5.506688      1.260184     -1.435951
  C       3.843669     -4.392902      0.194300
  H       3.553187     -4.854350      1.150953
  H       4.885978     -4.676022     -0.027750
  H       3.206467     -4.790798     -0.606276
  C       2.261589     -2.500045      0.533250
  H       1.929332     -2.158920      1.515828
  C       0.506380     -0.389418     -0.328203
  C       1.037509      0.320438      0.871586
  O       0.411532     -0.007800      2.019227
  C       0.853954      0.666715      3.193902
  H       0.198004      0.328571      4.005979
  H       1.900807      0.411652      3.422857
  H       0.782516      1.758220      3.071932
  O       1.948726      1.121273      0.837867
  C      -0.629692     -1.101493     -0.250474
  H      -1.155562     -1.232348      0.696588
  H      -1.045726     -1.587280     -1.137770
  C       1.239348     -0.114339     -1.612040
  H       2.326215     -0.196026     -1.484552
  H       1.042173      0.918059     -1.947904
  H       0.923175     -0.807078     -2.403925
  H       1.516835     -2.878951     -0.164837
  O       4.588581     -1.039351     -1.169800
44
Coordinates from ORCA-job orca E -886.378845921719
  O       3.672319     -2.798921     -2.122793
  C       4.016101     -2.258146     -1.103560
  C       3.702968     -2.856049      0.288046
  C       4.630220     -2.291956      1.376469
  H       4.252238     -2.600210      2.365710
  H       5.631807     -2.745356      1.270123
  C       4.743167     -0.776773      1.279116
  H       5.424651     -0.389792      2.052988
  H       3.766903     -0.294414      1.438012
  C       5.283729     -0.374715     -0.084492
  H       6.338545     -0.702776     -0.162167
  C       5.194398      1.116402     -0.388229
  C       6.050621      1.993598      0.527854
  H       5.709753      1.889441      1.572733
  H       7.098016      1.638099      0.511149
  C       6.003531      3.469845      0.132887
  H       6.616098      4.089896      0.807065
  H       4.970706      3.854639      0.167242
  H       6.377415      3.621101     -0.893765
  H       4.136672      1.418887     -0.317516
  H       5.504573      1.260648     -1.437167
  C       3.843108     -4.391610      0.195873
  H       3.553878     -4.853048      1.152923
  H       4.885236     -4.674398     -0.027331
  H       3.204922     -4.789598     -0.603863
  C       2.260820     -2.499052      0.537083
  H       1.929535     -2.158130      1.520168
  C       0.506825     -0.389449     -0.329338
  C       1.036632      0.318152      0.872297
  O       0.407916     -0.010698      2.018266
  C       0.849150      0.661884      3.194500
  H       0.190971      0.324368      4.005038
  H       1.895054      0.404602      3.425332
  H       0.780112      1.753632      3.073435
  O       1.949147      1.117742      0.841514
  C      -0.628478     -1.103663     -0.253716
  H      -1.154874     -1.237496      0.692608
  H      -1.043263     -1.587779     -1.142555
  C       1.240672     -0.111044     -1.612110
  H       2.327318     -0.196044     -1.485578
  H       1.046092      0.923302     -1.943461
  H       0.922663     -0.799581     -2.406944
  H       1.514354     -2.881495     -0.157236
  O       4.585930     -1.038255     -1.169329
44
Coordinates from ORCA-job orca E -886.378847196444
  O       3.668151     -2.797714     -2.120846
  C       4.013120     -2.256696     -1.102182
  C       3.701892     -2.854378      0.289915
  C       4.630408     -2.289686      1.377149
  H       4.253327     -2.597583      2.366840
  H       5.631746     -2.743432      1.269627
  C       4.743886     -0.774688      1.279324
  H       5.426258     -0.387669      2.052389
  H       3.767925     -0.291923      1.438937
  C       5.283177     -0.373678     -0.085085
  H       6.337336     -0.703415     -0.164470
  C       5.194839      1.117472     -0.388973
  C       6.054370      1.993947      0.524598
  H       5.716032      1.890535      1.570369
  H       7.101282      1.637170      0.505339
  C       6.008166      3.470094      0.129185
  H       6.623403      4.089564      0.801464
  H       4.975997      3.856421      0.166162
  H       6.379505      3.620431     -0.898523
  H       4.137512      1.420754     -0.315460
  H       5.502226      1.261168     -1.438811
  C       3.842375     -4.389785      0.197775
  H       3.554986     -4.851293      1.155348
  H       4.884280     -4.671990     -0.027116
  H       3.202787     -4.787885     -0.600777
  C       2.259770     -2.498035      0.541914
  H       1.929513     -2.156544      1.525194
  C       0.507323     -0.389670     -0.330631
  C       1.035288      0.315018      0.873375
  O       0.403496     -0.015164      2.017340
  C       0.843306      0.654778      3.195660
  H       0.182504      0.317709      4.004257
  H       1.888107      0.394796      3.428501
  H       0.777059      1.746852      3.076077
  O       1.948889      1.113587      0.846293
  C      -0.627030     -1.106182     -0.257894
  H      -1.154567     -1.242928      0.687344
  H      -1.040460     -1.587882     -1.148685
  C       1.242615     -0.107700     -1.611722
  H       2.329097     -0.195762     -1.486343
  H       1.050733      0.928786     -1.938085
  H       0.923096     -0.791442     -2.410091
  H       1.511233     -2.883174     -0.148728
  O       4.583192     -1.036992     -1.168675
44
Coordinates from ORCA-job orca E -886.378854881044
  O       3.665710     -2.796767     -2.119902
  C       4.011634     -2.255885     -1.101486
  C       3.701345     -2.853523      0.290762
  C       4.630444     -2.288688      1.377527
  H       4.253671     -2.596470      2.367351
  H       5.631656     -2.742621      1.269547
  C       4.744022     -0.773743      1.279346
  H       5.426426     -0.386474      2.052253
  H       3.768062     -0.290898      1.438857
  C       5.283130     -0.373225     -0.085273
  H       6.337033     -0.703649     -0.165043
  C       5.195194      1.117867     -0.389454
  C       6.055704      1.994135      0.523376
  H       5.717870      1.891227      1.569359
  H       7.102389      1.636728      0.503660
  C       6.010189      3.470189      0.127545
  H       6.626190      4.089467      0.799309
  H       4.978306      3.857236      0.164965
  H       6.381082      3.619977     -0.900407
  H       4.137990      1.421415     -0.315275
  H       5.501849      1.261291     -1.439539
  C       3.842040     -4.388937      0.198557
  H       3.555650     -4.850547      1.156375
  H       4.883816     -4.670848     -0.027291
  H       3.201725     -4.787065     -0.599394
  C       2.259388     -2.497650      0.544134
  H       1.929684     -2.155011      1.527160
  C       0.507507     -0.389949     -0.331147
  C       1.034696      0.313601      0.873800
  O       0.402019     -0.017486      2.017085
  C       0.841288      0.651293      3.196297
  H       0.179544      0.314152      4.004089
  H       1.885705      0.390343      3.429770
  H       0.775962      1.743498      3.077473
  O       1.948341      1.112155      0.848088
  C      -0.626541     -1.107005     -0.259682
  H      -1.154795     -1.244354      0.685064
  H      -1.039569     -1.587654     -1.151218
  C       1.243440     -0.106873     -1.611446
  H       2.329949     -0.195494     -1.486472
  H       1.052272      0.930271     -1.936277
  H       0.923750     -0.789064     -2.411067
  H       1.509966     -2.882595     -0.145665
  O       4.582419     -1.036581     -1.168435
44
Coordinates from ORCA-job orca E -886.378855755129
  O       3.660769     -2.794846     -2.118183
  C       4.009007     -2.254566     -1.100207
  C       3.700505     -2.852250      0.292287
  C       4.630838     -2.287487      1.378155
  H       4.254796     -2.595194      2.368251
  H       5.631809     -2.741711      1.269267
  C       4.744477     -0.772556      1.279424
  H       5.426996     -0.384885      2.052033
  H       3.768531     -0.289574      1.438877
  C       5.283147     -0.372645     -0.085542
  H       6.336764     -0.703822     -0.165834
  C       5.195674      1.118324     -0.390247
  C       6.057278      1.994359      0.521780
  H       5.719856      1.892152      1.567966
  H       7.103651      1.636079      0.501732
  C       6.012820      3.470298      0.125404
  H       6.629601      4.089290      0.796712
  H       4.981306      3.858302      0.163073
  H       6.383478      3.619387     -0.902736
  H       4.138634      1.422281     -0.315499
  H       5.501651      1.261356     -1.440576
  C       3.841385     -4.387745      0.199716
  H       3.556709     -4.849550      1.157936
  H       4.882851     -4.669382     -0.027941
  H       3.199752     -4.785812     -0.597211
  C       2.259043     -2.496980      0.547815
  H       1.930687     -2.151552      1.530210
  C       0.507892     -0.390588     -0.332065
  C       1.033967      0.311529      0.874153
  O       0.400349     -0.021010      2.016582
  C       0.838733      0.646140      3.197076
  H       0.175708      0.308598      4.003637
  H       1.882655      0.384055      3.431468
  H       0.774411      1.738524      3.079395
  O       1.947340      1.110396      0.850151
  C      -0.625865     -1.107976     -0.262477
  H      -1.155155     -1.245922      0.681610
  H      -1.038336     -1.587298     -1.154952
  C       1.244582     -0.105939     -1.611288
  H       2.331150     -0.194850     -1.486579
  H       1.054079      0.931939     -1.934345
  H       0.924986     -0.786340     -2.412451
  H       1.508303     -2.880647     -0.141234
  O       4.581338     -1.036090     -1.168065
44
Coordinates from ORCA-job orca E -886.378857399916
  O       3.656501     -2.793276     -2.116741
  C       4.006896     -2.253655     -1.099133
  C       3.700000     -2.851542      0.293589
  C       4.631621     -2.287114      1.378535
  H       4.256527     -2.594851      2.368976
  H       5.632391     -2.741520      1.268634
  C       4.745326     -0.772156      1.279628
  H       5.428352     -0.384448      2.051777
  H       3.769520     -0.289002      1.439603
  C       5.283151     -0.372403     -0.085714
  H       6.336656     -0.703746     -0.166657
  C       5.195804      1.118529     -0.390563
  C       6.058174      1.994422      0.520922
  H       5.721236      1.892486      1.567294
  H       7.104392      1.635717      0.500409
  C       6.014097      3.470332      0.124394
  H       6.631410      4.089160      0.795365
  H       4.982751      3.858745      0.162487
  H       6.384350      3.619177     -0.903927
  H       4.138887      1.422771     -0.315349
  H       5.501267      1.261398     -1.441062
  C       3.840816     -4.387094      0.200437
  H       3.557313     -4.849120      1.158892
  H       4.881983     -4.668725     -0.028616
  H       3.198224     -4.784964     -0.595821
  C       2.258999     -2.496332      0.550694
  H       1.932170     -2.148508      1.532693
  C       0.508258     -0.391168     -0.332934
  C       1.033621      0.310228      0.874029
  O       0.399380     -0.023030      2.015915
  C       0.837060      0.643273      3.197141
  H       0.173063      0.305642      4.002867
  H       1.880608      0.380454      3.432415
  H       0.773470      1.735750      3.079933
  O       1.946824      1.109290      0.850972
  C      -0.625399     -1.108631     -0.264485
  H      -1.155047     -1.247297      0.679307
  H      -1.037439     -1.587359     -1.157449
  C       1.245111     -0.105103     -1.611663
  H       2.331687     -0.194261     -1.486925
  H       1.054910      0.933223     -1.933481
  H       0.925509     -0.784433     -2.413713
  H       1.507347     -2.879300     -0.137686
  O       4.580371     -1.035769     -1.167708
44
Coordinates from ORCA-job orca E -886.379002104577
  O       3.646783     -2.794312     -2.098696
  C       4.005408     -2.259785     -1.082816
  C       3.720712     -2.873081      0.313511
  C       4.649752     -2.303316      1.393413
  H       4.280816     -2.613884      2.385306
  H       5.654924     -2.747648      1.281949
  C       4.745683     -0.781855      1.287055
  H       5.427545     -0.387904      2.057099
  H       3.761050     -0.302948      1.446131
  C       5.278416     -0.375486     -0.080467
  H       6.334327     -0.698303     -0.165001
  C       5.188124      1.114572     -0.393764
  C       6.053072      1.994201      0.511693
  H       5.717777      1.898129      1.559165
  H       7.098829      1.634145      0.491290
  C       6.010080      3.468092      0.107533
  H       6.629260      4.089691      0.774232
  H       4.979260      3.857930      0.145337
  H       6.378777      3.611128     -0.922190
  H       4.136185      1.421800     -0.318984
  H       5.492371      1.251806     -1.445384
  C       3.871065     -4.407504      0.216168
  H       3.595213     -4.873564      1.174941
  H       4.912955     -4.681839     -0.018574
  H       3.227204     -4.807735     -0.577886
  C       2.295490     -2.520726      0.566451
  H       1.943971     -2.142108      1.519593
  C       0.479222     -0.344605     -0.350666
  C       1.028713      0.320340      0.864018
  O       0.396533     -0.025710      2.004791
  C       0.830461      0.617630      3.201469
  H       0.161269      0.265579      3.996872
  H       1.870997      0.350519      3.440573
  H       0.768492      1.712393      3.104698
  O       1.948113      1.108271      0.845295
  C      -0.639601     -1.056441     -0.283596
  H      -1.169663     -1.206554      0.658282
  H      -1.034282     -1.533635     -1.177685
  C       1.220015     -0.068407     -1.623154
  H       2.314247     -0.196820     -1.464297
  H       1.053469      0.972461     -1.950753
  H       0.894041     -0.742204     -2.427351
  H       1.502015     -2.857573     -0.131043
  O       4.569061     -1.038946     -1.157279
44
Coordinates from ORCA-job orca E -886.380192316885
  O       3.640480     -2.804460     -2.099438
  C       4.007742     -2.268295     -1.086209
  C       3.721290     -2.873629      0.311422
  C       4.654173     -2.298497      1.388825
  H       4.289222     -2.607591      2.382481
  H       5.659830     -2.740330      1.274243
  C       4.748345     -0.780841      1.284417
  H       5.430410     -0.384426      2.053085
  H       3.767423     -0.306865      1.444288
  C       5.276838     -0.378903     -0.083741
  H       6.332054     -0.703722     -0.170067
  C       5.185711      1.111280     -0.391800
  C       6.050576      1.989537      0.515385
  H       5.716258      1.889803      1.562865
  H       7.096828      1.630972      0.493105
  C       6.005388      3.464609      0.115771
  H       6.624337      4.085030      0.783768
  H       4.974103      3.853026      0.155623
  H       6.372991      3.611221     -0.913833
  H       4.129655      1.416969     -0.315139
  H       5.489066      1.250790     -1.443290
  C       3.875862     -4.407495      0.213484
  H       3.603060     -4.873376      1.173055
  H       4.917962     -4.679162     -0.023458
  H       3.230940     -4.809435     -0.578886
  C       2.288635     -2.520685      0.571939
  H       1.942971     -2.133810      1.533573
  C       0.476815     -0.343116     -0.350523
  C       1.021987      0.328304      0.866183
  O       0.390683     -0.018375      2.005954
  C       0.834138      0.626073      3.196659
  H       0.167787      0.280660      3.997072
  H       1.875570      0.352908      3.429330
  H       0.777737      1.720776      3.095963
  O       1.947697      1.111907      0.852243
  C      -0.651483     -1.063627     -0.285300
  H      -1.183393     -1.212631      0.655510
  H      -1.050995     -1.543702     -1.183165
  C       1.228394     -0.068349     -1.623191
  H       2.309001     -0.197118     -1.474610
  H       1.070801      0.974053     -1.947304
  H       0.900520     -0.737823     -2.430096
  H       1.513430     -2.851401     -0.118982
  O       4.567309     -1.044462     -1.159931
44
Coordinates from ORCA-job orca E -886.380338783317
  O       3.654021     -2.812762     -2.100941
  C       4.005872     -2.267969     -1.086612
  C       3.721217     -2.873134      0.310305
  C       4.655845     -2.297805      1.387067
  H       4.292228     -2.607560      2.381114
  H       5.661143     -2.739961      1.270049
  C       4.751286     -0.781594      1.284743
  H       5.433452     -0.385397      2.053279
  H       3.771107     -0.308347      1.446053
  C       5.279187     -0.380526     -0.083584
  H       6.333756     -0.707219     -0.170678
  C       5.186723      1.109746     -0.389740
  C       6.051095      1.988670      0.517094
  H       5.717963      1.887887      1.564786
  H       7.097862      1.631694      0.493548
  C       6.003305      3.463824      0.118248
  H       6.621989      4.084817      0.785949
  H       4.971477      3.850647      0.159317
  H       6.369666      3.611498     -0.911640
  H       4.129403      1.412914     -0.311279
  H       5.488230      1.250877     -1.441639
  C       3.877197     -4.406570      0.211199
  H       3.607712     -4.873408      1.171327
  H       4.918843     -4.676634     -0.029028
  H       3.230244     -4.808576     -0.579428
  C       2.285057     -2.522002      0.576476
  H       1.948844     -2.130265      1.539956
  C       0.474998     -0.344664     -0.349977
  C       1.017358      0.330235      0.865671
  O       0.384846     -0.014074      2.005038
  C       0.833248      0.630727      3.193604
  H       0.166763      0.290740      3.996290
  H       1.873890      0.352024      3.423851
  H       0.782831      1.725390      3.090694
  O       1.944716      1.112991      0.851807
  C      -0.656610     -1.066386     -0.284268
  H      -1.187952     -1.212666      0.657345
  H      -1.062149     -1.544106     -1.181413
  C       1.228082     -0.069390     -1.622810
  H       2.308176     -0.198598     -1.483995
  H       1.074102      0.975411     -1.941407
  H       0.895028     -0.734394     -2.431421
  H       1.515801     -2.854250     -0.117550
  O       4.570295     -1.046045     -1.160120
44
Coordinates from ORCA-job orca E -886.380411638247
  O       3.651989     -2.813738     -2.100141
  C       4.013118     -2.273614     -1.086522
  C       3.723517     -2.874384      0.309861
  C       4.659488     -2.299848      1.386295
  H       4.296494     -2.610724      2.380306
  H       5.664094     -2.743213      1.267097
  C       4.756546     -0.784168      1.286273
  H       5.440587     -0.388700      2.053421
  H       3.776871     -0.311206      1.452129
  C       5.280182     -0.381606     -0.083477
  H       6.334240     -0.708798     -0.174014
  C       5.184549      1.109043     -0.387203
  C       6.051302      1.988840      0.516256
  H       5.723249      1.886804      1.565396
  H       7.098626      1.633893      0.487565
  C       5.998777      3.464107      0.118505
  H       6.619331      4.085900      0.783722
  H       4.966381      3.848829      0.164584
  H       6.360073      3.613101     -0.912971
  H       4.126954      1.409339     -0.303095
  H       5.480256      1.252441     -1.440496
  C       3.876331     -4.407978      0.213807
  H       3.608126     -4.872419      1.175516
  H       4.916897     -4.680134     -0.028278
  H       3.226863     -4.810426     -0.574446
  C       2.284440     -2.522896      0.579815
  H       1.960001     -2.126491      1.544558
  C       0.476655     -0.345595     -0.351157
  C       1.014415      0.331232      0.864607
  O       0.378526     -0.010487      2.002643
  C       0.830234      0.632605      3.191253
  H       0.161715      0.297504      3.994343
  H       1.869193      0.346947      3.420671
  H       0.787252      1.727405      3.087773
  O       1.942118      1.114181      0.851895
  C      -0.656763     -1.067249     -0.287233
  H      -1.187704     -1.211954      0.654889
  H      -1.068301     -1.539937     -1.184132
  C       1.229397     -0.066051     -1.622942
  H       2.310824     -0.195988     -1.494271
  H       1.078828      0.982451     -1.931900
  H       0.890273     -0.723555     -2.435307
  H       1.521126     -2.859121     -0.119421
  O       4.571081     -1.048556     -1.158893
44
Coordinates from ORCA-job orca E -886.380448163766
  O       3.656545     -2.815635     -2.099714
  C       4.011091     -2.272626     -1.085398
  C       3.723496     -2.874433      0.310586
  C       4.660727     -2.301284      1.386425
  H       4.298609     -2.612817      2.380522
  H       5.664826     -2.745503      1.265843
  C       4.758657     -0.785189      1.286676
  H       5.443902     -0.390332      2.053129
  H       3.779245     -0.311483      1.454451
  C       5.280994     -0.381775     -0.083579
  H       6.335054     -0.708741     -0.174993
  C       5.184180      1.108782     -0.387145
  C       6.051043      1.988835      0.515881
  H       5.724243      1.885944      1.565375
  H       7.098678      1.634935      0.485861
  C       5.996457      3.464284      0.119018
  H       6.617070      4.086371      0.783903
  H       4.963678      3.847818      0.166469
  H       6.356438      3.614243     -0.912777
  H       4.126626      1.408183     -0.302099
  H       5.478968      1.252816     -1.440568
  C       3.874581     -4.408299      0.214571
  H       3.607526     -4.872579      1.176630
  H       4.914519     -4.681610     -0.029254
  H       3.223584     -4.810354     -0.572690
  C       2.285085     -2.523212      0.582088
  H       1.965731     -2.125562      1.547249
  C       0.478068     -0.346677     -0.352161
  C       1.014750      0.330645      0.863643
  O       0.377315     -0.008666      2.001709
  C       0.829193      0.633764      3.190938
  H       0.159172      0.300022      3.993288
  H       1.867287      0.345935      3.421296
  H       0.788648      1.728653      3.087374
  O       1.941809      1.114066      0.850290
  C      -0.654494     -1.067066     -0.288824
  H      -1.184719     -1.211692      0.653724
  H      -1.067520     -1.538101     -1.185499
  C       1.228140     -0.064745     -1.624024
  H       2.310729     -0.196599     -1.498519
  H       1.078911      0.985392     -1.928420
  H       0.885649     -0.718414     -2.438010
  H       1.522888     -2.863112     -0.117535
  O       4.570774     -1.048390     -1.158449
44
Coordinates from ORCA-job orca E -886.380454761573
  O       3.654615     -2.815736     -2.098282
  C       4.009573     -2.272726     -1.084121
  C       3.723488     -2.874557      0.311997
  C       4.662439     -2.302361      1.386653
  H       4.301764     -2.614197      2.381142
  H       5.666186     -2.746944      1.264591
  C       4.760544     -0.785928      1.286849
  H       5.447431     -0.391585      2.052154
  H       3.781601     -0.311702      1.456730
  C       5.280653     -0.381822     -0.084141
  H       6.334790     -0.708169     -0.176948
  C       5.183053      1.108704     -0.387440
  C       6.050888      1.988600      0.514885
  H       5.725879      1.884754      1.564861
  H       7.098690      1.635374      0.482936
  C       5.994623      3.464359      0.119301
  H       6.615931      4.086357      0.783624
  H       4.961645      3.847080      0.168830
  H       6.352725      3.615388     -0.912995
  H       4.125707      1.408048     -0.301159
  H       5.476784      1.253069     -1.441082
  C       3.872949     -4.408702      0.216153
  H       3.606304     -4.872563      1.178490
  H       4.912366     -4.683373     -0.028617
  H       3.221033     -4.810485     -0.570530
  C       2.286008     -2.522802      0.584310
  H       1.969746     -2.124968      1.550136
  C       0.479990     -0.346984     -0.353535
  C       1.015842      0.330070      0.862983
  O       0.376732     -0.007872      2.000560
  C       0.827761      0.633667      3.190618
  H       0.156252      0.300059      3.991745
  H       1.865230      0.344826      3.422379
  H       0.788300      1.728646      3.087380
  O       1.942726      1.113447      0.849968
  C      -0.651669     -1.066958     -0.291329
  H      -1.181458     -1.213058      0.651289
  H      -1.064528     -1.537069     -1.188384
  C       1.228204     -0.062030     -1.625361
  H       2.310878     -0.196466     -1.500777
  H       1.080523      0.989478     -1.925743
  H       0.883537     -0.712024     -2.441295
  H       1.523876     -2.866880     -0.113562
  O       4.568541     -1.048177     -1.157984
44
Coordinates from ORCA-job orca E -886.380460688758
  O       3.650966     -2.815603     -2.096478
  C       4.007414     -2.272757     -1.082731
  C       3.723215     -2.874475      0.313804
  C       4.664359     -2.302963      1.386778
  H       4.305689     -2.615002      2.381927
  H       5.667794     -2.747649      1.262773
  C       4.762485     -0.786391      1.287034
  H       5.451335     -0.392646      2.050907
  H       3.784172     -0.311755      1.459302
  C       5.279831     -0.381795     -0.084875
  H       6.333931     -0.707729     -0.179581
  C       5.181761      1.108782     -0.387689
  C       6.051362      1.988274      0.513417
  H       5.728785      1.883519      1.564057
  H       7.099209      1.635442      0.478850
  C       5.993643      3.464351      0.119165
  H       6.616323      4.086055      0.782478
  H       4.960630      3.846593      0.171512
  H       6.349173      3.616342     -0.913884
  H       4.124697      1.408459     -0.299548
  H       5.473891      1.253340     -1.441740
  C       3.871536     -4.408788      0.217839
  H       3.605423     -4.872406      1.180442
  H       4.910479     -4.684480     -0.027903
  H       3.218805     -4.810348     -0.568303
  C       2.286450     -2.522017      0.587473
  H       1.972933     -2.124464      1.554304
  C       0.481948     -0.346985     -0.355098
  C       1.016813      0.329336      0.862492
  O       0.375551     -0.007754      1.999037
  C       0.825272      0.632736      3.190067
  H       0.152198      0.298963      3.989802
  H       1.862164      0.343153      3.423473
  H       0.786603      1.727813      3.087333
  O       1.944141      1.112106      0.850688
  C      -0.649021     -1.067487     -0.294364
  H      -1.178428     -1.216142      0.648106
  H      -1.061149     -1.536726     -1.192185
  C       1.229143     -0.058379     -1.626653
  H       2.311507     -0.196137     -1.502557
  H       1.083596      0.994635     -1.922599
  H       0.882425     -0.704200     -2.444971
  H       1.523739     -2.871321     -0.107165
  O       4.565357     -1.047711     -1.157455
44
Coordinates from ORCA-job orca E -886.380470879119
  O       3.644929     -2.815097     -2.093699
  C       4.003686     -2.272350     -1.080702
  C       3.722416     -2.873908      0.316600
  C       4.666685     -2.302955      1.386997
  H       4.310953     -2.615092      2.383188
  H       5.669696     -2.747726      1.260127
  C       4.765029     -0.786369      1.287381
  H       5.456681     -0.393506      2.049194
  H       3.787664     -0.311126      1.462909
  C       5.278416     -0.381523     -0.085926
  H       6.332256     -0.707451     -0.183644
  C       5.180209      1.109188     -0.388033
  C       6.053234      1.987894      0.510614
  H       5.734783      1.882093      1.562402
  H       7.100985      1.635225      0.471651
  C       5.993800      3.464370      0.118075
  H       6.619225      4.085477      0.779360
  H       4.960966      3.846414      0.175180
  H       6.344933      3.617420     -0.916322
  H       4.123637      1.409663     -0.296542
  H       5.469350      1.253769     -1.442906
  C       3.869742     -4.408271      0.220270
  H       3.604668     -4.871729      1.183245
  H       4.908101     -4.684833     -0.026936
  H       3.215860     -4.809599     -0.565037
  C       2.286339     -2.520600      0.592899
  H       1.976168     -2.124015      1.561326
  C       0.484464     -0.346769     -0.357437
  C       1.017655      0.327770      0.862096
  O       0.372937     -0.008879      1.996669
  C       0.820518      0.629771      3.189350
  H       0.145186      0.295625      3.987037
  H       1.856578      0.339110      3.425141
  H       0.782985      1.724998      3.087680
  O       1.946139      1.109210      0.853038
  C      -0.645557     -1.069073     -0.299232
  H      -1.174628     -1.222293      0.642713
  H      -1.056132     -1.536825     -1.198577
  C       1.231233     -0.052594     -1.628128
  H       2.312962     -0.195455     -1.504685
  H       1.089141      1.002648     -1.917434
  H       0.881745     -0.692204     -2.450114
  H       1.522130     -2.877924     -0.095925
  O       4.560382     -1.046691     -1.156584
44
Coordinates from ORCA-job orca E -886.380468503723
  O       3.639147     -2.814080     -2.091179
  C       3.999857     -2.271333     -1.078892
  C       3.721334     -2.872895      0.319089
  C       4.668135     -2.302086      1.387271
  H       4.314848     -2.614243      2.384346
  H       5.670790     -2.746923      1.257865
  C       4.766795     -0.785597      1.287839
  H       5.460660     -0.393429      2.047986
  H       3.790187     -0.309868      1.465861
  C       5.277020     -0.380921     -0.086669
  H       6.330390     -0.707533     -0.187137
  C       5.179202      1.109954     -0.388225
  C       6.056049      1.987805      0.507513
  H       5.741588      1.881689      1.560466
  H       7.103476      1.634649      0.464378
  C       5.995888      3.464463      0.115796
  H       6.624427      4.084940      0.774710
  H       4.963524      3.847091      0.177349
  H       6.342804      3.617709     -0.919992
  H       4.123180      1.411375     -0.293182
  H       5.465004      1.254303     -1.444051
  C       3.868316     -4.407145      0.222243
  H       3.604638     -4.870723      1.185569
  H       4.906238     -4.683841     -0.026538
  H       3.213227     -4.808297     -0.562148
  C       2.285618     -2.519188      0.598466
  H       1.977795     -2.123864      1.568311
  C       0.486418     -0.346478     -0.359473
  C       1.017769      0.325677      0.862205
  O       0.369645     -0.011397      1.994623
  C       0.815003      0.625296      3.189097
  H       0.137619      0.290709      3.984872
  H       1.850307      0.333620      3.427011
  H       0.778528      1.720688      3.088747
  O       1.947526      1.105745      0.856551
  C      -0.642584     -1.071243     -0.303935
  H      -1.171687     -1.228975      0.637227
  H      -1.051446     -1.537265     -1.205020
  C       1.233756     -0.047400     -1.628861
  H       2.314876     -0.194604     -1.506218
  H       1.094820      1.009795     -1.912301
  H       0.882093     -0.681626     -2.454099
  H       1.519507     -2.883410     -0.084569
  O       4.555862     -1.045353     -1.155621
44
Coordinates from ORCA-job orca E -886.380469508649
  O       3.634917     -2.812870     -2.089559
  C       3.996909     -2.270068     -1.077789
  C       3.720283     -2.871669      0.320637
  C       4.668475     -2.300597      1.387517
  H       4.316481     -2.612617      2.385094
  H       5.670921     -2.745531      1.256658
  C       4.767447     -0.784240      1.288017
  H       5.462316     -0.392248      2.047321
  H       3.791182     -0.308229      1.467013
  C       5.276176     -0.380185     -0.087199
  H       6.329054     -0.707897     -0.189283
  C       5.179131      1.110770     -0.388611
  C       6.058528      1.987890      0.505275
  H       5.746193      1.882000      1.558893
  H       7.105564      1.633855      0.459928
  C       5.998873      3.464580      0.113628
  H       6.629489      4.084482      0.771099
  H       4.967031      3.848256      0.177474
  H       6.343629      3.617434     -0.922935
  H       4.123483      1.412916     -0.291413
  H       5.462856      1.254772     -1.445050
  C       3.867454     -4.405749      0.223467
  H       3.605155     -4.869554      1.187075
  H       4.905152     -4.682016     -0.026624
  H       3.211364     -4.806859     -0.560101
  C       2.284669     -2.518191      0.602724
  H       1.977957     -2.123718      1.573356
  C       0.487297     -0.346407     -0.360732
  C       1.017284      0.323603      0.862583
  O       0.366951     -0.014371      1.993500
  C       0.810968      0.620732      3.189318
  H       0.132190      0.286024      3.983861
  H       1.845693      0.328002      3.428477
  H       0.775569      1.716257      3.090073
  O       1.947900      1.102759      0.859654
  C      -0.640827     -1.073278     -0.307171
  H      -1.170309     -1.233850      0.633267
  H      -1.048495     -1.537798     -1.209613
  C       1.235587     -0.044499     -1.628928
  H       2.316437     -0.193941     -1.507199
  H       1.098506      1.013854     -1.908897
  H       0.882804     -0.675658     -2.456066
  H       1.516839     -2.886148     -0.076405
  O       4.553070     -1.044205     -1.155054
44
Coordinates from ORCA-job orca E -886.380474380304
  O       3.630817     -2.811230     -2.087984
  C       3.994185     -2.268564     -1.076658
  C       3.719258     -2.870280      0.322014
  C       4.668472     -2.298980      1.387975
  H       4.317290     -2.610877      2.385869
  H       5.670728     -2.744100      1.256107
  C       4.767732     -0.782707      1.288246
  H       5.463089     -0.390638      2.047054
  H       3.791612     -0.306481      1.467612
  C       5.275642     -0.379322     -0.087466
  H       6.328022     -0.708246     -0.190678
  C       5.179414      1.111670     -0.389003
  C       6.061107      1.988185      0.503158
  H       5.750390      1.882913      1.557313
  H       7.107691      1.633038      0.456205
  C       6.002448      3.464807      0.111104
  H       6.634916      4.084199      0.767283
  H       4.971191      3.849789      0.176565
  H       6.345629      3.616889     -0.926096
  H       4.124112      1.414462     -0.289998
  H       5.461286      1.255265     -1.445995
  C       3.866684     -4.404245      0.224526
  H       3.605894     -4.868333      1.188410
  H       4.904161     -4.679993     -0.027000
  H       3.209506     -4.805303     -0.558149
  C       2.283783     -2.517408      0.606580
  H       1.977946     -2.123303      1.577647
  C       0.487829     -0.346615     -0.361740
  C       1.016449      0.321335      0.863129
  O       0.364289     -0.017759      1.992748
  C       0.807290      0.615613      3.189876
  H       0.127057      0.281009      3.983220
  H       1.841358      0.321414      3.430108
  H       0.773364      1.711279      3.091749
  O       1.947551      1.099975      0.862691
  C      -0.639419     -1.075214     -0.310157
  H      -1.169587     -1.237793      0.629525
  H      -1.046084     -1.538206     -1.213837
  C       1.237014     -0.042465     -1.628768
  H       2.317803     -0.193012     -1.508024
  H       1.101064      1.016764     -1.906097
  H       0.883647     -0.671387     -2.457374
  H       1.514529     -2.887276     -0.069968
  O       4.550990     -1.043078     -1.154443
44
Coordinates from ORCA-job orca E -886.380478400615
  O       3.627232     -2.809612     -2.086726
  C       3.992064     -2.267280     -1.075746
  C       3.718500     -2.869131      0.323061
  C       4.668439     -2.297706      1.388413
  H       4.317724     -2.609477      2.386495
  H       5.670549     -2.743006      1.255972
  C       4.767810     -0.781467      1.288316
  H       5.463261     -0.389134      2.046898
  H       3.791700     -0.305148      1.467628
  C       5.275416     -0.378626     -0.087656
  H       6.327469     -0.708408     -0.191378
  C       5.179866      1.112350     -0.389447
  C       6.062816      1.988421      0.501876
  H       5.752606      1.883787      1.556244
  H       7.109044      1.632290      0.454453
  C       6.005312      3.464946      0.109316
  H       6.638753      4.083955      0.764911
  H       4.974487      3.851016      0.175217
  H       6.348060      3.616308     -0.928132
  H       4.124785      1.415648     -0.289702
  H       5.460946      1.255620     -1.446689
  C       3.866202     -4.403080      0.225305
  H       3.606715     -4.867390      1.189421
  H       4.903486     -4.678431     -0.027473
  H       3.208123     -4.804142     -0.556607
  C       2.283226     -2.516924      0.609364
  H       1.978075     -2.122551      1.580498
  C       0.488016     -0.347058     -0.362406
  C       1.015764      0.319536      0.863482
  O       0.362565     -0.020414      1.992325
  C       0.805045      0.611566      3.190401
  H       0.123580      0.277241      3.982802
  H       1.838505      0.315888      3.431443
  H       0.772593      1.707342      3.093081
  O       1.947006      1.098007      0.864562
  C      -0.638665     -1.076557     -0.312196
  H      -1.169454     -1.240048      0.626976
  H      -1.044741     -1.538529     -1.216641
  C       1.237650     -0.041539     -1.628709
  H       2.318529     -0.192159     -1.508599
  H       1.101978      1.018122     -1.904650
  H       0.884246     -0.669349     -2.458146
  H       1.513088     -2.886796     -0.066207
  O       4.549778     -1.042292     -1.154073
44
Coordinates from ORCA-job orca E -886.380479923513
  O       3.621715     -2.807090     -2.084863
  C       3.989089     -2.265514     -1.074371
  C       3.717562     -2.867668      0.324594
  C       4.668667     -2.296316      1.389051
  H       4.318720     -2.607997      2.387415
  H       5.670553     -2.741866      1.255746
  C       4.768144     -0.780082      1.288511
  H       5.463797     -0.387471      2.046772
  H       3.792078     -0.303590      1.467855
  C       5.275257     -0.377820     -0.087795
  H       6.326961     -0.708490     -0.192156
  C       5.180474      1.113114     -0.389930
  C       6.064866      1.988699      0.500452
  H       5.755161      1.884895      1.555047
  H       7.110654      1.631367      0.452593
  C       6.008817      3.465102      0.107264
  H       6.643325      4.083665      0.762256
  H       4.978501      3.852472      0.173531
  H       6.351204      3.615600     -0.930429
  H       4.125663      1.417078     -0.289423
  H       5.460715      1.255990     -1.447449
  C       3.865646     -4.401631      0.226242
  H       3.607980     -4.866319      1.190659
  H       4.902615     -4.676513     -0.028376
  H       3.206342     -4.802650     -0.554664
  C       2.282671     -2.516306      0.613111
  H       1.978768     -2.121005      1.584198
  C       0.488193     -0.347941     -0.363350
  C       1.014951      0.317234      0.863683
  O       0.360572     -0.023638      1.991631
  C       0.802437      0.606568      3.190880
  H       0.119161      0.272829      3.981968
  H       1.834978      0.308690      3.433168
  H       0.772210      1.702479      3.094441
  O       1.946241      1.095623      0.866381
  C      -0.637939     -1.078178     -0.314764
  H      -1.169435     -1.242562      0.623860
  H      -1.043372     -1.539083     -1.220005
  C       1.238065     -0.040645     -1.628934
  H       2.319104     -0.190836     -1.509364
  H       1.102215      1.019406     -1.903427
  H       0.884948     -0.667364     -2.459301
  H       1.511547     -2.885119     -0.061905
  O       4.548329     -1.041326     -1.153528
44
Coordinates from ORCA-job orca E -886.380480062731
  O       3.615868     -2.804493     -2.082925
  C       3.986151     -2.263869     -1.072953
  C       3.716772     -2.866447      0.326190
  C       4.669269     -2.295420      1.389588
  H       4.320320     -2.607070      2.388298
  H       5.670886     -2.741217      1.255222
  C       4.768892     -0.779183      1.288780
  H       5.465024     -0.386487      2.046567
  H       3.792990     -0.302477      1.468537
  C       5.275194     -0.377250     -0.087905
  H       6.326659     -0.708431     -0.193012
  C       5.180947      1.113659     -0.390230
  C       6.066489      1.988835      0.499438
  H       5.757245      1.885582      1.554229
  H       7.111957      1.630619      0.451142
  C       6.011444      3.465170      0.105881
  H       6.646729      4.083390      0.760434
  H       4.981482      3.853420      0.172498
  H       6.353494      3.615124     -0.932002
  H       4.126371      1.418215     -0.289119
  H       5.460546      1.256269     -1.447952
  C       3.865133     -4.400428      0.226983
  H       3.609099     -4.865544      1.191615
  H       4.901757     -4.674975     -0.029397
  H       3.204722     -4.801293     -0.553070
  C       2.282333     -2.515661      0.616771
  H       1.979986     -2.119163      1.587803
  C       0.488363     -0.348981     -0.364352
  C       1.014389      0.315230      0.863532
  O       0.359035     -0.026175      1.990753
  C       0.800337      0.602691      3.190898
  H       0.115333      0.269719      3.980811
  H       1.831985      0.302792      3.434531
  H       0.772228      1.698691      3.094921
  O       1.945724      1.093533      0.867373
  C      -0.637485     -1.079567     -0.317025
  H      -1.169344     -1.244846      0.621249
  H      -1.042393     -1.539799     -1.222822
  C       1.238178     -0.039915     -1.629489
  H       2.319328     -0.189507     -1.510030
  H       1.101767      1.020376     -1.902818
  H       0.885562     -0.665832     -2.460654
  H       1.510370     -2.882984     -0.058028
  O       4.547013     -1.040508     -1.152984
44
Coordinates from ORCA-job orca E -886.380483101554
  O       3.611087     -2.802369     -2.081479
  C       3.983902     -2.262678     -1.071912
  C       3.716316     -2.865755      0.327397
  C       4.670151     -2.295233      1.389806
  H       4.322291     -2.606972      2.388871
  H       5.671527     -2.741194      1.254296
  C       4.769955     -0.778994      1.289090
  H       5.466814     -0.386540      2.046333
  H       3.794321     -0.302050      1.469658
  C       5.275245     -0.377022     -0.087935
  H       6.326620     -0.708249     -0.193817
  C       5.181132      1.113918     -0.390115
  C       6.067365      1.988845      0.499139
  H       5.758547      1.885752      1.554069
  H       7.112681      1.630244      0.450406
  C       6.012690      3.465192      0.105559
  H       6.648415      4.083225      0.759869
  H       4.982878      3.853777      0.172552
  H       6.354399      3.615034     -0.932456
  H       4.126690      1.418782     -0.288504
  H       5.460260      1.256503     -1.447965
  C       3.864684     -4.399731      0.227267
  H       3.609929     -4.865214      1.192063
  H       4.900962     -4.674177     -0.030630
  H       3.203298     -4.800344     -0.552093
  C       2.282276     -2.515059      0.619626
  H       1.981483     -2.117512      1.590686
  C       0.488441     -0.349973     -0.365255
  C       1.014169      0.313975      0.862965
  O       0.358259     -0.027408      1.989817
  C       0.799150      0.600980      3.190344
  H       0.112946      0.268837      3.979566
  H       1.830161      0.299775      3.435118
  H       0.772525      1.696999      3.094239
  O       1.945619      1.092135      0.867237
  C      -0.637403     -1.080586     -0.318461
  H      -1.169138     -1.246651      0.619750
  H      -1.042055     -1.540649     -1.224453
  C       1.237968     -0.039608     -1.630312
  H       2.319175     -0.188531     -1.510572
  H       1.100698      1.020709     -1.903067
  H       0.885948     -0.665298     -2.461882
  H       1.509650     -2.881117     -0.054989
  O       4.546119     -1.039980     -1.152546
44
Coordinates from ORCA-job orca E -886.380492637224
  O       3.607006     -2.800644     -2.080309
  C       3.982018     -2.261790     -1.071100
  C       3.716028     -2.865391      0.328370
  C       4.671251     -2.295493      1.389772
  H       4.324610     -2.607408      2.389221
  H       5.672374     -2.741611      1.252938
  C       4.771374     -0.779244      1.289444
  H       5.469267     -0.387321      2.046012
  H       3.796127     -0.301993      1.471249
  C       5.275345     -0.376988     -0.087975
  H       6.326671     -0.708051     -0.194852
  C       5.181065      1.114055     -0.389712
  C       6.067944      1.988790      0.499118
  H       5.759940      1.885397      1.554261
  H       7.113244      1.630251      0.449497
  C       6.012894      3.465248      0.105990
  H       6.649071      4.083151      0.759984
  H       4.983091      3.853712      0.173888
  H       6.353775      3.615424     -0.932247
  H       4.126711      1.418989     -0.287333
  H       5.459496      1.256830     -1.447726
  C       3.864070     -4.399335      0.227271
  H       3.610279     -4.865194      1.192147
  H       4.899999     -4.673870     -0.031911
  H       3.201791     -4.799522     -0.551554
  C       2.282379     -2.514358      0.622188
  H       1.983120     -2.116130      1.593448
  C       0.488602     -0.350815     -0.366184
  C       1.014257      0.313137      0.862126
  O       0.357825     -0.027807      1.988751
  C       0.798319      0.600674      3.189347
  H       0.111185      0.269489      3.978166
  H       1.828832      0.298592      3.435195
  H       0.772831      1.696669      3.092709
  O       1.945965      1.091007      0.866567
  C      -0.637298     -1.081441     -0.319511
  H      -1.168639     -1.248362      0.618772
  H      -1.041822     -1.541505     -1.225577
  C       1.237818     -0.039496     -1.631297
  H       2.319019     -0.187862     -1.511186
  H       1.099675      1.020762     -1.903769
  H       0.886326     -0.665265     -2.463024
  H       1.508980     -2.879878     -0.051744
  O       4.545335     -1.039616     -1.152140
44
Coordinates from ORCA-job orca E -886.380482708675
  O       3.603613     -2.799061     -2.079428
  C       3.980484     -2.260988     -1.070493
  C       3.715863     -2.865112      0.329074
  C       4.672373     -2.295869      1.389605
  H       4.326876     -2.608040      2.389376
  H       5.673260     -2.742106      1.251445
  C       4.772827     -0.779616      1.289811
  H       5.471726     -0.388291      2.045755
  H       3.797944     -0.302113      1.472900
  C       5.275531     -0.376986     -0.087975
  H       6.326800     -0.707906     -0.195866
  C       5.180948      1.114160     -0.389167
  C       6.068587      1.988669      0.499098
  H       5.761773      1.884714      1.554525
  H       7.113926      1.630424      0.448170
  C       6.012697      3.465286      0.106699
  H       6.649459      4.083066      0.760232
  H       4.982856      3.853408      0.175964
  H       6.352325      3.616020     -0.931864
  H       4.126674      1.419028     -0.285746
  H       5.458437      1.257226     -1.447388
  C       3.863355     -4.399009      0.227113
  H       3.610453     -4.865209      1.192071
  H       4.898921     -4.673723     -0.033294
  H       3.200124     -4.798684     -0.551163
  C       2.282582     -2.513591      0.624454
  H       1.984674     -2.115084      1.596025
  C       0.488755     -0.351516     -0.367035
  C       1.014339      0.312511      0.861283
  O       0.357395     -0.027879      1.987751
  C       0.797507      0.600980      3.188256
  H       0.109656      0.270737      3.976852
  H       1.827644      0.298322      3.435007
  H       0.772868      1.696932      3.090941
  O       1.946316      1.090077      0.865836
  C      -0.637132     -1.082270     -0.320343
  H      -1.168122     -1.249903      0.618010
  H      -1.041592     -1.542297     -1.226472
  C       1.237779     -0.039617     -1.632192
  H       2.319001     -0.187262     -1.511784
  H       1.098705      1.020493     -1.904690
  H       0.886872     -0.665784     -2.463862
  H       1.508335     -2.879069     -0.048467
  O       4.544735     -1.039278     -1.151742
44
Coordinates from ORCA-job orca E -886.380168420288
  O       3.586760     -2.797138     -2.058927
  C       3.973064     -2.263856     -1.051885
  C       3.734368     -2.887587      0.352300
  C       4.690676     -2.312525      1.405677
  H       4.354376     -2.628657      2.407389
  H       5.695739     -2.747833      1.262465
  C       4.773544     -0.789625      1.299944
  H       5.473403     -0.393131      2.052325
  H       3.790848     -0.316140      1.485508
  C       5.268342     -0.379447     -0.080979
  H       6.321439     -0.702630     -0.194787
  C       5.171503      1.110756     -0.390535
  C       6.064122      1.988331      0.489737
  H       5.760912      1.890772      1.546841
  H       7.108552      1.627693      0.436990
  C       6.009800      3.462913      0.089459
  H       6.650173      4.082982      0.737311
  H       4.980993      3.853497      0.160324
  H       6.345978      3.607277     -0.951156
  H       4.122913      1.419414     -0.285928
  H       5.445910      1.247720     -1.450389
  C       3.892704     -4.420079      0.244901
  H       3.649719     -4.890983      1.210185
  H       4.928601     -4.686259     -0.023189
  H       3.227300     -4.822475     -0.530127
  C       2.317220     -2.542672      0.643905
  H       1.993563     -2.115512      1.584579
  C       0.463025     -0.308387     -0.387613
  C       1.011793      0.318941      0.852093
  O       0.357148     -0.033802      1.977976
  C       0.791581      0.576387      3.193002
  H       0.098926      0.231998      3.971482
  H       1.819687      0.276526      3.447063
  H       0.763914      1.673802      3.112936
  O       1.947990      1.086510      0.863965
  C      -0.648013     -1.035622     -0.339986
  H      -1.176195     -1.215548      0.597760
  H      -1.037894     -1.494383     -1.245043
  C       1.216025      0.002521     -1.651982
  H       2.308540     -0.174159     -1.518579
  H       1.092440      1.065102     -1.922771
  H       0.857230     -0.615061     -2.486787
  H       1.501203     -2.864058     -0.039683
  O       4.528230     -1.039783     -1.138491
44
Coordinates from ORCA-job orca E -886.381390450871
  O       3.576576     -2.806012     -2.059215
  C       3.976136     -2.273859     -1.056033
  C       3.736371     -2.888697      0.348273
  C       4.695845     -2.308412      1.399315
  H       4.363686     -2.623576      2.402526
  H       5.701440     -2.740717      1.252744
  C       4.775609     -0.789362      1.296096
  H       5.475309     -0.390085      2.047232
  H       3.796027     -0.321388      1.482235
  C       5.265931     -0.383385     -0.085058
  H       6.317975     -0.709352     -0.201181
  C       5.169283      1.107350     -0.388218
  C       6.062283      1.982202      0.494665
  H       5.759927      1.880070      1.551632
  H       7.106948      1.622530      0.439752
  C       6.006759      3.458396      0.100489
  H       6.647312      4.076246      0.750254
  H       4.977800      3.848130      0.173803
  H       6.341944      3.607171     -0.939817
  H       4.116642      1.415106     -0.281509
  H       5.443109      1.247266     -1.447742
  C       3.900597     -4.420098      0.238096
  H       3.661588     -4.892254      1.203558
  H       4.936811     -4.682069     -0.032916
  H       3.234276     -4.823921     -0.535464
  C       2.311305     -2.544156      0.649870
  H       1.993877     -2.108479      1.599793
  C       0.461761     -0.307702     -0.385295
  C       1.006113      0.327476      0.852603
  O       0.351860     -0.024653      1.977555
  C       0.791272      0.592153      3.184627
  H       0.103519      0.251661      3.968863
  H       1.822062      0.292695      3.432027
  H       0.762424      1.689090      3.097972
  O       1.948329      1.091054      0.865568
  C      -0.657389     -1.043348     -0.339835
  H      -1.187736     -1.221509      0.596775
  H      -1.051711     -1.505151     -1.249426
  C       1.221072     -0.000162     -1.646336
  H       2.297824     -0.176971     -1.515865
  H       1.104853      1.063062     -1.915726
  H       0.862239     -0.615683     -2.482594
  H       1.515523     -2.858978     -0.025318
  O       4.524768     -1.045889     -1.141494
44
Coordinates from ORCA-job orca E -886.381527063801
  O       3.593688     -2.815257     -2.062179
  C       3.972432     -2.272286     -1.056592
  C       3.736107     -2.887522      0.346100
  C       4.696786     -2.307258      1.397064
  H       4.365510     -2.623109      2.400429
  H       5.702026     -2.739832      1.248516
  C       4.777640     -0.789778      1.295803
  H       5.476478     -0.390383      2.047518
  H       3.798593     -0.322798      1.481959
  C       5.268607     -0.385054     -0.085031
  H       6.319808     -0.713653     -0.201316
  C       5.171262      1.105788     -0.386073
  C       6.063431      1.980850      0.497259
  H       5.761571      1.877508      1.554182
  H       7.108509      1.622493      0.441665
  C       6.006046      3.457228      0.104207
  H       6.646212      4.075280      0.754149
  H       4.976693      3.845751      0.178286
  H       6.340587      3.607159     -0.936131
  H       4.117189      1.411114     -0.278121
  H       5.443939      1.247472     -1.445753
  C       3.903072     -4.418310      0.233328
  H       3.668622     -4.892649      1.198935
  H       4.938791     -4.677282     -0.041911
  H       3.234624     -4.822158     -0.538314
  C       2.307269     -2.546176      0.655127
  H       1.999578     -2.105962      1.607057
  C       0.459635     -0.309821     -0.383654
  C       1.001161      0.330328      0.851531
  O       0.346587     -0.019123      1.976652
  C       0.789914      0.599534      3.180827
  H       0.103572      0.263051      3.968096
  H       1.820707      0.296479      3.424379
  H       0.764426      1.696302      3.091806
  O       1.945194      1.093034      0.862762
  C      -0.662871     -1.046587     -0.337554
  H      -1.193264     -1.221342      0.599729
  H      -1.062904     -1.506220     -1.246638
  C       1.218887     -0.003809     -1.644507
  H       2.294032     -0.181455     -1.519116
  H       1.106138      1.060655     -1.911088
  H       0.856451     -0.616433     -2.481416
  H       1.517401     -2.862921     -0.022567
  O       4.528011     -1.047058     -1.142128
44
Coordinates from ORCA-job orca E -886.381611239953
  O       3.591976     -2.815623     -2.061906
  C       3.979494     -2.277426     -1.057064
  C       3.738263     -2.888189      0.344709
  C       4.699399     -2.308742      1.396197
  H       4.367782     -2.625568      2.399196
  H       5.704059     -2.742502      1.246552
  C       4.781725     -0.791814      1.296944
  H       5.481344     -0.392722      2.047991
  H       3.802896     -0.325402      1.486097
  C       5.269475     -0.385794     -0.084824
  H       6.319978     -0.715316     -0.204111
  C       5.169433      1.105452     -0.383288
  C       6.064297      1.981030      0.496545
  H       5.767603      1.876570      1.554773
  H       7.109629      1.624263      0.435733
  C       6.002900      3.457539      0.104683
  H       6.645294      4.076077      0.751955
  H       4.973356      3.844522      0.183915
  H       6.332258      3.608582     -0.937139
  H       4.115301      1.408106     -0.269490
  H       5.436121      1.249420     -1.444246
  C       3.902908     -4.419205      0.234784
  H       3.670518     -4.891638      1.201900
  H       4.937565     -4.679435     -0.042753
  H       3.231962     -4.823716     -0.534218
  C       2.306240     -2.547483      0.658125
  H       2.009622     -2.104001      1.611221
  C       0.461169     -0.310606     -0.384081
  C       0.998073      0.332293      0.850310
  O       0.341081     -0.015028      1.974375
  C       0.787076      0.601935      3.178529
  H       0.099945      0.268812      3.966595
  H       1.816647      0.292865      3.419749
  H       0.767190      1.698769      3.089949
  O       1.942346      1.095398      0.861903
  C      -0.663230     -1.047218     -0.339786
  H      -1.194091     -1.220186      0.597632
  H      -1.068261     -1.501959     -1.248851
  C       1.219627     -0.002373     -1.644040
  H       2.295489     -0.180756     -1.523636
  H       1.109875      1.064112     -1.904608
  H       0.853678     -0.609588     -2.483440
  H       1.521303     -2.868611     -0.024559
  O       4.528836     -1.049054     -1.141040
44
Coordinates from ORCA-job orca E -886.381640281163
  O       3.594671     -2.816122     -2.061556
  C       3.978956     -2.277008     -1.056013
  C       3.738176     -2.888043      0.345318
  C       4.700241     -2.310031      1.396572
  H       4.368926     -2.627504      2.399426
  H       5.704372     -2.744824      1.246056
  C       4.783607     -0.792621      1.297614
  H       5.484188     -0.394024      2.048091
  H       3.804925     -0.325579      1.488568
  C       5.269941     -0.385497     -0.084693
  H       6.320428     -0.714695     -0.205020
  C       5.168480      1.105682     -0.382916
  C       6.064369      1.981587      0.495447
  H       5.769945      1.876570      1.554302
  H       7.109864      1.625704      0.432376
  C       6.000804      3.458190      0.104199
  H       6.643999      4.077092      0.750337
  H       4.971067      3.844198      0.185700
  H       6.327856      3.609844     -0.938258
  H       4.114620      1.407433     -0.267137
  H       5.433101      1.250271     -1.444259
  C       3.900425     -4.419539      0.236469
  H       3.669054     -4.891134      1.204175
  H       4.934328     -4.681431     -0.042650
  H       3.227841     -4.823900     -0.531250
  C       2.306684     -2.547609      0.659931
  H       2.015429     -2.103869      1.613600
  C       0.462723     -0.311250     -0.385347
  C       0.997986      0.332067      0.849633
  O       0.339244     -0.013250      1.973385
  C       0.786434      0.601112      3.178870
  H       0.097343      0.269806      3.965930
  H       1.814537      0.287739      3.420597
  H       0.770835      1.698085      3.091489
  O       1.941207      1.096130      0.861440
  C      -0.660943     -1.046553     -0.342048
  H      -1.191535     -1.219586      0.595523
  H      -1.067051     -1.499437     -1.251041
  C       1.219764     -0.001078     -1.645559
  H       2.296784     -0.181087     -1.527420
  H       1.111657      1.066488     -1.902566
  H       0.851488     -0.604883     -2.486322
  H       1.522965     -2.873001     -0.023383
  O       4.528416     -1.048654     -1.140330
44
Coordinates from ORCA-job orca E -886.381652280676
  O       3.593019     -2.816018     -2.059958
  C       3.977079     -2.276641     -1.054458
  C       3.737683     -2.887671      0.346950
  C       4.701680     -2.310736      1.396883
  H       4.371826     -2.628586      2.400071
  H       5.705333     -2.746069      1.244784
  C       4.785433     -0.792975      1.297953
  H       5.487628     -0.394866      2.047225
  H       3.807267     -0.325418      1.491172
  C       5.269411     -0.385095     -0.085108
  H       6.319924     -0.713705     -0.206888
  C       5.167079      1.106041     -0.383041
  C       6.064666      1.981768      0.493817
  H       5.772850      1.875959      1.553347
  H       7.110172      1.626435      0.428037
  C       5.999328      3.458638      0.103751
  H       6.643800      4.077463      0.748688
  H       4.969577      3.843983      0.188087
  H       6.323680      3.611133     -0.939426
  H       4.113589      1.407812     -0.265280
  H       5.429851      1.250907     -1.444769
  C       3.897922     -4.419574      0.238666
  H       3.667279     -4.890427      1.206853
  H       4.931126     -4.683158     -0.041772
  H       3.224072     -4.823768     -0.528094
  C       2.307161     -2.546909      0.662444
  H       2.020010     -2.104005      1.617377
  C       0.464576     -0.311418     -0.387108
  C       0.998345      0.331771      0.849032
  O       0.337447     -0.012245      1.971930
  C       0.785241      0.599036      3.178908
  H       0.093854      0.268840      3.964382
  H       1.811892      0.281886      3.421777
  H       0.773384      1.696156      3.092949
  O       1.941030      1.096169      0.861897
  C      -0.658225     -1.046165     -0.345348
  H      -1.188697     -1.220645      0.592075
  H      -1.063944     -1.498085     -1.254803
  C       1.221015      0.001443     -1.647113
  H       2.298107     -0.180909     -1.530168
  H       1.114870      1.070077     -1.900401
  H       0.850976     -0.598784     -2.489587
  H       1.523883     -2.877853     -0.018850
  O       4.525950     -1.048003     -1.139604
44
Coordinates from ORCA-job orca E -886.381673846665
  O       3.589557     -2.815602     -2.058012
  C       3.974526     -2.276060     -1.052926
  C       3.736943     -2.887013      0.348885
  C       4.703003     -2.310602      1.397084
  H       4.375071     -2.628628      2.400851
  H       5.706312     -2.746016      1.243132
  C       4.786748     -0.792752      1.298173
  H       5.490586     -0.395048      2.046154
  H       3.809151     -0.324891      1.493423
  C       5.268363     -0.384628     -0.085648
  H       6.318786     -0.712967     -0.208966
  C       5.165871      1.106525     -0.383302
  C       6.065631      1.981733      0.491931
  H       5.776418      1.875356      1.552130
  H       7.110954      1.626390      0.423413
  C       5.999377      3.458852      0.102896
  H       6.645546      4.077299      0.746501
  H       4.969851      3.844151      0.190125
  H       6.321019      3.611904     -0.941042
  H       4.112795      1.408932     -0.263570
  H       5.426873      1.251331     -1.445466
  C       3.896220     -4.419085      0.240576
  H       3.666130     -4.889611      1.209046
  H       4.928955     -4.683633     -0.040786
  H       3.221644     -4.823155     -0.525629
  C       2.307139     -2.545737      0.665544
  H       2.022714     -2.104453      1.622056
  C       0.466061     -0.311259     -0.388800
  C       0.998467      0.331296      0.848581
  O       0.335383     -0.012339      1.970260
  C       0.783190      0.596036      3.178660
  H       0.089822      0.266278      3.962566
  H       1.808684      0.276013      3.422664
  H       0.774142      1.693298      3.094202
  O       1.941346      1.095307      0.863073
  C      -0.656134     -1.046437     -0.348757
  H      -1.186665     -1.223087      0.588248
  H      -1.060748     -1.497803     -1.258987
  C       1.222741      0.004453     -1.648075
  H       2.299478     -0.180448     -1.531555
  H       1.118517      1.074059     -1.897873
  H       0.851510     -0.592475     -2.492344
  H       1.523365     -2.882547     -0.012226
  O       4.522805     -1.047146     -1.138932
44
Coordinates from ORCA-job orca E -886.381670553951
  O       3.580198     -2.814107     -2.053220
  C       3.968193     -2.274422     -1.049373
  C       3.734988     -2.885214      0.353505
  C       4.705451     -2.309404      1.397778
  H       4.381888     -2.627582      2.402948
  H       5.708019     -2.744897      1.239608
  C       4.789362     -0.791540      1.298917
  H       5.496908     -0.394779      2.043925
  H       3.813093     -0.322937      1.498539
  C       5.265662     -0.383406     -0.086717
  H       6.315599     -0.711861     -0.213902
  C       5.163457      1.107876     -0.383761
  C       6.069491      1.981681      0.486541
  H       5.787481      1.874151      1.548560
  H       7.114181      1.625987      0.410499
  C       6.001185      3.459322      0.099794
  H       6.652459      4.076693      0.739268
  H       4.972519      3.844980      0.195191
  H       6.315052      3.613419     -0.946363
  H       4.111554      1.412159     -0.258440
  H       5.419188      1.252162     -1.447280
  C       3.893043     -4.417393      0.244707
  H       3.664541     -4.887610      1.213729
  H       4.924885     -4.683176     -0.038777
  H       3.216881     -4.821253     -0.520238
  C       2.306375     -2.542848      0.673449
  H       2.026589     -2.106034      1.633577
  C       0.469389     -0.310542     -0.392567
  C       0.998404      0.329436      0.847980
  O       0.329933     -0.014353      1.966284
  C       0.776693      0.587566      3.178134
  H       0.078901      0.258386      3.958370
  H       1.799718      0.261633      3.424866
  H       0.773407      1.685134      3.097308
  O       1.942492      1.091792      0.867280
  C      -0.651553     -1.047751     -0.357111
  H      -1.182798     -1.229967      0.578432
  H      -1.052975     -1.497513     -1.269629
  C       1.227507      0.011936     -1.649418
  H       2.303177     -0.178672     -1.533428
  H       1.127501      1.083704     -1.891186
  H       0.854181     -0.577515     -2.498002
  H       1.520652     -2.892478      0.004645
  O       4.515280     -1.044972     -1.137142
44
Coordinates from ORCA-job orca E -886.381705632858
  O       3.574916     -2.812769     -2.051111
  C       3.964795     -2.273129     -1.047997
  C       3.733846     -2.883903      0.355464
  C       4.706039     -2.307946      1.397961
  H       4.384305     -2.625944      2.403792
  H       5.708317     -2.743446      1.237968
  C       4.790130     -0.790217      1.298952
  H       5.499034     -0.393731      2.042811
  H       3.814402     -0.321247      1.499864
  C       5.264548     -0.382700     -0.087434
  H       6.314024     -0.711985     -0.216292
  C       5.163167      1.108677     -0.384349
  C       6.071518      1.981646      0.484356
  H       5.791540      1.874053      1.546910
  H       7.115780      1.625183      0.406151
  C       6.003643      3.459405      0.098004
  H       6.656825      4.076106      0.736174
  H       4.975519      3.845950      0.195682
  H       6.315406      3.613409     -0.948787
  H       4.111699      1.413947     -0.257268
  H       5.417309      1.252580     -1.448309
  C       3.892020     -4.415919      0.246207
  H       3.664615     -4.886339      1.215416
  H       4.923586     -4.681471     -0.038361
  H       3.215100     -4.819716     -0.518078
  C       2.305578     -2.541252      0.677994
  H       2.027043     -2.106922      1.639808
  C       0.470489     -0.310310     -0.394129
  C       0.998209      0.327679      0.847941
  O       0.327460     -0.016793      1.964671
  C       0.773270      0.582747      3.177947
  H       0.073902      0.253597      3.956796
  H       1.795425      0.254846      3.425738
  H       0.771886      1.680436      3.098649
  O       1.943349      1.088760      0.869786
  C      -0.649797     -1.049247     -0.360773
  H      -1.181509     -1.234210      0.573938
  H      -1.049668     -1.497978     -1.274537
  C       1.229424      0.015155     -1.649712
  H       2.304619     -0.177689     -1.534021
  H       1.130945      1.087797     -1.888072
  H       0.855415     -0.571244     -2.500137
  H       1.518039     -2.896299      0.014221
  O       4.511989     -1.043778     -1.136553
44
Coordinates from ORCA-job orca E -886.381681090154
  O       3.562266     -2.808706     -2.046063
  C       3.957106     -2.269727     -1.044598
  C       3.731200     -2.880589      0.359771
  C       4.706858     -2.304277      1.398869
  H       4.388536     -2.621858      2.405926
  H       5.708463     -2.740060      1.235272
  C       4.791702     -0.786825      1.299449
  H       5.503140     -0.390793      2.041096
  H       3.816934     -0.316976      1.502655
  C       5.262495     -0.380888     -0.088555
  H       6.310720     -0.712690     -0.221088
  C       5.163117      1.110682     -0.385488
  C       6.077022      1.981999      0.478948
  H       5.801665      1.875090      1.542762
  H       7.120178      1.623382      0.396017
  C       6.010658      3.459763      0.092469
  H       6.668543      4.075086      0.727122
  H       4.983995      3.848883      0.195233
  H       6.317505      3.612698     -0.955925
  H       4.112699      1.417919     -0.253999
  H       5.412925      1.253624     -1.450630
  C       3.889673     -4.412215      0.249423
  H       3.665501     -4.883326      1.219087
  H       4.920551     -4.676839     -0.038256
  H       3.210460     -4.815798     -0.512917
  C       2.303599     -2.538050      0.688690
  H       2.027638     -2.108783      1.653761
  C       0.472988     -0.310191     -0.397409
  C       0.997484      0.322383      0.848431
  O       0.321458     -0.024070      1.961387
  C       0.764476      0.570368      3.178041
  H       0.061372      0.241339      3.953591
  H       1.784667      0.238187      3.428436
  H       0.767206      1.668303      3.102208
  O       1.944912      1.080639      0.876581
  C      -0.645529     -1.053182     -0.369327
  H      -1.178630     -1.244201      0.563323
  H      -1.042247     -1.498509     -1.286189
  C       1.233486      0.022370     -1.650011
  H       2.307941     -0.174171     -1.535520
  H       1.137570      1.096918     -1.880608
  H       0.858366     -0.557255     -2.504612
  H       1.512209     -2.902861      0.034735
  O       4.505271     -1.041005     -1.134809
44
Coordinates from ORCA-job orca E -886.381684956780
  O       3.559758     -2.807363     -2.045358
  C       3.955741     -2.268744     -1.044153
  C       3.730748     -2.879745      0.360195
  C       4.706747     -2.303377      1.399060
  H       4.388481     -2.620827      2.406153
  H       5.708260     -2.739362      1.235264
  C       4.791772     -0.785971      1.299391
  H       5.503013     -0.389737      2.041107
  H       3.816929     -0.316048      1.502143
  C       5.262743     -0.380527     -0.088699
  H       6.310679     -0.713140     -0.221418
  C       5.163921      1.111021     -0.385879
  C       6.077753      1.982170      0.478748
  H       5.801600      1.875849      1.542412
  H       7.120753      1.622885      0.396680
  C       6.012582      3.459809      0.091603
  H       6.670337      4.074967      0.726557
  H       4.986100      3.849682      0.193356
  H       6.320418      3.612131     -0.956588
  H       4.113486      1.418306     -0.254692
  H       5.413954      1.253837     -1.450979
  C       3.889361     -4.411329      0.249521
  H       3.666266     -4.882777      1.219269
  H       4.920071     -4.675492     -0.039180
  H       3.209385     -4.814783     -0.512201
  C       2.303268     -2.537786      0.690813
  H       2.027619     -2.108455      1.655908
  C       0.473003     -0.310811     -0.397678
  C       0.997442      0.320557      0.848601
  O       0.321021     -0.026207      1.961273
  C       0.763469      0.568247      3.178145
  H       0.059853      0.239624      3.953401
  H       1.783403      0.235718      3.429075
  H       0.766618      1.666171      3.102238
  O       1.945125      1.078509      0.877414
  C      -0.645176     -1.054437     -0.370124
  H      -1.178397     -1.245959      0.562356
  H      -1.042066     -1.498758     -1.287393
  C       1.233169      0.022703     -1.650151
  H       2.307862     -0.173077     -1.536308
  H       1.136626      1.097365     -1.880126
  H       0.858181     -0.556591     -2.505031
  H       1.511191     -2.901847      0.037258
  O       4.505079     -1.040612     -1.134706
44
Coordinates from ORCA-job orca E -886.381689973146
  O       3.546861     -2.801169     -2.041106
  C       3.948884     -2.264469     -1.041246
  C       3.728575     -2.876146      0.363150
  C       4.707282     -2.300166      1.400033
  H       4.390417     -2.617317      2.407595
  H       5.708161     -2.737010      1.234359
  C       4.792998     -0.782847      1.299483
  H       5.504452     -0.386127      2.040707
  H       3.818173     -0.312413      1.501747
  C       5.263249     -0.378975     -0.089308
  H       6.310102     -0.714290     -0.223542
  C       5.166357      1.112474     -0.387334
  C       6.080959      1.982777      0.477219
  H       5.802998      1.878523      1.540613
  H       7.123231      1.620931      0.397196
  C       6.019910      3.460032      0.088014
  H       6.677870      4.074418      0.723509
  H       4.994221      3.852654      0.187200
  H       6.330263      3.610301     -0.959729
  H       4.116115      1.420322     -0.256363
  H       5.416383      1.254834     -1.452490
  C       3.887292     -4.407740      0.250953
  H       3.669143     -4.880293      1.221259
  H       4.916933     -4.670689     -0.042714
  H       3.203714     -4.810728     -0.507791
  C       2.302138     -2.536211      0.700548
  H       2.029275     -2.106391      1.666023
  C       0.473745     -0.313501     -0.399741
  C       0.997403      0.313325      0.848762
  O       0.318716     -0.034535      1.959835
  C       0.758941      0.558556      3.178238
  H       0.052151      0.231797      3.951386
  H       1.777216      0.223248      3.432107
  H       0.765157      1.656479      3.102675
  O       1.945982      1.070103      0.880696
  C      -0.642898     -1.059341     -0.374909
  H      -1.176362     -1.253801      0.556830
  H      -1.039988     -1.499725     -1.293894
  C       1.232432      0.025145     -1.651540
  H       2.307997     -0.167812     -1.540093
  H       1.133386      1.100417     -1.878065
  H       0.858014     -0.552081     -2.508018
  H       1.507470     -2.898072      0.048778
  O       4.502834     -1.038694     -1.133752
44
Coordinates from ORCA-job orca E -886.381695261226
  O       3.534724     -2.795713     -2.036533
  C       3.942382     -2.260800     -1.037948
  C       3.726520     -2.873227      0.366636
  C       4.708341     -2.298054      1.401150
  H       4.393590     -2.615146      2.409370
  H       5.708486     -2.735645      1.233058
  C       4.794764     -0.780744      1.300196
  H       5.507411     -0.384120      2.040328
  H       3.820381     -0.309677      1.503412
  C       5.263113     -0.377676     -0.089473
  H       6.309221     -0.714499     -0.225650
  C       5.167362      1.113740     -0.387919
  C       6.084188      1.983373      0.474966
  H       5.806869      1.880716      1.538668
  H       7.125747      1.619558      0.394522
  C       6.025558      3.460342      0.084305
  H       6.684952      4.074169      0.718866
  H       5.000660      3.854992      0.183627
  H       6.335647      3.609035     -0.963752
  H       4.117553      1.422446     -0.255511
  H       5.415784      1.255577     -1.453518
  C       3.885113     -4.404849      0.252719
  H       3.670688     -4.878300      1.223409
  H       4.913745     -4.667294     -0.044973
  H       3.198792     -4.807279     -0.503843
  C       2.301184     -2.534454      0.709141
  H       2.031603     -2.104563      1.675412
  C       0.474869     -0.315529     -0.402184
  C       0.997211      0.307939      0.848514
  O       0.315917     -0.040866      1.957695
  C       0.754400      0.549599      3.178003
  H       0.044218      0.224317      3.948666
  H       1.770821      0.210797      3.434699
  H       0.764303      1.647559      3.103546
  O       1.946498      1.063711      0.883549
  C      -0.640580     -1.062997     -0.380223
  H      -1.174101     -1.260942      0.550769
  H      -1.037059     -1.500577     -1.300764
  C       1.232822      0.028415     -1.652941
  H       2.308828     -0.163060     -1.542758
  H       1.132156      1.104374     -1.875679
  H       0.859023     -0.546303     -2.511347
  H       1.504660     -2.895745      0.059353
  O       4.499786     -1.036806     -1.132283
44
Coordinates from ORCA-job orca E -886.381688701127
  O       3.510260     -2.785228     -2.027073
  C       3.929400     -2.253939     -1.031205
  C       3.722552     -2.867921      0.373994
  C       4.711200     -2.294681      1.403059
  H       4.401685     -2.611774      2.412897
  H       5.709745     -2.733610      1.229298
  C       4.799003     -0.777409      1.301728
  H       5.515040     -0.381476      2.038980
  H       3.825926     -0.304974      1.508294
  C       5.262329     -0.375399     -0.089874
  H       6.307221     -0.714177     -0.230422
  C       5.168182      1.116049     -0.388460
  C       6.090224      1.984136      0.470472
  H       5.815865      1.883673      1.535161
  H       7.130422      1.617055      0.387318
  C       6.034930      3.460783      0.078132
  H       6.697875      4.073426      0.710130
  H       5.011514      3.858686      0.179784
  H       6.342532      3.607275     -0.970965
  H       4.119424      1.426638     -0.252133
  H       5.412578      1.257097     -1.455086
  C       3.880628     -4.399607      0.256552
  H       3.673105     -4.874521      1.228018
  H       4.907131     -4.661632     -0.048840
  H       3.189129     -4.800966     -0.495871
  C       2.299554     -2.530346      0.725778
  H       2.037168     -2.100261      1.693857
  C       0.477283     -0.319238     -0.407550
  C       0.996776      0.298915      0.847150
  O       0.310328     -0.051436      1.952567
  C       0.746038      0.533097      3.176667
  H       0.029098      0.210927      3.942368
  H       1.758520      0.186535      3.438704
  H       0.764102      1.631099      3.104695
  O       1.947265      1.052889      0.887934
  C      -0.636124     -1.069536     -0.391003
  H      -1.169416     -1.274714      0.538568
  H      -1.030747     -1.502855     -1.314312
  C       1.234300      0.034939     -1.656051
  H       2.310844     -0.154141     -1.547155
  H       1.130525      1.112071     -1.871693
  H       0.862169     -0.535240     -2.518150
  H       1.499508     -2.891204      0.080277
  O       4.493056     -1.033213     -1.129259
44
Coordinates from ORCA-job orca E -886.381704874882
  O       3.501322     -2.781554     -2.023474
  C       3.924841     -2.251667     -1.028676
  C       3.721261     -2.866367      0.376862
  C       4.712756     -2.294224      1.403574
  H       4.405747     -2.611433      2.414169
  H       5.710607     -2.733620      1.227197
  C       4.801237     -0.776995      1.302518
  H       5.519203     -0.381793      2.038294
  H       3.828986     -0.303966      1.511323
  C       5.262019     -0.374867     -0.089866
  H       6.306721     -0.713505     -0.232190
  C       5.167883      1.116692     -0.388045
  C       6.092159      1.984205      0.469132
  H       5.819937      1.883800      1.534374
  H       7.131973      1.616539      0.383811
  C       6.036871      3.460929      0.077061
  H       6.701418      4.073184      0.707747
  H       5.013849      3.859304      0.180873
  H       6.342334      3.607375     -0.972672
  H       4.119570      1.427958     -0.249713
  H       5.410367      1.257666     -1.455132
  C       3.878862     -4.398038      0.257832
  H       3.673554     -4.873377      1.229566
  H       4.904487     -4.660281     -0.050271
  H       3.185568     -4.798875     -0.493220
  C       2.299193     -2.528328      0.731477
  H       2.039915     -2.097774      1.700196
  C       0.477885     -0.320550     -0.409862
  C       0.996437      0.296969      0.845736
  O       0.308526     -0.053682      1.950089
  C       0.743908      0.528364      3.175421
  H       0.024698      0.207470      3.939539
  H       1.754863      0.178426      3.438997
  H       0.765491      1.626360      3.104459
  O       1.947109      1.050594      0.887852
  C      -0.635188     -1.071378     -0.394687
  H      -1.168118     -1.279002      0.534559
  H      -1.028886     -1.504287     -1.318614
  C       1.234916      0.036587     -1.657615
  H       2.311506     -0.151444     -1.548064
  H       1.129545      1.113823     -1.871794
  H       0.864095     -0.533110     -2.520594
  H       1.497890     -2.888182      0.087208
  O       4.490832     -1.032157     -1.128093
44
Coordinates from ORCA-job orca E -886.381701113476
  O       3.488209     -2.776214     -2.018342
  C       3.918333     -2.248481     -1.025215
  C       3.719504     -2.864225      0.380874
  C       4.715340     -2.293835      1.403988
  H       4.412307     -2.611270      2.415749
  H       5.712103     -2.733927      1.223366
  C       4.805020     -0.776680      1.303658
  H       5.526246     -0.382898      2.037002
  H       3.834145     -0.302660      1.516350
  C       5.261634     -0.374186     -0.089965
  H       6.306053     -0.712454     -0.235235
  C       5.167189      1.117622     -0.387104
  C       6.095052      1.984161      0.467225
  H       5.827072      1.882896      1.533469
  H       7.134410      1.616282      0.377435
  C       6.038590      3.461235      0.076650
  H       6.705973      4.072785      0.705002
  H       5.016103      3.859742      0.185160
  H       6.339555      3.608481     -0.974268
  H       4.119564      1.429706     -0.245206
  H       5.406358      1.258759     -1.454936
  C       3.875724     -4.395811      0.259592
  H       3.673755     -4.871675      1.231791
  H       4.899893     -4.658663     -0.052706
  H       3.179370     -4.795651     -0.489157
  C       2.298947     -2.524585      0.740049
  H       2.044279     -2.093991      1.710056
  C       0.478737     -0.322273     -0.413537
  C       0.995795      0.294774      0.843132
  O       0.305844     -0.056156      1.946068
  C       0.741227      0.522334      3.172944
  H       0.019110      0.203559      3.935217
  H       1.750007      0.167230      3.438198
  H       0.768201      1.620286      3.103426
  O       1.946755      1.047908      0.887072
  C      -0.633816     -1.074107     -0.400110
  H      -1.166454     -1.284966      0.528554
  H      -1.025770     -1.506925     -1.324861
  C       1.236219      0.038273     -1.660182
  H       2.312778     -0.148199     -1.549146
  H       1.128420      1.115464     -1.873074
  H       0.867676     -0.531514     -2.524079
  H       1.495025     -2.883649      0.098815
  O       4.487667     -1.030713     -1.126439
44
Coordinates from ORCA-job orca E -886.381712430701
  O       3.491955     -2.777724     -2.019916
  C       3.920558     -2.249609     -1.026355
  C       3.720289     -2.865226      0.379649
  C       4.715552     -2.295064      1.403362
  H       4.412160     -2.612697      2.414954
  H       5.712441     -2.735016      1.223022
  C       4.805261     -0.777906      1.303551
  H       5.526439     -0.384455      2.037110
  H       3.834405     -0.304037      1.516495
  C       5.262187     -0.374765     -0.089808
  H       6.306954     -0.712162     -0.234556
  C       5.166871      1.117108     -0.386489
  C       6.093724      1.984001      0.468565
  H       5.825835      1.881629      1.534732
  H       7.133504      1.617374      0.378524
  C       6.035578      3.461292      0.079064
  H       6.702356      4.073152      0.707759
  H       5.012643      3.858526      0.187975
  H       6.336252      3.609599     -0.971784
  H       4.119004      1.428546     -0.245005
  H       5.406550      1.258705     -1.454143
  C       3.875790     -4.396817      0.258718
  H       3.672760     -4.872397      1.230843
  H       4.900088     -4.660207     -0.052674
  H       3.179836     -4.796463     -0.490503
  C       2.299596     -2.524428      0.737693
  H       2.044402     -2.093703      1.707524
  C       0.477987     -0.321798     -0.413073
  C       0.995716      0.297078      0.842391
  O       0.307056     -0.053265      1.946364
  C       0.743707      0.526156      3.172322
  H       0.022934      0.207317      3.935833
  H       1.753077      0.171705      3.436222
  H       0.769984      1.624092      3.102264
  O       1.946289      1.050763      0.884672
  C      -0.635184     -1.072800     -0.398107
  H      -1.167850     -1.281769      0.530959
  H      -1.027461     -1.507070     -1.322065
  C       1.235832      0.035886     -1.660357
  H       2.312330     -0.150263     -1.548374
  H       1.127833      1.112512     -1.875937
  H       0.867739     -0.536164     -2.522961
  H       1.495719     -2.882268      0.095762
  O       4.489453     -1.031580     -1.126942
44
Coordinates from ORCA-job orca E -886.381674083796
  O       3.476555     -2.777405     -1.997627
  C       3.915415     -2.251300     -1.006898
  C       3.739576     -2.885835      0.401861
  C       4.735332     -2.313321      1.419028
  H       4.442065     -2.637419      2.431626
  H       5.736228     -2.741489      1.232086
  C       4.805844     -0.789406      1.315728
  H       5.527645     -0.390494      2.045746
  H       3.826242     -0.320748      1.532448
  C       5.256411     -0.378375     -0.080403
  H       6.303098     -0.708036     -0.229326
  C       5.157934      1.112085     -0.386300
  C       6.087504      1.983624      0.461099
  H       5.822118      1.888109      1.528552
  H       7.126792      1.615657      0.370831
  C       6.029521      3.458525      0.062514
  H       6.698278      4.073813      0.685775
  H       5.007146      3.857205      0.171419
  H       6.327764      3.600046     -0.989988
  H       4.114825      1.425794     -0.245496
  H       5.395630      1.247100     -1.455272
  C       3.902656     -4.415455      0.265713
  H       3.711940     -4.900883      1.235592
  H       4.925392     -4.670196     -0.058137
  H       3.201601     -4.812394     -0.480213
  C       2.334906     -2.549957      0.768633
  H       2.066138     -2.096630      1.729277
  C       0.457282     -0.281861     -0.441277
  C       0.994767      0.306963      0.829682
  O       0.309297     -0.058450      1.931885
  C       0.738052      0.504194      3.174064
  H       0.012553      0.168784      3.926194
  H       1.747011      0.163187      3.451499
  H       0.754272      1.603395      3.120056
  O       1.949750      1.049146      0.888248
  C      -0.649292     -1.028925     -0.417639
  H      -1.174172     -1.238660      0.515718
  H      -1.049145     -1.462673     -1.338627
  C       1.220601      0.070214     -1.686554
  H       2.305393     -0.141137     -1.560945
  H       1.126946      1.148648     -1.900293
  H       0.842244     -0.489052     -2.553256
  H       1.491965     -2.858620      0.122485
  O       4.476071     -1.031976     -1.112228
44
Coordinates from ORCA-job orca E -886.382437476987
  O       3.458917     -2.782559     -1.993600
  C       3.912160     -2.259306     -1.008232
  C       3.739976     -2.885648      0.401231
  C       4.741520     -2.306337      1.413090
  H       4.454480     -2.627884      2.428019
  H       5.742210     -2.732366      1.221303
  C       4.810701     -0.786435      1.310980
  H       5.534462     -0.385014      2.037789
  H       3.835911     -0.322179      1.529714
  C       5.252826     -0.380517     -0.086318
  H       6.297484     -0.714240     -0.240571
  C       5.155969      1.110982     -0.385063
  C       6.089573      1.978058      0.462703
  H       5.828061      1.877534      1.530698
  H       7.128283      1.609807      0.366888
  C       6.031262      3.454919      0.071464
  H       6.702913      4.066725      0.695020
  H       5.009652      3.853924      0.186207
  H       6.325564      3.601225     -0.981483
  H       4.110085      1.425444     -0.238749
  H       5.390253      1.249098     -1.454284
  C       3.909806     -4.414450      0.267439
  H       3.725911     -4.898167      1.239309
  H       4.932190     -4.664812     -0.060693
  H       3.206732     -4.816058     -0.473970
  C       2.328398     -2.553557      0.776260
  H       2.066957     -2.098858      1.734117
  C       0.455776     -0.282850     -0.436500
  C       0.988778      0.307261      0.830374
  O       0.299981     -0.056530      1.930313
  C       0.731757      0.511411      3.163820
  H       0.010151      0.179401      3.920798
  H       1.742981      0.166064      3.431817
  H       0.749281      1.610345      3.104255
  O       1.949093      1.046122      0.885723
  C      -0.656243     -1.032526     -0.420609
  H      -1.186224     -1.244805      0.509075
  H      -1.053842     -1.461062     -1.345192
  C       1.224307      0.072134     -1.677596
  H       2.295710     -0.139249     -1.555837
  H       1.136862      1.151839     -1.886649
  H       0.848081     -0.484142     -2.546897
  H       1.501686     -2.860137      0.135577
  O       4.467758     -1.036814     -1.114461
44
Coordinates from ORCA-job orca E -886.382523257411
  O       3.467438     -2.788124     -1.995037
  C       3.904513     -2.256620     -1.007002
  C       3.738417     -2.883740      0.400679
  C       4.742406     -2.303783      1.410968
  H       4.457313     -2.625373      2.426547
  H       5.742133     -2.730689      1.216126
  C       4.813796     -0.785637      1.310641
  H       5.537981     -0.384676      2.037108
  H       3.840354     -0.321686      1.530509
  C       5.254122     -0.381091     -0.086977
  H       6.297276     -0.718292     -0.243851
  C       5.157276      1.110693     -0.382858
  C       6.092718      1.976768      0.463722
  H       5.833831      1.874992      1.532164
  H       7.131258      1.608807      0.364933
  C       6.033335      3.453982      0.074165
  H       6.706572      4.065117      0.696644
  H       5.012019      3.852852      0.191921
  H       6.324968      3.601385     -0.979361
  H       4.110590      1.423757     -0.232975
  H       5.388320      1.250730     -1.452631
  C       3.912475     -4.411932      0.265889
  H       3.734752     -4.896784      1.238370
  H       4.934122     -4.658507     -0.067103
  H       3.207039     -4.815392     -0.472285
  C       2.323431     -2.557018      0.782735
  H       2.069355     -2.101393      1.741414
  C       0.453484     -0.286124     -0.433797
  C       0.984022      0.305508      0.830242
  O       0.292991     -0.052712      1.930377
  C       0.729085      0.516829      3.160287
  H       0.008421      0.190752      3.920823
  H       1.739378      0.163815      3.422794
  H       0.753129      1.615474      3.098324
  O       1.945259      1.044901      0.881925
  C      -0.660669     -1.036388     -0.422636
  H      -1.193324     -1.250462      0.505168
  H      -1.056876     -1.461119     -1.349461
  C       1.221981      0.071420     -1.674329
  H       2.291928     -0.139952     -1.558164
  H       1.136860      1.152148     -1.879176
  H       0.844829     -0.482653     -2.544751
  H       1.502735     -2.867301      0.139344
  O       4.467106     -1.036692     -1.114142
44
Coordinates from ORCA-job orca E -886.382582403879
  O       3.458855     -2.784869     -1.992468
  C       3.907144     -2.259724     -1.006192
  C       3.739271     -2.883368      0.400943
  C       4.744778     -2.304281      1.410462
  H       4.460119     -2.626376      2.426095
  H       5.743379     -2.732987      1.213579
  C       4.818198     -0.786665      1.311874
  H       5.543780     -0.386507      2.037258
  H       3.845201     -0.322650      1.535103
  C       5.254169     -0.380826     -0.086922
  H       6.296160     -0.719351     -0.248312
  C       5.155282      1.111361     -0.380156
  C       6.095191      1.977147      0.461527
  H       5.842749      1.874677      1.531400
  H       7.133287      1.609719      0.356299
  C       6.032924      3.454494      0.073022
  H       6.709722      4.065533      0.691721
  H       5.012207      3.852979      0.197109
  H       6.318166      3.602461     -0.982160
  H       4.109290      1.422703     -0.223215
  H       5.379090      1.253461     -1.451264
  C       3.911547     -4.411991      0.269667
  H       3.736653     -4.894420      1.243883
  H       4.931936     -4.659825     -0.065989
  H       3.203405     -4.816812     -0.465152
  C       2.322297     -2.557285      0.786721
  H       2.075534     -2.101459      1.747080
  C       0.454518     -0.286904     -0.434092
  C       0.980282      0.305514      0.829780
  O       0.286851     -0.050227      1.929007
  C       0.726004      0.516078      3.159337
  H       0.005081      0.192942      3.920964
  H       1.734683      0.155517      3.417895
  H       0.756275      1.614617      3.099605
  O       1.942375      1.044459      0.881685
  C      -0.659854     -1.038016     -0.429041
  H      -1.195279     -1.255240      0.496532
  H      -1.053285     -1.458806     -1.358677
  C       1.222474      0.075343     -1.673703
  H       2.293704     -0.135327     -1.562101
  H       1.138117      1.157164     -1.873138
  H       0.845067     -0.475762     -2.546021
  H       1.505592     -2.873619      0.139426
  O       4.465210     -1.037082     -1.112090
44
Coordinates from ORCA-job orca E -886.382606371098
  O       3.458372     -2.783847     -1.991244
  C       3.905345     -2.258283     -1.004525
  C       3.738584     -2.882210      0.402294
  C       4.745396     -2.304938      1.411178
  H       4.461134     -2.627506      2.426726
  H       5.743238     -2.735001      1.213162
  C       4.820013     -0.786853      1.312686
  H       5.546521     -0.387294      2.037537
  H       3.847165     -0.322017      1.537461
  C       5.254740     -0.380245     -0.086710
  H       6.296591     -0.718682     -0.249166
  C       5.154935      1.111829     -0.380055
  C       6.095593      1.977847      0.460491
  H       5.844591      1.875314      1.530747
  H       7.133670      1.610776      0.353923
  C       6.032235      3.455198      0.072072
  H       6.709612      4.066497      0.689891
  H       5.011524      3.853300      0.197454
  H       6.316069      3.603225     -0.983478
  H       4.109264      1.422549     -0.221970
  H       5.377408      1.254270     -1.451353
  C       3.908127     -4.411311      0.271258
  H       3.734211     -4.893283      1.245835
  H       4.927577     -4.660904     -0.066139
  H       3.198245     -4.815458     -0.462310
  C       2.322612     -2.555427      0.789646
  H       2.079603     -2.100945      1.751659
  C       0.455800     -0.286874     -0.436034
  C       0.979848      0.306329      0.828707
  O       0.285556     -0.049283      1.927302
  C       0.726032      0.512834      3.159848
  H       0.003814      0.189941      3.920286
  H       1.733412      0.148967      3.418422
  H       0.759315      1.611395      3.103081
  O       1.942153      1.044608      0.882116
  C      -0.657362     -1.038365     -0.431768
  H      -1.192720     -1.256367      0.493717
  H      -1.049757     -1.459335     -1.361734
  C       1.222275      0.076608     -1.676224
  H       2.294785     -0.134353     -1.566478
  H       1.137969      1.158764     -1.873866
  H       0.843689     -0.473259     -2.548740
  H       1.506458     -2.876300      0.142637
  O       4.464507     -1.036115     -1.111063
44
Coordinates from ORCA-job orca E -886.382613661932
  O       3.454042     -2.782003     -1.988561
  C       3.901995     -2.256474     -1.002163
  C       3.737447     -2.880575      0.404660
  C       4.746976     -2.305175      1.411668
  H       4.464505     -2.628208      2.427514
  H       5.743948     -2.736276      1.211438
  C       4.822391     -0.786710      1.313281
  H       5.550688     -0.387826      2.036769
  H       3.850212     -0.321165      1.540521
  C       5.254566     -0.379514     -0.086979
  H       6.296236     -0.717703     -0.251084
  C       5.154203      1.112502     -0.380167
  C       6.096128      1.978258      0.459275
  H       5.846847      1.875340      1.529927
  H       7.134046      1.611277      0.350955
  C       6.032012      3.455794      0.071541
  H       6.710267      4.066950      0.688541
  H       5.011447      3.853719      0.198613
  H       6.314222      3.604195     -0.984395
  H       4.108882      1.423154     -0.220806
  H       5.375429      1.255232     -1.451651
  C       3.903949     -4.410121      0.273193
  H       3.731297     -4.891833      1.248095
  H       4.922225     -4.661724     -0.066457
  H       3.192053     -4.813272     -0.459001
  C       2.322925     -2.552517      0.794481
  H       2.084432     -2.101071      1.759096
  C       0.457723     -0.286783     -0.438841
  C       0.980681      0.305972      0.827169
  O       0.283866     -0.048860      1.924221
  C       0.725241      0.508453      3.159018
  H       0.000565      0.186374      3.917417
  H       1.730782      0.140401      3.418578
  H       0.762578      1.606994      3.104961
  O       1.942389      1.044571      0.882650
  C      -0.653823     -1.039570     -0.434940
  H      -1.188437     -1.259037      0.490652
  H      -1.045145     -1.461244     -1.365043
  C       1.222679      0.078861     -1.679284
  H       2.295609     -0.132961     -1.571209
  H       1.138727      1.161544     -1.874284
  H       0.842585     -0.468820     -2.552430
  H       1.506770     -2.879569      0.150259
  O       4.461989     -1.034789     -1.109918
44
Coordinates from ORCA-job orca E -886.382649753597
  O       3.446973     -2.779394     -1.985072
  C       3.897451     -2.254172     -0.999593
  C       3.735768     -2.878394      0.407565
  C       4.748517     -2.304328      1.411986
  H       4.468620     -2.627578      2.428474
  H       5.744670     -2.736010      1.209066
  C       4.824517     -0.785798      1.313646
  H       5.554886     -0.387550      2.035417
  H       3.853249     -0.319684      1.543362
  C       5.253783     -0.378601     -0.087512
  H       6.295062     -0.717047     -0.253543
  C       5.153791      1.113489     -0.380404
  C       6.097687      1.978463      0.457731
  H       5.850236      1.875330      1.528791
  H       7.135197      1.610903      0.347493
  C       6.033757      3.456201      0.070668
  H       6.713412      4.066762      0.686715
  H       5.013628      3.854625      0.199630
  H       6.314237      3.604801     -0.985706
  H       4.108928      1.424874     -0.219514
  H       5.373660      1.256214     -1.452162
  C       3.900168     -4.408151      0.275320
  H       3.729056     -4.889854      1.250508
  H       4.917370     -4.661103     -0.066620
  H       3.186432     -4.810460     -0.455539
  C       2.322536     -2.549141      0.800503
  H       2.088055     -2.101591      1.767893
  C       0.459129     -0.286902     -0.441914
  C       0.980530      0.305383      0.825368
  O       0.281867     -0.050284      1.920932
  C       0.723502      0.502542      3.157681
  H      -0.002740      0.179716      3.914263
  H       1.728002      0.131933      3.417562
  H       0.763022      1.601147      3.106559
  O       1.943287      1.042293      0.883254
  C      -0.650726     -1.041943     -0.438785
  H      -1.184804     -1.263455      0.486599
  H      -1.040733     -1.464107     -1.369234
  C       1.223513      0.081672     -1.681753
  H       2.296353     -0.130725     -1.574229
  H       1.139561      1.164847     -1.874017
  H       0.842875     -0.463781     -2.556022
  H       1.505444     -2.882243      0.160704
  O       4.458418     -1.033108     -1.108790
44
Coordinates from ORCA-job orca E -886.382629949768
  O       3.427753     -2.772050     -1.976425
  C       3.885998     -2.248482     -0.993585
  C       3.731662     -2.873470      0.414305
  C       4.751724     -2.301853      1.412573
  H       4.478208     -2.625645      2.430651
  H       5.746098     -2.734419      1.203080
  C       4.829017     -0.783342      1.314824
  H       5.564439     -0.386795      2.032415
  H       3.859926     -0.315935      1.550482
  C       5.251192     -0.376294     -0.088451
  H       6.291252     -0.715946     -0.259652
  C       5.152669      1.116117     -0.380365
  C       6.102503      1.978840      0.453501
  H       5.860340      1.875595      1.525745
  H       7.138710      1.609258      0.337776
  C       6.039607      3.456951      0.067625
  H       6.723722      4.065801      0.680419
  H       5.020963      3.857341      0.202152
  H       6.314818      3.605549     -0.990141
  H       4.109186      1.429744     -0.214624
  H       5.368041      1.258624     -1.453072
  C       3.892699     -4.403373      0.279683
  H       3.725914     -4.885608      1.255396
  H       4.907548     -4.658182     -0.067875
  H       3.174691     -4.803976     -0.447920
  C       2.321158     -2.542264      0.815306
  H       2.094975     -2.104168      1.789027
  C       0.462464     -0.288046     -0.448565
  C       0.980874      0.300621      0.822036
  O       0.276289     -0.055145      1.913721
  C       0.717549      0.489234      3.154069
  H      -0.012681      0.166380      3.906823
  H       1.719437      0.112311      3.415246
  H       0.762959      1.587858      3.108089
  O       1.944607      1.035707      0.885420
  C      -0.643290     -1.049169     -0.448502
  H      -1.176328     -1.277072      0.475858
  H      -1.030040     -1.471056     -1.380467
  C       1.226139      0.089245     -1.686041
  H       2.298636     -0.124095     -1.579448
  H       1.141660      1.173660     -1.870881
  H       0.845106     -0.450292     -2.563774
  H       1.500772     -2.887544      0.186601
  O       4.449181     -1.028827     -1.105753
44
Coordinates from ORCA-job orca E -886.382633611669
  O       3.421169     -2.769381     -1.973996
  C       3.882131     -2.246536     -0.992091
  C       3.730236     -2.872034      0.416019
  C       4.751986     -2.300489      1.412601
  H       4.480231     -2.624260      2.431181
  H       5.746006     -2.733020      1.201355
  C       4.829584     -0.782144      1.315029
  H       5.566170     -0.385976      2.031616
  H       3.861015     -0.314448      1.551760
  C       5.250174     -0.375533     -0.088729
  H       6.289670     -0.716145     -0.261433
  C       5.152721      1.117014     -0.380397
  C       6.104228      1.978826      0.452472
  H       5.862920      1.875949      1.524941
  H       7.139936      1.608128      0.335839
  C       6.042631      3.456914      0.066414
  H       6.727947      4.065081      0.678532
  H       5.024556      3.858475      0.201765
  H       6.317104      3.605067     -0.991601
  H       4.109640      1.431576     -0.213500
  H       5.367056      1.259273     -1.453361
  C       3.891645     -4.401712      0.280381
  H       3.726432     -4.884544      1.256081
  H       4.906093     -4.655902     -0.068694
  H       3.172666     -4.802069     -0.446386
  C       2.320324     -2.540984      0.820148
  H       2.095621     -2.105271      1.795345
  C       0.463109     -0.289098     -0.450039
  C       0.980667      0.298133      0.821372
  O       0.275067     -0.058186      1.912362
  C       0.715584      0.485515      3.153042
  H      -0.014804      0.162247      3.905471
  H       1.717411      0.108321      3.414174
  H       0.761180      1.584177      3.107763
  O       1.945195      1.032183      0.886028
  C      -0.641634     -1.052113     -0.451456
  H      -1.174647     -1.282396      0.472327
  H      -1.027750     -1.472748     -1.384239
  C       1.226970      0.091304     -1.686441
  H       2.299321     -0.121725     -1.579769
  H       1.141726      1.176002     -1.869213
  H       0.846632     -0.446818     -2.565375
  H       1.497812     -2.887353      0.194958
  O       4.446423     -1.027508     -1.104975
44
Coordinates from ORCA-job orca E -886.382645584143
  O       3.405393     -2.762628     -1.968171
  C       3.873168     -2.242074     -0.988393
  C       3.727004     -2.868944      0.419881
  C       4.752286     -2.297619      1.413055
  H       4.484095     -2.621427      2.432585
  H       5.745481     -2.730244      1.198040
  C       4.830688     -0.779539      1.315913
  H       5.569536     -0.384153      2.030547
  H       3.863012     -0.311146      1.554681
  C       5.248029     -0.373840     -0.088942
  H       6.286153     -0.716854     -0.265135
  C       5.152721      1.118931     -0.380309
  C       6.107991      1.979004      0.449947
  H       5.868567      1.877436      1.522947
  H       7.142553      1.605684      0.331498
  C       6.049441      3.456892      0.062782
  H       6.737435      4.063754      0.673186
  H       5.032682      3.861278      0.199667
  H       6.322380      3.603540     -0.995826
  H       4.110541      1.435217     -0.210589
  H       5.364292      1.260608     -1.453926
  C       3.889325     -4.398124      0.281746
  H       3.728330     -4.882517      1.257395
  H       4.902755     -4.650583     -0.071366
  H       3.167668     -4.797866     -0.442695
  C       2.318631     -2.538859      0.831685
  H       2.097402     -2.107761      1.809842
  C       0.465388     -0.291989     -0.453102
  C       0.981053      0.291055      0.820383
  O       0.272700     -0.065989      1.909563
  C       0.711097      0.476857      3.150987
  H      -0.019978      0.153410      3.902688
  H       1.712594      0.098823      3.412531
  H       0.757462      1.575558      3.106840
  O       1.945879      1.024719      0.887930
  C      -0.637103     -1.058864     -0.458644
  H      -1.170045     -1.295283      0.463654
  H      -1.022015     -1.475431     -1.393716
  C       1.228981      0.096377     -1.687228
  H       2.301419     -0.115488     -1.581432
  H       1.141576      1.181782     -1.864593
  H       0.850100     -0.438276     -2.568964
  H       1.491050     -2.884961      0.213134
  O       4.440430     -1.024673     -1.102796
44
Coordinates from ORCA-job orca E -886.382645944461
  O       3.394920     -2.758275     -1.963915
  C       3.867264     -2.239257     -0.985532
  C       3.724967     -2.866781      0.422711
  C       4.752872     -2.296080      1.413605
  H       4.486851     -2.619936      2.433674
  H       5.745352     -2.729167      1.196112
  C       4.831861     -0.778062      1.316521
  H       5.572039     -0.383028      2.029963
  H       3.864671     -0.309214      1.556599
  C       5.247060     -0.372861     -0.089118
  H       6.284369     -0.717206     -0.267468
  C       5.152661      1.119966     -0.380425
  C       6.110199      1.979137      0.448092
  H       5.872194      1.878202      1.521468
  H       7.144127      1.604498      0.328275
  C       6.052967      3.456949      0.060487
  H       6.742561      4.063144      0.669752
  H       5.036929      3.862730      0.198610
  H       6.324652      3.602896     -0.998542
  H       4.111026      1.436992     -0.208846
  H       5.362324      1.261424     -1.454447
  C       3.886879     -4.395902      0.283222
  H       3.729028     -4.880988      1.259038
  H       4.899247     -4.647962     -0.073191
  H       3.162796     -4.795092     -0.439108
  C       2.317928     -2.537081      0.839353
  H       2.099693     -2.108123      1.819126
  C       0.467466     -0.293619     -0.455359
  C       0.981326      0.287448      0.819582
  O       0.271503     -0.070841      1.907399
  C       0.708507      0.470418      3.149982
  H      -0.023253      0.146161      3.900671
  H       1.709726      0.091904      3.411948
  H       0.755092      1.569164      3.107466
  O       1.946343      1.020752      0.889406
  C      -0.633493     -1.062682     -0.463577
  H      -1.166307     -1.302911      0.457831
  H      -1.017420     -1.476943     -1.400064
  C       1.230268      0.099685     -1.688445
  H       2.303065     -0.111039     -1.583825
  H       1.141235      1.185503     -1.862411
  H       0.852083     -0.432989     -2.571670
  H       1.487728     -2.882041      0.223633
  O       4.436844     -1.023102     -1.101303
44
Coordinates from ORCA-job orca E -886.382654878164
  O       3.377790     -2.751206     -1.956622
  C       3.857707     -2.234815     -0.980495
  C       3.721683     -2.863305      0.427582
  C       4.754119     -2.294087      1.414735
  H       4.491407     -2.618004      2.435595
  H       5.745273     -2.728269      1.193328
  C       4.834133     -0.776076      1.317488
  H       5.576206     -0.381442      2.029175
  H       3.867666     -0.306498      1.559483
  C       5.246052     -0.371584     -0.089383
  H       6.282204     -0.717710     -0.270862
  C       5.152590      1.121234     -0.380849
  C       6.113006      1.979388      0.445335
  H       5.876742      1.879480      1.519197
  H       7.146105      1.602993      0.323923
  C       6.057516      3.457052      0.056931
  H       6.749137      4.062483      0.664666
  H       5.042413      3.864684      0.196509
  H       6.327648      3.601909     -1.002648
  H       4.111627      1.439014     -0.206931
  H       5.359752      1.262415     -1.455391
  C       3.882362     -4.392546      0.285886
  H       3.730044     -4.878588      1.262096
  H       4.892676     -4.644385     -0.076523
  H       3.153848     -4.790731     -0.432533
  C       2.317050     -2.534088      0.851955
  H       2.104147     -2.107600      1.833973
  C       0.471442     -0.296131     -0.459110
  C       0.982634      0.281843      0.818212
  O       0.270452     -0.078589      1.903659
  C       0.705074      0.459671      3.148459
  H      -0.028306      0.134050      3.896963
  H       1.705634      0.080270      3.411636
  H       0.752053      1.558486      3.108726
  O       1.947038      1.015675      0.891655
  C      -0.627183     -1.068273     -0.471316
  H      -1.159367     -1.314562      0.448892
  H      -1.009692     -1.479066     -1.409882
  C       1.232091      0.105028     -1.691036
  H       2.305700     -0.103554     -1.589088
  H       1.140164      1.191483     -1.859531
  H       0.854533     -0.424616     -2.576308
  H       1.483193     -2.874562      0.238657
  O       4.431788     -1.021083     -1.098930
44
Coordinates from ORCA-job orca E -886.382657781546
  O       3.366569     -2.746595     -1.951452
  C       3.851654     -2.231991     -0.976860
  C       3.719567     -2.860957      0.431137
  C       4.755380     -2.293202      1.415628
  H       4.494896     -2.617146      2.437033
  H       5.745490     -2.728391      1.191593
  C       4.836268     -0.775170      1.318163
  H       5.579666     -0.380822      2.028629
  H       3.870370     -0.305022      1.561622
  C       5.245902     -0.371018     -0.089519
  H       6.281484     -0.717834     -0.272828
  C       5.152624      1.121750     -0.381154
  C       6.114585      1.979581      0.443603
  H       5.879512      1.880188      1.517776
  H       7.147281      1.602426      0.321126
  C       6.059646      3.457185      0.054843
  H       6.752332      4.062343      0.661632
  H       5.044977      3.865553      0.195404
  H       6.328702      3.601551     -1.005081
  H       4.111987      1.439812     -0.205931
  H       5.358354      1.262807     -1.455982
  C       3.878800     -4.390415      0.287944
  H       3.730103     -4.876891      1.264478
  H       4.887528     -4.642647     -0.078648
  H       3.147202     -4.787799     -0.427781
  C       2.316598     -2.531572      0.860169
  H       2.107553     -2.106421      1.843546
  C       0.474055     -0.297522     -0.461825
  C       0.983589      0.278855      0.816983
  O       0.270004     -0.083319      1.900808
  C       0.703172      0.452294      3.147324
  H      -0.031597      0.125563      3.893980
  H       1.703153      0.072080      3.411465
  H       0.750558      1.551164      3.109700
  O       1.947396      1.013197      0.892756
  C      -0.623068     -1.071572     -0.476084
  H      -1.154535     -1.321467      0.443578
  H      -1.004590     -1.480883     -1.415684
  C       1.232970      0.108491     -1.693212
  H       2.307155     -0.098427     -1.593037
  H       1.138929      1.195292     -1.858391
  H       0.855661     -0.419430     -2.579578
  H       1.481069     -2.867675      0.246835
  O       4.429197     -1.020151     -1.097423
44
Coordinates from ORCA-job orca E -886.382659443630
  O       3.362552     -2.744976     -1.949377
  C       3.849799     -2.231103     -0.975421
  C       3.718872     -2.860118      0.432640
  C       4.756167     -2.293238      1.416020
  H       4.496541     -2.617106      2.437670
  H       5.745786     -2.729003      1.191029
  C       4.837580     -0.775219      1.318409
  H       5.581543     -0.381036      2.028380
  H       3.872002     -0.304803      1.562568
  C       5.246364     -0.371082     -0.089528
  H       6.281957     -0.717657     -0.273234
  C       5.152778      1.121670     -0.381225
  C       6.114883      1.979699      0.443203
  H       5.880126      1.880434      1.517454
  H       7.147559      1.602577      0.320481
  C       6.059729      3.457264      0.054302
  H       6.752546      4.062554      0.660810
  H       5.045056      3.865535      0.195120
  H       6.328448      3.601529     -1.005723
  H       4.112139      1.439659     -0.205828
  H       5.358292      1.262715     -1.456094
  C       3.877146     -4.389732      0.288898
  H       3.729568     -4.876189      1.265613
  H       4.885199     -4.642498     -0.079211
  H       3.144435     -4.786718     -0.425903
  C       2.316519     -2.530151      0.862969
  H       2.108982     -2.105515      1.846849
  C       0.474716     -0.297846     -0.462997
  C       0.983953      0.278185      0.816260
  O       0.270041     -0.084771      1.899579
  C       0.702884      0.449525      3.146784
  H      -0.032600      0.122462      3.892594
  H       1.702505      0.068664      3.411350
  H       0.750760      1.548404      3.109962
  O       1.947330      1.012951      0.892682
  C      -0.621866     -1.072600     -0.477487
  H      -1.152828     -1.323508      0.442173
  H      -1.003027     -1.481998     -1.417198
  C       1.232893      0.109687     -1.694302
  H       2.307289     -0.096352     -1.594551
  H       1.137791      1.196533     -1.858628
  H       0.855715     -0.417924     -2.580897
  H       1.480836     -2.862839      0.248128
  O       4.429191     -1.020274     -1.097045
44
Coordinates from ORCA-job orca E -886.381114313114
  O       3.361638     -2.742144     -1.948917
  C       3.850427     -2.233140     -0.972885
  C       3.734955     -2.881210      0.446518
  C       4.771978     -2.306924      1.419884
  H       4.520118     -2.632553      2.442949
  H       5.764816     -2.733391      1.191050
  C       4.838061     -0.780606      1.318127
  H       5.582657     -0.384599      2.026421
  H       3.867765     -0.306891      1.562469
  C       5.242188     -0.373274     -0.090435
  H       6.278608     -0.716939     -0.274963
  C       5.145070      1.119252     -0.380993
  C       6.107910      1.974319      0.445661
  H       5.872141      1.873603      1.519557
  H       7.140074      1.595735      0.323115
  C       6.055456      3.452636      0.059235
  H       6.748772      4.055771      0.667324
  H       5.041332      3.862309      0.199944
  H       6.325249      3.598273     -1.000331
  H       4.105646      1.441233     -0.206298
  H       5.351692      1.261342     -1.455513
  C       3.899466     -4.410040      0.301302
  H       3.764436     -4.897139      1.279593
  H       4.904992     -4.657755     -0.077196
  H       3.161375     -4.810801     -0.405887
  C       2.358474     -2.549478      0.893010
  H       2.133147     -2.111129      1.866721
  C       0.445593     -0.265580     -0.492147
  C       0.976664      0.291326      0.809156
  O       0.270752     -0.080152      1.894177
  C       0.706047      0.449608      3.143408
  H      -0.028531      0.121160      3.889503
  H       1.701579      0.069657      3.411742
  H       0.751569      1.548623      3.107575
  O       1.940146      1.018929      0.891590
  C      -0.637860     -1.043546     -0.491200
  H      -1.156123     -1.295470      0.435315
  H      -1.025245     -1.458026     -1.426172
  C       1.207148      0.130967     -1.714585
  H       2.299414     -0.089213     -1.605043
  H       1.119233      1.217891     -1.882564
  H       0.830708     -0.395496     -2.602177
  H       1.475133     -2.862270      0.258012
  O       4.423481     -1.019080     -1.098775
44
Coordinates from ORCA-job orca E -886.383063489065
  O       3.346807     -2.752249     -1.934570
  C       3.844097     -2.239883     -0.965301
  C       3.734110     -2.881088      0.447331
  C       4.775300     -2.303274      1.419498
  H       4.528741     -2.629206      2.443635
  H       5.769116     -2.725187      1.187011
  C       4.838539     -0.782319      1.320227
  H       5.582957     -0.385542      2.028144
  H       3.871937     -0.311312      1.563778
  C       5.240460     -0.376844     -0.088542
  H       6.275839     -0.722129     -0.275902
  C       5.145114      1.116130     -0.380119
  C       6.108123      1.972749      0.445287
  H       5.872132      1.873879      1.519270
  H       7.140262      1.593813      0.323605
  C       6.056162      3.450515      0.056551
  H       6.749466      4.054503      0.663816
  H       5.042097      3.860651      0.196392
  H       6.326218      3.594424     -1.003182
  H       4.105172      1.438551     -0.206180
  H       5.352105      1.256969     -1.454731
  C       3.905998     -4.406934      0.290779
  H       3.773880     -4.900664      1.265905
  H       4.912251     -4.647195     -0.090410
  H       3.168726     -4.806201     -0.418384
  C       2.345685     -2.556344      0.894464
  H       2.124189     -2.115831      1.868328
  C       0.446354     -0.257796     -0.485094
  C       0.972390      0.295855      0.805712
  O       0.262803     -0.077249      1.888290
  C       0.696905      0.451895      3.137900
  H      -0.040680      0.125491      3.882052
  H       1.694850      0.069087      3.408348
  H       0.745657      1.550748      3.102052
  O       1.940200      1.021704      0.887313
  C      -0.638793     -1.044858     -0.485972
  H      -1.158002     -1.298512      0.439662
  H      -1.022723     -1.463424     -1.420828
  C       1.215643      0.137299     -1.709425
  H       2.288232     -0.084207     -1.600890
  H       1.135896      1.224783     -1.878364
  H       0.839060     -0.387408     -2.598076
  H       1.497143     -2.861654      0.280106
  O       4.417732     -1.025943     -1.092204
44
Coordinates from ORCA-job orca E -886.383213477375
  O       3.342274     -2.754581     -1.929251
  C       3.842885     -2.241640     -0.961940
  C       3.735364     -2.879818      0.448139
  C       4.776512     -2.301612      1.420967
  H       4.530146     -2.627305      2.445328
  H       5.770055     -2.723854      1.188050
  C       4.841063     -0.782762      1.321430
  H       5.585333     -0.384438      2.028799
  H       3.874766     -0.313869      1.565433
  C       5.241294     -0.377952     -0.088281
  H       6.276035     -0.723709     -0.278147
  C       5.146187      1.114780     -0.380350
  C       6.109094      1.972413      0.444003
  H       5.873470      1.874338      1.518143
  H       7.141378      1.593859      0.322290
  C       6.056273      3.449762      0.053954
  H       6.749446      4.054591      0.660510
  H       5.042045      3.859519      0.193732
  H       6.325975      3.592901     -1.005978
  H       4.106108      1.436148     -0.206187
  H       5.352582      1.255325     -1.455176
  C       3.910763     -4.405445      0.291734
  H       3.780855     -4.899757      1.267044
  H       4.917141     -4.643124     -0.090461
  H       3.173807     -4.806387     -0.416495
  C       2.339744     -2.561188      0.894591
  H       2.121479     -2.120630      1.869229
  C       0.445645     -0.256443     -0.481818
  C       0.969603      0.295663      0.805190
  O       0.260431     -0.077820      1.888297
  C       0.695691      0.450205      3.137834
  H      -0.042128      0.124259      3.881936
  H       1.693786      0.066275      3.406804
  H       0.746596      1.548998      3.102987
  O       1.939503      1.020625      0.886380
  C      -0.642629     -1.042741     -0.489883
  H      -1.165244     -1.299527      0.432708
  H      -1.024680     -1.456555     -1.427518
  C       1.215516      0.142352     -1.706971
  H       2.285294     -0.080621     -1.598277
  H       1.138238      1.230353     -1.873531
  H       0.837907     -0.379821     -2.596799
  H       1.496002     -2.866818      0.278096
  O       4.416546     -1.028162     -1.089263
44
Coordinates from ORCA-job orca E -886.383281497304
  O       3.339317     -2.754702     -1.926139
  C       3.841845     -2.242054     -0.959437
  C       3.736484     -2.878409      0.448701
  C       4.776042     -2.300360      1.423175
  H       4.528061     -2.625482      2.447353
  H       5.768763     -2.725043      1.191077
  C       4.843671     -0.782523      1.322734
  H       5.587769     -0.382315      2.029260
  H       3.876813     -0.315924      1.567723
  C       5.242191     -0.378512     -0.088110
  H       6.276354     -0.724797     -0.280265
  C       5.147301      1.113896     -0.380679
  C       6.110190      1.972628      0.442328
  H       5.875235      1.875447      1.516694
  H       7.142625      1.594553      0.320351
  C       6.056214      3.449511      0.050780
  H       6.749358      4.055347      0.656359
  H       5.041814      3.858774      0.190712
  H       6.325244      3.591767     -1.009440
  H       4.107058      1.433597     -0.205866
  H       5.352546      1.254196     -1.455779
  C       3.914778     -4.404553      0.295003
  H       3.787233     -4.897854      1.271169
  H       4.921262     -4.640653     -0.087945
  H       3.177916     -4.808269     -0.411607
  C       2.334879     -2.567075      0.894646
  H       2.120818     -2.126652      1.870339
  C       0.445720     -0.256770     -0.479228
  C       0.967467      0.294687      0.805282
  O       0.259337     -0.079165      1.889082
  C       0.696296      0.447302      3.138412
  H      -0.041056      0.121388      3.882941
  H       1.694413      0.062159      3.404460
  H       0.749356      1.546072      3.105090
  O       1.938846      1.018815      0.886162
  C      -0.645661     -1.039964     -0.495797
  H      -1.172501     -1.300205      0.423520
  H      -1.026080     -1.446896     -1.436910
  C       1.214006      0.147988     -1.705106
  H       2.283492     -0.076237     -1.596077
  H       1.137633      1.236552     -1.867570
  H       0.835217     -0.371010     -2.596222
  H       1.494270     -2.874293      0.273009
  O       4.415614     -1.029173     -1.086900
44
Coordinates from ORCA-job orca E -886.383307793514
  O       3.338671     -2.753819     -1.925723
  C       3.841153     -2.241562     -0.958667
  C       3.736380     -2.877850      0.449001
  C       4.774886     -2.300001      1.424399
  H       4.525549     -2.624684      2.448340
  H       5.767076     -2.726560      1.193225
  C       4.844101     -0.781951      1.323486
  H       5.588152     -0.380978      2.029525
  H       3.876669     -0.316370      1.569179
  C       5.242187     -0.378543     -0.087729
  H       6.276172     -0.725262     -0.280183
  C       5.147519      1.113756     -0.380682
  C       6.110525      1.973032      0.441498
  H       5.876018      1.876439      1.516015
  H       7.142980      1.595073      0.319333
  C       6.056093      3.449685      0.049084
  H       6.749329      4.056029      0.654055
  H       5.041653      3.858799      0.189137
  H       6.324706      3.591367     -1.011316
  H       4.107163      1.432533     -0.205373
  H       5.351986      1.253777     -1.455953
  C       3.915701     -4.404323      0.296513
  H       3.788907     -4.896954      1.273055
  H       4.922313     -4.640057     -0.086516
  H       3.179008     -4.809276     -0.409627
  C       2.333539     -2.569950      0.895089
  H       2.121918     -2.129535      1.871224
  C       0.446673     -0.257846     -0.478911
  C       0.967451      0.294173      0.805551
  O       0.259537     -0.079780      1.889296
  C       0.697308      0.445572      3.138656
  H      -0.039483      0.119291      3.883544
  H       1.695441      0.059629      3.402629
  H       0.751174      1.544353      3.106455
  O       1.938964      1.018030      0.886398
  C      -0.645990     -1.038534     -0.498408
  H      -1.174477     -1.299632      0.419869
  H      -1.026470     -1.442179     -1.440850
  C       1.213515      0.150074     -1.704927
  H       2.283422     -0.074131     -1.595752
  H       1.136478      1.238891     -1.864849
  H       0.834414     -0.367593     -2.596586
  H       1.494719     -2.878406      0.270940
  O       4.415122     -1.028935     -1.086161
44
Coordinates from ORCA-job orca E -886.383303414980
  O       3.338285     -2.752939     -1.925494
  C       3.840419     -2.240956     -0.958061
  C       3.735766     -2.877518      0.449499
  C       4.773762     -2.299759      1.425389
  H       4.523431     -2.624032      2.449187
  H       5.765610     -2.727633      1.195045
  C       4.843597     -0.781328      1.324239
  H       5.587672     -0.379942      2.029926
  H       3.875688     -0.316546      1.570592
  C       5.241774     -0.378533     -0.087045
  H       6.275692     -0.725786     -0.278963
  C       5.147383      1.113735     -0.380487
  C       6.110564      1.973478      0.440863
  H       5.876504      1.877497      1.515536
  H       7.142995      1.595526      0.318503
  C       6.055831      3.449920      0.047636
  H       6.749191      4.056706      0.652025
  H       5.041379      3.858956      0.187788
  H       6.324066      3.591014     -1.012935
  H       4.106922      1.431773     -0.204712
  H       5.351156      1.253305     -1.455927
  C       3.915954     -4.404101      0.296981
  H       3.789583     -4.896585      1.273597
  H       4.922679     -4.639484     -0.086130
  H       3.179488     -4.809632     -0.409128
  C       2.332980     -2.571986      0.896065
  H       2.123608     -2.131452      1.872477
  C       0.448163     -0.259086     -0.479406
  C       0.968351      0.293896      0.805609
  O       0.259928     -0.079903      1.888822
  C       0.698241      0.443991      3.138525
  H      -0.037996      0.117023      3.883636
  H       1.696367      0.057023      3.400434
  H       0.752615      1.542787      3.107743
  O       1.939662      1.017671      0.886534
  C      -0.645828     -1.037064     -0.499645
  H      -1.175032     -1.297746      0.418421
  H      -1.027467     -1.438469     -1.442568
  C       1.213964      0.150941     -1.705320
  H       2.284250     -0.072622     -1.596149
  H       1.135713      1.239949     -1.863054
  H       0.834932     -0.366023     -2.597334
  H       1.495603     -2.881795      0.270277
  O       4.414704     -1.028480     -1.085711
44
Coordinates from ORCA-job orca E -886.383306482230
  O       3.337772     -2.752606     -1.925095
  C       3.839798     -2.240658     -0.957603
  C       3.735089     -2.877452      0.450073
  C       4.773273     -2.299675      1.425873
  H       4.522763     -2.623753      2.449694
  H       5.765055     -2.727795      1.195816
  C       4.842747     -0.781045      1.324707
  H       5.586920     -0.379580      2.030231
  H       3.874639     -0.316758      1.571529
  C       5.241212     -0.378571     -0.086491
  H       6.275147     -0.726200     -0.277651
  C       5.146997      1.113709     -0.380295
  C       6.110334      1.973728      0.440493
  H       5.876714      1.877961      1.515288
  H       7.142761      1.595872      0.317819
  C       6.055237      3.450096      0.047006
  H       6.748743      4.057120      0.650986
  H       5.040767      3.858986      0.187476
  H       6.323013      3.590995     -1.013705
  H       4.106489      1.431360     -0.204177
  H       5.350350      1.252878     -1.455852
  C       3.915909     -4.403960      0.296771
  H       3.789806     -4.896734      1.273271
  H       4.922646     -4.638975     -0.086558
  H       3.179548     -4.809500     -0.409456
  C       2.332817     -2.572758      0.897255
  H       2.125041     -2.132000      1.873808
  C       0.449590     -0.259766     -0.480237
  C       0.969585      0.293954      0.805231
  O       0.260188     -0.079377      1.887799
  C       0.698864      0.442930      3.138050
  H      -0.037071      0.115200      3.883111
  H       1.696893      0.054882      3.398449
  H       0.753576      1.541740      3.108728
  O       1.940682      1.017780      0.886299
  C      -0.645639     -1.035695     -0.499667
  H      -1.174837     -1.295107      0.418743
  H      -1.028821     -1.436225     -1.442370
  C       1.215162      0.150783     -1.705966
  H       2.285656     -0.071918     -1.596994
  H       1.135820      1.239879     -1.862554
  H       0.836372     -0.366113     -2.598105
  H       1.496143     -2.883574      0.271090
  O       4.414401     -1.028266     -1.085540
44
Coordinates from ORCA-job orca E -886.383316456104
  O       3.336758     -2.752605     -1.924348
  C       3.839072     -2.240593     -0.957072
  C       3.734463     -2.877549      0.450797
  C       4.773274     -2.299726      1.426109
  H       4.523205     -2.623812      2.450066
  H       5.765157     -2.727394      1.195821
  C       4.841838     -0.781046      1.325023
  H       5.586161     -0.379588      2.030423
  H       3.873670     -0.317208      1.572315
  C       5.240492     -0.378621     -0.086071
  H       6.274482     -0.726447     -0.276568
  C       5.146269      1.113669     -0.380093
  C       6.109821      1.973867      0.440211
  H       5.876797      1.878001      1.515136
  H       7.142265      1.596233      0.316980
  C       6.054199      3.450261      0.046867
  H       6.747898      4.057398      0.650507
  H       5.039707      3.858900      0.187908
  H       6.321363      3.591281     -1.013984
  H       4.105751      1.431086     -0.203588
  H       5.349252      1.252520     -1.455755
  C       3.915672     -4.403919      0.296515
  H       3.790006     -4.897137      1.272869
  H       4.922262     -4.638586     -0.087331
  H       3.179131     -4.809227     -0.409645
  C       2.332776     -2.572758      0.898759
  H       2.126493     -2.131730      1.875466
  C       0.451158     -0.259983     -0.481296
  C       0.971070      0.294214      0.804456
  O       0.260368     -0.078319      1.886358
  C       0.699558      0.441887      3.137344
  H      -0.036194      0.113189      3.882149
  H       1.697396      0.052503      3.396291
  H       0.754669      1.540714      3.109871
  O       1.942006      1.018163      0.885785
  C      -0.645425     -1.034086     -0.499430
  H      -1.174504     -1.291679      0.419491
  H      -1.030216     -1.434351     -1.441628
  C       1.216985      0.150171     -1.706837
  H       2.287640     -0.071447     -1.598270
  H       1.136582      1.239292     -1.862940
  H       0.838524     -0.366988     -2.598978
  H       1.496275     -2.884452      0.273020
  O       4.414025     -1.028307     -1.085424
44
Coordinates from ORCA-job orca E -886.383320500822
  O       3.335147     -2.752823     -1.923299
  C       3.838201     -2.240748     -0.956466
  C       3.734066     -2.877740      0.451576
  C       4.773750     -2.299952      1.426134
  H       4.524612     -2.624257      2.450274
  H       5.765756     -2.726836      1.195077
  C       4.841305     -0.781321      1.325189
  H       5.585824     -0.379828      2.030419
  H       3.873140     -0.317910      1.572982
  C       5.239732     -0.378651     -0.085892
  H       6.273796     -0.726350     -0.276170
  C       5.145221      1.113643     -0.379908
  C       6.109031      1.973903      0.440008
  H       5.876743      1.877633      1.515059
  H       7.141517      1.596635      0.315989
  C       6.052679      3.450400      0.047178
  H       6.746592      4.057562      0.650542
  H       5.038148      3.858659      0.189033
  H       6.319080      3.591836     -1.013810
  H       4.104758      1.430964     -0.202942
  H       5.347851      1.252394     -1.455656
  C       3.915104     -4.404005      0.296664
  H       3.789999     -4.897508      1.272969
  H       4.921397     -4.638591     -0.087921
  H       3.178030     -4.808981     -0.409118
  C       2.332870     -2.572052      0.900405
  H       2.127945     -2.130823      1.877321
  C       0.452724     -0.259705     -0.482368
  C       0.972524      0.294606      0.803470
  O       0.260553     -0.077001      1.884863
  C       0.700556      0.440793      3.136583
  H      -0.035085      0.111057      3.881048
  H       1.698165      0.049995      3.394183
  H       0.756189      1.539635      3.111137
  O       1.943397      1.018672      0.885190
  C      -0.645039     -1.032431     -0.499604
  H      -1.174302     -1.288208      0.419652
  H      -1.030850     -1.432781     -1.441382
  C       1.219044      0.149488     -1.707804
  H       2.289866     -0.071038     -1.599791
  H       1.137773      1.238561     -1.864113
  H       0.840864     -0.368101     -2.599847
  H       1.495978     -2.884374      0.275715
  O       4.413498     -1.028632     -1.085288
44
Coordinates from ORCA-job orca E -886.383324317700
  O       3.332409     -2.753055     -1.921659
  C       3.836824     -2.241022     -0.955522
  C       3.733816     -2.877963      0.452662
  C       4.774798     -2.300405      1.426030
  H       4.527246     -2.625209      2.450406
  H       5.766854     -2.726304      1.193427
  C       4.841251     -0.781850      1.325359
  H       5.586065     -0.380168      2.030215
  H       3.873061     -0.319065      1.573891
  C       5.238746     -0.378639     -0.085866
  H       6.272906     -0.725812     -0.276559
  C       5.143492      1.113622     -0.379642
  C       6.107693      1.973896      0.439821
  H       5.876412      1.876980      1.515032
  H       7.140239      1.597148      0.314692
  C       6.050342      3.450549      0.047746
  H       6.744591      4.057715      0.650725
  H       5.035774      3.858305      0.190770
  H       6.315656      3.592600     -1.013436
  H       4.103141      1.430890     -0.201934
  H       5.345583      1.252490     -1.455484
  C       3.913851     -4.404209      0.297502
  H       3.789530     -4.897799      1.273891
  H       4.919597     -4.639166     -0.088196
  H       3.175749     -4.808688     -0.407472
  C       2.333193     -2.570526      0.902727
  H       2.129976     -2.129230      1.880013
  C       0.454784     -0.258948     -0.483688
  C       0.974227      0.295158      0.802171
  O       0.260852     -0.075385      1.883068
  C       0.702232      0.439082      3.135656
  H      -0.033235      0.107960      3.879681
  H       1.699578      0.046510      3.391548
  H       0.758656      1.537945      3.112967
  O       1.945120      1.019285      0.884566
  C      -0.644136     -1.030395     -0.500735
  H      -1.174207     -1.284218      0.418544
  H      -1.030302     -1.430928     -1.442292
  C       1.221741      0.148925     -1.709112
  H       2.292837     -0.070271     -1.601909
  H       1.139537      1.237878     -1.866253
  H       0.843823     -0.369251     -2.600952
  H       1.495283     -2.883419      0.279844
  O       4.412563     -1.029220     -1.084962
44
Coordinates from ORCA-job orca E -886.383329218626
  O       3.328780     -2.753070     -1.919642
  C       3.835008     -2.241304     -0.954290
  C       3.733704     -2.878111      0.453959
  C       4.776270     -2.301084      1.425858
  H       4.530661     -2.626561      2.450481
  H       5.768128     -2.726312      1.191141
  C       4.841950     -0.782559      1.325570
  H       5.587124     -0.380488      2.029826
  H       3.873653     -0.320571      1.575034
  C       5.237745     -0.378605     -0.085976
  H       6.271985     -0.724879     -0.277854
  C       5.141326      1.113617     -0.379282
  C       6.106043      1.973956      0.439597
  H       5.875994      1.876316      1.515002
  H       7.138662      1.597851      0.313115
  C       6.047478      3.450780      0.048363
  H       6.742145      4.057971      0.650832
  H       5.032878      3.857947      0.192807
  H       6.311464      3.593523     -1.013056
  H       4.101128      1.430797     -0.200560
  H       5.342584      1.252868     -1.455239
  C       3.911773     -4.404489      0.299127
  H       3.788221     -4.897787      1.275765
  H       4.916784     -4.640494     -0.087822
  H       3.172272     -4.808355     -0.404723
  C       2.333768     -2.568364      0.905555
  H       2.132464     -2.127275      1.883378
  C       0.457133     -0.257884     -0.485088
  C       0.975898      0.295786      0.800830
  O       0.261310     -0.074000      1.881278
  C       0.704432      0.436769      3.134697
  H      -0.030748      0.104168      3.878362
  H       1.701580      0.042429      3.388711
  H       0.761838      1.535644      3.115046
  O       1.946939      1.019773      0.884153
  C      -0.642543     -1.028476     -0.503049
  H      -1.174102     -1.280870      0.415769
  H      -1.028035     -1.429111     -1.444809
  C       1.224570      0.148923     -1.710614
  H       2.296034     -0.068959     -1.604330
  H       1.141445      1.237693     -1.869014
  H       0.846831     -0.369851     -2.602196
  H       1.494317     -2.881640      0.284950
  O       4.411257     -1.029921     -1.084381
44
Coordinates from ORCA-job orca E -886.383334081480
  O       3.324899     -2.752597     -1.917578
  C       3.832980     -2.241350     -0.952882
  C       3.733570     -2.878028      0.455323
  C       4.777879     -2.301825      1.425666
  H       4.534225     -2.627999      2.450512
  H       5.769239     -2.727025      1.188621
  C       4.843317     -0.783245      1.325912
  H       5.588873     -0.380695      2.029441
  H       3.874822     -0.322162      1.576369
  C       5.236942     -0.378533     -0.086063
  H       6.271193     -0.723798     -0.279686
  C       5.139208      1.113669     -0.378799
  C       6.104475      1.974157      0.439377
  H       5.875517      1.876173      1.514974
  H       7.137129      1.598517      0.311780
  C       6.044962      3.451038      0.048495
  H       6.740027      4.058365      0.650374
  H       5.030363      3.857813      0.194045
  H       6.307836      3.594079     -1.013159
  H       4.099150      1.430652     -0.198923
  H       5.339431      1.253476     -1.454888
  C       3.909146     -4.404648      0.301113
  H       3.786021     -4.897419      1.278051
  H       4.913437     -4.642186     -0.086827
  H       3.168308     -4.807827     -0.401742
  C       2.334446     -2.566005      0.908602
  H       2.134968     -2.125488      1.887090
  C       0.459359     -0.256868     -0.486353
  C       0.977159      0.296273      0.799803
  O       0.261801     -0.073514      1.879809
  C       0.706505      0.434044      3.133873
  H      -0.028286      0.100195      3.877375
  H       1.703598      0.038416      3.386205
  H       0.764813      1.532928      3.116850
  O       1.948453      1.019861      0.884205
  C      -0.640385     -1.027323     -0.506166
  H      -1.173751     -1.279407      0.411745
  H      -1.024287     -1.427856     -1.448588
  C       1.226894      0.149798     -1.711991
  H       2.298740     -0.067050     -1.606507
  H       1.142916      1.238371     -1.871551
  H       0.849242     -0.369394     -2.603366
  H       1.493286     -2.879397      0.290255
  O       4.409729     -1.030397     -1.083514
44
Coordinates from ORCA-job orca E -886.383334090793
  O       3.321209     -2.751702     -1.915685
  C       3.830913     -2.241079     -0.951477
  C       3.733236     -2.877624      0.456684
  C       4.779391     -2.302403      1.425455
  H       4.537481     -2.629120      2.450521
  H       5.770004     -2.728191      1.186207
  C       4.845034     -0.783722      1.326288
  H       5.591010     -0.380740      2.029046
  H       3.876294     -0.323550      1.577696
  C       5.236433     -0.378447     -0.086146
  H       6.270596     -0.722926     -0.281665
  C       5.137603      1.113776     -0.378327
  C       6.103425      1.974429      0.439101
  H       5.875303      1.876439      1.514878
  H       7.136057      1.598995      0.310714
  C       6.043338      3.451290      0.048198
  H       6.738728      4.058784      0.649540
  H       5.028768      3.857877      0.194467
  H       6.305426      3.594328     -1.013649
  H       4.097660      1.430442     -0.197285
  H       5.336684      1.254169     -1.454552
  C       3.906341     -4.404521      0.303013
  H       3.783443     -4.896733      1.280239
  H       4.909956     -4.643735     -0.085733
  H       3.164322     -4.806976     -0.399022
  C       2.335054     -2.563763      0.911748
  H       2.137156     -2.124146      1.890981
  C       0.461211     -0.256206     -0.487486
  C       0.977915      0.296466      0.799131
  O       0.262208     -0.074141      1.878647
  C       0.707847      0.431265      3.133166
  H      -0.026552      0.096592      3.876679
  H       1.705048      0.035061      3.384303
  H       0.766740      1.530149      3.117915
  O       1.949529      1.019448      0.884645
  C      -0.637899     -1.027331     -0.509375
  H      -1.172785     -1.280322      0.407476
  H      -1.019836     -1.427613     -1.452664
  C       1.228417      0.151477     -1.713155
  H       2.300557     -0.064696     -1.608239
  H       1.143612      1.239902     -1.873331
  H       0.850829     -0.367896     -2.604442
  H       1.492308     -2.877031      0.295339
  O       4.408138     -1.030484     -1.082564
44
Coordinates from ORCA-job orca E -886.383337487171
  O       3.317104     -2.750258     -1.913577
  C       3.828454     -2.240384     -0.949833
  C       3.732478     -2.876856      0.458336
  C       4.780964     -2.302899      1.425266
  H       4.540891     -2.630078      2.450607
  H       5.770602     -2.729678      1.183663
  C       4.847002     -0.784087      1.326794
  H       5.593515     -0.380771      2.028702
  H       3.877992     -0.324959      1.579263
  C       5.236060     -0.378339     -0.086134
  H       6.270000     -0.722355     -0.283651
  C       5.136341      1.113951     -0.377790
  C       6.102839      1.974838      0.438635
  H       5.875555      1.877186      1.514619
  H       7.135389      1.599410      0.309555
  C       6.042390      3.451593      0.047363
  H       6.738161      4.059308      0.648040
  H       5.027900      3.858165      0.194225
  H       6.303738      3.594338     -1.014707
  H       4.096484      1.430118     -0.195417
  H       5.334036      1.254854     -1.454201
  C       3.903088     -4.404055      0.304804
  H       3.780474     -4.895853      1.282257
  H       4.905946     -4.645021     -0.084896
  H       3.159814     -4.805585     -0.396445
  C       2.335532     -2.561355      0.915678
  H       2.139391     -2.123092      1.895882
  C       0.463111     -0.255876     -0.488876
  C       0.978544      0.296314      0.798496
  O       0.262553     -0.075777      1.877299
  C       0.708448      0.428027      3.132327
  H      -0.025635      0.092693      3.875846
  H       1.705848      0.031693      3.382575
  H       0.767636      1.526923      3.118447
  O       1.950540      1.018501      0.885350
  C      -0.634775     -1.028434     -0.512749
  H      -1.170674     -1.283418      0.403009
  H      -1.014692     -1.428333     -1.457003
  C       1.229649      0.154081     -1.714344
  H       2.302031     -0.061518     -1.609876
  H       1.143758      1.242433     -1.874310
  H       0.852234     -0.365207     -2.605750
  H       1.491161     -2.874315      0.301213
  O       4.406273     -1.030135     -1.081414
44
Coordinates from ORCA-job orca E -886.383335834738
  O       3.310769     -2.747758     -1.910313
  C       3.824556     -2.238941     -0.947320
  C       3.730881     -2.875402      0.460971
  C       4.783158     -2.303394      1.424990
  H       4.545872     -2.631144      2.450806
  H       5.771361     -2.731551      1.179938
  C       4.849676     -0.784454      1.327518
  H       5.597099     -0.380910      2.028249
  H       3.880345     -0.326859      1.581588
  C       5.235597     -0.378152     -0.086085
  H       6.269081     -0.722051     -0.286208
  C       5.135061      1.114273     -0.377066
  C       6.102664      1.975420      0.437727
  H       5.876692      1.878367      1.514053
  H       7.135033      1.599864      0.307568
  C       6.041783      3.451998      0.045824
  H       6.738195      4.060035      0.645434
  H       5.027447      3.858621      0.193596
  H       6.301954      3.594211     -1.016608
  H       4.095324      1.429643     -0.192715
  H       5.330665      1.255681     -1.453791
  C       3.898248     -4.402967      0.307063
  H       3.776619     -4.894421      1.284812
  H       4.899825     -4.646160     -0.084616
  H       3.152834     -4.803072     -0.392738
  C       2.335909     -2.557816      0.922079
  H       2.142547     -2.121948      1.903915
  C       0.465873     -0.255767     -0.491250
  C       0.979512      0.295574      0.797415
  O       0.262924     -0.078889      1.874969
  C       0.708305      0.423140      3.130889
  H      -0.025617      0.086909      3.874141
  H       1.705980      0.026965      3.380368
  H       0.767497      1.522061      3.118594
  O       1.952007      1.016647      0.886401
  C      -0.629786     -1.031168     -0.517266
  H      -1.166065     -1.289870      0.397251
  H      -1.007336     -1.430508     -1.462724
  C       1.231271      0.158521     -1.716077
  H       2.303903     -0.056259     -1.612177
  H       1.143520      1.246898     -1.874552
  H       0.854308     -0.360237     -2.607988
  H       1.489271     -2.870138      0.310362
  O       4.403388     -1.029201     -1.079751
44
Coordinates from ORCA-job orca E -886.383349713351
  O       3.305916     -2.745762     -1.907752
  C       3.821383     -2.237497     -0.945410
  C       3.729234     -2.874015      0.463056
  C       4.784397     -2.303368      1.424900
  H       4.549048     -2.631302      2.451128
  H       5.771643     -2.732361      1.177573
  C       4.851190     -0.784399      1.327920
  H       5.599383     -0.380941      2.027853
  H       3.881752     -0.327794      1.583155
  C       5.235261     -0.377968     -0.086124
  H       6.268250     -0.722512     -0.287686
  C       5.134845      1.114580     -0.376784
  C       6.103419      1.975708      0.436768
  H       5.878501      1.879013      1.513358
  H       7.135584      1.599892      0.305711
  C       6.042403      3.452212      0.044596
  H       6.739360      4.060317      0.643502
  H       5.028222      3.858957      0.193104
  H       6.301704      3.594164     -1.018084
  H       4.095214      1.429447     -0.191056
  H       5.328979      1.256022     -1.453767
  C       3.894954     -4.401737      0.308159
  H       3.774752     -4.893335      1.286008
  H       4.895478     -4.645876     -0.085581
  H       3.147775     -4.800848     -0.390329
  C       2.335748     -2.555427      0.927345
  H       2.144710     -2.121772      1.910653
  C       0.467732     -0.256228     -0.493277
  C       0.980245      0.294273      0.796468
  O       0.263062     -0.081860      1.873014
  C       0.707069      0.419729      3.129635
  H      -0.027104      0.082947      3.872367
  H       1.704912      0.024131      3.379294
  H       0.765706      1.518694      3.117876
  O       1.952970      1.014772      0.887072
  C      -0.625805     -1.034533     -0.519978
  H      -1.160921     -1.296868      0.394153
  H      -1.002459     -1.433395     -1.466023
  C       1.232004      0.162330     -1.717327
  H       2.304718     -0.051878     -1.613737
  H       1.142704      1.250903     -1.873213
  H       0.855533     -0.355428     -2.610039
  H       1.487587     -2.867041      0.317445
  O       4.401089     -1.028156     -1.078665
44
Coordinates from ORCA-job orca E -886.383355822916
  O       3.295715     -2.741903     -1.902371
  C       3.814760     -2.234478     -0.941596
  C       3.725805     -2.871265      0.467196
  C       4.786319     -2.302942      1.424881
  H       4.554763     -2.631158      2.451929
  H       5.772065     -2.732802      1.173323
  C       4.853294     -0.783975      1.328521
  H       5.603037     -0.380921      2.027041
  H       3.883823     -0.329013      1.586016
  C       5.234245     -0.377454     -0.086320
  H       6.266187     -0.723777     -0.290178
  C       5.134678      1.115308     -0.376603
  C       6.105420      1.976009      0.434562
  H       5.882828      1.879663      1.511685
  H       7.137077      1.599546      0.301356
  C       6.044337      3.452491      0.042310
  H       6.742664      4.060405      0.639813
  H       5.030588      3.859644      0.192670
  H       6.301633      3.594188     -1.020886
  H       4.095379      1.429645     -0.188369
  H       5.326193      1.256400     -1.454097
  C       3.888979     -4.399168      0.310009
  H       3.772382     -4.891411      1.288003
  H       4.887366     -4.644313     -0.088404
  H       3.138132     -4.796533     -0.385518
  C       2.335067     -2.551003      0.937972
  H       2.149215     -2.122121      1.924436
  C       0.471468     -0.257422     -0.497454
  C       0.982055      0.290912      0.794313
  O       0.263206     -0.087610      1.868862
  C       0.704007      0.413178      3.126997
  H      -0.031095      0.074904      3.868107
  H       1.702016      0.018755      3.377636
  H       0.761087      1.512237      3.116321
  O       1.954824      1.010965      0.888082
  C      -0.617755     -1.041839     -0.524861
  H      -1.149263     -1.311487      0.389145
  H      -0.993625     -1.439658     -1.471710
  C       1.233459      0.169871     -1.719729
  H       2.306354     -0.042943     -1.616921
  H       1.141046      1.259018     -1.869209
  H       0.858037     -0.345087     -2.614512
  H       1.483987     -2.860980      0.331590
  O       4.396392     -1.026087     -1.076755
44
Coordinates from ORCA-job orca E -886.383362199107
  O       3.287749     -2.739343     -1.898344
  C       3.809769     -2.232376     -0.938963
  C       3.723494     -2.869431      0.470001
  C       4.787233     -2.302275      1.424942
  H       4.558301     -2.630631      2.452538
  H       5.772289     -2.732057      1.170649
  C       4.854054     -0.783365      1.328673
  H       5.604877     -0.380684      2.026284
  H       3.884726     -0.329089      1.587677
  C       5.233157     -0.377014     -0.086706
  H       6.264351     -0.724799     -0.291862
  C       5.134613      1.115833     -0.376926
  C       6.107168      1.975786      0.432728
  H       5.886531      1.879112      1.510221
  H       7.138399      1.598867      0.297511
  C       6.046066      3.452443      0.041140
  H       6.745716      4.059803      0.637640
  H       5.032758      3.859964      0.193460
  H       6.301504      3.594451     -1.022469
  H       4.095699      1.430480     -0.187172
  H       5.324620      1.256416     -1.454761
  C       3.885391     -4.397377      0.311367
  H       3.771916     -4.890117      1.289491
  H       4.882261     -4.642622     -0.090658
  H       3.131886     -4.793906     -0.381735
  C       2.334424     -2.548236      0.945389
  H       2.152747     -2.123087      1.934307
  C       0.474128     -0.258458     -0.500355
  C       0.983597      0.287940      0.792692
  O       0.263193     -0.091312      1.865954
  C       0.701535      0.408945      3.125186
  H      -0.034508      0.069217      3.864701
  H       1.699542      0.015393      3.377087
  H       0.757192      1.508088      3.115364
  O       1.955978      1.008397      0.888511
  C      -0.611929     -1.047427     -0.528284
  H      -1.140120     -1.322329      0.386013
  H      -0.987778     -1.444305     -1.475552
  C       1.234382      0.175154     -1.721349
  H       2.307477     -0.036452     -1.619337
  H       1.139928      1.264838     -1.865415
  H       0.859621     -0.336982     -2.618033
  H       1.481261     -2.856788      0.341396
  O       4.392950     -1.024876     -1.075721
44
Coordinates from ORCA-job orca E -886.383370380387
  O       3.276270     -2.735921     -1.892802
  C       3.802861     -2.229698     -0.935507
  C       3.720822     -2.867281      0.473458
  C       4.787968     -2.301123      1.425133
  H       4.562341     -2.629710      2.453366
  H       5.772445     -2.730276      1.167541
  C       4.854418     -0.782255      1.328732
  H       5.606578     -0.380051      2.025226
  H       3.885476     -0.328226      1.589540
  C       5.231261     -0.376300     -0.087366
  H       6.261527     -0.725829     -0.294182
  C       5.134294      1.116588     -0.377736
  C       6.109538      1.975128      0.430107
  H       5.891544      1.877798      1.508065
  H       7.140084      1.597382      0.292020
  C       6.048838      3.452087      0.039654
  H       6.750628      4.058347      0.634750
  H       5.036318      3.860471      0.194884
  H       6.301629      3.594586     -1.024520
  H       4.096124      1.432620     -0.186304
  H       5.322712      1.256354     -1.455969
  C       3.881337     -4.395232      0.313357
  H       3.772089     -4.888566      1.291677
  H       4.876357     -4.640262     -0.093286
  H       3.124524     -4.791057     -0.376517
  C       2.333669     -2.545123      0.954765
  H       2.157979     -2.125385      1.947121
  C       0.477687     -0.259962     -0.503773
  C       0.985713      0.283557      0.790809
  O       0.262963     -0.095859      1.862462
  C       0.698073      0.403601      3.123106
  H      -0.039330      0.061449      3.860173
  H       1.696014      0.011330      3.377226
  H       0.751575      1.502862      3.114633
  O       1.957037      1.005374      0.889071
  C      -0.604020     -1.055053     -0.533223
  H      -1.127675     -1.336983      0.381505
  H      -0.979823     -1.450289     -1.481176
  C       1.235446      0.182124     -1.723145
  H       2.308990     -0.027619     -1.622588
  H       1.138557      1.272601     -1.859557
  H       0.861336     -0.325356     -2.622706
  H       1.477673     -2.851392      0.353801
  O       4.388307     -1.023658     -1.074546
44
Coordinates from ORCA-job orca E -886.383376576199
  O       3.266991     -2.733062     -1.888667
  C       3.797578     -2.227790     -0.933004
  C       3.719290     -2.865967      0.475708
  C       4.788145     -2.300048      1.425348
  H       4.564720     -2.628893      2.453955
  H       5.772361     -2.728597      1.165630
  C       4.854362     -0.781155      1.328783
  H       5.607398     -0.379215      2.024484
  H       3.885853     -0.326646      1.590688
  C       5.229584     -0.375615     -0.087863
  H       6.259277     -0.726001     -0.296055
  C       5.133819      1.117243     -0.378544
  C       6.111323      1.974461      0.428062
  H       5.894983      1.876972      1.506324
  H       7.141207      1.595589      0.288125
  C       6.051820      3.451583      0.038037
  H       6.755549      4.056757      0.631950
  H       5.040148      3.861320      0.195233
  H       6.302841      3.593968     -1.026570
  H       4.096424      1.435242     -0.186170
  H       5.321376      1.256415     -1.457012
  C       3.879059     -4.393890      0.314981
  H       3.772518     -4.887521      1.293445
  H       4.873018     -4.638699     -0.094430
  H       3.120321     -4.789519     -0.372875
  C       2.333305     -2.543529      0.961066
  H       2.162136     -2.128296      1.956091
  C       0.480201     -0.261232     -0.505593
  C       0.986892      0.280128      0.790107
  O       0.262351     -0.099303      1.860566
  C       0.694986      0.399628      3.122194
  H      -0.043360      0.055342      3.857360
  H       1.692930      0.008658      3.378412
  H       0.746644      1.498989      3.114816
  O       1.956962      1.003581      0.889932
  C      -0.598092     -1.060877     -0.537469
  H      -1.118901     -1.348224      0.377225
  H      -0.973272     -1.454422     -1.486298
  C       1.235901      0.187410     -1.723873
  H       2.309952     -0.020758     -1.624826
  H       1.137434      1.278476     -1.854623
  H       0.861992     -0.315982     -2.625756
  H       1.475192     -2.847684      0.362108
  O       4.384932     -1.023047     -1.073726
44
Coordinates from ORCA-job orca E -886.383388616097
  O       3.258601     -2.730124     -1.885229
  C       3.793047     -2.226219     -0.930916
  C       3.718339     -2.865075      0.477402
  C       4.788210     -2.299087      1.425538
  H       4.566445     -2.628201      2.454395
  H       5.772144     -2.727425      1.164248
  C       4.854426     -0.780119      1.328910
  H       5.608159     -0.378229      2.023848
  H       3.886397     -0.324717      1.591554
  C       5.228131     -0.374981     -0.088231
  H       6.257474     -0.725515     -0.297867
  C       5.133197      1.117812     -0.379265
  C       6.112754      1.973867      0.426277
  H       5.897384      1.876805      1.504756
  H       7.141970      1.593589      0.285280
  C       6.054962      3.450987      0.035981
  H       6.760376      4.055219      0.628860
  H       5.044143      3.862373      0.194327
  H       6.304925      3.592712     -1.028959
  H       4.096624      1.438092     -0.186187
  H       5.320098      1.256660     -1.457896
  C       3.877661     -4.392965      0.316427
  H       3.772537     -4.886722      1.294965
  H       4.871113     -4.637785     -0.094336
  H       3.117984     -4.788559     -0.370429
  C       2.333280     -2.542783      0.965866
  H       2.165723     -2.131642      1.963151
  C       0.482318     -0.262363     -0.506406
  C       0.987309      0.277562      0.790329
  O       0.261374     -0.102439      1.859621
  C       0.691840      0.396026      3.122069
  H      -0.047052      0.049833      3.855811
  H       1.689913      0.006471      3.380111
  H       0.741884      1.495474      3.115718
  O       1.956056      1.002624      0.891374
  C      -0.593158     -1.065497     -0.541559
  H      -1.112822     -1.357302      0.372460
  H      -0.966896     -1.457275     -1.491604
  C       1.236207      0.191876     -1.723864
  H       2.310840     -0.014785     -1.626558
  H       1.136370      1.283331     -1.850571
  H       0.862239     -0.308113     -2.627556
  H       1.473367     -2.844890      0.368413
  O       4.382260     -1.022708     -1.072978
44
Coordinates from ORCA-job orca E -886.383390018987
  O       3.250933     -2.727032     -1.882132
  C       3.788986     -2.224728     -0.928953
  C       3.717476     -2.864241      0.478999
  C       4.788537     -2.298341      1.425647
  H       4.568277     -2.627705      2.454743
  H       5.771971     -2.726982      1.162888
  C       4.854986     -0.779315      1.329143
  H       5.609444     -0.377383      2.023223
  H       3.887436     -0.323039      1.592456
  C       5.227083     -0.374447     -0.088475
  H       6.256178     -0.724775     -0.299657
  C       5.132623      1.118328     -0.379706
  C       6.114050      1.973544      0.424666
  H       5.899279      1.877438      1.503346
  H       7.142633      1.591759      0.283146
  C       6.058095      3.450517      0.033516
  H       6.764884      4.054083      0.625444
  H       5.048038      3.863567      0.192399
  H       6.307472      3.591190     -1.031703
  H       4.096790      1.440589     -0.185784
  H       5.318679      1.257106     -1.458495
  C       3.876396     -4.392097      0.317545
  H       3.771947     -4.886076      1.296030
  H       4.869534     -4.637193     -0.093945
  H       3.116175     -4.787403     -0.368895
  C       2.333410     -2.542216      0.970221
  H       2.168709     -2.134762      1.969450
  C       0.484315     -0.263390     -0.506858
  C       0.987139      0.275835      0.791008
  O       0.260155     -0.105664      1.858981
  C       0.688407      0.392340      3.122269
  H      -0.050790      0.044577      3.854970
  H       1.686696      0.004210      3.381690
  H       0.737065      1.491866      3.116898
  O       1.954734      1.002103      0.893375
  C      -0.588858     -1.069235     -0.545276
  H      -1.108710     -1.364629      0.367568
  H      -0.960582     -1.459523     -1.496680
  C       1.236711      0.195727     -1.723546
  H       2.311921     -0.009468     -1.628082
  H       1.135269      1.287357     -1.847581
  H       0.862691     -0.301920     -2.628491
  H       1.471909     -2.842463      0.374076
  O       4.380058     -1.022320     -1.072160
44
Coordinates from ORCA-job orca E -886.383388168508
  O       3.242246     -2.723116     -1.878609
  C       3.784359     -2.222758     -0.926701
  C       3.716266     -2.863053      0.480941
  C       4.789162     -2.297490      1.425666
  H       4.570659     -2.627038      2.455086
  H       5.771849     -2.726785      1.161168
  C       4.856071     -0.778472      1.329345
  H       5.611567     -0.376558      2.022276
  H       3.889155     -0.321213      1.593527
  C       5.226246     -0.373873     -0.088825
  H       6.255017     -0.724088     -0.301754
  C       5.132297      1.118930     -0.380087
  C       6.115881      1.973284      0.422753
  H       5.901806      1.878455      1.501692
  H       7.143729      1.589738      0.280712
  C       6.061954      3.450016      0.030462
  H       6.770127      4.052960      0.621369
  H       5.052692      3.864848      0.189751
  H       6.310802      3.589410     -1.035047
  H       4.097274      1.443095     -0.184863
  H       5.317041      1.257756     -1.459105
  C       3.874941     -4.390863      0.318489
  H       3.771552     -4.885256      1.296875
  H       4.867577     -4.636189     -0.094172
  H       3.113855     -4.785693     -0.367279
  C       2.333487     -2.541538      0.975515
  H       2.171678     -2.138279      1.976887
  C       0.486662     -0.264650     -0.507381
  C       0.986527      0.274253      0.791941
  O       0.258437     -0.109765      1.858161
  C       0.683591      0.387857      3.122558
  H      -0.056028      0.038507      3.854069
  H       1.682165      0.001448      3.383444
  H       0.730608      1.487473      3.118203
  O       1.952913      1.001674      0.896205
  C      -0.584156     -1.073279     -0.549078
  H      -1.104874     -1.372221      0.362164
  H      -0.953354     -1.462228     -1.501999
  C       1.237560      0.199811     -1.723063
  H       2.313380     -0.003612     -1.629865
  H       1.133794      1.291506     -1.844582
  H       0.863599     -0.295920     -2.629100
  H       1.470315     -2.839696      0.380775
  O       4.377720     -1.021597     -1.071244
44
Coordinates from ORCA-job orca E -886.383389578723
  O       3.234005     -2.719099     -1.875184
  C       3.779967     -2.220546     -0.924561
  C       3.714911     -2.861617      0.482849
  C       4.789778     -2.296486      1.425696
  H       4.572796     -2.625965      2.455477
  H       5.771712     -2.726548      1.159725
  C       4.857403     -0.777583      1.329356
  H       5.614162     -0.375878      2.021028
  H       3.891286     -0.319154      1.594455
  C       5.225879     -0.373366     -0.089329
  H       6.254255     -0.723856     -0.303713
  C       5.132602      1.119514     -0.380466
  C       6.118379      1.973042      0.420673
  H       5.905203      1.879400      1.499907
  H       7.145495      1.587799      0.277947
  C       6.066254      3.449568      0.027386
  H       6.775775      4.051928      0.617275
  H       5.057735      3.866008      0.187234
  H       6.314409      3.587858     -1.038431
  H       4.098311      1.445186     -0.183665
  H       5.315749      1.258337     -1.459761
  C       3.873854     -4.389321      0.318762
  H       3.772056     -4.884499      1.296925
  H       4.865861     -4.634334     -0.095588
  H       3.111678     -4.783626     -0.366112
  C       2.333327     -2.541161      0.980787
  H       2.173812     -2.142059      1.984188
  C       0.488822     -0.266089     -0.507773
  C       0.985463      0.272855      0.793037
  O       0.256299     -0.114109      1.857387
  C       0.677595      0.383606      3.122978
  H      -0.062776      0.032935      3.853079
  H       1.676417     -0.000964      3.385565
  H       0.722791      1.483313      3.119253
  O       1.950653      1.001438      0.899549
  C      -0.580019     -1.077137     -0.552015
  H      -1.101947     -1.378882      0.357595
  H      -0.946794     -1.465235     -1.506242
  C       1.238547      0.203200     -1.722331
  H       2.314849      0.001521     -1.631432
  H       1.132191      1.294885     -1.841547
  H       0.864804     -0.291210     -2.629230
  H       1.468863     -2.837239      0.387037
  O       4.375739     -1.020638     -1.070488
44
Coordinates from ORCA-job orca E -886.383397206425
  O       3.225566     -2.714983     -1.871464
  C       3.775421     -2.218014     -0.922304
  C       3.713304     -2.859844      0.484948
  C       4.790494     -2.295429      1.425770
  H       4.575076     -2.624648      2.455980
  H       5.771653     -2.726229      1.158237
  C       4.859099     -0.776716      1.329178
  H       5.617428     -0.375480      2.019432
  H       3.893955     -0.317071      1.595474
  C       5.225864     -0.372952     -0.090067
  H       6.253697     -0.724238     -0.305782
  C       5.133339      1.120045     -0.380894
  C       6.121412      1.972741      0.418279
  H       5.909866      1.879727      1.497899
  H       7.147842      1.586229      0.274076
  C       6.070280      3.449201      0.024662
  H       6.781211      4.050991      0.613426
  H       5.062414      3.866719      0.185815
  H       6.317063      3.587002     -1.041543
  H       4.099707      1.446647     -0.182012
  H       5.314409      1.258801     -1.460550
  C       3.872648     -4.387422      0.318761
  H       3.773419     -4.883627      1.296681
  H       4.863702     -4.631643     -0.098277
  H       3.108795     -4.781176     -0.364555
  C       2.332920     -2.540586      0.986611
  H       2.175571     -2.145777      1.992092
  C       0.491186     -0.267536     -0.508456
  C       0.984484      0.271394      0.793830
  O       0.253993     -0.118454      1.856181
  C       0.670904      0.379360      3.123149
  H      -0.070680      0.027338      3.851353
  H       1.669802     -0.003561      3.387655
  H       0.714200      1.479157      3.120052
  O       1.948449      1.001181      0.903145
  C      -0.575976     -1.080789     -0.554462
  H      -1.099058     -1.384608      0.353740
  H      -0.940608     -1.468593     -1.509678
  C       1.240015      0.206069     -1.721796
  H       2.316737      0.006129     -1.633174
  H       1.130891      1.297742     -1.838489
  H       0.866591     -0.287268     -2.629475
  H       1.467281     -2.834547      0.393673
  O       4.373786     -1.019492     -1.069837
44
Coordinates from ORCA-job orca E -886.383400986089
  O       3.220245     -2.712360     -1.869013
  C       3.772601     -2.216185     -0.920911
  C       3.712242     -2.858469      0.486261
  C       4.790913     -2.294685      1.425887
  H       4.576292     -2.623471      2.456396
  H       5.771612     -2.725985      1.157520
  C       4.860567     -0.776152      1.328825
  H       5.620179     -0.375528      2.018058
  H       3.896264     -0.315446      1.596132
  C       5.226315     -0.372818     -0.090806
  H       6.253651     -0.725078     -0.307284
  C       5.134292      1.120284     -0.381282
  C       6.123953      1.972453      0.416377
  H       5.914318      1.879135      1.496345
  H       7.150009      1.585663      0.270255
  C       6.072499      3.449058      0.023372
  H       6.784522      4.050476      0.611191
  H       5.064977      3.866687      0.186383
  H       6.317471      3.587248     -1.043198
  H       4.100997      1.446899     -0.180605
  H       5.313568      1.258931     -1.461255
  C       3.872009     -4.385975      0.318521
  H       3.775158     -4.882978      1.296286
  H       4.862258     -4.629212     -0.100922
  H       3.106733     -4.779487     -0.363318
  C       2.332447     -2.540300      0.990331
  H       2.175997     -2.148377      1.997129
  C       0.492665     -0.268424     -0.508917
  C       0.983823      0.270394      0.794242
  O       0.252216     -0.121033      1.855312
  C       0.665904      0.377028      3.123252
  H      -0.076950      0.024161      3.849746
  H       1.664678     -0.005005      3.389423
  H       0.707953      1.476875      3.120397
  O       1.946938      1.001109      0.905765
  C      -0.573741     -1.082801     -0.555595
  H      -1.097611     -1.387152      0.351905
  H      -0.937132     -1.470959     -1.511171
  C       1.241295      0.207199     -1.721484
  H       2.318168      0.008133     -1.634145
  H       1.130672      1.298911     -1.836363
  H       0.868087     -0.285486     -2.629639
  H       1.466363     -2.832806      0.397471
  O       4.372735     -1.018683     -1.069595
44
Coordinates from ORCA-job orca E -886.383402857922
  O       3.216554     -2.710603     -1.867195
  C       3.770677     -2.214873     -0.919872
  C       3.711526     -2.857443      0.487212
  C       4.791295     -2.294361      1.426029
  H       4.577205     -2.622754      2.456763
  H       5.771614     -2.726090      1.156978
  C       4.862059     -0.775926      1.328564
  H       5.622776     -0.375998      2.017017
  H       3.898470     -0.314412      1.596904
  C       5.226895     -0.372865     -0.091381
  H       6.253772     -0.725990     -0.308599
  C       5.134927      1.120315     -0.381502
  C       6.125684      1.972289      0.414861
  H       5.918189      1.878128      1.495155
  H       7.151589      1.585962      0.266500
  C       6.072937      3.449118      0.022892
  H       6.785788      4.050414      0.609818
  H       5.065529      3.866185      0.188024
  H       6.315873      3.588117     -1.044035
  H       4.101760      1.446271     -0.179129
  H       5.312506      1.258920     -1.461760
  C       3.871186     -4.384968      0.318566
  H       3.776297     -4.882408      1.296302
  H       4.860718     -4.627585     -0.102893
  H       3.104665     -4.778329     -0.361943
  C       2.332091     -2.539804      0.992931
  H       2.176052     -2.149967      2.000666
  C       0.493877     -0.268736     -0.509462
  C       0.983762      0.269655      0.794221
  O       0.251071     -0.122330      1.854440
  C       0.662739      0.375582      3.123116
  H      -0.081270      0.022016      3.848099
  H       1.661220     -0.006270      3.390592
  H       0.704193      1.475446      3.120627
  O       1.946306      1.000970      0.907544
  C      -0.572181     -1.083685     -0.556484
  H      -1.096468     -1.387889      0.350789
  H      -0.934793     -1.472431     -1.512125
  C       1.242654      0.207631     -1.721584
  H       2.319565      0.008785     -1.634771
  H       1.131563      1.299457     -1.834989
  H       0.869505     -0.284351     -2.630132
  H       1.465770     -2.831247      0.399898
  O       4.372004     -1.018156     -1.069374
44
Coordinates from ORCA-job orca E -886.381554053804
  O       3.215317     -2.706331     -1.866568
  C       3.770910     -2.215292     -0.916805
  C       3.726481     -2.876727      0.502521
  C       4.807241     -2.307352      1.431692
  H       4.600811     -2.637409      2.463487
  H       5.790040     -2.730838      1.158453
  C       4.864725     -0.781373      1.330157
  H       5.626532     -0.379465      2.016253
  H       3.898163     -0.317895      1.598357
  C       5.223501     -0.374608     -0.091395
  H       6.251043     -0.725120     -0.309726
  C       5.127454      1.118123     -0.381276
  C       6.119252      1.967236      0.416853
  H       5.910920      1.871984      1.496891
  H       7.144554      1.579264      0.268602
  C       6.069403      3.444691      0.026852
  H       6.782973      4.043909      0.615034
  H       5.062643      3.863346      0.191928
  H       6.313248      3.584698     -1.039736
  H       4.095152      1.448066     -0.179711
  H       5.306119      1.257457     -1.461262
  C       3.890975     -4.403513      0.331754
  H       3.808638     -4.901636      1.310361
  H       4.877079     -4.641720     -0.100291
  H       3.118927     -4.800011     -0.340715
  C       2.370960     -2.556578      1.025660
  H       2.197281     -2.155050      2.020167
  C       0.464797     -0.235934     -0.541601
  C       0.974439      0.280275      0.786420
  O       0.251504     -0.120597      1.850360
  C       0.667427      0.373455      3.120888
  H      -0.074556      0.018128      3.847090
  H       1.663341     -0.006201      3.392375
  H       0.705315      1.473454      3.118737
  O       1.939736      1.005105      0.906680
  C      -0.588681     -1.056808     -0.572689
  H      -1.101455     -1.363744      0.341407
  H      -0.956254     -1.450181     -1.524566
  C       1.216646      0.229740     -1.743041
  H       2.311580      0.016889     -1.645756
  H       1.112758      1.321804     -1.861212
  H       0.845569     -0.262325     -2.652396
  H       1.459050     -2.829562      0.407600
  O       4.366593     -1.015562     -1.070553
44
Coordinates from ORCA-job orca E -886.383620823940
  O       3.200280     -2.716710     -1.850054
  C       3.764501     -2.222566     -0.908185
  C       3.726187     -2.876905      0.502740
  C       4.811256     -2.304423      1.429557
  H       4.610585     -2.634887      2.462211
  H       5.794411     -2.724129      1.151943
  C       4.866282     -0.783203      1.331369
  H       5.628367     -0.381080      2.016838
  H       3.901864     -0.321907      1.600012
  C       5.222091     -0.378625     -0.090048
  H       6.248321     -0.730664     -0.312089
  C       5.127457      1.114727     -0.380158
  C       6.118957      1.965705      0.416997
  H       5.910562      1.871739      1.497102
  H       7.144460      1.578043      0.269346
  C       6.068702      3.442758      0.025279
  H       6.782000      4.043000      0.612768
  H       5.061781      3.861288      0.189748
  H       6.312600      3.581563     -1.041457
  H       4.094717      1.444548     -0.179216
  H       5.306324      1.253242     -1.460184
  C       3.896122     -4.400605      0.320848
  H       3.816113     -4.905076      1.296161
  H       4.882644     -4.632253     -0.113675
  H       3.124557     -4.795221     -0.353607
  C       2.360648     -2.564014      1.025940
  H       2.189060     -2.158663      2.024532
  C       0.466038     -0.228226     -0.532811
  C       0.971136      0.286204      0.782888
  O       0.243713     -0.116141      1.842585
  C       0.656837      0.377238      3.113363
  H      -0.089315      0.024336      3.836589
  H       1.653749     -0.005652      3.387957
  H       0.698531      1.477041      3.111054
  O       1.939211      1.008015      0.901871
  C      -0.587000     -1.057853     -0.565072
  H      -1.098143     -1.366050      0.348506
  H      -0.952389     -1.455624     -1.516286
  C       1.225182      0.235664     -1.737862
  H       2.300613      0.021193     -1.641548
  H       1.129351      1.328327     -1.857910
  H       0.853666     -0.255344     -2.647683
  H       1.485494     -2.829807      0.430434
  O       4.360630     -1.023215     -1.063515
44
Coordinates from ORCA-job orca E -886.383768686177
  O       3.195714     -2.719575     -1.843928
  C       3.763364     -2.224841     -0.904423
  C       3.727695     -2.875968      0.503385
  C       4.812612     -2.303138      1.430562
  H       4.612154     -2.633114      2.463515
  H       5.795335     -2.723501      1.152548
  C       4.868955     -0.783812      1.332027
  H       5.630983     -0.380523      2.016982
  H       3.904775     -0.324238      1.601654
  C       5.223017     -0.380009     -0.090114
  H       6.248486     -0.732366     -0.314985
  C       5.128395      1.113172     -0.380237
  C       6.119435      1.965335      0.416065
  H       5.911626      1.871623      1.496307
  H       7.145279      1.578682      0.268046
  C       6.067389      3.442092      0.023629
  H       6.780361      4.043343      0.610457
  H       5.060116      3.859644      0.188426
  H       6.310594      3.580641     -1.043303
  H       4.095500      1.441430     -0.178826
  H       5.306439      1.251778     -1.460461
  C       3.900818     -4.399654      0.322049
  H       3.822121     -4.904369      1.297497
  H       4.887684     -4.629254     -0.112625
  H       3.130024     -4.795934     -0.351963
  C       2.355672     -2.569051      1.025270
  H       2.187473     -2.163562      2.025002
  C       0.465381     -0.226888     -0.529153
  C       0.969421      0.286937      0.781902
  O       0.241974     -0.115233      1.841928
  C       0.656151      0.376594      3.112660
  H      -0.090559      0.024319      3.835622
  H       1.652770     -0.008057      3.385718
  H       0.700589      1.476312      3.111698
  O       1.939277      1.007267      0.900128
  C      -0.590736     -1.054936     -0.568707
  H      -1.104628     -1.365523      0.342077
  H      -0.954673     -1.448460     -1.522137
  C       1.225177      0.240213     -1.735733
  H       2.297902      0.024468     -1.639401
  H       1.131792      1.333279     -1.853563
  H       0.852455     -0.248345     -2.646482
  H       1.484359     -2.834973      0.428700
  O       4.359481     -1.026015     -1.060532
44
Coordinates from ORCA-job orca E -886.383844783276
  O       3.192823     -2.720421     -1.840426
  C       3.762550     -2.226028     -0.901717
  C       3.729143     -2.875156      0.503706
  C       4.811974     -2.302263      1.432832
  H       4.609611     -2.631319      2.465746
  H       5.793942     -2.725210      1.156072
  C       4.871329     -0.783929      1.333038
  H       5.633211     -0.379124      2.017301
  H       3.906925     -0.326144      1.604220
  C       5.223823     -0.380966     -0.090044
  H       6.248600     -0.733683     -0.317535
  C       5.129189      1.111913     -0.380393
  C       6.119866      1.965477      0.414561
  H       5.913081      1.872194      1.495027
  H       7.146072      1.580030      0.265866
  C       6.065535      3.441858      0.021097
  H       6.778244      4.044407      0.606907
  H       5.057869      3.858214      0.186473
  H       6.307659      3.579983     -1.046130
  H       4.096066      1.437786     -0.177939
  H       5.305691      1.250606     -1.460896
  C       3.905667     -4.399575      0.325577
  H       3.828336     -4.902925      1.301871
  H       4.893087     -4.627759     -0.108668
  H       3.135785     -4.798891     -0.347507
  C       2.351195     -2.575697      1.024337
  H       2.188120     -2.170496      2.025159
  C       0.465648     -0.227121     -0.526166
  C       0.968646      0.286948      0.781413
  O       0.241602     -0.114659      1.842244
  C       0.657817      0.374924      3.112803
  H      -0.088664      0.023003      3.836131
  H       1.654131     -0.012006      3.382520
  H       0.705412      1.474565      3.113941
  O       1.940035      1.005967      0.898786
  C      -0.594340     -1.050744     -0.575033
  H      -1.112388     -1.364104      0.332574
  H      -0.956882     -1.437599     -1.531472
  C       1.223921      0.245604     -1.734022
  H       2.296317      0.028819     -1.637564
  H       1.131562      1.339131     -1.847270
  H       0.849637     -0.239259     -2.646012
  H       1.481761     -2.842845      0.423878
  O       4.358542     -1.027715     -1.058006
44
Coordinates from ORCA-job orca E -886.383872620591
  O       3.192788     -2.719879     -1.840475
  C       3.762225     -2.225925     -0.901218
  C       3.729102     -2.875109      0.503836
  C       4.810549     -2.302169      1.434278
  H       4.606601     -2.630696      2.467001
  H       5.792217     -2.726752      1.158789
  C       4.871301     -0.783617      1.333878
  H       5.633182     -0.378310      2.017795
  H       3.906652     -0.326370      1.605956
  C       5.223649     -0.381159     -0.089439
  H       6.248299     -0.734205     -0.317093
  C       5.129057      1.111595     -0.380275
  C       6.119753      1.965882      0.413718
  H       5.913694      1.873011      1.494359
  H       7.146073      1.580910      0.264569
  C       6.064361      3.442053      0.019557
  H       6.777106      4.045277      0.604636
  H       5.056562      3.857912      0.185340
  H       6.305752      3.579775     -1.047882
  H       4.095774      1.436269     -0.177147
  H       5.304613      1.250010     -1.460946
  C       3.906946     -4.399831      0.326862
  H       3.829909     -4.902460      1.303484
  H       4.894722     -4.627596     -0.106957
  H       3.137552     -4.800390     -0.346124
  C       2.349995     -2.578818      1.024384
  H       2.189804     -2.173789      2.025513
  C       0.466942     -0.228108     -0.525915
  C       0.969467      0.286758      0.781475
  O       0.242205     -0.114290      1.842345
  C       0.659556      0.373896      3.112930
  H      -0.086430      0.021869      3.836684
  H       1.655784     -0.014403      3.380391
  H       0.708438      1.473494      3.115378
  O       1.941038      1.005545      0.898545
  C      -0.594942     -1.048530     -0.577752
  H      -1.114754     -1.362300      0.328927
  H      -0.957666     -1.432315     -1.535264
  C       1.223864      0.247306     -1.733880
  H       2.296685      0.030586     -1.637346
  H       1.130963      1.341037     -1.844190
  H       0.849069     -0.235782     -2.646487
  H       1.481551     -2.846920      0.422268
  O       4.358141     -1.027675     -1.057227
44
Coordinates from ORCA-job orca E -886.383869289244
  O       3.193291     -2.719391     -1.840830
  C       3.761878     -2.225705     -0.900871
  C       3.728463     -2.875264      0.504216
  C       4.808977     -2.302158      1.435650
  H       4.603711     -2.630282      2.468193
  H       5.790532     -2.727837      1.161353
  C       4.870297     -0.783217      1.334981
  H       5.632321     -0.377718      2.018583
  H       3.905512     -0.326303      1.608007
  C       5.222993     -0.381300     -0.088319
  H       6.247676     -0.734814     -0.315185
  C       5.128445      1.111362     -0.379951
  C       6.119263      1.966441      0.412881
  H       5.914086      1.874062      1.493742
  H       7.145654      1.581882      0.263169
  C       6.062838      3.442405      0.018004
  H       6.775715      4.046306      0.602231
  H       5.054937      3.857799      0.184316
  H       6.303355      3.579670     -1.049691
  H       4.094983      1.434923     -0.176141
  H       5.303072      1.249142     -1.460814
  C       3.907499     -4.400013      0.327113
  H       3.830494     -4.902520      1.303745
  H       4.895618     -4.627234     -0.106327
  H       3.138650     -4.801170     -0.346226
  C       2.349329     -2.581373      1.025173
  H       2.192085     -2.176405      2.026527
  C       0.469083     -0.229349     -0.526540
  C       0.971216      0.286542      0.781385
  O       0.243037     -0.113556      1.841777
  C       0.661543      0.372775      3.112635
  H      -0.083865      0.020405      3.836783
  H       1.657641     -0.017272      3.377576
  H       0.711577      1.472314      3.116726
  O       1.942625      1.005383      0.898270
  C      -0.595106     -1.045992     -0.579284
  H      -1.116115     -1.358950      0.327119
  H      -0.959152     -1.427291     -1.537260
  C       1.225052      0.247871     -1.734228
  H       2.298233      0.031620     -1.637671
  H       1.131240      1.341804     -1.841574
  H       0.850055     -0.233746     -2.647421
  H       1.481686     -2.850688      0.422035
  O       4.357725     -1.027367     -1.056576
44
Coordinates from ORCA-job orca E -886.383878432468
  O       3.193547     -2.719453     -1.840785
  C       3.761506     -2.225674     -0.900532
  C       3.727673     -2.875450      0.504747
  C       4.808179     -2.302211      1.436328
  H       4.602609     -2.630276      2.468834
  H       5.789803     -2.727933      1.162415
  C       4.869181     -0.783087      1.335799
  H       5.631514     -0.377730      2.019162
  H       3.904484     -0.326314      1.609581
  C       5.222234     -0.381395     -0.087393
  H       6.247001     -0.735271     -0.313323
  C       5.127658      1.111230     -0.379639
  C       6.118597      1.966872      0.412336
  H       5.914206      1.874649      1.493373
  H       7.145045      1.582703      0.262033
  C       6.061291      3.442756      0.017223
  H       6.774309      4.047089      0.600829
  H       5.053315      3.857719      0.184136
  H       6.301007      3.579887     -1.050669
  H       4.094098      1.434149     -0.175367
  H       5.301728      1.248414     -1.460651
  C       3.907423     -4.400041      0.326766
  H       3.830567     -4.902905      1.303225
  H       4.895620     -4.626759     -0.106754
  H       3.138768     -4.801179     -0.346820
  C       2.349015     -2.582399      1.026338
  H       2.193762     -2.177362      2.027881
  C       0.471029     -0.229987     -0.527522
  C       0.972942      0.286495      0.780923
  O       0.243588     -0.112584      1.840682
  C       0.663023      0.371825      3.112004
  H      -0.082047      0.018991      3.836262
  H       1.658911     -0.019871      3.375039
  H       0.713911      1.471303      3.117681
  O       1.944141      1.005495      0.897823
  C      -0.595151     -1.043833     -0.579489
  H      -1.116642     -1.355261      0.327146
  H      -0.960852     -1.423974     -1.537335
  C       1.227049      0.247435     -1.734832
  H       2.300341      0.031654     -1.638357
  H       1.132646      1.341497     -1.840528
  H       0.852111     -0.233511     -2.648377
  H       1.481683     -2.852691      0.423248
  O       4.357326     -1.027220     -1.056162
44
Coordinates from ORCA-job orca E -886.383883569011
  O       3.193257     -2.719963     -1.840238
  C       3.760916     -2.225836     -0.900047
  C       3.726862     -2.875612      0.505469
  C       4.808025     -2.302368      1.436556
  H       4.602945     -2.630626      2.469129
  H       5.789754     -2.727552      1.162308
  C       4.868300     -0.783211      1.336381
  H       5.631152     -0.378157      2.019394
  H       3.903849     -0.326519      1.611030
  C       5.221330     -0.381436     -0.086760
  H       6.246179     -0.735470     -0.312047
  C       5.126502      1.111154     -0.379343
  C       6.117599      1.967205      0.411931
  H       5.914128      1.874738      1.493137
  H       7.144118      1.583558      0.260776
  C       6.059240      3.443131      0.017100
  H       6.772437      4.047740      0.600190
  H       5.051182      3.857538      0.184902
  H       6.297993      3.580527     -1.050975
  H       4.092914      1.433659     -0.174601
  H       5.300115      1.247867     -1.460473
  C       3.906822     -4.400056      0.326588
  H       3.830289     -4.903381      1.302868
  H       4.894862     -4.626492     -0.107379
  H       3.137997     -4.800888     -0.346962
  C       2.348842     -2.582342      1.027909
  H       2.195245     -2.177199      2.029678
  C       0.473027     -0.230066     -0.528778
  C       0.974740      0.286645      0.780036
  O       0.244052     -0.111278      1.839149
  C       0.664613      0.370693      3.111089
  H      -0.080251      0.017218      3.835243
  H       1.660191     -0.022884      3.372287
  H       0.716424      1.470097      3.118684
  O       1.945795      1.005785      0.897152
  C      -0.595094     -1.041547     -0.579420
  H      -1.116992     -1.350938      0.327580
  H      -0.962453     -1.421161     -1.536903
  C       1.229824      0.246508     -1.735689
  H       2.303089      0.031095     -1.639412
  H       1.135197      1.340658     -1.840633
  H       0.855023     -0.234171     -2.649446
  H       1.481402     -2.853584      0.425652
  O       4.356707     -1.027289     -1.055830
44
Coordinates from ORCA-job orca E -886.383888758160
  O       3.192188     -2.720703     -1.839173
  C       3.760011     -2.226125     -0.899362
  C       3.726206     -2.875640      0.506355
  C       4.808467     -2.302597      1.436439
  H       4.604510     -2.631225      2.469147
  H       5.790178     -2.727066      1.161158
  C       4.868059     -0.783507      1.336669
  H       5.631610     -0.378777      2.019151
  H       3.903948     -0.326894      1.612338
  C       5.220371     -0.381383     -0.086578
  H       6.245251     -0.735274     -0.311905
  C       5.125036      1.111183     -0.379114
  C       6.116381      1.967401      0.411632
  H       5.913984      1.874273      1.492982
  H       7.142975      1.584397      0.259328
  C       6.056809      3.443476      0.017598
  H       6.770258      4.048206      0.600257
  H       5.048680      3.857220      0.186613
  H       6.294400      3.581513     -1.050654
  H       4.091497      1.433489     -0.173819
  H       5.298198      1.247744     -1.460346
  C       3.905626     -4.400049      0.327081
  H       3.829602     -4.903580      1.303321
  H       4.893256     -4.626647     -0.107645
  H       3.136196     -4.800480     -0.345990
  C       2.348841     -2.581245      1.029760
  H       2.196585     -2.176086      2.031798
  C       0.474907     -0.229587     -0.530122
  C       0.976357      0.286992      0.778879
  O       0.244486     -0.109943      1.837487
  C       0.666421      0.369162      3.110101
  H      -0.078311      0.014871      3.833998
  H       1.661655     -0.026371      3.369519
  H       0.719252      1.468486      3.119902
  O       1.947414      1.006137      0.896432
  C      -0.594787     -1.039328     -0.579823
  H      -1.117369     -1.346669      0.327383
  H      -0.963176     -1.418819     -1.537004
  C       1.232882      0.245504     -1.736738
  H       2.306082      0.030229     -1.640750
  H       1.138410      1.339694     -1.841874
  H       0.858176     -0.235232     -2.650547
  H       1.480870     -2.853387      0.428917
  O       4.355758     -1.027569     -1.055520
44
Coordinates from ORCA-job orca E -886.383892917323
  O       3.189807     -2.721604     -1.837241
  C       3.758362     -2.226514     -0.898159
  C       3.725512     -2.875503      0.507745
  C       4.809577     -2.302991      1.436074
  H       4.607607     -2.632209      2.469002
  H       5.791030     -2.726723      1.158782
  C       4.868604     -0.784001      1.336848
  H       5.633254     -0.379633      2.018355
  H       3.904980     -0.327561      1.614158
  C       5.219046     -0.381176     -0.086742
  H       6.243902     -0.734471     -0.313076
  C       5.122679      1.111382     -0.378792
  C       6.114456      1.967691      0.411363
  H       5.913451      1.873634      1.492893
  H       7.141119      1.585477      0.257519
  C       6.053451      3.443990      0.018422
  H       6.767299      4.048761      0.600542
  H       5.045282      3.856972      0.189047
  H       6.289546      3.582899     -1.050053
  H       4.089273      1.433529     -0.172550
  H       5.295089      1.248148     -1.460137
  C       3.903276     -4.400050      0.328688
  H       3.827985     -4.903435      1.305081
  H       4.890139     -4.627519     -0.107243
  H       3.132636     -4.799887     -0.343332
  C       2.349031     -2.578849      1.032563
  H       2.198405     -2.173925      2.035050
  C       0.477345     -0.228460     -0.531925
  C       0.978252      0.287591      0.777245
  O       0.245087     -0.108491      1.835297
  C       0.669161      0.366269      3.108834
  H      -0.075376      0.010679      3.832303
  H       1.663969     -0.031916      3.365776
  H       0.723517      1.465474      3.121985
  O       1.949490      1.006494      0.895681
  C      -0.593917     -1.036480     -0.581442
  H      -1.117966     -1.341419      0.325639
  H      -0.962663     -1.415928     -1.538517
  C       1.237001      0.244485     -1.738274
  H       2.310136      0.029100     -1.642757
  H       1.143069      1.338673     -1.844458
  H       0.862285     -0.236502     -2.651991
  H       1.479933     -2.852172      0.434061
  O       4.354030     -1.028037     -1.054984
44
Coordinates from ORCA-job orca E -886.383900223752
  O       3.185964     -2.722179     -1.834521
  C       3.755872     -2.226765     -0.896400
  C       3.724830     -2.875061      0.509661
  C       4.811277     -2.303457      1.435612
  H       4.611963     -2.633322      2.468856
  H       5.792046     -2.726912      1.155462
  C       4.870181     -0.784525      1.336936
  H       5.636282     -0.380410      2.016962
  H       3.907118     -0.328377      1.616516
  C       5.217447     -0.380796     -0.087272
  H       6.242159     -0.733061     -0.315844
  C       5.119576      1.111762     -0.378405
  C       6.112043      1.968013      0.411038
  H       5.912624      1.872950      1.492769
  H       7.138731      1.586567      0.255412
  C       6.049598      3.444568      0.019301
  H       6.763964      4.049316      0.600823
  H       5.041442      3.856830      0.191715
  H       6.284060      3.584409     -1.049409
  H       4.086404      1.433751     -0.170736
  H       5.290792      1.249203     -1.459871
  C       3.899720     -4.399959      0.331594
  H       3.825253     -4.902660      1.308405
  H       4.885510     -4.629182     -0.105814
  H       3.127352     -4.799074     -0.338852
  C       2.349478     -2.575245      1.036326
  H       2.200754     -2.171010      2.039471
  C       0.480227     -0.226836     -0.534035
  C       0.980243      0.288329      0.775382
  O       0.245884     -0.107530      1.832800
  C       0.672617      0.361784      3.107404
  H      -0.071605      0.004519      3.830390
  H       1.667015     -0.039396      3.361321
  H       0.728908      1.460829      3.124779
  O       1.951891      1.006585      0.895195
  C      -0.592215     -1.033458     -0.584738
  H      -1.118610     -1.336295      0.321689
  H      -0.960186     -1.412802     -1.542141
  C       1.241583      0.244028     -1.740191
  H       2.314686      0.028205     -1.645291
  H       1.148467      1.338175     -1.848087
  H       0.866653     -0.237289     -2.653689
  H       1.478732     -2.849969      0.440891
  O       4.351419     -1.028461     -1.054134
44
Coordinates from ORCA-job orca E -886.383906302560
  O       3.181541     -2.721875     -1.831662
  C       3.753110     -2.226592     -0.894428
  C       3.724207     -2.874294      0.511711
  C       4.813029     -2.303787      1.435315
  H       4.616192     -2.634066      2.468875
  H       5.792784     -2.727798      1.152327
  C       4.872461     -0.784838      1.337043
  H       5.639994     -0.380811      2.015439
  H       3.909873     -0.329055      1.618983
  C       5.216103     -0.380323     -0.087859
  H       6.240549     -0.731484     -0.319310
  C       5.116726      1.112289     -0.377962
  C       6.109987      1.968442      0.410697
  H       5.911732      1.873031      1.492593
  H       7.136597      1.587278      0.253842
  C       6.046835      3.445069      0.019368
  H       6.761683      4.049815      0.600293
  H       5.038779      3.857101      0.192909
  H       6.280193      3.585196     -1.049542
  H       4.083809      1.434074     -0.168693
  H       5.286520      1.250682     -1.459544
  C       3.895799     -4.399629      0.334978
  H       3.821769     -4.901344      1.312312
  H       4.880593     -4.631069     -0.103560
  H       3.121807     -4.797989     -0.334054
  C       2.350010     -2.571473      1.040236
  H       2.203043     -2.168454      2.044152
  C       0.482782     -0.225325     -0.535902
  C       0.981728      0.288788      0.773963
  O       0.246607     -0.107913      1.830683
  C       0.675514      0.356418      3.106276
  H      -0.068337     -0.002449      3.828856
  H       1.669676     -0.047129      3.357487
  H       0.733554      1.455309      3.127607
  O       1.953918      1.006072      0.895404
  C      -0.589957     -1.031390     -0.589049
  H      -1.118834     -1.333496      0.316253
  H      -0.956104     -1.410411     -1.547230
  C       1.245083      0.244758     -1.741948
  H       2.318229      0.028294     -1.647648
  H       1.152631      1.338833     -1.851357
  H       0.869761     -0.236723     -2.655205
  H       1.477582     -2.847443      0.447661
  O       4.348595     -1.028498     -1.053030
44
Coordinates from ORCA-job orca E -886.383906812753
  O       3.177332     -2.720699     -1.829127
  C       3.750521     -2.225929     -0.892572
  C       3.723530     -2.873283      0.513609
  C       4.814400     -2.303810      1.435287
  H       4.619379     -2.634148      2.469152
  H       5.793039     -2.729023      1.150095
  C       4.874757     -0.784784      1.337195
  H       5.643485     -0.380704      2.014131
  H       3.912543     -0.329320      1.621132
  C       5.215271     -0.379881     -0.088308
  H       6.239373     -0.730305     -0.322413
  C       5.114875      1.112836     -0.377590
  C       6.108929      1.968895      0.410285
  H       5.911241      1.873859      1.492315
  H       7.135370      1.587450      0.252963
  C       6.045953      3.445445      0.018567
  H       6.761188      4.050201      0.599023
  H       5.038072      3.857779      0.192404
  H       6.278914      3.585211     -1.050479
  H       4.082169      1.434347     -0.166838
  H       5.283250      1.252126     -1.459277
  C       3.892351     -4.398988      0.337886
  H       3.818584     -4.899792      1.315679
  H       4.876349     -4.632419     -0.101469
  H       3.117070     -4.796693     -0.330075
  C       2.350389     -2.568353      1.043800
  H       2.204838     -2.166938      2.048532
  C       0.484602     -0.224427     -0.537341
  C       0.982554      0.288638      0.773157
  O       0.247052     -0.109723      1.829088
  C       0.676985      0.351192      3.105459
  H      -0.066583     -0.008821      3.827747
  H       1.671114     -0.053616      3.354919
  H       0.736143      1.449977      3.129605
  O       1.955271      1.004863      0.896199
  C      -0.587554     -1.030866     -0.593160
  H      -1.118160     -1.333844      0.310943
  H      -0.951595     -1.409397     -1.552281
  C       1.246822      0.246588     -1.743275
  H       2.320020      0.029520     -1.649487
  H       1.154557      1.340606     -1.853244
  H       0.871044     -0.234752     -2.656405
  H       1.476625     -2.845190      0.453350
  O       4.346086     -1.028039     -1.051903
44
Coordinates from ORCA-job orca E -886.383912255809
  O       3.172014     -2.718443     -1.825941
  C       3.747276     -2.224552     -0.890175
  C       3.722370     -2.871723      0.516047
  C       4.815727     -2.303555      1.435553
  H       4.622513     -2.633736      2.469792
  H       5.792953     -2.730566      1.148094
  C       4.877415     -0.784425      1.337564
  H       5.647587     -0.380367      2.012805
  H       3.915667     -0.329219      1.623796
  C       5.214630     -0.379348     -0.088601
  H       6.238211     -0.729436     -0.325529
  C       5.113551      1.113531     -0.377189
  C       6.108634      1.969560      0.409508
  H       5.911421      1.875556      1.491715
  H       7.134788      1.587422      0.251983
  C       6.046289      3.445866      0.016706
  H       6.761976      4.050718      0.596502
  H       5.038666      3.858839      0.190523
  H       6.279006      3.584711     -1.052513
  H       4.081080      1.434620     -0.164678
  H       5.280145      1.253625     -1.459046
  C       3.888313     -4.397780      0.340872
  H       3.814888     -4.897812      1.319070
  H       4.871397     -4.633331     -0.099495
  H       3.111593     -4.794561     -0.325985
  C       2.350579     -2.564912      1.048386
  H       2.206775     -2.165984      2.054314
  C       0.486520     -0.223919     -0.539125
  C       0.983337      0.287717      0.772433
  O       0.247336     -0.113070      1.827180
  C       0.677471      0.344591      3.104556
  H      -0.065979     -0.016566      3.826382
  H       1.671614     -0.061098      3.352630
  H       0.737507      1.443276      3.131472
  O       1.956640      1.002634      0.897543
  C      -0.584349     -1.031575     -0.597895
  H      -1.116086     -1.336975      0.304823
  H      -0.946003     -1.409316     -1.558194
  C       1.247917      0.249811     -1.744717
  H       2.321164      0.032188     -1.651590
  H       1.155304      1.343824     -1.854060
  H       0.871632     -0.230902     -2.657963
  H       1.475457     -2.842568      0.460125
  O       4.343203     -1.026959     -1.050396
44
Coordinates from ORCA-job orca E -886.383923626019
  O       3.167079     -2.715604     -1.823067
  C       3.744208     -2.222630     -0.887977
  C       3.720943     -2.869891      0.518304
  C       4.816421     -2.302804      1.436092
  H       4.624353     -2.632575      2.470677
  H       5.792454     -2.731559      1.147164
  C       4.879430     -0.783640      1.337992
  H       5.650887     -0.379733      2.011817
  H       3.918186     -0.328398      1.626036
  C       5.214401     -0.378840     -0.088677
  H       6.237387     -0.729392     -0.327507
  C       5.113524      1.114174     -0.377008
  C       6.109666      1.970032      0.408481
  H       5.912678      1.877336      1.490849
  H       7.135430      1.586808      0.251065
  C       6.048505      3.446043      0.014345
  H       6.764615      4.050878      0.593642
  H       5.041195      3.859960      0.187740
  H       6.281370      3.583756     -1.054987
  H       4.081257      1.434922     -0.163068
  H       5.278615      1.254565     -1.459045
  C       3.885229     -4.396129      0.342804
  H       3.812350     -4.895969      1.321133
  H       4.867598     -4.632855     -0.098563
  H       3.107432     -4.792127     -0.323276
  C       2.350340     -2.562287      1.052788
  H       2.208179     -2.166253      2.060070
  C       0.487702     -0.224259     -0.540748
  C       0.983665      0.285804      0.771971
  O       0.247171     -0.117353      1.825471
  C       0.676242      0.338721      3.103691
  H      -0.067432     -0.023081      3.824943
  H       1.670442     -0.066926      3.351591
  H       0.736393      1.437385      3.132062
  O       1.957375      0.999702      0.898994
  C      -0.581247     -1.034073     -0.601492
  H      -1.112478     -1.343283      0.300271
  H      -0.941271     -1.410913     -1.562746
  C       1.247458      0.253797     -1.745802
  H       2.320758      0.036011     -1.653435
  H       1.153834      1.347886     -1.852844
  H       0.870788     -0.225680     -2.659521
  H       1.474222     -2.840327      0.466078
  O       4.340798     -1.025410     -1.049031
44
Coordinates from ORCA-job orca E -886.383934647681
  O       3.156874     -2.709671     -1.817036
  C       3.737852     -2.218325     -0.883525
  C       3.717636     -2.865919      0.522841
  C       4.817261     -2.300884      1.437320
  H       4.627279     -2.629826      2.472575
  H       5.791227     -2.732509      1.145809
  C       4.882736     -0.781771      1.338902
  H       5.656886     -0.378619      2.010089
  H       3.922758     -0.325931      1.630275
  C       5.214126     -0.377833     -0.088707
  H       6.235801     -0.730286     -0.330387
  C       5.114572      1.115414     -0.376986
  C       6.112973      1.970771      0.406002
  H       5.916810      1.880317      1.488728
  H       7.137907      1.585427      0.248368
  C       6.054014      3.446308      0.009703
  H       6.771163      4.050909      0.587946
  H       5.047378      3.862010      0.182764
  H       6.286765      3.582145     -1.059899
  H       4.082731      1.435773     -0.160548
  H       5.276974      1.255665     -1.459433
  C       3.879600     -4.392364      0.345868
  H       3.808541     -4.892438      1.324222
  H       4.860479     -4.630474     -0.098075
  H       3.099557     -4.786900     -0.318465
  C       2.349352     -2.557468      1.061937
  H       2.210854     -2.167820      2.072222
  C       0.489775     -0.225706     -0.544306
  C       0.984293      0.280862      0.770736
  O       0.246435     -0.126142      1.821745
  C       0.672504      0.327642      3.101687
  H      -0.072152     -0.035226      3.821362
  H       1.666663     -0.077600      3.350321
  H       0.732330      1.426291      3.132190
  O       1.958477      0.993254      0.901440
  C      -0.574860     -1.040773     -0.607669
  H      -1.103202     -1.358590      0.292796
  H      -0.932837     -1.415671     -1.570486
  C       1.245763      0.262218     -1.747867
  H       2.319211      0.044687     -1.657435
  H       1.149525      1.356601     -1.848298
  H       0.868448     -0.213799     -2.663112
  H       1.471415     -2.835854      0.478121
  O       4.336259     -1.022101     -1.046455
44
Coordinates from ORCA-job orca E -886.383948149895
  O       3.146737     -2.704195     -1.810978
  C       3.731512     -2.214063     -0.879251
  C       3.714184     -2.862054      0.527113
  C       4.817529     -2.298763      1.438527
  H       4.629565     -2.627101      2.474370
  H       5.789967     -2.732173      1.144730
  C       4.885066     -0.779819      1.339773
  H       5.661940     -0.377915      2.008614
  H       3.926628     -0.322696      1.634018
  C       5.213805     -0.376920     -0.088701
  H       6.234165     -0.731911     -0.332243
  C       5.116217      1.116447     -0.377322
  C       6.116913      1.971087      0.403284
  H       5.922338      1.881800      1.486417
  H       7.141059      1.584158      0.244414
  C       6.059312      3.446417      0.006040
  H       6.777833      4.050560      0.583063
  H       5.053365      3.863416      0.180010
  H       6.290910      3.581306     -1.063934
  H       4.084869      1.436961     -0.158949
  H       5.276486      1.255841     -1.460183
  C       3.874771     -4.388557      0.348140
  H       3.806306     -4.889435      1.326287
  H       4.854114     -4.626965     -0.098953
  H       3.092412     -4.781853     -0.314181
  C       2.348006     -2.553303      1.070943
  H       2.213609     -2.170145      2.084337
  C       0.491718     -0.227726     -0.548021
  C       0.985107      0.275304      0.769044
  O       0.245440     -0.133820      1.817871
  C       0.668425      0.318277      3.099379
  H      -0.077648     -0.045497      3.817114
  H       1.662273     -0.086686      3.349508
  H       0.727670      1.416932      3.131362
  O       1.959357      0.986993      0.902878
  C      -0.568590     -1.048361     -0.612698
  H      -1.092602     -1.374593      0.287194
  H      -0.925946     -1.421245     -1.576578
  C       1.243996      0.270072     -1.749782
  H       2.317668      0.053421     -1.661739
  H       1.145015      1.364844     -1.842185
  H       0.866164     -0.201520     -2.667109
  H       1.468351     -2.831598      0.489857
  O       4.332133     -1.019133     -1.044203
44
Coordinates from ORCA-job orca E -886.383967402231
  O       3.131128     -2.696862     -1.801710
  C       3.721800     -2.208137     -0.872989
  C       3.709163     -2.856685      0.533197
  C       4.817672     -2.295711      1.440000
  H       4.633251     -2.623702      2.476625
  H       5.788330     -2.730438      1.142450
  C       4.887829     -0.777073      1.340955
  H       5.668888     -0.377594      2.006489
  H       3.932033     -0.317282      1.639282
  C       5.212783     -0.375535     -0.088858
  H       6.231229     -0.734292     -0.334897
  C       5.118183      1.117869     -0.378099
  C       6.122434      1.971089      0.399180
  H       5.931312      1.881993      1.482947
  H       7.145470      1.582609      0.236982
  C       6.065685      3.446502      0.002207
  H       6.786799      4.049601      0.577069
  H       5.060841      3.864845      0.179335
  H       6.294072      3.581216     -1.068476
  H       4.087744      1.439461     -0.157306
  H       5.275779      1.255624     -1.461571
  C       3.867849     -4.383256      0.351535
  H       3.803876     -4.885464      1.329350
  H       4.844761     -4.621617     -0.100755
  H       3.081814     -4.774981     -0.307308
  C       2.346019     -2.547322      1.084316
  H       2.218458     -2.173708      2.102300
  C       0.495054     -0.230864     -0.553705
  C       0.986783      0.267097      0.765855
  O       0.243896     -0.143113      1.811869
  C       0.663258      0.305896      3.095600
  H      -0.085126     -0.059520      3.810110
  H       1.656293     -0.099542      3.347948
  H       0.721936      1.404512      3.130083
  O       1.960672      0.978640      0.903687
  C      -0.559092     -1.059570     -0.619905
  H      -1.076378     -1.396935      0.279637
  H      -0.916479     -1.429407     -1.585009
  C       1.242410      0.280396     -1.752629
  H       2.316601      0.065570     -1.668818
  H       1.139825      1.375772     -1.832714
  H       0.863721     -0.183653     -2.673463
  H       1.463564     -2.825143      0.507634
  O       4.326009     -1.015500     -1.041150
44
Coordinates from ORCA-job orca E -886.383983644475
  O       3.115143     -2.690383     -1.792485
  C       3.712027     -2.203043     -0.866953
  C       3.704663     -2.852091      0.538849
  C       4.817915     -2.293182      1.440975
  H       4.637628     -2.621344      2.478278
  H       5.787004     -2.728470      1.139165
  C       4.890516     -0.774781      1.341897
  H       5.675738     -0.378015      2.004228
  H       3.937550     -0.311785      1.644208
  C       5.211197     -0.374162     -0.089315
  H       6.227876     -0.735807     -0.338392
  C       5.118944      1.119230     -0.378955
  C       6.126787      1.970804      0.395349
  H       5.939809      1.880679      1.479740
  H       7.148813      1.581504      0.228778
  C       6.069953      3.446610     -0.000074
  H       6.794039      4.048427      0.572388
  H       5.066265      3.865821      0.181521
  H       6.294092      3.582072     -1.071558
  H       4.089593      1.442740     -0.156003
  H       5.274180      1.255630     -1.462963
  C       3.860956     -4.378810      0.355445
  H       3.801301     -4.881911      1.333087
  H       4.835477     -4.617406     -0.101808
  H       3.071290     -4.769226     -0.299795
  C       2.344453     -2.541546      1.097181
  H       2.224062     -2.176942      2.119420
  C       0.498920     -0.233724     -0.559057
  C       0.988724      0.259937      0.762472
  O       0.242487     -0.150067      1.806154
  C       0.659649      0.295023      3.091912
  H      -0.090845     -0.072353      3.803237
  H       1.651670     -0.111842      3.345898
  H       0.718407      1.393532      3.129497
  O       1.961977      0.971919      0.903595
  C      -0.549465     -1.069829     -0.627621
  H      -1.061263     -1.416297      0.271529
  H      -0.906704     -1.436716     -1.593906
  C       1.242195      0.289049     -1.755344
  H       2.317059      0.076123     -1.676247
  H       1.137014      1.384977     -1.824275
  H       0.862365     -0.167094     -2.679661
  H       1.458832     -2.818552      0.525216
  O       4.319852     -1.012907     -1.038330
44
Coordinates from ORCA-job orca E -886.383995816316
  O       3.099078     -2.684286     -1.783636
  C       3.702415     -2.198687     -0.861276
  C       3.700852     -2.848325      0.543929
  C       4.818402     -2.291168      1.441415
  H       4.642651     -2.619808      2.479323
  H       5.785936     -2.726802      1.135011
  C       4.893408     -0.772886      1.342529
  H       5.682604     -0.378852      2.001773
  H       3.943331     -0.306380      1.648680
  C       5.209237     -0.372774     -0.090054
  H       6.224373     -0.736050     -0.343001
  C       5.118475      1.120590     -0.379714
  C       6.129927      1.970312      0.392004
  H       5.947078      1.878740      1.476952
  H       7.150971      1.580400      0.220889
  C       6.072933      3.446626     -0.001464
  H       6.800151      4.046973      0.568549
  H       5.070499      3.866734      0.184905
  H       6.292660      3.583052     -1.073735
  H       4.090404      1.446753     -0.154712
  H       5.271546      1.256302     -1.464137
  C       3.854258     -4.375253      0.359626
  H       3.798395     -4.878745      1.337287
  H       4.826526     -4.614627     -0.102036
  H       3.061184     -4.764518     -0.292169
  C       2.343498     -2.536306      1.109198
  H       2.230044     -2.180080      2.135235
  C       0.503066     -0.236356     -0.563582
  C       0.990433      0.254202      0.759549
  O       0.241026     -0.155308      1.801212
  C       0.656949      0.285616      3.088750
  H      -0.095290     -0.083774      3.797233
  H       1.647942     -0.123156      3.343861
  H       0.716330      1.383953      3.129680
  O       1.962888      0.966969      0.903350
  C      -0.539699     -1.079267     -0.635930
  H      -1.047907     -1.433064      0.262403
  H      -0.895847     -1.443468     -1.603564
  C       1.242905      0.296199     -1.757598
  H       2.318542      0.084999     -1.683483
  H       1.136168      1.392600     -1.817189
  H       0.861591     -0.152173     -2.685092
  H       1.454478     -2.812005      0.542008
  O       4.313738     -1.011114     -1.035696
44
Coordinates from ORCA-job orca E -886.384013139443
  O       3.089152     -2.680404     -1.778845
  C       3.696747     -2.196430     -0.858359
  C       3.699154     -2.846728      0.546262
  C       4.818692     -2.290192      1.441222
  H       4.645672     -2.619223      2.479441
  H       5.785365     -2.725988      1.132159
  C       4.895163     -0.771917      1.342526
  H       5.686503     -0.379531      2.000147
  H       3.946866     -0.302843      1.650631
  C       5.207974     -0.371923     -0.090782
  H       6.222360     -0.735258     -0.346561
  C       5.117764      1.121476     -0.380202
  C       6.131544      1.969735      0.390337
  H       5.950874      1.877254      1.475557
  H       7.151926      1.579228      0.216670
  C       6.075027      3.446405     -0.001894
  H       6.804378      4.045564      0.566652
  H       5.073538      3.867489      0.187315
  H       6.292229      3.583307     -1.074615
  H       4.090668      1.450087     -0.154147
  H       5.269800      1.257366     -1.464772
  C       3.851187     -4.373705      0.361630
  H       3.797113     -4.877278      1.339334
  H       4.822444     -4.613530     -0.102020
  H       3.056579     -4.762527     -0.288571
  C       2.343319     -2.534520      1.115542
  H       2.233509     -2.183034      2.143557
  C       0.505328     -0.238362     -0.565113
  C       0.990610      0.251778      0.758748
  O       0.239478     -0.157421      1.799397
  C       0.654631      0.281999      3.087680
  H      -0.098527     -0.088164      3.794808
  H       1.645039     -0.127765      3.343746
  H       0.714536      1.380244      3.129900
  O       1.962339      0.965555      0.903510
  C      -0.533671     -1.085435     -0.641037
  H      -1.041201     -1.442762      0.256319
  H      -0.888214     -1.448280     -1.609678
  C       1.243268      0.299425     -1.758043
  H       2.319442      0.089314     -1.687247
  H       1.136254      1.396096     -1.813086
  H       0.860796     -0.144243     -2.687304
  H       1.452209     -2.808535      0.550887
  O       4.310288     -1.010533     -1.034420
44
Coordinates from ORCA-job orca E -886.384016215776
  O       3.082747     -2.677352     -1.776311
  C       3.693224     -2.194993     -0.856851
  C       3.698373     -2.846103      0.547274
  C       4.818967     -2.289785      1.440812
  H       4.647492     -2.618992      2.479208
  H       5.784990     -2.726064      1.130269
  C       4.896404     -0.771465      1.342330
  H       5.688937     -0.379953      1.999001
  H       3.949205     -0.300771      1.651614
  C       5.207146     -0.371316     -0.091315
  H       6.221217     -0.733930     -0.349303
  C       5.116920      1.122182     -0.380281
  C       6.132264      1.969383      0.389637
  H       5.952246      1.877069      1.474967
  H       7.152141      1.577896      0.215216
  C       6.077051      3.446107     -0.002621
  H       6.807611      4.044474      0.565220
  H       5.076235      3.868419      0.187397
  H       6.293564      3.582612     -1.075533
  H       4.090552      1.452601     -0.153384
  H       5.268223      1.258807     -1.464863
  C       3.849937     -4.373023      0.362059
  H       3.796575     -4.876767      1.339692
  H       4.820803     -4.613106     -0.102383
  H       3.054740     -4.761528     -0.287641
  C       2.343526     -2.534515      1.119106
  H       2.235467     -2.185814      2.148178
  C       0.506840     -0.239933     -0.565124
  C       0.990017      0.251160      0.759211
  O       0.238018     -0.158513      1.799058
  C       0.652236      0.280808      3.087704
  H      -0.101399     -0.089301      3.794349
  H       1.642313     -0.129360      3.344475
  H       0.712628      1.379009      3.130137
  O       1.961037      0.965671      0.904515
  C      -0.529688     -1.089450     -0.644065
  H      -1.038423     -1.448212      0.252157
  H      -0.882166     -1.451867     -1.613542
  C       1.243690      0.300661     -1.757593
  H       2.320251      0.091071     -1.688948
  H       1.136703      1.397444     -1.810965
  H       0.860337     -0.140649     -2.687600
  H       1.450986     -2.806739      0.555760
  O       4.308211     -1.010082     -1.033743
44
Coordinates from ORCA-job orca E -886.384011356703
  O       3.077917     -2.674374     -1.774732
  C       3.690575     -2.193543     -0.855934
  C       3.697708     -2.845624      0.547745
  C       4.819054     -2.289412      1.440398
  H       4.648375     -2.618585      2.478931
  H       5.784563     -2.726315      1.129113
  C       4.897212     -0.771090      1.342081
  H       5.690558     -0.380152      1.998089
  H       3.950797     -0.299274      1.652235
  C       5.206676     -0.370802     -0.091703
  H       6.220547     -0.732910     -0.351162
  C       5.116598      1.122811     -0.380242
  C       6.133228      1.969153      0.389126
  H       5.953247      1.877585      1.474530
  H       7.152620      1.576399      0.214741
  C       6.079733      3.445797     -0.003724
  H       6.811068      4.043521      0.563789
  H       5.079465      3.869439      0.186205
  H       6.296353      3.581565     -1.076707
  H       4.090796      1.454476     -0.152466
  H       5.267177      1.260133     -1.464837
  C       3.849773     -4.372374      0.361222
  H       3.797089     -4.876717      1.338576
  H       4.820450     -4.612091     -0.103864
  H       3.054306     -4.760616     -0.288322
  C       2.343585     -2.535565      1.121640
  H       2.236495     -2.189014      2.151484
  C       0.507999     -0.241546     -0.564556
  C       0.989036      0.250926      0.760229
  O       0.236413     -0.159620      1.799219
  C       0.648918      0.280707      3.088099
  H      -0.105314     -0.088717      3.794453
  H       1.638734     -0.129362      3.345932
  H       0.709542      1.378910      3.129832
  O       1.959331      0.966087      0.906160
  C      -0.526670     -1.092907     -0.645428
  H      -1.036873     -1.452425      0.249740
  H      -0.877172     -1.455489     -1.615527
  C       1.243956      0.301126     -1.756724
  H       2.320756      0.091835     -1.689647
  H       1.136683      1.397924     -1.809137
  H       0.859952     -0.139011     -2.687017
  H       1.450075     -2.805748      0.558813
  O       4.306819     -1.009322     -1.033372
44
Coordinates from ORCA-job orca E -886.384017071104
  O       3.071588     -2.670267     -1.772448
  C       3.686962     -2.191213     -0.854564
  C       3.696429     -2.844568      0.548574
  C       4.819111     -2.288811      1.440014
  H       4.649303     -2.617833      2.478746
  H       5.783922     -2.726581      1.127834
  C       4.898241     -0.770563      1.341855
  H       5.692799     -0.380369      1.996854
  H       3.952868     -0.297576      1.653388
  C       5.206186     -0.370175     -0.092132
  H       6.219659     -0.732336     -0.353060
  C       5.116597      1.123598     -0.380132
  C       6.134910      1.968961      0.388203
  H       5.955287      1.878316      1.473754
  H       7.153679      1.574692      0.213617
  C       6.083229      3.445494     -0.005298
  H       6.815449      4.042542      0.561788
  H       5.083558      3.870523      0.184682
  H       6.299771      3.580509     -1.078396
  H       4.091422      1.456251     -0.150864
  H       5.265868      1.261522     -1.464825
  C       3.849384     -4.371067      0.359768
  H       3.798241     -4.876560      1.336613
  H       4.819564     -4.609877     -0.106830
  H       3.053201     -4.758862     -0.289184
  C       2.343324     -2.536680      1.125394
  H       2.237717     -2.193136      2.156399
  C       0.509787     -0.243571     -0.564265
  C       0.988147      0.250220      0.761202
  O       0.234496     -0.161456      1.798886
  C       0.644252      0.280116      3.088232
  H      -0.111148     -0.088268      3.793856
  H       1.633616     -0.129839      3.347735
  H       0.705106      1.378340      3.129012
  O       1.957571      0.966043      0.908487
  C      -0.522798     -1.097231     -0.646488
  H      -1.034313     -1.457761      0.247568
  H      -0.871046     -1.460381     -1.617202
  C       1.244620      0.301754     -1.755921
  H       2.321597      0.092684     -1.690671
  H       1.136505      1.398515     -1.806718
  H       0.859904     -0.137273     -2.686462
  H       1.448657     -2.804166      0.563116
  O       4.304927     -1.007872     -1.032838
44
Coordinates from ORCA-job orca E -886.384022207136
  O       3.066806     -2.666825     -1.770948
  C       3.684262     -2.189118     -0.853802
  C       3.695419     -2.843688      0.548766
  C       4.819045     -2.288373      1.439525
  H       4.649628     -2.617324      2.478346
  H       5.783459     -2.726602      1.126875
  C       4.898836     -0.770250      1.341528
  H       5.694332     -0.380644      1.995783
  H       3.954234     -0.296502      1.654128
  C       5.205981     -0.369714     -0.092539
  H       6.219128     -0.732344     -0.354118
  C       5.116976      1.124225     -0.379943
  C       6.136647      1.968765      0.387486
  H       5.957504      1.878695      1.473178
  H       7.154882      1.573289      0.212532
  C       6.086317      3.445261     -0.006311
  H       6.819192      4.041727      0.560538
  H       5.087087      3.871268      0.183811
  H       6.302725      3.579919     -1.079482
  H       4.092223      1.457258     -0.149251
  H       5.265010      1.262480     -1.464759
  C       3.849858     -4.369876      0.357379
  H       3.800626     -4.876818      1.333584
  H       4.819562     -4.607062     -0.110978
  H       3.053001     -4.757405     -0.290889
  C       2.342880     -2.538462      1.127966
  H       2.238144     -2.197198      2.159869
  C       0.511132     -0.245387     -0.563680
  C       0.987241      0.249854      0.762200
  O       0.232571     -0.162318      1.798934
  C       0.639449      0.281126      3.088573
  H      -0.117439     -0.085815      3.793332
  H       1.628290     -0.128613      3.350242
  H       0.700440      1.379396      3.127756
  O       1.955905      0.966485      0.910717
  C      -0.520133     -1.100703     -0.645964
  H      -1.032742     -1.461269      0.247367
  H      -0.866550     -1.465161     -1.616891
  C       1.245502      0.301096     -1.755039
  H       2.322441      0.092021     -1.690956
  H       1.136626      1.397786     -1.804917
  H       0.860378     -0.137814     -2.685494
  H       1.447569     -2.803044      0.565534
  O       4.303704     -1.006529     -1.032706
44
Coordinates from ORCA-job orca E -886.384022392903
  O       3.057730     -2.661488     -1.766952
  C       3.678982     -2.185623     -0.851393
  C       3.693257     -2.841598      0.550433
  C       4.819368     -2.287727      1.439173
  H       4.651561     -2.616806      2.478222
  H       5.782760     -2.726761      1.124587
  C       4.900587     -0.769736      1.341549
  H       5.698188     -0.381329      1.993996
  H       3.957420     -0.294939      1.656722
  C       5.205296     -0.368962     -0.093005
  H       6.217578     -0.732744     -0.356334
  C       5.116977      1.125165     -0.379583
  C       6.138861      1.968720      0.385860
  H       5.961729      1.878772      1.471896
  H       7.156363      1.572223      0.208958
  C       6.089126      3.445284     -0.007706
  H       6.823364      4.041097      0.558061
  H       5.090529      3.872041      0.184095
  H       6.303839      3.579959     -1.081212
  H       4.092815      1.458290     -0.146344
  H       5.262585      1.263566     -1.464708
  C       3.847917     -4.367623      0.356170
  H       3.802009     -4.876093      1.331749
  H       4.816244     -4.603538     -0.115640
  H       3.049070     -4.754432     -0.290053
  C       2.342160     -2.538227      1.133893
  H       2.240238     -2.201382      2.167636
  C       0.514141     -0.247286     -0.564664
  C       0.987408      0.248254      0.762018
  O       0.230754     -0.164371      1.797107
  C       0.634454      0.279114      3.087711
  H      -0.124640     -0.086947      3.790555
  H       1.622318     -0.131294      3.351797
  H       0.696097      1.377357      3.126688
  O       1.955240      0.965385      0.913069
  C      -0.514905     -1.105430     -0.647334
  H      -1.027794     -1.467332      0.245281
  H      -0.858931     -1.471156     -1.618683
  C       1.247572      0.301891     -1.755275
  H       2.324558      0.092595     -1.693157
  H       1.137621      1.398552     -1.802510
  H       0.861638     -0.135728     -2.686030
  H       1.445360     -2.799548      0.572340
  O       4.300702     -1.004371     -1.031704
44
Coordinates from ORCA-job orca E -886.384026066906
  O       3.060041     -2.662795     -1.768286
  C       3.680480     -2.186443     -0.852426
  C       3.693984     -2.842268      0.549376
  C       4.819437     -2.288309      1.438853
  H       4.651090     -2.617553      2.477754
  H       5.783209     -2.726852      1.124738
  C       4.900230     -0.770322      1.341295
  H       5.697345     -0.381624      1.994163
  H       3.956621     -0.296120      1.656004
  C       5.205729     -0.369381     -0.093075
  H       6.218195     -0.733218     -0.355620
  C       5.117078      1.124779     -0.379456
  C       6.138379      1.968654      0.386300
  H       5.961606      1.877808      1.472317
  H       7.156153      1.573092      0.208856
  C       6.087301      3.445419     -0.006309
  H       6.821184      4.041482      0.559654
  H       5.088382      3.871175      0.186038
  H       6.301592      3.580983     -1.079787
  H       4.092648      1.457114     -0.146349
  H       5.262807      1.263107     -1.464576
  C       3.848964     -4.368312      0.355323
  H       3.802933     -4.876770      1.330900
  H       4.817487     -4.603852     -0.116254
  H       3.050398     -4.755392     -0.291079
  C       2.342258     -2.539050      1.131855
  H       2.239330     -2.200844      2.165055
  C       0.513566     -0.246716     -0.564095
  C       0.987544      0.249351      0.762099
  O       0.230995     -0.162208      1.797846
  C       0.635128      0.281948      3.088095
  H      -0.124156     -0.083580      3.791023
  H       1.622908     -0.128535      3.352609
  H       0.696950      1.380207      3.126336
  O       1.955666      0.966549      0.912599
  C      -0.516665     -1.103628     -0.645629
  H      -1.029735     -1.463818      0.247475
  H      -0.861024     -1.470347     -1.616494
  C       1.248104      0.299845     -1.755244
  H       2.324799      0.090023     -1.692046
  H       1.138865      1.396511     -1.804120
  H       0.862480     -0.139168     -2.685472
  H       1.446113     -2.800157      0.569361
  O       4.301750     -1.004993     -1.032325
44
Coordinates from ORCA-job orca E -886.384023662930
  O       3.061200     -2.663879     -1.768773
  C       3.681286     -2.187174     -0.852800
  C       3.694442     -2.842761      0.549008
  C       4.820001     -2.289283      1.438529
  H       4.651837     -2.618894      2.477330
  H       5.783765     -2.727580      1.123995
  C       4.900638     -0.771218      1.341284
  H       5.697701     -0.382381      1.994123
  H       3.956758     -0.297774      1.656283
  C       5.205971     -0.369857     -0.093055
  H       6.218466     -0.733632     -0.355560
  C       5.116465      1.124321     -0.379128
  C       6.137258      1.968802      0.386535
  H       5.961680      1.876577      1.472626
  H       7.155403      1.574824      0.207670
  C       6.083745      3.445876     -0.004616
  H       6.817349      4.042420      0.561198
  H       5.084408      3.870020      0.189104
  H       6.296798      3.582764     -1.078172
  H       4.091737      1.455410     -0.145651
  H       5.261744      1.262652     -1.464313
  C       3.848373     -4.368981      0.355644
  H       3.802151     -4.877032      1.331412
  H       4.816766     -4.605072     -0.115938
  H       3.049615     -4.755956     -0.290577
  C       2.342576     -2.538357      1.131017
  H       2.239522     -2.199298      2.163931
  C       0.513902     -0.245622     -0.564410
  C       0.988681      0.250370      0.761319
  O       0.231939     -0.159909      1.797515
  C       0.637155      0.283420      3.087660
  H      -0.122317     -0.082009      3.790451
  H       1.624624     -0.127909      3.352168
  H       0.699743      1.381619      3.126297
  O       1.957275      0.967054      0.911568
  C      -0.517580     -1.101169     -0.645066
  H      -1.030570     -1.459854      0.248708
  H      -0.862186     -1.468761     -1.615494
  C       1.249574      0.298314     -1.756089
  H       2.326056      0.087531     -1.691833
  H       1.141390      1.395034     -1.806471
  H       0.864014     -0.141732     -2.685833
  H       1.446613     -2.799517      0.568147
  O       4.302180     -1.005609     -1.032463
44
Coordinates from ORCA-job orca E -886.382154976218
  O       3.059935     -2.659176     -1.765924
  C       3.681163     -2.186322     -0.847421
  C       3.707530     -2.860963      0.566111
  C       4.833429     -2.301970      1.446860
  H       4.672496     -2.634224      2.485994
  H       5.799970     -2.731330      1.128383
  C       4.901641     -0.775545      1.344241
  H       5.699511     -0.384617      1.994851
  H       3.955133     -0.299161      1.657346
  C       5.202344     -0.370728     -0.091616
  H       6.215559     -0.732429     -0.354216
  C       5.109703      1.123293     -0.379184
  C       6.131267      1.965410      0.388056
  H       5.953984      1.873356      1.473886
  H       7.148805      1.569256      0.210527
  C       6.081503      3.442675     -0.002882
  H       6.815617      4.037517      0.564064
  H       5.082818      3.868952      0.189534
  H       6.296342      3.579309     -1.076116
  H       4.085666      1.458734     -0.147749
  H       5.257123      1.261305     -1.464124
  C       3.864742     -4.385946      0.365596
  H       3.831051     -4.897650      1.340056
  H       4.828785     -4.616921     -0.117479
  H       3.060248     -4.773440     -0.273224
  C       2.378046     -2.556467      1.168323
  H       2.259420     -2.213834      2.191858
  C       0.487363     -0.213837     -0.596498
  C       0.978734      0.266007      0.746226
  O       0.234073     -0.156295      1.792319
  C       0.644324      0.277871      3.086329
  H      -0.114498     -0.089405      3.788863
  H       1.628853     -0.133415      3.357878
  H       0.704148      1.376176      3.126460
  O       1.949613      0.976019      0.905811
  C      -0.532360     -1.076693     -0.659272
  H      -1.034431     -1.437134      0.238577
  H      -0.879685     -1.448843     -1.627009
  C       1.225783      0.319009     -1.777933
  H       2.318929      0.095402     -1.702554
  H       1.123237      1.416008     -1.834330
  H       0.843991     -0.122627     -2.708486
  H       1.439227     -2.799269      0.577077
  O       4.297013     -1.002266     -1.031926
44
Coordinates from ORCA-job orca E -886.384153675491
  O       3.043587     -2.667597     -1.749072
  C       3.673432     -2.192633     -0.839078
  C       3.706759     -2.860666      0.565301
  C       4.836472     -2.297548      1.443200
  H       4.681549     -2.629571      2.483134
  H       5.803358     -2.723073      1.120648
  C       4.901602     -0.776528      1.344799
  H       5.699062     -0.385303      1.995562
  H       3.956563     -0.302363      1.657456
  C       5.200320     -0.374654     -0.090460
  H       6.212037     -0.738248     -0.356325
  C       5.109886      1.119680     -0.377886
  C       6.131706      1.962840      0.388513
  H       5.954290      1.872019      1.474397
  H       7.149195      1.566340      0.211546
  C       6.082472      3.439789     -0.003886
  H       6.816720      4.035067      0.562450
  H       5.083909      3.866582      0.188028
  H       6.297412      3.575246     -1.077254
  H       4.085685      1.455702     -0.146881
  H       5.257456      1.256800     -1.462868
  C       3.871463     -4.382389      0.355434
  H       3.840668     -4.899376      1.327015
  H       4.836195     -4.605852     -0.129635
  H       3.068094     -4.769982     -0.284997
  C       2.368438     -2.565966      1.167335
  H       2.252172     -2.219028      2.195636
  C       0.488296     -0.207081     -0.587065
  C       0.976405      0.270750      0.746430
  O       0.226728     -0.153596      1.784363
  C       0.632767      0.282722      3.076902
  H      -0.130199     -0.081410      3.776742
  H       1.617428     -0.130919      3.351369
  H       0.696360      1.380871      3.116205
  O       1.949520      0.978284      0.903561
  C      -0.529672     -1.078177     -0.651151
  H      -1.029496     -1.440779      0.248599
  H      -0.876110     -1.454456     -1.618007
  C       1.232680      0.324864     -1.772908
  H       2.307690      0.099968     -1.698482
  H       1.137390      1.422449     -1.830900
  H       0.850435     -0.115778     -2.703848
  H       1.467048     -2.801877      0.598621
  O       4.290379     -1.009333     -1.025263
44
Coordinates from ORCA-job orca E -886.384288879691
  O       3.037943     -2.669724     -1.742646
  C       3.671749     -2.194777     -0.835478
  C       3.708317     -2.859906      0.565406
  C       4.837617     -2.295884      1.443801
  H       4.682755     -2.627046      2.484151
  H       5.804126     -2.722161      1.121284
  C       4.903518     -0.776891      1.345264
  H       5.700445     -0.384166      1.995868
  H       3.958369     -0.304652      1.658480
  C       5.200916     -0.376082     -0.090555
  H       6.211714     -0.740225     -0.358958
  C       5.110920      1.117991     -0.378053
  C       6.132454      1.962038      0.387621
  H       5.955360      1.871657      1.473592
  H       7.150166      1.566128      0.210560
  C       6.082086      3.438688     -0.005588
  H       6.816120      4.034729      0.560198
  H       5.083305      3.864935      0.186420
  H       6.296608      3.573713     -1.079095
  H       4.086705      1.452959     -0.146737
  H       5.257821      1.255101     -1.463208
  C       3.877711     -4.381632      0.356442
  H       3.848258     -4.898518      1.328235
  H       4.843160     -4.602491     -0.128299
  H       3.075664     -4.771816     -0.283792
  C       2.363973     -2.571725      1.165447
  H       2.251250     -2.224533      2.194708
  C       0.487199     -0.205902     -0.583207
  C       0.974718      0.270341      0.747638
  O       0.224624     -0.153132      1.784298
  C       0.630861      0.283389      3.076323
  H      -0.132510     -0.079735      3.776299
  H       1.615262     -0.131652      3.348791
  H       0.697233      1.381335      3.116729
  O       1.949337      0.976900      0.902941
  C      -0.533416     -1.075193     -0.654937
  H      -1.035596     -1.439936      0.242308
  H      -0.878722     -1.447799     -1.623507
  C       1.232336      0.329270     -1.770466
  H       2.304981      0.103363     -1.696406
  H       1.139224      1.427101     -1.826315
  H       0.848946     -0.109024     -2.702124
  H       1.465559     -2.807125      0.596297
  O       4.289083     -1.012119     -1.022450
44
Coordinates from ORCA-job orca E -886.384354822127
  O       3.033745     -2.669986     -1.738715
  C       3.670633     -2.196110     -0.832915
  C       3.710207     -2.859647      0.565148
  C       4.837167     -2.295045      1.445872
  H       4.680069     -2.624967      2.486363
  H       5.803032     -2.724013      1.125131
  C       4.905396     -0.777091      1.346143
  H       5.701576     -0.382274      1.996430
  H       3.959653     -0.307104      1.660447
  C       5.201538     -0.377180     -0.090482
  H       6.211517     -0.741819     -0.361249
  C       5.111865      1.116545     -0.378353
  C       6.133064      1.961768      0.386184
  H       5.956553      1.872092      1.472299
  H       7.151057      1.566650      0.208913
  C       6.081067      3.437994     -0.008276
  H       6.814831      4.035157      0.556664
  H       5.081987      3.863463      0.183872
  H       6.294949      3.572330     -1.081994
  H       4.087531      1.449750     -0.146405
  H       5.257568      1.253673     -1.463715
  C       3.884677     -4.382088      0.359193
  H       3.856608     -4.897521      1.331818
  H       4.851090     -4.600788     -0.124680
  H       3.084127     -4.776060     -0.280469
  C       2.360139     -2.579104      1.163083
  H       2.252813     -2.232099      2.193077
  C       0.486972     -0.206209     -0.579847
  C       0.973528      0.269085      0.749089
  O       0.223351     -0.152520      1.785339
  C       0.630668      0.283826      3.076939
  H      -0.132365     -0.078317      3.777724
  H       1.614935     -0.133111      3.345558
  H       0.700209      1.381527      3.118757
  O       1.949494      0.974972      0.902161
  C      -0.537511     -1.070714     -0.661387
  H      -1.043546     -1.437796      0.232836
  H      -0.881774     -1.437537     -1.632262
  C       1.231012      0.334481     -1.767937
  H       2.303473      0.107946     -1.694532
  H       1.138697      1.432504     -1.819330
  H       0.845921     -0.100181     -2.700494
  H       1.462354     -2.814619      0.591328
  O       4.288269     -1.014073     -1.020044
44
Coordinates from ORCA-job orca E -886.384377794736
  O       3.033475     -2.669256     -1.738870
  C       3.670515     -2.196090     -0.832672
  C       3.710578     -2.859971      0.565073
  C       4.836272     -2.295283      1.447140
  H       4.677606     -2.624753      2.487488
  H       5.801947     -2.725680      1.127638
  C       4.905380     -0.777061      1.346841
  H       5.701300     -0.381466      1.996910
  H       3.959236     -0.307945      1.661820
  C       5.201427     -0.377415     -0.089925
  H       6.211370     -0.742239     -0.360685
  C       5.111771      1.116225     -0.378209
  C       6.132874      1.962068      0.385655
  H       5.956700      1.872939      1.471872
  H       7.150956      1.567208      0.208320
  C       6.080233      3.438072     -0.009621
  H       6.813949      4.035817      0.554783
  H       5.081053      3.863273      0.182565
  H       6.293757      3.571881     -1.083471
  H       4.087295      1.448578     -0.145931
  H       5.256865      1.253148     -1.463656
  C       3.886349     -4.382618      0.359765
  H       3.858522     -4.897530      1.332614
  H       4.853120     -4.600790     -0.123732
  H       3.086238     -4.777605     -0.279902
  C       2.359649     -2.581837      1.162857
  H       2.255069     -2.234960      2.192958
  C       0.488009     -0.207363     -0.579563
  C       0.973959      0.268368      0.749344
  O       0.223475     -0.152020      1.785721
  C       0.631566      0.283989      3.077281
  H      -0.131009     -0.077880      3.778626
  H       1.615871     -0.133891      3.343806
  H       0.702054      1.381617      3.119461
  O       1.950017      0.974354      0.901728
  C      -0.538515     -1.068732     -0.663752
  H      -1.046145     -1.435873      0.229743
  H      -0.883140     -1.433290     -1.635264
  C       1.231007      0.335691     -1.767410
  H       2.303964      0.109541     -1.694427
  H       1.137986      1.433748     -1.816159
  H       0.845289     -0.097350     -2.700372
  H       1.462041     -2.817677      0.590408
  O       4.288217     -1.014153     -1.019515
44
Coordinates from ORCA-job orca E -886.384378004526
  O       3.033836     -2.668604     -1.739274
  C       3.670530     -2.195951     -0.832507
  C       3.710590     -2.860418      0.565327
  C       4.835589     -2.295762      1.448279
  H       4.675714     -2.625008      2.488455
  H       5.801173     -2.727114      1.129717
  C       4.904806     -0.777115      1.347769
  H       5.700593     -0.380889      1.997567
  H       3.958233     -0.309053      1.663658
  C       5.201044     -0.377629     -0.088912
  H       6.211180     -0.742603     -0.358883
  C       5.111225      1.115964     -0.377759
  C       6.132257      1.962560      0.385244
  H       5.956630      1.873963      1.471601
  H       7.150426      1.568039      0.207689
  C       6.078806      3.438368     -0.010776
  H       6.812484      4.036746      0.553011
  H       5.079501      3.863200      0.181581
  H       6.291835      3.571687     -1.084783
  H       4.086551      1.447374     -0.145090
  H       5.255667      1.252450     -1.463316
  C       3.887001     -4.383017      0.359488
  H       3.859205     -4.897966      1.332271
  H       4.853985     -4.600757     -0.123846
  H       3.087146     -4.778190     -0.280456
  C       2.359864     -2.583790      1.163742
  H       2.258432     -2.236977      2.193954
  C       0.489872     -0.209096     -0.580148
  C       0.975234      0.267510      0.749048
  O       0.223909     -0.151268      1.785449
  C       0.633007      0.284094      3.077057
  H      -0.129028     -0.077616      3.779001
  H       1.617332     -0.134953      3.341271
  H       0.704200      1.381656      3.119473
  O       1.951079      0.973826      0.901050
  C      -0.539530     -1.066377     -0.665272
  H      -1.048603     -1.432400      0.227998
  H      -0.885559     -1.428947     -1.637003
  C       1.232084      0.335713     -1.767431
  H       2.305529      0.110441     -1.695013
  H       1.137892      1.433795     -1.813259
  H       0.845928     -0.095805     -2.700839
  H       1.462181     -2.820255      0.591256
  O       4.288322     -1.014037     -1.019112
44
Coordinates from ORCA-job orca E -886.384383595132
  O       3.034107     -2.668562     -1.739189
  C       3.670504     -2.195942     -0.832220
  C       3.710388     -2.860692      0.565833
  C       4.835771     -2.296255      1.448623
  H       4.675916     -2.625687      2.488738
  H       5.801329     -2.727558      1.129951
  C       4.904257     -0.777394      1.348450
  H       5.700108     -0.380901      1.998006
  H       3.957416     -0.310365      1.665218
  C       5.200598     -0.377756     -0.088058
  H       6.210977     -0.742713     -0.357172
  C       5.110455      1.115831     -0.377219
  C       6.131448      1.963013      0.385108
  H       5.956465      1.874550      1.471597
  H       7.149710      1.568933      0.207103
  C       6.077094      3.438756     -0.011099
  H       6.810778      4.037588      0.552200
  H       5.077675      3.863107      0.181709
  H       6.289485      3.571992     -1.085244
  H       4.085650      1.446523     -0.144173
  H       5.254407      1.251932     -1.462872
  C       3.886539     -4.383175      0.359041
  H       3.858836     -4.898486      1.331640
  H       4.853374     -4.600891     -0.124599
  H       3.086479     -4.777856     -0.280959
  C       2.360439     -2.584059      1.165318
  H       2.261424     -2.237285      2.195713
  C       0.491644     -0.210345     -0.581187
  C       0.976742      0.266891      0.748269
  O       0.224389     -0.150566      1.784485
  C       0.634393      0.283890      3.076229
  H      -0.127296     -0.077902      3.778478
  H       1.618643     -0.136227      3.338751
  H       0.706024      1.381392      3.119009
  O       1.952338      0.973479      0.900325
  C      -0.540457     -1.064242     -0.665716
  H      -1.050483     -1.428530      0.227710
  H      -0.888183     -1.425649     -1.637305
  C       1.233886      0.334787     -1.768026
  H       2.307558      0.110326     -1.696125
  H       1.138860      1.432896     -1.812026
  H       0.847579     -0.095876     -2.701752
  H       1.462455     -2.821142      0.593594
  O       4.288425     -1.014040     -1.018877
44
Coordinates from ORCA-job orca E -886.384388547621
  O       3.033931     -2.668987     -1.738451
  C       3.670279     -2.196077     -0.831654
  C       3.710130     -2.860790      0.566653
  C       4.836871     -2.296900      1.448315
  H       4.678186     -2.626939      2.488442
  H       5.802320     -2.727482      1.128428
  C       4.904065     -0.777963      1.348947
  H       5.700152     -0.381345      1.998184
  H       3.956986     -0.312254      1.666812
  C       5.200058     -0.377792     -0.087416
  H       6.210688     -0.742455     -0.355954
  C       5.109243      1.115793     -0.376560
  C       6.130265      1.963445      0.385112
  H       5.956227      1.874647      1.471738
  H       7.148631      1.570019      0.206221
  C       6.074686      3.439252     -0.010701
  H       6.808465      4.038425      0.552107
  H       5.075155      3.862909      0.183033
  H       6.286079      3.572851     -1.084999
  H       4.084358      1.445809     -0.142954
  H       5.252647      1.251654     -1.462308
  C       3.885120     -4.383236      0.359020
  H       3.857710     -4.898940      1.331454
  H       4.851428     -4.601445     -0.125411
  H       3.084343     -4.777013     -0.280610
  C       2.361364     -2.582812      1.167673
  H       2.264657     -2.236216      2.198387
  C       0.493561     -0.211136     -0.582657
  C       0.978567      0.266428      0.747001
  O       0.224991     -0.149851      1.782840
  C       0.636018      0.283135      3.074840
  H      -0.125417     -0.079055      3.777162
  H       1.620100     -0.138209      3.335794
  H       0.708111      1.380553      3.118488
  O       1.953981      0.973157      0.899462
  C      -0.541451     -1.061698     -0.665973
  H      -1.052523     -1.423667      0.227708
  H      -0.891016     -1.422171     -1.637301
  C       1.236537      0.333189     -1.769196
  H       2.310278      0.109435     -1.697898
  H       1.141030      1.431340     -1.812196
  H       0.850200     -0.097002     -2.703144
  H       1.462741     -2.820567      0.597506
  O       4.288399     -1.014249     -1.018662
44
Coordinates from ORCA-job orca E -886.384390673905
  O       3.033039     -2.669710     -1.737060
  C       3.669767     -2.196382     -0.830797
  C       3.709968     -2.860696      0.567676
  C       4.838762     -2.297728      1.447441
  H       4.682234     -2.628694      2.487636
  H       5.803859     -2.727352      1.125312
  C       4.904645     -0.778810      1.349138
  H       5.701079     -0.382152      1.997960
  H       3.957361     -0.314550      1.668211
  C       5.199536     -0.377744     -0.087204
  H       6.210334     -0.741761     -0.355961
  C       5.107676      1.115849     -0.375929
  C       6.128807      1.963844      0.385188
  H       5.955945      1.874256      1.471941
  H       7.147297      1.571307      0.205035
  C       6.071670      3.439836     -0.009665
  H       6.805554      4.039253      0.552739
  H       5.071992      3.862561      0.185355
  H       6.281838      3.574244     -1.084103
  H       4.082807      1.445288     -0.141545
  H       5.250405      1.251790     -1.461770
  C       3.882802     -4.383284      0.359953
  H       3.855834     -4.899014      1.332410
  H       4.848242     -4.602686     -0.125591
  H       3.080817     -4.776018     -0.278771
  C       2.362532     -2.580141      1.170365
  H       2.267766     -2.234025      2.201520
  C       0.495378     -0.211125     -0.584255
  C       0.980420      0.266266      0.745528
  O       0.225801     -0.149333      1.780925
  C       0.637818      0.281698      3.073281
  H      -0.123473     -0.081210      3.775415
  H       1.621686     -0.140862      3.332942
  H       0.710437      1.379007      3.118404
  O       1.955861      0.972844      0.898636
  C      -0.542129     -1.058972     -0.666674
  H      -1.054495     -1.418655      0.227081
  H      -0.892973     -1.418662     -1.637881
  C       1.239569      0.331479     -1.770758
  H       2.313258      0.107989     -1.700043
  H       1.144192      1.429686     -1.813952
  H       0.853192     -0.098688     -2.704733
  H       1.462925     -2.818422      0.602266
  O       4.288117     -1.014730     -1.018388
44
Coordinates from ORCA-job orca E -886.384405097036
  O       3.031278     -2.670467     -1.735064
  C       3.668887     -2.196791     -0.829618
  C       3.710002     -2.860434      0.568953
  C       4.841489     -2.298792      1.446125
  H       4.688012     -2.630938      2.486422
  H       5.805872     -2.727537      1.120736
  C       4.906257     -0.779893      1.349090
  H       5.703142     -0.383119      1.997301
  H       3.958710     -0.317354      1.669616
  C       5.199005     -0.377548     -0.087399
  H       6.209881     -0.740386     -0.357413
  C       5.105512      1.116067     -0.375205
  C       6.126880      1.964290      0.385371
  H       5.955358      1.873702      1.472255
  H       7.145472      1.572705      0.203715
  C       6.068143      3.440515     -0.008314
  H       6.802228      4.040076      0.553674
  H       5.068363      3.862321      0.188175
  H       6.276968      3.575876     -1.082896
  H       4.080727      1.444930     -0.139678
  H       5.247286      1.252538     -1.461126
  C       3.879434     -4.383425      0.362059
  H       3.852830     -4.898673      1.334795
  H       4.843717     -4.604956     -0.124754
  H       3.075797     -4.774936     -0.275316
  C       2.364078     -2.576060      1.173507
  H       2.271199     -2.230987      2.205304
  C       0.497261     -0.210377     -0.585963
  C       0.982307      0.266335      0.743918
  O       0.226898     -0.149203      1.778811
  C       0.639856      0.279282      3.071658
  H      -0.121327     -0.084722      3.773369
  H       1.623518     -0.144476      3.330130
  H       0.713082      1.376452      3.118999
  O       1.958006      0.972423      0.897908
  C      -0.542297     -1.055991     -0.668360
  H      -1.056488     -1.413614      0.225097
  H      -0.893638     -1.414775     -1.639741
  C       1.242897      0.329941     -1.772679
  H       2.316482      0.106203     -1.702608
  H       1.148231      1.428218     -1.817168
  H       0.856309     -0.100531     -2.706470
  H       1.463052     -2.814691      0.608027
  O       4.287473     -1.015409     -1.017964
44
Coordinates from ORCA-job orca E -886.384405138840
  O       3.028573     -2.671015     -1.732530
  C       3.667612     -2.197305     -0.828078
  C       3.710209     -2.860086      0.570532
  C       4.844900     -2.300234      1.444532
  H       4.695078     -2.633656      2.484959
  H       5.808069     -2.728661      1.115076
  C       4.909054     -0.781266      1.348825
  H       5.706493     -0.384207      1.996128
  H       3.961191     -0.320700      1.671116
  C       5.198525     -0.377358     -0.087965
  H       6.209370     -0.738479     -0.360388
  C       5.102793      1.116324     -0.374422
  C       6.124553      1.964818      0.385462
  H       5.954773      1.872936      1.472503
  H       7.143297      1.574514      0.201851
  C       6.063666      3.441365     -0.006671
  H       6.798007      4.041126      0.554769
  H       5.063755      3.861950      0.191772
  H       6.270701      3.577997     -1.081436
  H       4.078175      1.444474     -0.137245
  H       5.243092      1.253849     -1.460424
  C       3.874935     -4.383718      0.365444
  H       3.848695     -4.897808      1.338797
  H       4.837735     -4.608441     -0.122846
  H       3.069120     -4.773866     -0.270011
  C       2.366052     -2.570787      1.177180
  H       2.275405     -2.227539      2.209866
  C       0.499500     -0.209014     -0.587814
  C       0.984371      0.266592      0.742219
  O       0.228452     -0.149454      1.776574
  C       0.642254      0.275977      3.070042
  H      -0.118819     -0.089375      3.771205
  H       1.625768     -0.148931      3.327306
  H       0.716203      1.372976      3.120220
  O       1.960591      0.971792      0.897236
  C      -0.541730     -1.052638     -0.671498
  H      -1.058431     -1.408616      0.221159
  H      -0.892663     -1.410202     -1.643456
  C       1.246581      0.328888     -1.774890
  H       2.320025      0.104244     -1.705534
  H       1.153193      1.427230     -1.821549
  H       0.859462     -0.102096     -2.708250
  H       1.463117     -2.809506      0.614820
  O       4.286443     -1.016303     -1.017307
44
Coordinates from ORCA-job orca E -886.384405628934
  O       3.027281     -2.670605     -1.731761
  C       3.666991     -2.197266     -0.827553
  C       3.710375     -2.859872      0.570984
  C       4.845902     -2.300623      1.444116
  H       4.697029     -2.634263      2.484591
  H       5.808448     -2.729583      1.113459
  C       4.910460     -0.781579      1.348657
  H       5.708057     -0.384328      1.995578
  H       3.962501     -0.321453      1.671464
  C       5.198444     -0.377185     -0.088298
  H       6.209157     -0.737569     -0.362193
  C       5.101868      1.116547     -0.374113
  C       6.123912      1.964991      0.385509
  H       5.954338      1.873214      1.472586
  H       7.142593      1.574613      0.201712
  C       6.063104      3.441496     -0.006793
  H       6.797571      4.041255      0.554489
  H       5.063263      3.862210      0.191704
  H       6.270045      3.577966     -1.081596
  H       4.077345      1.444508     -0.136180
  H       5.241477      1.254734     -1.460115
  C       3.873412     -4.383759      0.366799
  H       3.846842     -4.897235      1.340443
  H       4.835920     -4.609759     -0.121516
  H       3.067129     -4.773524     -0.268316
  C       2.366700     -2.569029      1.178192
  H       2.276660     -2.227090      2.211366
  C       0.499979     -0.208319     -0.588045
  C       0.984573      0.266669      0.742123
  O       0.228889     -0.150273      1.776294
  C       0.642432      0.274471      3.069980
  H      -0.118642     -0.091320      3.770901
  H       1.626023     -0.150296      3.327257
  H       0.716362      1.371451      3.120975
  O       1.961052      0.971435      0.897502
  C      -0.540744     -1.052355     -0.673207
  H      -1.058232     -1.408907      0.218835
  H      -0.890629     -1.409522     -1.645652
  C       1.247078      0.329504     -1.775271
  H       2.320461      0.104078     -1.706109
  H       1.154336      1.427846     -1.822988
  H       0.859549     -0.101733     -2.708338
  H       1.463030     -2.807404      0.616732
  O       4.285810     -1.016349     -1.016923
44
Coordinates from ORCA-job orca E -886.384409654275
  O       3.025863     -2.669653     -1.731204
  C       3.666256     -2.196964     -0.827103
  C       3.710465     -2.859598      0.571383
  C       4.846630     -2.300880      1.443896
  H       4.698236     -2.634455      2.484429
  H       5.808478     -2.730907      1.112471
  C       4.911945     -0.781732      1.348477
  H       5.709736     -0.384240      1.994923
  H       3.963967     -0.321788      1.671773
  C       5.198451     -0.377023     -0.088625
  H       6.208961     -0.736759     -0.364116
  C       5.101171      1.116804     -0.373779
  C       6.123666      1.965135      0.385424
  H       5.954173      1.873833      1.472548
  H       7.142203      1.574360      0.201666
  C       6.063341      3.441526     -0.007427
  H       6.797971      4.041262      0.553677
  H       5.063633      3.862651      0.190850
  H       6.270405      3.577511     -1.082268
  H       4.076777      1.444535     -0.134888
  H       5.239853      1.255779     -1.459790
  C       3.872027     -4.383703      0.367880
  H       3.844906     -4.896631      1.341779
  H       4.834404     -4.610896     -0.120211
  H       3.065470     -4.773066     -0.267161
  C       2.367271     -2.567635      1.179236
  H       2.278165     -2.227773      2.213130
  C       0.500398     -0.207879     -0.588115
  C       0.984487      0.266519      0.742328
  O       0.229144     -0.151587      1.776271
  C       0.641873      0.273066      3.070169
  H      -0.119265     -0.092969      3.770873
  H       1.625658     -0.151073      3.327833
  H       0.715453      1.370081      3.121473
  O       1.961161      0.970910      0.898059
  C      -0.539150     -1.052982     -0.675137
  H      -1.057037     -1.411007      0.216167
  H      -0.887666     -1.409804     -1.648149
  C       1.246980      0.330916     -1.775341
  H       2.320294      0.104459     -1.706425
  H       1.154784      1.429230     -1.823693
  H       0.858820     -0.100395     -2.708095
  H       1.462763     -2.805321      0.618585
  O       4.285029     -1.016067     -1.016494
44
Coordinates from ORCA-job orca E -886.384410545351
  O       3.024579     -2.668655     -1.730669
  C       3.665512     -2.196493     -0.826673
  C       3.710321     -2.859258      0.571773
  C       4.847162     -2.301047      1.443711
  H       4.699102     -2.634549      2.484308
  H       5.808457     -2.731919      1.111729
  C       4.913006     -0.781845      1.348376
  H       5.711082     -0.384251      1.994370
  H       3.965107     -0.321983      1.672199
  C       5.198455     -0.376915     -0.088814
  H       6.208786     -0.736353     -0.365396
  C       5.100790      1.117024     -0.373454
  C       6.123770      1.965270      0.385233
  H       5.954454      1.874438      1.472430
  H       7.142150      1.574111      0.201428
  C       6.063841      3.441564     -0.008090
  H       6.798622      4.041298      0.552821
  H       5.064249      3.863023      0.190043
  H       6.270945      3.577136     -1.082974
  H       4.076527      1.444476     -0.133608
  H       5.238542      1.256562     -1.459507
  C       3.870824     -4.383456      0.368350
  H       3.843447     -4.896181      1.342343
  H       4.833016     -4.611433     -0.119778
  H       3.063940     -4.772353     -0.266582
  C       2.367719     -2.566627      1.180534
  H       2.279954     -2.229069      2.215265
  C       0.500920     -0.207943     -0.588326
  C       0.984485      0.266088      0.742429
  O       0.229167     -0.152790      1.776061
  C       0.640931      0.272128      3.070157
  H      -0.120354     -0.093993      3.770638
  H       1.624880     -0.151325      3.328345
  H       0.714005      1.369195      3.121340
  O       1.961157      0.970358      0.898531
  C      -0.537609     -1.054035     -0.676544
  H      -1.055401     -1.413548      0.214276
  H      -0.885268     -1.410626     -1.649928
  C       1.246897      0.332242     -1.775355
  H       2.320139      0.104978     -1.706799
  H       1.154947      1.430547     -1.823493
  H       0.858167     -0.098819     -2.707996
  H       1.462416     -2.803568      0.620723
  O       4.284311     -1.015613     -1.016145
44
Coordinates from ORCA-job orca E -886.382200369848
  O       3.023156     -2.663866     -1.727810
  C       3.665273     -2.195574     -0.821247
  C       3.723209     -2.877230      0.589013
  C       4.860528     -2.313277      1.451814
  H       4.719908     -2.649175      2.492702
  H       5.824355     -2.735326      1.115713
  C       4.914058     -0.785902      1.351135
  H       5.713039     -0.386170      1.994694
  H       3.963588     -0.323325      1.673331
  C       5.194858     -0.377718     -0.087510
  H       6.205869     -0.735173     -0.364186
  C       5.094101      1.116049     -0.373572
  C       6.117895      1.961924      0.386667
  H       5.946936      1.871213      1.473619
  H       7.135679      1.568615      0.204132
  C       6.061667      3.438435     -0.006405
  H       6.796992      4.036462      0.555619
  H       5.062718      3.862001      0.190490
  H       6.270495      3.573802     -1.080982
  H       4.070485      1.447765     -0.135691
  H       5.233945      1.255339     -1.459391
  C       3.886545     -4.400203      0.378650
  H       3.871781     -4.916308      1.351219
  H       4.844042     -4.623308     -0.121009
  H       3.073864     -4.789661     -0.248570
  C       2.402773     -2.584506      1.218477
  H       2.299393     -2.243511      2.243414
  C       0.474507     -0.176449     -0.620849
  C       0.974472      0.281338      0.727410
  O       0.231435     -0.149498      1.771596
  C       0.648331      0.266001      3.069364
  H      -0.112252     -0.102099      3.769573
  H       1.629435     -0.157478      3.334560
  H       0.718682      1.363173      3.122212
  O       1.953580      0.979097      0.892829
  C      -0.552174     -1.029808     -0.691513
  H      -1.059250     -1.391360      0.203193
  H      -0.902267     -1.390748     -1.662435
  C       1.223528      0.352993     -1.797209
  H       2.313162      0.112828     -1.717381
  H       1.137264      1.451519     -1.851145
  H       0.838848     -0.079617     -2.730822
  H       1.454535     -2.803211      0.629240
  O       4.279163     -1.012262     -1.015658
44
Coordinates from ORCA-job orca E -886.384305043573
  O       3.007075     -2.672256     -1.710174
  C       3.657534     -2.201581     -0.812465
  C       3.722190     -2.876626      0.588212
  C       4.863265     -2.308677      1.448253
  H       4.728521     -2.644398      2.489812
  H       5.827549     -2.726509      1.108266
  C       4.913517     -0.786813      1.351900
  H       5.712081     -0.386980      1.995806
  H       3.964522     -0.326319      1.673386
  C       5.192879     -0.381649     -0.086092
  H       6.202345     -0.741520     -0.365378
  C       5.094787      1.112453     -0.372346
  C       6.118867      1.959341      0.386976
  H       5.947693      1.870017      1.473986
  H       7.136554      1.565482      0.205126
  C       6.063356      3.435501     -0.007693
  H       6.798795      4.033940      0.553756
  H       5.064530      3.859679      0.188574
  H       6.272382      3.569623     -1.082398
  H       4.071007      1.444900     -0.135101
  H       5.234968      1.250413     -1.458252
  C       3.893395     -4.396038      0.367514
  H       3.882110     -4.918016      1.336829
  H       4.851348     -4.610881     -0.134661
  H       3.081683     -4.785500     -0.261188
  C       2.393271     -2.594514      1.217506
  H       2.292276     -2.249396      2.247944
  C       0.475648     -0.169892     -0.611156
  C       0.972302      0.285878      0.727298
  O       0.223716     -0.146978      1.762483
  C       0.635789      0.271049      3.058990
  H      -0.129367     -0.093735      3.756120
  H       1.616887     -0.154638      3.327767
  H       0.709607      1.368074      3.110645
  O       1.953126      0.981340      0.890572
  C      -0.549687     -1.031684     -0.681978
  H      -1.053574     -1.395505      0.215097
  H      -0.899914     -1.396974     -1.651667
  C       1.230476      0.358672     -1.791909
  H       2.301957      0.117667     -1.713242
  H       1.151060      1.457668     -1.846838
  H       0.845428     -0.072913     -2.725975
  H       1.483540     -2.806767      0.651771
  O       4.272655     -1.019150     -1.008797
44
Coordinates from ORCA-job orca E -886.384442481445
  O       3.001483     -2.674426     -1.703389
  C       3.655797     -2.203537     -0.808691
  C       3.723606     -2.875707      0.588321
  C       4.864062     -2.306770      1.449144
  H       4.729044     -2.641546      2.491103
  H       5.828192     -2.725157      1.109607
  C       4.915018     -0.786938      1.352495
  H       5.713048     -0.385729      1.996325
  H       3.965997     -0.328117      1.674355
  C       5.193448     -0.383073     -0.086073
  H       6.201936     -0.743959     -0.367388
  C       5.096255      1.110742     -0.372676
  C       6.120209      1.958397      0.385772
  H       5.949427      1.869593      1.472889
  H       7.138029      1.564928      0.203768
  C       6.063745      3.434244     -0.009739
  H       6.799032      4.033375      0.551145
  H       5.064752      3.857983      0.186634
  H       6.272337      3.567910     -1.084586
  H       4.072517      1.442345     -0.135213
  H       5.235816      1.248297     -1.458795
  C       3.900334     -4.394994      0.367865
  H       3.891072     -4.917266      1.337168
  H       4.858914     -4.606439     -0.134448
  H       3.089936     -4.787268     -0.260487
  C       2.388676     -2.600900      1.215531
  H       2.291441     -2.255856      2.247112
  C       0.474570     -0.168997     -0.607135
  C       0.970412      0.285304      0.728593
  O       0.221099     -0.146644      1.762231
  C       0.632979      0.271866      3.058331
  H      -0.132741     -0.091945      3.755409
  H       1.613770     -0.154973      3.325350
  H       0.709256      1.368672      3.110833
  O       1.952405      0.980124      0.890222
  C      -0.553614     -1.028833     -0.685221
  H      -1.059509     -1.394882      0.209449
  H      -0.903015     -1.390462     -1.656488
  C       1.229968      0.363126     -1.789232
  H       2.299103      0.121368     -1.711149
  H       1.152331      1.462334     -1.841312
  H       0.843839     -0.065875     -2.724127
  H       1.481809     -2.812728      0.649727
  O       4.271366     -1.021797     -1.005950
44
Coordinates from ORCA-job orca E -886.384514190612
  O       2.997077     -2.674658     -1.699086
  C       3.654467     -2.204607     -0.805972
  C       3.725314     -2.875204      0.588018
  C       4.863003     -2.305450      1.451697
  H       4.725155     -2.638785      2.493823
  H       5.826821     -2.726393      1.114629
  C       4.916322     -0.786698      1.353505
  H       5.713607     -0.383515      1.997072
  H       3.966893     -0.329712      1.676202
  C       5.194005     -0.384202     -0.085923
  H       6.201549     -0.746304     -0.369019
  C       5.097888      1.109227     -0.373276
  C       6.121805      1.957853      0.383788
  H       5.951780      1.869857      1.471079
  H       7.139754      1.564876      0.201424
  C       6.063996      3.433257     -0.013034
  H       6.799197      4.033381      0.546888
  H       5.064819      3.856421      0.183609
  H       6.271802      3.566168     -1.088120
  H       4.074142      1.439396     -0.135250
  H       5.236248      1.246281     -1.459662
  C       3.908586     -4.395050      0.369868
  H       3.901596     -4.916277      1.339769
  H       4.868132     -4.603139     -0.132051
  H       3.099868     -4.791640     -0.257794
  C       2.384464     -2.609380      1.213055
  H       2.293139     -2.265089      2.245579
  C       0.474267     -0.169813     -0.603461
  C       0.968725      0.283713      0.730370
  O       0.218972     -0.146328      1.763340
  C       0.631370      0.272466      3.059115
  H      -0.134154     -0.090493      3.756784
  H       1.612048     -0.155872      3.322492
  H       0.710355      1.369025      3.112713
  O       1.951627      0.978433      0.889982
  C      -0.557938     -1.024640     -0.691380
  H      -1.067446     -1.393359      0.200212
  H      -0.906394     -1.380317     -1.664921
  C       1.228261      0.368692     -1.786254
  H       2.297223      0.126652     -1.709221
  H       1.150894      1.468083     -1.832614
  H       0.840457     -0.056066     -2.722292
  H       1.478028     -2.821437      0.645129
  O       4.270427     -1.023565     -1.003531
44
Coordinates from ORCA-job orca E -886.384540256886
  O       2.996555     -2.673747     -1.699176
  C       3.654152     -2.204397     -0.805705
  C       3.725581     -2.875386      0.587914
  C       4.861708     -2.305366      1.453225
  H       4.721933     -2.638080      2.495249
  H       5.825467     -2.727811      1.117786
  C       4.916053     -0.786366      1.354210
  H       5.713101     -0.382434      1.997549
  H       3.966336     -0.329956      1.677472
  C       5.193879     -0.384436     -0.085400
  H       6.201309     -0.747085     -0.368310
  C       5.098162      1.108878     -0.373346
  C       6.122220      1.957978      0.382859
  H       5.952726      1.870532      1.470283
  H       7.140161      1.565101      0.200233
  C       6.063919      3.433173     -0.014731
  H       6.799272      4.033736      0.544529
  H       5.064748      3.856231      0.182154
  H       6.271183      3.565550     -1.089985
  H       4.074347      1.438376     -0.134957
  H       5.235823      1.245521     -1.459847
  C       3.910933     -4.395389      0.370234
  H       3.904617     -4.916166      1.340326
  H       4.870878     -4.602361     -0.131477
  H       3.102782     -4.793386     -0.257363
  C       2.383730     -2.612771      1.212893
  H       2.295539     -2.269008      2.245624
  C       0.475278     -0.171372     -0.602995
  C       0.968784      0.282725      0.730903
  O       0.218593     -0.146098      1.763918
  C       0.631455      0.272635      3.059670
  H      -0.133617     -0.090183      3.757822
  H       1.612250     -0.156379      3.320995
  H       0.711102      1.369135      3.113478
  O       1.951518      0.977928      0.889936
  C      -0.558910     -1.022967     -0.693964
  H      -1.070061     -1.392080      0.196726
  H      -0.907541     -1.376148     -1.668259
  C       1.227979      0.370265     -1.785384
  H       2.297507      0.128805     -1.709058
  H       1.149638      1.469701     -1.828212
  H       0.839481     -0.052326     -2.722013
  H       1.477346     -2.825284      0.644494
  O       4.270238     -1.023500     -1.003021
44
Coordinates from ORCA-job orca E -886.384539944281
  O       2.996536     -2.672767     -1.699526
  C       3.653867     -2.203944     -0.805527
  C       3.725392     -2.875611      0.588199
  C       4.860617     -2.305404      1.454549
  H       4.719392     -2.637700      2.496453
  H       5.824407     -2.728838      1.120372
  C       4.915239     -0.786001      1.355037
  H       5.712234     -0.381550      1.998066
  H       3.965297     -0.330126      1.678998
  C       5.193526     -0.384597     -0.084527
  H       6.201047     -0.747804     -0.366514
  C       5.098108      1.108651     -0.373221
  C       6.122420      1.958254      0.381929
  H       5.953767      1.871226      1.469522
  H       7.140321      1.565554      0.198737
  C       6.063440      3.433301     -0.016205
  H       6.799072      4.034280      0.542246
  H       5.064304      3.856159      0.181278
  H       6.269832      3.565289     -1.091675
  H       4.074212      1.437529     -0.134381
  H       5.235015      1.244686     -1.459855
  C       3.911920     -4.395494      0.369791
  H       3.906031     -4.916356      1.339795
  H       4.872073     -4.601604     -0.131956
  H       3.104059     -4.793953     -0.257969
  C       2.383773     -2.615155      1.214052
  H       2.298912     -2.272034      2.247030
  C       0.477127     -0.173542     -0.603446
  C       0.969594      0.281508      0.730942
  O       0.218454     -0.145926      1.763853
  C       0.631801      0.272524      3.059699
  H      -0.132738     -0.090426      3.758290
  H       1.612752     -0.157150      3.318986
  H       0.711607      1.368998      3.113566
  O       1.951734      0.977541      0.889859
  C      -0.559549     -1.021335     -0.695719
  H      -1.072124     -1.389832      0.194547
  H      -0.909192     -1.372415     -1.670379
  C       1.228804      0.370703     -1.784997
  H       2.298911      0.130317     -1.709575
  H       1.149057      1.470182     -1.823990
  H       0.839816     -0.049732     -2.722301
  H       1.477128     -2.828484      0.645950
  O       4.270155     -1.023130     -1.002700
44
Coordinates from ORCA-job orca E -886.384547357146
  O       2.996261     -2.672180     -1.699281
  C       3.653422     -2.203502     -0.805114
  C       3.724919     -2.875606      0.588831
  C       4.860379     -2.305444      1.455094
  H       4.719003     -2.637759      2.496956
  H       5.824191     -2.728903      1.121051
  C       4.914498     -0.785837      1.355695
  H       5.711657     -0.381244      1.998445
  H       3.964473     -0.330481      1.680350
  C       5.193094     -0.384619     -0.083739
  H       6.200749     -0.748188     -0.364805
  C       5.097772      1.108610     -0.372932
  C       6.122430      1.958583      0.381255
  H       5.954688      1.871800      1.469019
  H       7.140259      1.566026      0.197358
  C       6.062885      3.433549     -0.017159
  H       6.798892      4.034781      0.540521
  H       5.063838      3.856264      0.181061
  H       6.268340      3.565296     -1.092836
  H       4.073858      1.437080     -0.133608
  H       5.234027      1.244091     -1.459699
  C       3.911659     -4.395270      0.369156
  H       3.906207     -4.916622      1.338901
  H       4.871660     -4.600915     -0.133075
  H       3.103643     -4.793428     -0.258605
  C       2.384175     -2.615768      1.216074
  H       2.301888     -2.273401      2.249427
  C       0.478969     -0.175233     -0.604378
  C       0.970626      0.280451      0.730535
  O       0.218319     -0.146032      1.763043
  C       0.631959      0.271761      3.059141
  H      -0.132239     -0.091679      3.757823
  H       1.612990     -0.158430      3.317020
  H       0.711578      1.368216      3.113315
  O       1.952092      0.977271      0.889871
  C      -0.559979     -1.019994     -0.696499
  H      -1.073529     -1.387308      0.193697
  H      -0.910901     -1.369744     -1.671210
  C       1.230472      0.370271     -1.785119
  H       2.300906      0.130891     -1.710561
  H       1.149665      1.469791     -1.821319
  H       0.841292     -0.048606     -2.723026
  H       1.477061     -2.829961      0.649045
  O       4.270003     -1.022790     -1.002439
44
Coordinates from ORCA-job orca E -886.384554708683
  O       2.995029     -2.671752     -1.698036
  C       3.652431     -2.202985     -0.804158
  C       3.724182     -2.875289      0.590008
  C       4.860996     -2.305561      1.455056
  H       4.720718     -2.638318      2.496944
  H       5.824662     -2.728429      1.119943
  C       4.914080     -0.785885      1.356254
  H       5.711660     -0.381376      1.998582
  H       3.964073     -0.331270      1.681909
  C       5.192486     -0.384495     -0.083067
  H       6.200248     -0.748263     -0.363481
  C       5.096976      1.108738     -0.372516
  C       6.122180      1.959024      0.380489
  H       5.955764      1.872226      1.468470
  H       7.139899      1.566729      0.195413
  C       6.061786      3.433975     -0.017857
  H       6.798311      4.035409      0.538911
  H       5.062858      3.856412      0.181548
  H       6.265913      3.565726     -1.093787
  H       4.073150      1.436832     -0.132369
  H       5.232343      1.243732     -1.459450
  C       3.910194     -4.394786      0.368939
  H       3.905495     -4.916785      1.338371
  H       4.869582     -4.600437     -0.134404
  H       3.101419     -4.792119     -0.258339
  C       2.384913     -2.614834      1.219439
  H       2.305449     -2.273771      2.253472
  C       0.481351     -0.176658     -0.605887
  C       0.972132      0.279260      0.729647
  O       0.218275     -0.146556      1.761363
  C       0.632124      0.269828      3.057962
  H      -0.131805     -0.094707      3.756366
  H       1.613187     -0.160945      3.314472
  H       0.711341      1.366234      3.113139
  O       1.952805      0.976912      0.889997
  C      -0.560232     -1.018250     -0.697398
  H      -1.074999     -1.383840      0.192717
  H      -0.912609     -1.366644     -1.672130
  C       1.233397      0.369367     -1.785726
  H       2.304021      0.130972     -1.712287
  H       1.151796      1.468951     -1.819383
  H       0.844125     -0.047908     -2.724325
  H       1.476904     -2.830148      0.654521
  O       4.269540     -1.022524     -1.002048
44
Coordinates from ORCA-job orca E -886.384564716497
  O       2.992256     -2.671429     -1.695500
  C       3.650668     -2.202469     -0.802530
  C       3.723368     -2.874561      0.591751
  C       4.862648     -2.305747      1.454412
  H       4.724800     -2.639248      2.496420
  H       5.825816     -2.727762      1.116897
  C       4.914648     -0.786120      1.356478
  H       5.712916     -0.381769      1.998112
  H       3.964744     -0.332451      1.683450
  C       5.191795     -0.384234     -0.082916
  H       6.199517     -0.747849     -0.363617
  C       5.095675      1.108987     -0.372167
  C       6.121680      1.959418      0.379538
  H       5.957146      1.872000      1.467765
  H       7.139272      1.567680      0.192577
  C       6.059928      3.434541     -0.017955
  H       6.797137      4.036040      0.537836
  H       5.061139      3.856403      0.183362
  H       6.262153      3.566905     -1.094171
  H       4.072069      1.436808     -0.130735
  H       5.229819      1.243791     -1.459281
  C       3.907363     -4.394132      0.369905
  H       3.903649     -4.916542      1.339153
  H       4.865651     -4.600658     -0.135102
  H       3.097137     -4.790256     -0.256217
  C       2.385961     -2.612053      1.223913
  H       2.309373     -2.273068      2.258957
  C       0.484076     -0.177372     -0.607815
  C       0.973913      0.278116      0.728378
  O       0.218470     -0.147671      1.759008
  C       0.632358      0.266500      3.056369
  H      -0.131397     -0.099803      3.754061
  H       1.613449     -0.164802      3.311672
  H       0.711029      1.362830      3.113514
  O       1.953882      0.976398      0.890274
  C      -0.559938     -1.016205     -0.699119
  H      -1.076348     -1.380030      0.190643
  H      -0.913304     -1.363149     -1.674074
  C       1.237257      0.368448     -1.786866
  H       2.307938      0.130602     -1.714720
  H       1.155472      1.468136     -1.818788
  H       0.847855     -0.047331     -2.726116
  H       1.476576     -2.828596      0.662028
  O       4.268534     -1.022503     -1.001502
44
Coordinates from ORCA-job orca E -886.384575571044
  O       2.986405     -2.670619     -1.690648
  C       3.647281     -2.201666     -0.799539
  C       3.722279     -2.873124      0.594703
  C       4.865865     -2.306203      1.453006
  H       4.732532     -2.640979      2.495226
  H       5.827752     -2.727318      1.110828
  C       4.916864     -0.786664      1.356443
  H       5.716333     -0.382537      1.996756
  H       3.967150     -0.334484      1.685626
  C       5.190777     -0.383687     -0.083311
  H       6.198207     -0.746566     -0.365939
  C       5.093189      1.109546     -0.371710
  C       6.120616      1.960031      0.378004
  H       5.959075      1.871493      1.466593
  H       7.137972      1.569158      0.187960
  C       6.056786      3.435452     -0.018006
  H       6.795069      4.036974      0.536339
  H       5.058243      3.856435      0.186333
  H       6.256060      3.568891     -1.094642
  H       4.070066      1.437053     -0.127873
  H       5.225084      1.244604     -1.459091
  C       3.902001     -4.393145      0.373003
  H       3.899789     -4.915473      1.342324
  H       4.858319     -4.602030     -0.134688
  H       3.089088     -4.787432     -0.250741
  C       2.387708     -2.606313      1.231045
  H       2.315167     -2.271414      2.267891
  C       0.488200     -0.177307     -0.610660
  C       0.976499      0.276622      0.726518
  O       0.219120     -0.150230      1.755342
  C       0.632680      0.259967      3.054046
  H      -0.130926     -0.109553      3.750249
  H       1.613873     -0.171846      3.307891
  H       0.710436      1.356136      3.115081
  O       1.955733      0.975356      0.891083
  C      -0.558409     -1.013176     -0.703139
  H      -1.077715     -1.375205      0.185538
  H      -0.912005     -1.357775     -1.678885
  C       1.243266      0.367943     -1.788763
  H       2.313898      0.130032     -1.718554
  H       1.162066      1.467805     -1.819310
  H       0.853450     -0.045829     -2.728789
  H       1.475892     -2.824462      0.674146
  O       4.266415     -1.022667     -1.000403
44
Coordinates from ORCA-job orca E -886.384584358937
  O       2.977986     -2.668974     -1.684220
  C       3.642635     -2.200598     -0.795592
  C       3.721200     -2.871178      0.598407
  C       4.870049     -2.306831      1.451244
  H       4.742345     -2.642956      2.493745
  H       5.829852     -2.727811      1.103061
  C       4.920848     -0.787327      1.356083
  H       5.721840     -0.383276      1.994487
  H       3.971398     -0.336817      1.688062
  C       5.189618     -0.382937     -0.084335
  H       6.196454     -0.744434     -0.370785
  C       5.089782      1.110334     -0.371242
  C       6.119126      1.960702      0.376060
  H       5.961095      1.870894      1.465053
  H       7.136131      1.570687      0.182377
  C       6.053119      3.436457     -0.018300
  H       6.792750      4.037899      0.534330
  H       5.054951      3.856614      0.189546
  H       6.248977      3.571066     -1.095416
  H       4.067355      1.437527     -0.124072
  H       5.218539      1.246306     -1.458912
  C       3.894844     -4.392029      0.378109
  H       3.894124     -4.913513      1.347891
  H       4.848723     -4.604686     -0.132580
  H       3.078513     -4.784184     -0.242501
  C       2.389851     -2.598535      1.239512
  H       2.321932     -2.269587      2.278749
  C       0.493011     -0.176256     -0.613765
  C       0.979279      0.275079      0.724643
  O       0.220293     -0.154207      1.751313
  C       0.632915      0.251036      3.051730
  H      -0.130580     -0.122613      3.745887
  H       1.614389     -0.180885      3.304256
  H       0.709432      1.346996      3.117958
  O       1.958031      0.973779      0.892504
  C      -0.555158     -1.010145     -0.709634
  H      -1.078159     -1.371538      0.177094
  H      -0.907445     -1.351816     -1.686878
  C       1.249965      0.368799     -1.790934
  H       2.320440      0.129739     -1.722907
  H       1.170248      1.468858     -1.820875
  H       0.859271     -0.042786     -2.731606
  H       1.474907     -2.818155      0.688528
  O       4.263275     -1.022906     -0.998795
44
Coordinates from ORCA-job orca E -886.384600031965
  O       2.969481     -2.666560     -1.678380
  C       3.638058     -2.199434     -0.791964
  C       3.720345     -2.869389      0.601640
  C       4.873536     -2.307431      1.449859
  H       4.750374     -2.644378      2.492620
  H       5.831045     -2.729502      1.096567
  C       4.925288     -0.787848      1.355574
  H       5.727713     -0.383707      1.991984
  H       3.976155     -0.338489      1.690148
  C       5.188682     -0.382253     -0.085549
  H       6.194789     -0.742181     -0.376524
  C       5.086623      1.111144     -0.370810
  C       6.117848      1.961314      0.374285
  H       5.962574      1.870936      1.463617
  H       7.134454      1.571633      0.177828
  C       6.050553      3.437208     -0.019293
  H       6.791368      4.038585      0.531820
  H       5.052799      3.857069      0.191104
  H       6.243819      3.572314     -1.096812
  H       4.064902      1.438048     -0.120313
  H       5.212163      1.248454     -1.458698
  C       3.888274     -4.391108      0.383358
  H       3.888409     -4.911241      1.353837
  H       4.840178     -4.607625     -0.129451
  H       3.069105     -4.781599     -0.234587
  C       2.391608     -2.591631      1.246649
  H       2.327746     -2.269152      2.288248
  C       0.497108     -0.174743     -0.616035
  C       0.981304      0.273827      0.723541
  O       0.221541     -0.158610      1.748321
  C       0.632621      0.242595      3.050258
  H      -0.130846     -0.134629      3.742523
  H       1.614542     -0.188737      3.302138
  H       0.707797      1.338395      3.120998
  O       1.959992      0.972005      0.894260
  C      -0.550683     -1.008594     -0.716671
  H      -1.076686     -1.371350      0.167800
  H      -0.900418     -1.347667     -1.695659
  C       1.254934      0.371407     -1.792452
  H       2.325152      0.130288     -1.726165
  H       1.177058      1.471608     -1.822317
  H       0.863002     -0.038321     -2.733431
  H       1.473858     -2.811911      0.700514
  O       4.259983     -1.022950     -0.997098
44
Coordinates from ORCA-job orca E -886.384609207620
  O       2.963302     -2.664035     -1.674760
  C       3.634730     -2.198352     -0.789670
  C       3.719690     -2.868180      0.603598
  C       4.875275     -2.307689      1.449237
  H       4.754314     -2.644673      2.492207
  H       5.831055     -2.731543      1.093241
  C       4.928516     -0.787997      1.355122
  H       5.732030     -0.383729      1.989952
  H       3.979782     -0.338864      1.691520
  C       5.188144     -0.381844     -0.086483
  H       6.193610     -0.740729     -0.380982
  C       5.084744      1.111734     -0.370516
  C       6.117425      1.961650      0.373012
  H       5.963614      1.871475      1.462563
  H       7.133667      1.571689      0.175193
  C       6.050007      3.437519     -0.020670
  H       6.791572      4.038803      0.529542
  H       5.052590      3.857649      0.190797
  H       6.242100      3.572451     -1.098417
  H       4.063555      1.438430     -0.117534
  H       5.207811      1.250266     -1.458534
  C       3.884109     -4.390438      0.386710
  H       3.884271     -4.909475      1.357748
  H       4.835067     -4.609530     -0.126852
  H       3.063495     -4.780006     -0.229949
  C       2.392475     -2.587656      1.251007
  H       2.331471     -2.270722      2.294457
  C       0.499568     -0.173722     -0.617119
  C       0.982182      0.272913      0.723364
  O       0.222288     -0.162131      1.746930
  C       0.631564      0.237285      3.049803
  H      -0.131983     -0.141901      3.740886
  H       1.613974     -0.192876      3.301887
  H       0.705492      1.333059      3.122802
  O       1.961048      0.970464      0.895827
  C      -0.546232     -1.009330     -0.721873
  H      -1.073314     -1.375005      0.160855
  H      -0.893387     -1.346962     -1.702192
  C       1.256971      0.374888     -1.792958
  H       2.326910      0.131595     -1.727643
  H       1.180500      1.475139     -1.822513
  H       0.863808     -0.033538     -2.733981
  H       1.472896     -2.807671      0.707549
  O       4.257447     -1.022623     -0.995882
44
Coordinates from ORCA-job orca E -886.384615727590
  O       2.957862     -2.661019     -1.672041
  C       3.631657     -2.196906     -0.787884
  C       3.718774     -2.867021      0.605071
  C       4.876040     -2.307658      1.448993
  H       4.756175     -2.644335      2.492161
  H       5.830364     -2.733562      1.091434
  C       4.930952     -0.787896      1.354816
  H       5.735645     -0.383695      1.988105
  H       3.982888     -0.338322      1.692939
  C       5.187675     -0.381514     -0.087140
  H       6.192490     -0.739888     -0.384499
  C       5.083608      1.112293     -0.370185
  C       6.117814      1.961820      0.371774
  H       5.965028      1.872438      1.461536
  H       7.133593      1.571046      0.173173
  C       6.051056      3.437540     -0.022647
  H       6.793365      4.038671      0.526741
  H       5.054054      3.858424      0.189274
  H       6.242491      3.571768     -1.100598
  H       4.062927      1.438821     -0.114883
  H       5.204319      1.251864     -1.458324
  C       3.880927     -4.389551      0.388624
  H       3.881013     -4.907956      1.359979
  H       4.831328     -4.610303     -0.125344
  H       3.059408     -4.778371     -0.227340
  C       2.392807     -2.585161      1.254658
  H       2.334693     -2.274429      2.300076
  C       0.501480     -0.173368     -0.617829
  C       0.982469      0.271819      0.723608
  O       0.222421     -0.165423      1.746084
  C       0.629358      0.233611      3.049689
  H      -0.134429     -0.146747      3.739825
  H       1.612314     -0.194797      3.302692
  H       0.701713      1.329478      3.123503
  O       1.961435      0.968868      0.897495
  C      -0.541053     -1.012253     -0.726122
  H      -1.067594     -1.382340      0.155189
  H      -0.885688     -1.349171     -1.707513
  C       1.257574      0.379305     -1.792824
  H       2.327182      0.133724     -1.728311
  H       1.182111      1.479554     -1.820927
  H       0.863108     -0.027590     -2.733950
  H       1.471736     -2.804225      0.713044
  O       4.255058     -1.021752     -0.994843
44
Coordinates from ORCA-job orca E -886.384621998606
  O       2.950617     -2.656591     -1.668587
  C       3.627298     -2.194420     -0.785600
  C       3.716904     -2.865245      0.606961
  C       4.876455     -2.307380      1.448758
  H       4.757699     -2.643600      2.492192
  H       5.829074     -2.735769      1.089581
  C       4.933519     -0.787603      1.354542
  H       5.740172     -0.384002      1.985681
  H       3.986791     -0.336847      1.695230
  C       5.187052     -0.381075     -0.087810
  H       6.190986     -0.739448     -0.388150
  C       5.082796      1.113048     -0.369788
  C       6.119319      1.961912      0.369733
  H       5.968294      1.873529      1.459831
  H       7.134356      1.569936      0.169703
  C       6.053403      3.437490     -0.025449
  H       6.796912      4.038299      0.522673
  H       5.057038      3.859383      0.187478
  H       6.243581      3.570926     -1.103719
  H       4.062871      1.439438     -0.111264
  H       5.200239      1.253598     -1.458140
  C       3.876778     -4.387946      0.389884
  H       3.877232     -4.906242      1.361295
  H       4.826378     -4.610112     -0.125029
  H       3.054044     -4.775624     -0.225208
  C       2.392888     -2.582500      1.260127
  H       2.339411     -2.281543      2.308616
  C       0.504160     -0.173846     -0.619013
  C       0.982748      0.269886      0.723811
  O       0.221849     -0.169498      1.744664
  C       0.625083      0.229951      3.049236
  H      -0.139264     -0.151643      3.738025
  H       1.608728     -0.195731      3.304123
  H       0.694873      1.326024      3.123141
  O       1.961490      0.966677      0.899683
  C      -0.533117     -1.018381     -0.730859
  H      -1.057216     -1.395439      0.149053
  H      -0.874870     -1.354989     -1.713323
  C       1.257906      0.385763     -1.792382
  H       2.327053      0.137266     -1.729255
  H       1.183323      1.486006     -1.816457
  H       0.861647     -0.018134     -2.734038
  H       1.469772     -2.799670      0.720975
  O       4.251875     -1.020061     -0.993647
44
Coordinates from ORCA-job orca E -886.384650372639
  O       2.939503     -2.649921     -1.662976
  C       3.620304     -2.190089     -0.781958
  C       3.713346     -2.862077      0.609953
  C       4.876862     -2.306676      1.448165
  H       4.760304     -2.642646      2.491933
  H       5.827254     -2.737647      1.086244
  C       4.936623     -0.787017      1.354297
  H       5.746673     -0.385096      1.982204
  H       3.992355     -0.334125      1.699150
  C       5.185982     -0.380272     -0.088607
  H       6.188574     -0.739521     -0.392373
  C       5.082202      1.114248     -0.369275
  C       6.122615      1.961838      0.366168
  H       5.975221      1.874315      1.456856
  H       7.136361      1.568205      0.162914
  C       6.057531      3.437393     -0.029318
  H       6.803360      4.037432      0.516489
  H       5.062322      3.860631      0.186327
  H       6.244744      3.570234     -1.108182
  H       4.063533      1.440681     -0.105874
  H       5.194762      1.255578     -1.458018
  C       3.870310     -4.384848      0.390677
  H       3.872452     -4.903936      1.361680
  H       4.818245     -4.608225     -0.126797
  H       3.045298     -4.770507     -0.222631
  C       2.392740     -2.578639      1.269518
  H       2.346985     -2.293783      2.322933
  C       0.508464     -0.175672     -0.621335
  C       0.983143      0.266446      0.723610
  O       0.219935     -0.174945      1.741726
  C       0.617348      0.225494      3.047783
  H      -0.148098     -0.158080      3.734208
  H       1.601793     -0.196162      3.305953
  H       0.682960      1.321889      3.121417
  O       1.960933      0.963589      0.902750
  C      -0.520524     -1.029524     -0.736792
  H      -1.039439     -1.417144      0.141676
  H      -0.858757     -1.366280     -1.720426
  C       1.258596      0.395022     -1.791709
  H       2.327091      0.142876     -1.731335
  H       1.184821      1.495257     -1.807197
  H       0.859846     -0.002882     -2.734886
  H       1.466465     -2.792487      0.734350
  O       4.247112     -1.017140     -0.992011
44
Coordinates from ORCA-job orca E -886.384669206003
  O       2.924609     -2.641589     -1.654963
  C       3.610771     -2.184086     -0.776944
  C       3.708170     -2.857445      0.613991
  C       4.877435     -2.305564      1.446874
  H       4.764803     -2.641941      2.490972
  H       5.825273     -2.738310      1.080540
  C       4.940125     -0.786170      1.354009
  H       5.754909     -0.387373      1.977911
  H       3.999370     -0.330286      1.704426
  C       5.184505     -0.379038     -0.089631
  H       6.185313     -0.740232     -0.396919
  C       5.082043      1.115886     -0.368871
  C       6.127834      1.961454      0.361049
  H       5.986413      1.873786      1.452546
  H       7.139765      1.566165      0.152061
  C       6.062963      3.437314     -0.033359
  H       6.812459      4.035970      0.508911
  H       5.069491      3.861880      0.187638
  H       6.244741      3.570449     -1.113124
  H       4.065175      1.442952     -0.099348
  H       5.188542      1.257474     -1.458183
  C       3.861606     -4.380273      0.391253
  H       3.867468     -4.901092      1.361352
  H       4.806685     -4.604430     -0.131035
  H       3.032948     -4.763236     -0.218770
  C       2.392399     -2.573413      1.282744
  H       2.356684     -2.310351      2.342448
  C       0.514204     -0.178910     -0.624822
  C       0.983446      0.261938      0.722694
  O       0.216181     -0.180712      1.737025
  C       0.606265      0.220667      3.045053
  H      -0.160822     -0.165959      3.727917
  H       1.591355     -0.196461      3.307634
  H       0.666540      1.317396      3.118688
  O       1.959362      0.960405      0.906315
  C      -0.503716     -1.045507     -0.743287
  H      -1.014968     -1.445923      0.133905
  H      -0.837946     -1.383061     -1.728063
  C       1.259872      0.405762     -1.790989
  H       2.327667      0.150082     -1.735122
  H       1.186806      1.505950     -1.793021
  H       0.858196      0.017449     -2.736957
  H       1.462136     -2.782458      0.752842
  O       4.241077     -1.013365     -0.990109
44
Coordinates from ORCA-job orca E -886.384683221378
  O       2.914276     -2.636406     -1.648995
  C       3.604114     -2.179892     -0.773382
  C       3.704472     -2.854028      0.616672
  C       4.877781     -2.304538      1.445658
  H       4.768726     -2.641835      2.489868
  H       5.824288     -2.737004      1.075670
  C       4.942041     -0.785379      1.353822
  H       5.760157     -0.389441      1.975327
  H       4.003851     -0.327262      1.707937
  C       5.183520     -0.378069     -0.090363
  H       6.183097     -0.741244     -0.399269
  C       5.082597      1.116985     -0.369032
  C       6.132282      1.960788      0.357165
  H       5.995992      1.871671      1.449200
  H       7.142868      1.564905      0.142858
  C       6.066764      3.437211     -0.034962
  H       6.819370      4.034503      0.504483
  H       5.074711      3.862275      0.191385
  H       6.243420      3.571638     -1.115410
  H       4.067135      1.445336     -0.095883
  H       5.185520      1.257988     -1.458771
  C       3.856058     -4.376886      0.391246
  H       3.865852     -4.899364      1.360449
  H       4.798696     -4.600689     -0.135518
  H       3.024481     -4.758282     -0.215732
  C       2.391919     -2.570376      1.291907
  H       2.362083     -2.322169      2.355562
  C       0.517786     -0.181925     -0.627205
  C       0.982947      0.259280      0.721757
  O       0.212101     -0.182838      1.733589
  C       0.597913      0.218853      3.042885
  H      -0.170396     -0.170129      3.723085
  H       1.583046     -0.196197      3.308360
  H       0.655060      1.315711      3.116922
  O       1.957088      0.959547      0.908306
  C      -0.492260     -1.057745     -0.746706
  H      -0.998133     -1.465656      0.129905
  H      -0.823902     -1.396401     -1.732033
  C       1.260692      0.411500     -1.790484
  H       2.328247      0.154887     -1.738580
  H       1.187990      1.511640     -1.781432
  H       0.857328      0.031547     -2.739152
  H       1.459258     -2.775595      0.765172
  O       4.237316     -1.011123     -0.989004
44
Coordinates from ORCA-job orca E -886.384696738904
  O       2.906507     -2.633003     -1.644264
  C       3.599269     -2.177030     -0.770671
  C       3.702060     -2.851626      0.618547
  C       4.878132     -2.303708      1.444623
  H       4.772418     -2.642112      2.488817
  H       5.823899     -2.735004      1.071398
  C       4.943317     -0.784659      1.353669
  H       5.763651     -0.391085      1.973829
  H       4.006890     -0.325009      1.710183
  C       5.182850     -0.377288     -0.090974
  H       6.181551     -0.742016     -0.400813
  C       5.083281      1.117730     -0.369593
  C       6.135878      1.959974      0.354127
  H       6.003998      1.868663      1.446511
  H       7.145446      1.564172      0.134937
  C       6.069257      3.437082     -0.035122
  H       6.824608      4.033046      0.501936
  H       5.078437      3.862216      0.196427
  H       6.241116      3.573288     -1.116114
  H       4.068982      1.447971     -0.094496
  H       5.184223      1.257801     -1.459649
  C       3.852752     -4.374553      0.391403
  H       3.866293     -4.898283      1.359892
  H       4.793367     -4.597544     -0.139272
  H       3.018911     -4.755265     -0.212839
  C       2.391494     -2.568897      1.298175
  H       2.364171     -2.330480      2.364232
  C       0.520009     -0.184532     -0.628589
  C       0.981762      0.258136      0.721021
  O       0.207931     -0.182703      1.731232
  C       0.591769      0.218527      3.041336
  H      -0.177326     -0.172373      3.719608
  H       1.576578     -0.196303      3.308303
  H       0.647555      1.315348      3.116424
  O       1.954249      0.960406      0.909456
  C      -0.484408     -1.066919     -0.748820
  H      -0.987682     -1.478499      0.127337
  H      -0.813791     -1.406588     -1.734573
  C       1.261329      0.414002     -1.790039
  H       2.329089      0.158202     -1.741859
  H       1.189036      1.514139     -1.772112
  H       0.856912      0.041591     -2.741237
  H       1.457400     -2.770916      0.773136
  O       4.234980     -1.010107     -0.988241
44
Coordinates from ORCA-job orca E -886.384709940628
  O       2.900320     -2.630211     -1.640611
  C       3.595699     -2.175180     -0.768561
  C       3.700771     -2.850252      0.619940
  C       4.878420     -2.303212      1.444111
  H       4.775063     -2.642258      2.488312
  H       5.823525     -2.734020      1.068582
  C       4.944494     -0.784127      1.353563
  H       5.766055     -0.391907      1.972935
  H       4.009069     -0.323635      1.711510
  C       5.182308     -0.376722     -0.091430
  H       6.180399     -0.742026     -0.402512
  C       5.083413      1.118238     -0.370097
  C       6.138006      1.959388      0.352063
  H       6.008959      1.866648      1.444646
  H       7.146875      1.563594      0.129689
  C       6.070826      3.436914     -0.035437
  H       6.828155      4.031946      0.499867
  H       5.080939      3.862302      0.199598
  H       6.239443      3.574118     -1.116810
  H       4.069999      1.450297     -0.093900
  H       5.183158      1.257809     -1.460343
  C       3.850941     -4.373280      0.392054
  H       3.866906     -4.897532      1.360208
  H       4.790319     -4.595794     -0.141034
  H       3.015758     -4.753838     -0.210424
  C       2.391295     -2.568329      1.302086
  H       2.364373     -2.335875      2.369525
  C       0.521617     -0.186118     -0.629089
  C       0.980535      0.257980      0.720810
  O       0.204916     -0.182349      1.729947
  C       0.587994      0.217824      3.040606
  H      -0.181466     -0.174472      3.717700
  H       1.572467     -0.197585      3.307897
  H       0.643531      1.314525      3.117158
  O       1.951795      0.961703      0.910509
  C      -0.478961     -1.072721     -0.750894
  H      -0.982272     -1.485768      0.124559
  H      -0.805821     -1.412971     -1.737256
  C       1.261905      0.415412     -1.789528
  H       2.330054      0.160654     -1.744355
  H       1.190151      1.515583     -1.766063
  H       0.856573      0.048566     -2.742464
  H       1.456346     -2.767787      0.777651
  O       4.233297     -1.009744     -0.987441
44
Coordinates from ORCA-job orca E -886.384714646005
  O       2.894385     -2.627184     -1.637379
  C       3.592464     -2.173658     -0.766652
  C       3.699921     -2.849423      0.621152
  C       4.878360     -2.302724      1.444140
  H       4.776373     -2.641813      2.488423
  H       5.822790     -2.733910      1.067237
  C       4.945504     -0.783558      1.353509
  H       5.767799     -0.392006      1.972262
  H       4.010734     -0.322384      1.712397
  C       5.181713     -0.376258     -0.091748
  H       6.179317     -0.741562     -0.404371
  C       5.083245      1.118699     -0.370506
  C       6.139474      1.958955      0.350487
  H       6.012009      1.865769      1.443205
  H       7.147757      1.562645      0.126380
  C       6.072709      3.436636     -0.036489
  H       6.831518      4.030911      0.497564
  H       5.083612      3.862814      0.200426
  H       6.239543      3.573937     -1.118123
  H       4.070617      1.452572     -0.093525
  H       5.182065      1.258147     -1.460858
  C       3.850140     -4.372440      0.392623
  H       3.867647     -4.896954      1.360579
  H       4.788886     -4.594444     -0.141858
  H       3.014294     -4.753122     -0.208875
  C       2.390964     -2.568677      1.304718
  H       2.363199     -2.340640      2.373086
  C       0.522963     -0.187184     -0.628966
  C       0.979111      0.258318      0.721171
  O       0.202497     -0.182331      1.729467
  C       0.585161      0.216643      3.040585
  H      -0.184480     -0.176518      3.716994
  H       1.569372     -0.199560      3.307616
  H       0.641002      1.313207      3.118564
  O       1.949397      0.963137      0.911895
  C      -0.474055     -1.077396     -0.753007
  H      -0.978660     -1.491173      0.121428
  H      -0.797784     -1.418350     -1.740104
  C       1.262103      0.416938     -1.788770
  H       2.330679      0.163091     -1.746280
  H       1.190866      1.517129     -1.761668
  H       0.855707      0.054383     -2.742861
  H       1.455573     -2.765378      0.779914
  O       4.231660     -1.009494     -0.986502
44
Coordinates from ORCA-job orca E -886.384712988658
  O       2.887172     -2.623060     -1.633630
  C       3.588455     -2.171634     -0.764356
  C       3.698652     -2.848445      0.622709
  C       4.877927     -2.302067      1.444564
  H       4.776666     -2.640660      2.489054
  H       5.821470     -2.734566      1.066861
  C       4.946465     -0.782887      1.353519
  H       5.769654     -0.391744      1.971293
  H       4.012529     -0.320837      1.713567
  C       5.180825     -0.375771     -0.091986
  H       6.177855     -0.740999     -0.406533
  C       5.082815      1.119263     -0.370695
  C       6.140958      1.958644      0.348700
  H       6.014775      1.865887      1.441601
  H       7.148552      1.561260      0.123405
  C       6.075264      3.436287     -0.038639
  H       6.835485      4.029891      0.494157
  H       5.086991      3.863696      0.199480
  H       6.240800      3.573006     -1.120544
  H       4.071041      1.454687     -0.092361
  H       5.180131      1.258914     -1.461153
  C       3.849067     -4.371335      0.393007
  H       3.867727     -4.896256      1.360709
  H       4.787373     -4.592838     -0.142515
  H       3.012722     -4.751940     -0.207867
  C       2.390353     -2.569058      1.307931
  H       2.362377     -2.346734      2.377518
  C       0.524999     -0.188082     -0.628941
  C       0.978031      0.258361      0.721756
  O       0.200588     -0.183495      1.728868
  C       0.582127      0.214283      3.040625
  H      -0.187798     -0.179546      3.716305
  H       1.566226     -0.202260      3.307470
  H       0.638025      1.310753      3.119857
  O       1.947387      0.963993      0.913923
  C      -0.467724     -1.082565     -0.755587
  H      -0.973327     -1.497973      0.117636
  H      -0.787759     -1.424494     -1.743502
  C       1.262372      0.419884     -1.787882
  H       2.331233      0.166168     -1.748168
  H       1.191436      1.520014     -1.757428
  H       0.854444      0.061053     -2.742708
  H       1.454469     -2.762309      0.782546
  O       4.229319     -1.008696     -0.985287
44
Coordinates from ORCA-job orca E -886.384712513111
  O       2.882966     -2.620378     -1.631605
  C       3.586087     -2.170381     -0.763093
  C       3.697788     -2.848068      0.623512
  C       4.877039     -2.301428      1.445347
  H       4.775222     -2.639224      2.490036
  H       5.820267     -2.735096      1.068219
  C       4.946341     -0.782314      1.353682
  H       5.769899     -0.391049      1.970874
  H       4.012841     -0.319629      1.714156
  C       5.180070     -0.375519     -0.091899
  H       6.176848     -0.740741     -0.407286
  C       5.082521      1.119602     -0.370653
  C       6.141658      1.958525      0.347892
  H       6.015474      1.866837      1.440891
  H       7.148857      1.560007      0.122846
  C       6.077327      3.435939     -0.040553
  H       6.838062      4.029254      0.491828
  H       5.089449      3.864452      0.197210
  H       6.243031      3.571680     -1.122558
  H       4.071179      1.455789     -0.091599
  H       5.179056      1.259448     -1.461151
  C       3.849206     -4.370687      0.392539
  H       3.868230     -4.896111      1.359962
  H       4.787632     -4.591381     -0.143127
  H       3.012997     -4.751378     -0.208487
  C       2.389460     -2.570239      1.309138
  H       2.360869     -2.350801      2.379249
  C       0.526224     -0.188401     -0.628714
  C       0.977533      0.258565      0.722426
  O       0.199923     -0.184422      1.728937
  C       0.580930      0.212672      3.041055
  H      -0.189209     -0.180949      3.716583
  H       1.564988     -0.204199      3.307525
  H       0.637216      1.309098      3.120707
  O       1.946479      0.964523      0.915443
  C      -0.463962     -1.085352     -0.756618
  H      -0.970237     -1.501490      0.115872
  H      -0.781640     -1.428432     -1.744879
  C       1.262333      0.421858     -1.787308
  H       2.331281      0.168061     -1.749130
  H       1.191120      1.521899     -1.755916
  H       0.853355      0.063945     -2.742037
  H       1.453677     -2.760720      0.782514
  O       4.227767     -1.007972     -0.984549
44
Coordinates from ORCA-job orca E -886.384710522403
  O       2.878346     -2.617530     -1.629282
  C       3.583313     -2.168837     -0.761608
  C       3.696460     -2.847464      0.624528
  C       4.875884     -2.300678      1.446301
  H       4.773427     -2.637697      2.491195
  H       5.818872     -2.735387      1.069837
  C       4.945796     -0.781690      1.354048
  H       5.769925     -0.390305      1.970437
  H       4.012860     -0.318357      1.715123
  C       5.178979     -0.375230     -0.091634
  H       6.175476     -0.740747     -0.407576
  C       5.081997      1.119969     -0.370412
  C       6.142233      1.958492      0.346989
  H       6.016243      1.868008      1.440126
  H       7.148993      1.558789      0.122085
  C       6.079170      3.435654     -0.042640
  H       6.840369      4.028772      0.489292
  H       5.091642      3.865172      0.194789
  H       6.244970      3.570422     -1.124759
  H       4.071060      1.456574     -0.090327
  H       5.177483      1.259885     -1.460989
  C       3.848983     -4.369762      0.391912
  H       3.868711     -4.895975      1.358908
  H       4.787376     -4.589404     -0.144232
  H       3.012712     -4.750430     -0.209050
  C       2.388285     -2.571173      1.310931
  H       2.359860     -2.355253      2.381752
  C       0.528107     -0.188568     -0.628915
  C       0.977804      0.258554      0.722777
  O       0.199861     -0.185646      1.728470
  C       0.580304      0.210331      3.041113
  H      -0.190195     -0.183113      3.716298
  H       1.564277     -0.206982      3.307142
  H       0.637015      1.306698      3.121381
  O       1.946299      0.964744      0.916977
  C      -0.459875     -1.087790     -0.757467
  H      -0.966372     -1.504750      0.114550
  H      -0.775565     -1.432205     -1.745903
  C       1.262956      0.423978     -1.787148
  H       2.331924      0.169830     -1.750693
  H       1.191071      1.523889     -1.754959
  H       0.852772      0.066328     -2.741495
  H       1.452501     -2.758397      0.783150
  O       4.225841     -1.006928     -0.983746
44
Coordinates from ORCA-job orca E -886.384720805486
  O       2.877109     -2.616895     -1.628787
  C       3.582419     -2.168425     -0.761297
  C       3.695757     -2.847480      0.624634
  C       4.874551     -2.300134      1.447213
  H       4.770985     -2.636628      2.492182
  H       5.817928     -2.734994      1.071996
  C       4.944366     -0.781262      1.354446
  H       5.768552     -0.389587      1.970615
  H       4.011562     -0.317544      1.715361
  C       5.178169     -0.375215     -0.091244
  H       6.174694     -0.741210     -0.406588
  C       5.081716      1.120008     -0.370210
  C       6.142079      1.958449      0.347019
  H       6.015738      1.868587      1.440175
  H       7.148752      1.558238      0.122641
  C       6.079609      3.435481     -0.043200
  H       6.840663      4.028624      0.488915
  H       5.092058      3.865288      0.193606
  H       6.245927      3.569859     -1.125286
  H       4.070788      1.456560     -0.090053
  H       5.177181      1.259742     -1.460807
  C       3.849928     -4.369492      0.390950
  H       3.870063     -4.896340      1.357605
  H       4.788597     -4.587848     -0.145209
  H       3.014015     -4.750541     -0.210256
  C       2.387057     -2.572723      1.310622
  H       2.358033     -2.357010      2.381436
  C       0.528917     -0.188302     -0.628945
  C       0.978526      0.259078      0.722828
  O       0.200668     -0.185414      1.728514
  C       0.581745      0.209747      3.041281
  H      -0.189000     -0.182950      3.716609
  H       1.565484     -0.208557      3.306628
  H       0.639539      1.306046      3.121747
  O       1.947028      0.965259      0.917279
  C      -0.458934     -1.087802     -0.756649
  H      -0.965440     -1.504193      0.115565
  H      -0.774309     -1.433492     -1.744772
  C       1.263340      0.424113     -1.787586
  H       2.332274      0.170012     -1.751838
  H       1.190580      1.523947     -1.756401
  H       0.852634      0.064870     -2.741153
  H       1.451781     -2.757562      0.781272
  O       4.225020     -1.006517     -0.983579
44
Coordinates from ORCA-job orca E -886.384718070594
  O       2.875067     -2.616140     -1.627725
  C       3.580928     -2.167743     -0.760623
  C       3.694653     -2.847154      0.625015
  C       4.873223     -2.299663      1.447972
  H       4.769181     -2.636063      2.492931
  H       5.816913     -2.734283      1.073307
  C       4.943019     -0.780882      1.354974
  H       5.767603     -0.389296      1.970714
  H       4.010585     -0.316673      1.716093
  C       5.177084     -0.375086     -0.090825
  H       6.173484     -0.741815     -0.405701
  C       5.081122      1.120121     -0.369897
  C       6.141841      1.958402      0.346882
  H       6.015903      1.868650      1.440099
  H       7.148349      1.557955      0.122178
  C       6.079464      3.435432     -0.043351
  H       6.840654      4.028507      0.488638
  H       5.091979      3.865271      0.193675
  H       6.245530      3.569850     -1.125472
  H       4.070259      1.456547     -0.089377
  H       5.176297      1.259524     -1.460568
  C       3.850019     -4.368972      0.390382
  H       3.871123     -4.896474      1.356667
  H       4.788583     -4.586128     -0.146421
  H       3.014043     -4.750315     -0.210537
  C       2.385779     -2.573665      1.311246
  H       2.356861     -2.359428      2.382420
  C       0.530377     -0.188027     -0.629446
  C       0.979859      0.259569      0.722273
  O       0.201767     -0.184875      1.727779
  C       0.583589      0.208873      3.040767
  H      -0.187542     -0.183468      3.715857
  H       1.566898     -0.210796      3.305512
  H       0.642594      1.305039      3.122013
  O       1.948253      0.965768      0.917130
  C      -0.457136     -1.088189     -0.755962
  H      -0.962928     -1.504437      0.116738
  H      -0.772451     -1.435115     -1.743694
  C       1.264230      0.424270     -1.788555
  H       2.333193      0.170168     -1.754055
  H       1.190669      1.524035     -1.757706
  H       0.852767      0.063966     -2.741430
  H       1.450702     -2.755459      0.780601
  O       4.223763     -1.006007     -0.983240
44
Coordinates from ORCA-job orca E -886.384724165885
  O       2.875594     -2.616912     -1.628064
  C       3.581006     -2.168051     -0.760813
  C       3.694380     -2.847355      0.624788
  C       4.872453     -2.299646      1.448277
  H       4.768178     -2.636259      2.493145
  H       5.816546     -2.733667      1.073919
  C       4.942070     -0.780858      1.355293
  H       5.766655     -0.389387      1.971119
  H       4.009664     -0.316440      1.716189
  C       5.176633     -0.375166     -0.090532
  H       6.173069     -0.742262     -0.404848
  C       5.080772      1.120012     -0.369712
  C       6.141182      1.958367      0.347385
  H       6.015349      1.868123      1.440569
  H       7.147796      1.558315      0.122461
  C       6.078315      3.435515     -0.042308
  H       6.839363      4.028627      0.489844
  H       5.090703      3.864935      0.194959
  H       6.244243      3.570407     -1.124389
  H       4.069741      1.456184     -0.089535
  H       5.176347      1.259156     -1.460379
  C       3.850403     -4.369158      0.390197
  H       3.871855     -4.896754      1.356420
  H       4.789030     -4.585748     -0.146726
  H       3.014585     -4.750899     -0.210680
  C       2.385091     -2.574388      1.310541
  H       2.355717     -2.359486      2.381575
  C       0.530631     -0.187640     -0.629687
  C       0.980896      0.260324      0.721631
  O       0.202971     -0.183444      1.727599
  C       0.586010      0.209582      3.040440
  H      -0.185235     -0.182313      3.715682
  H       1.568921     -0.211357      3.304706
  H       0.646226      1.305646      3.122072
  O       1.949558      0.966359      0.915988
  C      -0.457429     -1.087465     -0.754946
  H      -0.962487     -1.503169      0.118400
  H      -0.773495     -1.434950     -1.742249
  C       1.264355      0.423342     -1.789597
  H       2.333352      0.169482     -1.755387
  H       1.190526      1.523132     -1.759737
  H       0.852699      0.061899     -2.741968
  H       1.450359     -2.754658      0.778878
  O       4.223554     -1.006187     -0.983242
44
Coordinates from ORCA-job orca E -886.382682409710
  O       2.875350     -2.611787     -1.627697
  C       3.581815     -2.166783     -0.757184
  C       3.706907     -2.863431      0.640171
  C       4.885170     -2.310028      1.454404
  H       4.788820     -2.649856      2.499028
  H       5.831874     -2.734340      1.075375
  C       4.941829     -0.784027      1.356202
  H       5.767212     -0.389509      1.969023
  H       4.006753     -0.316617      1.715171
  C       5.173866     -0.376347     -0.089621
  H       6.171331     -0.741711     -0.402698
  C       5.076297      1.118985     -0.369305
  C       6.136540      1.955244      0.350489
  H       6.007661      1.865362      1.443351
  H       7.142927      1.553117      0.128238
  C       6.077708      3.432484     -0.039511
  H       6.838573      4.024093      0.494577
  H       5.090352      3.863942      0.195129
  H       6.246744      3.566933     -1.121171
  H       4.065461      1.458076     -0.092341
  H       5.175943      1.256638     -1.459532
  C       3.863447     -4.383522      0.394815
  H       3.898159     -4.916667      1.357713
  H       4.795860     -4.594875     -0.155085
  H       3.020990     -4.763673     -0.197838
  C       2.419643     -2.593865      1.351930
  H       2.383604     -2.379429      2.419062
  C       0.508294     -0.160311     -0.665084
  C       0.968268      0.272545      0.708453
  O       0.195293     -0.175891      1.718624
  C       0.585682      0.208490      3.035693
  H      -0.186848     -0.181467      3.710592
  H       1.572159     -0.216696      3.309464
  H       0.648473      1.304465      3.116627
  O       1.941114      0.973475      0.906795
  C      -0.473485     -1.070121     -0.761645
  H      -0.965568     -1.488376      0.121401
  H      -0.796398     -1.423420     -1.744709
  C       1.247896      0.442569     -1.810271
  H       2.330292      0.177451     -1.766085
  H       1.180906      1.542888     -1.783001
  H       0.835624      0.085493     -2.764033
  H       1.445482     -2.760074      0.795600
  O       4.220132     -1.003638     -0.983833
44
Coordinates from ORCA-job orca E -886.384535779161
  O       2.859498     -2.619691     -1.607179
  C       3.573036     -2.172298     -0.745845
  C       3.705055     -2.863343      0.641084
  C       4.886261     -2.305788      1.453167
  H       4.795046     -2.644865      2.498270
  H       5.833194     -2.727001      1.071058
  C       4.941000     -0.784418      1.358633
  H       5.765556     -0.389772      1.972387
  H       4.007244     -0.319095      1.716047
  C       5.170655     -0.379268     -0.087429
  H       6.166298     -0.746684     -0.403979
  C       5.074574      1.116323     -0.368454
  C       6.136256      1.953038      0.349142
  H       6.008369      1.864781      1.442219
  H       7.142114      1.549852      0.126454
  C       6.078346      3.429839     -0.042808
  H       6.840269      4.021573      0.489641
  H       5.091618      3.862505      0.192242
  H       6.246389      3.562635     -1.124829
  H       4.063677      1.456839     -0.091562
  H       5.172861      1.253085     -1.459193
  C       3.870601     -4.379970      0.387557
  H       3.908296     -4.917816      1.347578
  H       4.804054     -4.582820     -0.163588
  H       3.030148     -4.761693     -0.207105
  C       2.409119     -2.604972      1.348714
  H       2.373459     -2.389442      2.418834
  C       0.507182     -0.152821     -0.654629
  C       0.969137      0.276464      0.708615
  O       0.196622     -0.175611      1.715156
  C       0.580453      0.211087      3.030508
  H      -0.195464     -0.177264      3.702384
  H       1.559490     -0.214391      3.304613
  H       0.645756      1.306829      3.111406
  O       1.941501      0.975920      0.906430
  C      -0.469419     -1.067495     -0.760306
  H      -0.959226     -1.489120      0.118798
  H      -0.789420     -1.421055     -1.744899
  C       1.251857      0.447675     -1.805116
  H       2.319135      0.181046     -1.760842
  H       1.191370      1.548502     -1.779959
  H       0.841956      0.089807     -2.759870
  H       1.471632     -2.765382      0.809323
  O       4.212597     -1.009936     -0.975390
44
Coordinates from ORCA-job orca E -886.384714882074
  O       2.852246     -2.622310     -1.598023
  C       3.570443     -2.174801     -0.740879
  C       3.707072     -2.863167      0.641456
  C       4.887573     -2.304180      1.454110
  H       4.796464     -2.642124      2.499723
  H       5.834224     -2.726017      1.072227
  C       4.942739     -0.784720      1.359693
  H       5.766337     -0.388790      1.973942
  H       4.008529     -0.321285      1.717023
  C       5.170627     -0.380701     -0.087350
  H       6.165037     -0.748924     -0.406658
  C       5.075162      1.114478     -0.368931
  C       6.137055      1.951541      0.347823
  H       6.009755      1.863524      1.440986
  H       7.142876      1.548522      0.124660
  C       6.078582      3.428184     -0.044523
  H       6.840695      4.020212      0.487313
  H       5.091907      3.860721      0.190981
  H       6.245982      3.560710     -1.126677
  H       4.064437      1.454750     -0.091845
  H       5.172575      1.251523     -1.459789
  C       3.879468     -4.379755      0.388944
  H       3.920295     -4.917137      1.349185
  H       4.813416     -4.578701     -0.162729
  H       3.040438     -4.765635     -0.204773
  C       2.405259     -2.611578      1.345726
  H       2.371990     -2.396245      2.416250
  C       0.505500     -0.150417     -0.648613
  C       0.967717      0.277831      0.708245
  O       0.195170     -0.175362      1.713703
  C       0.578076      0.211069      3.028556
  H      -0.198805     -0.176705      3.699804
  H       1.556124     -0.215958      3.301085
  H       0.645139      1.306660      3.111102
  O       1.941414      0.975576      0.905573
  C      -0.473546     -1.061358     -0.763878
  H      -0.965779     -1.484134      0.112896
  H      -0.792614     -1.411321     -1.749793
  C       1.249846      0.452330     -1.802496
  H       2.314819      0.184192     -1.758535
  H       1.191228      1.553220     -1.776588
  H       0.840590      0.095092     -2.757736
  H       1.471802     -2.770141      0.807908
  O       4.210286     -1.012879     -0.971818
44
Coordinates from ORCA-job orca E -886.384780159719
  O       2.847570     -2.622693     -1.593145
  C       3.569153     -2.176157     -0.738162
  C       3.709303     -2.863420      0.641527
  C       4.887653     -2.303496      1.456263
  H       4.794534     -2.640046      2.502219
  H       5.833973     -2.727504      1.076157
  C       4.944303     -0.784728      1.360699
  H       5.766956     -0.387128      1.975065
  H       4.009359     -0.323234      1.718574
  C       5.170775     -0.381635     -0.087297
  H       6.164280     -0.750525     -0.408624
  C       5.075865      1.113079     -0.369447
  C       6.137649      1.950783      0.346604
  H       6.010754      1.863234      1.439838
  H       7.143566      1.548077      0.123272
  C       6.078441      3.427181     -0.046491
  H       6.840552      4.019740      0.484755
  H       5.091705      3.859477      0.189180
  H       6.245383      3.559222     -1.128772
  H       4.065249      1.452623     -0.091923
  H       5.172526      1.250490     -1.460349
  C       3.887539     -4.380593      0.391623
  H       3.931150     -4.916260      1.352682
  H       4.822004     -4.576756     -0.160203
  H       3.049743     -4.770978     -0.200847
  C       2.403119     -2.617456      1.343118
  H       2.373163     -2.402425      2.413927
  C       0.504770     -0.150064     -0.644856
  C       0.966659      0.278324      0.708250
  O       0.194264     -0.175211      1.713853
  C       0.577837      0.210459      3.028445
  H      -0.198953     -0.176899      3.700076
  H       1.555853     -0.218361      3.298124
  H       0.646632      1.305837      3.112881
  O       1.941674      0.974695      0.905060
  C      -0.478765     -1.054945     -0.769675
  H      -0.974942     -1.478014      0.105076
  H      -0.797170     -1.400586     -1.756952
  C       1.247322      0.456317     -1.801061
  H       2.312218      0.187412     -1.757558
  H       1.188870      1.557042     -1.772981
  H       0.838183      0.100316     -2.756653
  H       1.468518     -2.774931      0.804571
  O       4.208912     -1.014475     -0.969565
44
Coordinates from ORCA-job orca E -886.384807383226
  O       2.846913     -2.621802     -1.592857
  C       3.569146     -2.176158     -0.737809
  C       3.709994     -2.863749      0.641584
  C       4.887044     -2.303576      1.457810
  H       4.792200     -2.639453      2.503804
  H       5.833303     -2.729014      1.079115
  C       4.944463     -0.784585      1.361383
  H       5.766762     -0.386076      1.975565
  H       4.009074     -0.324141      1.719901
  C       5.170804     -0.381939     -0.086786
  H       6.164157     -0.751221     -0.408211
  C       5.076114      1.112585     -0.369440
  C       6.137588      1.950976      0.346225
  H       6.010705      1.864040      1.439504
  H       7.143666      1.548510      0.123158
  C       6.077847      3.427105     -0.047774
  H       6.839741      4.020248      0.483134
  H       5.090951      3.859186      0.187606
  H       6.244773      3.558553     -1.130128
  H       4.065433      1.451565     -0.091672
  H       5.172583      1.249870     -1.460350
  C       3.889927     -4.381093      0.392351
  H       3.934260     -4.916065      1.353718
  H       4.824679     -4.576355     -0.159361
  H       3.052592     -4.772927     -0.199895
  C       2.402839     -2.619666      1.342621
  H       2.374964     -2.404700      2.413481
  C       0.505278     -0.151060     -0.644597
  C       0.966751      0.277924      0.708478
  O       0.194400     -0.175284      1.714541
  C       0.579082      0.209981      3.028995
  H      -0.197089     -0.177195      3.701404
  H       1.557380     -0.219808      3.296594
  H       0.648652      1.305253      3.114129
  O       1.942070      0.974058      0.905021
  C      -0.481359     -1.052067     -0.772838
  H      -0.979935     -1.474565      0.101144
  H      -0.799907     -1.395551     -1.760671
  C       1.246897      0.457132     -1.801024
  H       2.312262      0.188633     -1.757900
  H       1.187637      1.557715     -1.771120
  H       0.837426      0.101986     -2.756691
  H       1.467354     -2.776991      0.804043
  O       4.208729     -1.014486     -0.968907
44
Coordinates from ORCA-job orca E -886.384803721786
  O       2.847105     -2.620772     -1.592981
  C       3.569451     -2.175904     -0.737544
  C       3.710351     -2.863996      0.641908
  C       4.886594     -2.303746      1.459289
  H       4.790277     -2.639156      2.505254
  H       5.832873     -2.730230      1.081767
  C       4.944175     -0.784472      1.362261
  H       5.766215     -0.385060      1.976162
  H       4.008309     -0.325363      1.721613
  C       5.170853     -0.382267     -0.085790
  H       6.164265     -0.752013     -0.406585
  C       5.076280      1.112092     -0.369152
  C       6.137211      1.951515      0.346079
  H       6.010259      1.865349      1.439419
  H       7.143554      1.549458      0.123455
  C       6.076663      3.427322     -0.049029
  H       6.838153      4.021292      0.481541
  H       5.089481      3.858998      0.185897
  H       6.243665      3.558064     -1.131457
  H       4.065398      1.450339     -0.091275
  H       5.172737      1.248829     -1.460093
  C       3.891015     -4.381263      0.392323
  H       3.935530     -4.916107      1.353727
  H       4.826012     -4.575885     -0.159243
  H       3.054002     -4.773577     -0.200118
  C       2.403026     -2.621014      1.343032
  H       2.377394     -2.406056      2.413909
  C       0.506284     -0.152616     -0.645228
  C       0.967368      0.276912      0.708446
  O       0.194833     -0.175569      1.714834
  C       0.581183      0.209200      3.029072
  H      -0.194120     -0.177772      3.702551
  H       1.559759     -0.221637      3.294243
  H       0.651547      1.304365      3.114654
  O       1.942697      0.973114      0.904696
  C      -0.484281     -1.048988     -0.775308
  H      -0.985388     -1.470150      0.098028
  H      -0.803795     -1.390210     -1.763545
  C       1.247578      0.456694     -1.801309
  H       2.313380      0.189210     -1.758792
  H       1.187187      1.557151     -1.769307
  H       0.837479      0.102447     -2.756960
  H       1.466708     -2.778511      0.805102
  O       4.208885     -1.014226     -0.968266
44
Coordinates from ORCA-job orca E -886.384813354165
  O       2.847609     -2.620070     -1.592790
  C       3.569833     -2.175604     -0.737036
  C       3.710452     -2.864070      0.642540
  C       4.886719     -2.304032      1.460340
  H       4.789751     -2.639383      2.506242
  H       5.833003     -2.730871      1.083244
  C       4.943799     -0.784572      1.363294
  H       5.765686     -0.384420      1.976940
  H       4.007455     -0.327053      1.723555
  C       5.170962     -0.382551     -0.084512
  H       6.164550     -0.752715     -0.404340
  C       5.076356      1.111694     -0.368614
  C       6.136563      1.952369      0.346169
  H       6.009581      1.866901      1.439574
  H       7.143263      1.550959      0.123966
  C       6.074858      3.427860     -0.049981
  H       6.835823      4.022827      0.480225
  H       5.087302      3.858884      0.184556
  H       6.241833      3.557972     -1.132489
  H       4.065179      1.449080     -0.090822
  H       5.172936      1.247559     -1.459618
  C       3.890870     -4.381165      0.391993
  H       3.935279     -4.916382      1.353195
  H       4.825881     -4.575577     -0.159628
  H       3.053850     -4.773062     -0.200723
  C       2.403540     -2.621256      1.344269
  H       2.379982     -2.406383      2.415203
  C       0.507536     -0.154226     -0.646390
  C       0.968464      0.275477      0.707850
  O       0.195521     -0.176046      1.714308
  C       0.583814      0.207917      3.028356
  H      -0.190622     -0.178916      3.702881
  H       1.562524     -0.224067      3.291041
  H       0.655034      1.302964      3.114366
  O       1.943628      0.971961      0.903808
  C      -0.487456     -1.045574     -0.776813
  H      -0.991077     -1.464756      0.096021
  H      -0.808742     -1.384440     -1.765308
  C       1.249251      0.455232     -1.801935
  H       2.315376      0.189088     -1.760224
  H       1.187783      1.555615     -1.768028
  H       0.838429      0.101768     -2.757541
  H       1.466502     -2.779197      0.807687
  O       4.209271     -1.013950     -0.967547
44
Coordinates from ORCA-job orca E -886.384813251992
  O       2.847957     -2.619927     -1.592034
  C       3.570039     -2.175364     -0.736251
  C       3.710391     -2.863866      0.643441
  C       4.887572     -2.304443      1.460668
  H       4.791106     -2.640244      2.506482
  H       5.833722     -2.730937      1.082904
  C       4.943679     -0.784928      1.364242
  H       5.765529     -0.384323      1.977691
  H       4.006914     -0.329063      1.725388
  C       5.171037     -0.382677     -0.083333
  H       6.164829     -0.753004     -0.402334
  C       5.076149      1.111491     -0.367937
  C       6.135618      1.953312      0.346487
  H       6.008770      1.868109      1.439943
  H       7.142689      1.552757      0.124406
  C       6.072516      3.428622     -0.050123
  H       6.832952      4.024481      0.479837
  H       5.084559      3.858771      0.184336
  H       6.239290      3.558536     -1.132685
  H       4.064645      1.448005     -0.090372
  H       5.172880      1.246383     -1.459045
  C       3.889595     -4.380901      0.392119
  H       3.933853     -4.916601      1.353084
  H       4.824277     -4.575782     -0.159870
  H       3.052107     -4.771787     -0.200558
  C       2.404373     -2.620047      1.346162
  H       2.382404     -2.405475      2.417214
  C       0.508803     -0.155451     -0.647922
  C       0.970018      0.273958      0.706527
  O       0.196632     -0.176642      1.712897
  C       0.586881      0.206008      3.026866
  H      -0.186865     -0.180887      3.702143
  H       1.565555     -0.227198      3.287256
  H       0.659002      1.300921      3.113533
  O       1.944968      0.970826      0.902227
  C      -0.490545     -1.042005     -0.777506
  H      -0.996483     -1.458813      0.094986
  H      -0.814110     -1.378561     -1.766126
  C       1.251451      0.453108     -1.803103
  H       2.317789      0.188289     -1.762298
  H       1.189225      1.553483     -1.768006
  H       0.840014      0.100141     -2.758647
  H       1.466696     -2.778671      0.811457
  O       4.209668     -1.013812     -0.966865
44
Coordinates from ORCA-job orca E -886.384824144605
  O       2.847813     -2.620361     -1.590932
  C       3.569915     -2.175341     -0.735448
  C       3.710291     -2.863472      0.644316
  C       4.888897     -2.304875      1.460190
  H       4.793900     -2.641446      2.505909
  H       5.834696     -2.730688      1.080843
  C       4.944162     -0.785385      1.364720
  H       5.766130     -0.384714      1.978018
  H       4.007169     -0.330656      1.726486
  C       5.170991     -0.382553     -0.082803
  H       6.164904     -0.752601     -0.401738
  C       5.075556      1.111609     -0.367354
  C       6.134576      1.953943      0.346982
  H       6.008029      1.868353      1.440453
  H       7.141874      1.554142      0.124583
  C       6.070355      3.429314     -0.049225
  H       6.830550      4.025561      0.480643
  H       5.082175      3.858716      0.185653
  H       6.236687      3.559614     -1.131811
  H       4.063820      1.447535     -0.089989
  H       5.172322      1.245993     -1.458531
  C       3.887626     -4.380690      0.393111
  H       3.931750     -4.916505      1.354029
  H       4.821739     -4.576734     -0.159388
  H       3.049343     -4.770511     -0.199106
  C       2.405290     -2.617705      1.348021
  H       2.383989     -2.403685      2.419242
  C       0.509641     -0.155821     -0.649336
  C       0.971541      0.273016      0.704900
  O       0.198028     -0.177163      1.711226
  C       0.589611      0.204036      3.025258
  H      -0.183813     -0.183156      3.700741
  H       1.568151     -0.230091      3.284226
  H       0.662396      1.298825      3.112766
  O       1.946379      0.970141      0.900436
  C      -0.492460     -1.039456     -0.777742
  H      -0.999902     -1.454382      0.094638
  H      -0.817818     -1.374459     -1.766374
  C       1.253136      0.451261     -1.804637
  H       2.319547      0.187163     -1.764507
  H       1.190777      1.551698     -1.769633
  H       0.841447      0.098295     -2.760113
  H       1.467131     -2.777027      0.814996
  O       4.209810     -1.013947     -0.966439
44
Coordinates from ORCA-job orca E -886.384829981996
  O       2.847159     -2.621152     -1.589300
  C       3.569521     -2.175533     -0.734376
  C       3.710215     -2.862932      0.645483
  C       4.890837     -2.305508      1.459212
  H       4.798198     -2.643114      2.504831
  H       5.835934     -2.730598      1.077338
  C       4.945420     -0.786033      1.364935
  H       5.767619     -0.385427      1.977959
  H       4.008253     -0.332372      1.727397
  C       5.170867     -0.382290     -0.082676
  H       6.164823     -0.751584     -0.402312
  C       5.074425      1.111910     -0.366720
  C       6.133065      1.954533      0.347718
  H       6.007090      1.867897      1.441177
  H       7.140607      1.555782      0.124522
  C       6.067368      3.430181     -0.047237
  H       6.827381      4.026656      0.482637
  H       5.078959      3.858543      0.188590
  H       6.232906      3.561490     -1.129817
  H       4.062483      1.447216     -0.089465
  H       5.171037      1.246184     -1.457944
  C       3.884669     -4.380637      0.395369
  H       3.928708     -4.916049      1.356528
  H       4.817894     -4.578766     -0.157865
  H       3.045136     -4.769287     -0.195829
  C       2.406508     -2.613997      1.350370
  H       2.385724     -2.401044      2.421871
  C       0.510564     -0.155695     -0.651114
  C       0.973630      0.272299      0.702622
  O       0.200342     -0.177835      1.709076
  C       0.593330      0.201347      3.023251
  H      -0.179831     -0.186405      3.698727
  H       1.571713     -0.233827      3.280784
  H       0.666871      1.295973      3.112128
  O       1.948486      0.969521      0.897968
  C      -0.494218     -1.036484     -0.778452
  H      -1.003266     -1.449347      0.093877
  H      -0.821401     -1.369826     -1.767092
  C       1.254793      0.449280     -1.807042
  H       2.321252      0.185527     -1.767602
  H       1.192720      1.549828     -1.773150
  H       0.842949      0.095938     -2.762351
  H       1.467657     -2.774156      0.819268
  O       4.209754     -1.014415     -0.966011
44
Coordinates from ORCA-job orca E -886.384831597067
  O       2.846307     -2.621542     -1.588209
  C       3.569051     -2.175695     -0.733726
  C       3.710179     -2.862513      0.646224
  C       4.892096     -2.305880      1.458407
  H       4.801156     -2.644093      2.503981
  H       5.836550     -2.730768      1.074698
  C       4.946657     -0.786391      1.364773
  H       5.769076     -0.385952      1.977550
  H       4.009486     -0.333034      1.727615
  C       5.170659     -0.381940     -0.082983
  H       6.164559     -0.750380     -0.403772
  C       5.073278      1.112342     -0.366286
  C       6.131939      1.954749      0.348363
  H       6.006235      1.867438      1.441792
  H       7.139494      1.556309      0.124678
  C       6.065951      3.430601     -0.045772
  H       6.826069      4.026876      0.484175
  H       5.077571      3.858720      0.190598
  H       6.231130      3.562500     -1.128340
  H       4.061285      1.447370     -0.088891
  H       5.169562      1.247183     -1.457493
  C       3.882475     -4.380643      0.397461
  H       3.926296     -4.915355      1.359007
  H       4.815153     -4.580487     -0.156068
  H       3.042146     -4.768700     -0.193001
  C       2.407274     -2.611140      1.351773
  H       2.386613     -2.399378      2.423541
  C       0.510920     -0.155143     -0.652152
  C       0.974855      0.272223      0.701225
  O       0.202133     -0.178566      1.707885
  C       0.595689      0.199314      3.022187
  H      -0.177345     -0.189029      3.697478
  H       1.574060     -0.236251      3.279143
  H       0.669447      1.293845      3.112152
  O       1.949831      0.969309      0.896538
  C      -0.494539     -1.035254     -0.779363
  H      -1.004188     -1.447419      0.092959
  H      -0.822271     -1.367910     -1.768045
  C       1.255223      0.448579     -1.808766
  H       2.321661      0.184524     -1.769624
  H       1.193662      1.549220     -1.776392
  H       0.843366      0.094681     -2.763872
  H       1.467973     -2.771773      0.821622
  O       4.209429     -1.014758     -0.965788
44
Coordinates from ORCA-job orca E -886.384834578037
  O       2.845069     -2.621577     -1.587104
  C       3.568402     -2.175814     -0.733051
  C       3.710097     -2.862041      0.647050
  C       4.893266     -2.306168      1.457660
  H       4.803954     -2.644774      2.503241
  H       5.836910     -2.731293      1.072156
  C       4.948205     -0.786616      1.364400
  H       5.770944     -0.386301      1.976752
  H       4.011128     -0.333324      1.727719
  C       5.170361     -0.381496     -0.083525
  H       6.164147     -0.748779     -0.405991
  C       5.071760      1.112887     -0.365781
  C       6.130574      1.954887      0.349184
  H       6.004957      1.867050      1.442567
  H       7.138073      1.556468      0.125185
  C       6.064773      3.430922     -0.044287
  H       6.825003      4.026853      0.485890
  H       5.076464      3.859097      0.192292
  H       6.229960      3.563259     -1.126800
  H       4.059783      1.447601     -0.087939
  H       5.167484      1.248947     -1.456897
  C       3.879939     -4.380658      0.399999
  H       3.923313     -4.914322      1.362126
  H       4.812140     -4.582551     -0.153620
  H       3.038854     -4.768213     -0.189741
  C       2.408006     -2.607946      1.353283
  H       2.387808     -2.398145      2.425456
  C       0.511255     -0.154393     -0.653257
  C       0.976114      0.272280      0.699877
  O       0.204372     -0.179791      1.706858
  C       0.598446      0.196861      3.021246
  H      -0.174290     -0.192250      3.696443
  H       1.576977     -0.238859      3.277593
  H       0.672180      1.291306      3.112445
  O       1.951316      0.969018      0.895193
  C      -0.494412     -1.034271     -0.780979
  H      -1.004404     -1.446236      0.091321
  H      -0.822319     -1.366343     -1.769749
  C       1.255269      0.448327     -1.810714
  H       2.321646      0.183526     -1.771857
  H       1.194422      1.549065     -1.780398
  H       0.843244      0.093627     -2.765449
  H       1.468113     -2.768964      0.824000
  O       4.208846     -1.015068     -0.965518
44
Coordinates from ORCA-job orca E -886.384837234677
  O       2.844295     -2.621186     -1.586610
  C       3.567996     -2.175726     -0.732690
  C       3.709913     -2.861766      0.647522
  C       4.893587     -2.306220      1.457525
  H       4.804735     -2.644762      2.503157
  H       5.836797     -2.731855      1.071450
  C       4.948967     -0.786628      1.364194
  H       5.771944     -0.386344      1.976200
  H       4.012040     -0.333229      1.727883
  C       5.170226     -0.381302     -0.083780
  H       6.163936     -0.748004     -0.407148
  C       5.070990      1.113154     -0.365473
  C       6.129905      1.955027      0.349620
  H       6.004162      1.867254      1.442985
  H       7.137372      1.556464      0.125726
  C       6.064388      3.431068     -0.043882
  H       6.824591      4.026896      0.486454
  H       5.076092      3.859400      0.192466
  H       6.229851      3.563356     -1.126358
  H       4.059061      1.447630     -0.087175
  H       5.166316      1.250151     -1.456509
  C       3.878573     -4.380570      0.401166
  H       3.921525     -4.913724      1.363595
  H       4.810671     -4.583417     -0.152297
  H       3.037263     -4.767867     -0.188440
  C       2.408190     -2.606467      1.354140
  H       2.388751     -2.398371      2.426657
  C       0.511491     -0.154071     -0.653864
  C       0.976723      0.272228      0.699335
  O       0.205638     -0.180807      1.706490
  C       0.599982      0.195425      3.020876
  H      -0.172418     -0.194125      3.696213
  H       1.578732     -0.240175      3.276790
  H       0.673503      1.289843      3.112648
  O       1.952081      0.968688      0.894670
  C      -0.494191     -1.033865     -0.782167
  H      -1.004095     -1.446119      0.090105
  H      -0.822059     -1.365671     -1.770996
  C       1.255205      0.448473     -1.811672
  H       2.321514      0.183061     -1.773023
  H       1.194738      1.549242     -1.782433
  H       0.842830      0.093282     -2.766069
  H       1.467893     -2.767511      0.825297
  O       4.208444     -1.015069     -0.965297
44
Coordinates from ORCA-job orca E -886.384835684707
  O       2.843451     -2.620374     -1.586219
  C       3.567492     -2.175370     -0.732325
  C       3.709490     -2.861399      0.647975
  C       4.893524     -2.306111      1.457648
  H       4.804692     -2.644362      2.503366
  H       5.836359     -2.732503      1.071454
  C       4.949493     -0.786504      1.364087
  H       5.772828     -0.386305      1.975643
  H       4.012857     -0.332841      1.728306
  C       5.170106     -0.381123     -0.083894
  H       6.163721     -0.747457     -0.407966
  C       5.070408      1.113407     -0.365110
  C       6.129453      1.955266      0.349978
  H       6.003465      1.867920      1.443347
  H       7.136883      1.556399      0.126426
  C       6.064371      3.431221     -0.043950
  H       6.824481      4.027049      0.486528
  H       5.076070      3.859819      0.191890
  H       6.230290      3.563189     -1.126396
  H       4.058556      1.447576     -0.086145
  H       5.165277      1.251445     -1.456048
  C       3.877251     -4.380291      0.401897
  H       3.919726     -4.913128      1.364525
  H       4.809358     -4.583842     -0.151317
  H       3.035852     -4.767305     -0.187770
  C       2.408105     -2.605337      1.355092
  H       2.390033     -2.399861      2.428136
  C       0.511802     -0.153942     -0.654506
  C       0.977239      0.271963      0.698920
  O       0.206819     -0.182169      1.706172
  C       0.601397      0.193943      3.020516
  H      -0.170508     -0.196054      3.696159
  H       1.580479     -0.241299      3.275902
  H       0.674462      1.288361      3.112668
  O       1.952722      0.968156      0.894304
  C      -0.493852     -1.033673     -0.783375
  H      -1.003230     -1.446631      0.088918
  H      -0.821726     -1.365312     -1.772234
  C       1.255162      0.448814     -1.812474
  H       2.321336      0.182631     -1.774168
  H       1.195036      1.549596     -1.784058
  H       0.842124      0.093152     -2.766412
  H       1.467322     -2.766138      0.826797
  O       4.207971     -1.014784     -0.965009
44
Coordinates from ORCA-job orca E -886.382598190689
  O       2.843052     -2.615168     -1.586079
  C       3.568267     -2.173971     -0.728644
  C       3.721894     -2.877167      0.663431
  C       4.906145     -2.316028      1.463598
  H       4.825370     -2.657327      2.509015
  H       5.851372     -2.732780      1.072601
  C       4.949265     -0.789467      1.364908
  H       5.773443     -0.386238      1.973347
  H       4.010037     -0.332959      1.727376
  C       5.167338     -0.382287     -0.083041
  H       6.161958     -0.746972     -0.405894
  C       5.065986      1.112350     -0.364738
  C       6.124910      1.952107      0.353006
  H       5.995954      1.865079      1.446058
  H       7.132103      1.551189      0.132048
  C       6.063819      3.428171     -0.041174
  H       6.823780      4.022492      0.491211
  H       5.075783      3.858781      0.192120
  H       6.232768      3.559741     -1.123203
  H       4.054344      1.449361     -0.088914
  H       5.164801      1.248954     -1.455255
  C       3.889764     -4.394327      0.406737
  H       3.945533     -4.932459      1.365848
  H       4.815311     -4.592809     -0.159395
  H       3.041733     -4.779825     -0.174462
  C       2.442429     -2.624624      1.396986
  H       2.417795     -2.419552      2.465938
  C       0.489400     -0.127060     -0.690167
  C       0.964895      0.284018      0.685690
  O       0.199273     -0.174959      1.697183
  C       0.601095      0.192291      3.015839
  H      -0.172168     -0.195850      3.691003
  H       1.583807     -0.247396      3.280970
  H       0.676712      1.286584      3.107452
  O       1.944485      0.975170      0.885221
  C      -0.509536     -1.016435     -0.790383
  H      -1.005944     -1.431986      0.091468
  H      -0.844128     -1.353722     -1.775121
  C       1.238940      0.467939     -1.833059
  H       2.318369      0.190523     -1.784762
  H       1.185581      1.569150     -1.806939
  H       0.825541      0.116728     -2.788500
  H       1.462315     -2.771236      0.843639
  O       4.204560     -1.012233     -0.965685
44
Coordinates from ORCA-job orca E -886.384495078169
  O       2.828240     -2.622814     -1.565511
  C       3.559688     -2.179174     -0.717115
  C       3.719768     -2.877001      0.664108
  C       4.906741     -2.311807      1.462640
  H       4.830589     -2.652363      2.508441
  H       5.852356     -2.725365      1.069057
  C       4.947927     -0.789846      1.367777
  H       5.771289     -0.386602      1.977275
  H       4.010051     -0.335285      1.728611
  C       5.164218     -0.385105     -0.080276
  H       6.157033     -0.752211     -0.406015
  C       5.064674      1.109779     -0.363733
  C       6.125023      1.950249      0.351448
  H       5.996950      1.865431      1.444752
  H       7.131670      1.548066      0.130379
  C       6.064954      3.425684     -0.045364
  H       6.825864      4.020358      0.485269
  H       5.077498      3.857595      0.187980
  H       6.233084      3.555145     -1.127779
  H       4.052976      1.448317     -0.088039
  H       5.162201      1.244984     -1.454795
  C       3.896999     -4.390303      0.398216
  H       3.955923     -4.933746      1.354011
  H       4.823502     -4.579639     -0.169264
  H       3.051013     -4.777150     -0.185214
  C       2.431889     -2.636397      1.393326
  H       2.407806     -2.430829      2.465629
  C       0.488504     -0.119233     -0.679230
  C       0.965482      0.287956      0.686174
  O       0.200193     -0.174669      1.693658
  C       0.595199      0.195072      3.010626
  H      -0.181591     -0.191305      3.682684
  H       1.570372     -0.244595      3.276191
  H       0.673143      1.289136      3.101917
  O       1.944400      0.977694      0.885384
  C      -0.505991     -1.013802     -0.788100
  H      -0.999907     -1.432874      0.089906
  H      -0.838010     -1.351721     -1.774207
  C       1.243534      0.472493     -1.827470
  H       2.307633      0.193540     -1.778801
  H       1.196656      1.574124     -1.804250
  H       0.832559      0.119742     -2.783702
  H       1.488801     -2.777599      0.857462
  O       4.197249     -1.018142     -0.956779
44
Coordinates from ORCA-job orca E -886.384677999561
  O       2.821317     -2.625274     -1.556217
  C       3.557138     -2.181442     -0.712062
  C       3.721712     -2.876743      0.664313
  C       4.907680     -2.309997      1.463918
  H       4.831097     -2.649318      2.510224
  H       5.853274     -2.724093      1.071128
  C       4.949176     -0.789945      1.369092
  H       5.771561     -0.385427      1.979137
  H       4.010891     -0.337104      1.729753
  C       5.164194     -0.386528     -0.079933
  H       6.155797     -0.754812     -0.407865
  C       5.065679      1.107904     -0.364234
  C       6.126378      1.948759      0.349803
  H       5.998851      1.864611      1.443234
  H       7.132912      1.546447      0.128450
  C       6.066023      3.423910     -0.047897
  H       6.827143      4.018937      0.482024
  H       5.078654      3.855898      0.185673
  H       6.233620      3.552749     -1.130468
  H       4.054202      1.446349     -0.088306
  H       5.162331      1.242979     -1.455463
  C       3.906680     -4.389745      0.398585
  H       3.969172     -4.933190      1.354246
  H       4.833643     -4.574361     -0.169628
  H       3.062278     -4.780889     -0.184004
  C       2.427964     -2.643795      1.389972
  H       2.406491     -2.439016      2.462807
  C       0.486840     -0.116817     -0.672738
  C       0.963595      0.289203      0.686209
  O       0.197949     -0.174517      1.692246
  C       0.591565      0.195195      3.008782
  H      -0.186293     -0.190588      3.680103
  H       1.565784     -0.245662      3.272887
  H       0.670983      1.289114      3.101466
  O       1.943686      0.977402      0.885092
  C      -0.510508     -1.007385     -0.790971
  H      -1.006972     -1.427479      0.084733
  H      -0.841523     -1.341986     -1.778293
  C       1.241752      0.476963     -1.824293
  H       2.303470      0.196333     -1.775904
  H       1.196662      1.578632     -1.800429
  H       0.831359      0.124513     -2.780868
  H       1.488889     -2.783152      0.856117
  O       4.195051     -1.020844     -0.953143
44
Coordinates from ORCA-job orca E -886.384749052673
  O       2.816458     -2.625495     -1.550983
  C       3.555782     -2.182592     -0.709276
  C       3.723960     -2.876865      0.664223
  C       4.907388     -2.308965      1.466461
  H       4.828150     -2.646662      2.513168
  H       5.852956     -2.725241      1.076149
  C       4.950327     -0.789654      1.370219
  H       5.771783     -0.383432      1.980346
  H       4.011426     -0.338520      1.731361
  C       5.164352     -0.387516     -0.079814
  H       6.155047     -0.756906     -0.409231
  C       5.066859      1.106425     -0.364918
  C       6.127695      1.947811      0.348102
  H       6.000637      1.864403      1.441637
  H       7.134210      1.545505      0.126604
  C       6.066864      3.422630     -0.050641
  H       6.828005      4.018186      0.478649
  H       5.079467      3.854538      0.182934
  H       6.234101      3.550771     -1.133349
  H       4.055597      1.444351     -0.088395
  H       5.162666      1.241496     -1.456243
  C       3.916009     -4.390219      0.400369
  H       3.981992     -4.932316      1.356553
  H       4.843439     -4.571035     -0.168323
  H       3.073043     -4.786281     -0.180928
  C       2.425688     -2.650676      1.387000
  H       2.407872     -2.446965      2.460256
  C       0.486041     -0.116669     -0.668463
  C       0.961897      0.289486      0.686746
  O       0.196032     -0.174516      1.692582
  C       0.589730      0.194775      3.008934
  H      -0.188126     -0.190633      3.680495
  H       1.563990     -0.247422      3.270334
  H       0.670517      1.288500      3.103233
  O       1.943115      0.976561      0.885311
  C      -0.516136     -1.000610     -0.796381
  H      -1.016934     -1.420737      0.077173
  H      -0.846156     -1.331110     -1.785053
  C       1.239286      0.480996     -1.822190
  H       2.300828      0.199373     -1.774342
  H       1.194275      1.582478     -1.795799
  H       0.828927      0.129729     -2.779069
  H       1.485333     -2.788893      0.852852
  O       4.193754     -1.022292     -0.951012
44
Coordinates from ORCA-job orca E -886.384781127346
  O       2.815279     -2.624343     -1.550375
  C       3.555617     -2.182421     -0.708896
  C       3.724718     -2.877070      0.664216
  C       4.906545     -2.308728      1.468287
  H       4.825163     -2.645528      2.515093
  H       5.852208     -2.726556      1.079850
  C       4.950330     -0.789243      1.370858
  H       5.771463     -0.382038      1.980693
  H       4.011088     -0.338990      1.732653
  C       5.164401     -0.387866     -0.079421
  H       6.154917     -0.757928     -0.408706
  C       5.067432      1.105871     -0.365133
  C       6.128229      1.947794      0.347274
  H       6.001400      1.865009      1.440878
  H       7.134786      1.545550      0.125844
  C       6.067033      3.422363     -0.052340
  H       6.828127      4.018375      0.476507
  H       5.079575      3.854196      0.181115
  H       6.234092      3.549914     -1.135141
  H       4.056200      1.443375     -0.088169
  H       5.162893      1.240658     -1.456495
  C       3.919334     -4.390496      0.400750
  H       3.986501     -4.931990      1.357146
  H       4.847077     -4.569740     -0.167972
  H       3.077007     -4.788416     -0.180288
  C       2.425296     -2.653613      1.386383
  H       2.409846     -2.450584      2.459789
  C       0.486474     -0.118026     -0.667910
  C       0.961458      0.288870      0.687359
  O       0.195392     -0.174753      1.693502
  C       0.589797      0.194382      3.009775
  H      -0.187463     -0.190951      3.682024
  H       1.564434     -0.248467      3.269192
  H       0.671069      1.288020      3.104642
  O       1.942838      0.975904      0.885816
  C      -0.518968     -0.997609     -0.799710
  H      -1.022648     -1.416979      0.072874
  H      -0.848730     -1.325951     -1.789024
  C       1.238782      0.481970     -1.821677
  H       2.300773      0.200637     -1.774353
  H       1.192888      1.583282     -1.792817
  H       0.828024      0.131848     -2.778686
  H       1.483896     -2.791702      0.852409
  O       4.193579     -1.022242     -0.950537
44
Coordinates from ORCA-job orca E -886.384777766242
  O       2.814842     -2.622834     -1.550167
  C       3.555722     -2.181848     -0.708602
  C       3.725075     -2.877141      0.664504
  C       4.905859     -2.308553      1.469991
  H       4.822683     -2.644704      2.516820
  H       5.851686     -2.727496      1.083104
  C       4.949925     -0.788827      1.371652
  H       5.770901     -0.380740      1.981073
  H       4.010388     -0.339568      1.734267
  C       5.164547     -0.388190     -0.078561
  H       6.155104     -0.758978     -0.406976
  C       5.068003      1.105391     -0.365083
  C       6.128623      1.948150      0.346570
  H       6.002065      1.866166      1.440269
  H       7.135290      1.546111      0.125261
  C       6.066785      3.422401     -0.054149
  H       6.827760      4.019092      0.474103
  H       5.079206      3.854025      0.179171
  H       6.233578      3.549209     -1.137079
  H       4.056716      1.442385     -0.087753
  H       5.163227      1.239473     -1.456509
  C       3.921087     -4.390355      0.400227
  H       3.988891     -4.931924      1.356504
  H       4.849058     -4.568308     -0.168569
  H       3.079177     -4.789013     -0.180972
  C       2.425410     -2.655596      1.386847
  H       2.412349     -2.453477      2.460425
  C       0.487429     -0.120050     -0.668289
  C       0.961405      0.287578      0.687835
  O       0.194825     -0.175293      1.694072
  C       0.590279      0.193667      3.010231
  H      -0.186172     -0.191691      3.683342
  H       1.565299     -0.249729      3.267563
  H       0.671847      1.287238      3.105380
  O       1.942540      0.974976      0.886285
  C      -0.521800     -0.994810     -0.802291
  H      -1.028483     -1.412696      0.069415
  H      -0.851958     -1.320986     -1.792128
  C       1.239543      0.481637     -1.821336
  H       2.301949      0.201198     -1.774784
  H       1.192501      1.582800     -1.789504
  H       0.828103      0.132934     -2.778492
  H       1.483050     -2.793970      0.853740
  O       4.193834     -1.021864     -0.950127
44
Coordinates from ORCA-job orca E -886.384788949427
  O       2.814497     -2.621346     -1.549563
  C       3.555776     -2.181035     -0.708006
  C       3.725109     -2.876935      0.665125
  C       4.905722     -2.308445      1.471217
  H       4.821642     -2.644365      2.518023
  H       5.851650     -2.727848      1.085075
  C       4.949494     -0.788576      1.372561
  H       5.770473     -0.379855      1.981578
  H       4.009726     -0.340437      1.736065
  C       5.164811     -0.388413     -0.077434
  H       6.155519     -0.759866     -0.404700
  C       5.068521      1.105052     -0.364811
  C       6.128904      1.948826      0.345944
  H       6.002744      1.867627      1.439758
  H       7.135724      1.547148      0.124653
  C       6.066149      3.422753     -0.055860
  H       6.826944      4.020256      0.471733
  H       5.078389      3.853990      0.177411
  H       6.232566      3.548846     -1.138932
  H       4.057117      1.441485     -0.087219
  H       5.163534      1.238075     -1.456345
  C       3.921486     -4.389828      0.399367
  H       3.989665     -4.932014      1.355275
  H       4.849437     -4.566928     -0.169739
  H       3.079626     -4.788281     -0.182044
  C       2.425875     -2.656427      1.388273
  H       2.414967     -2.455649      2.462120
  C       0.488648     -0.122169     -0.669162
  C       0.961677      0.285804      0.687858
  O       0.194273     -0.176178      1.693822
  C       0.590866      0.192313      3.009934
  H      -0.184804     -0.193289      3.683774
  H       1.566157     -0.251579      3.265293
  H       0.672602      1.285821      3.105380
  O       1.942307      0.973849      0.886445
  C      -0.524663     -0.991965     -0.803941
  H      -1.034357     -1.407825      0.066960
  H      -0.855864     -1.315870     -1.794204
  C       1.241435      0.480305     -1.821137
  H       2.304135      0.201051     -1.775569
  H       1.193393      1.581369     -1.786294
  H       0.829240      0.133183     -2.778519
  H       1.482690     -2.795450      0.856741
  O       4.194348     -1.021390     -0.949626
44
Coordinates from ORCA-job orca E -886.384788813140
  O       2.813731     -2.620125     -1.548204
  C       3.555520     -2.180141     -0.706973
  C       3.724917     -2.876394      0.666117
  C       4.906399     -2.308465      1.471699
  H       4.822676     -2.644685      2.518437
  H       5.852199     -2.727664      1.085081
  C       4.949506     -0.788565      1.373420
  H       5.770679     -0.379553      1.982056
  H       4.009595     -0.341553      1.737841
  C       5.165140     -0.388431     -0.076373
  H       6.156013     -0.760257     -0.402718
  C       5.068804      1.104958     -0.364397
  C       6.128977      1.949688      0.345415
  H       6.003463      1.868903      1.439351
  H       7.135946      1.548572      0.123791
  C       6.065025      3.423404     -0.056999
  H       6.825709      4.021653      0.469907
  H       5.077099      3.854073      0.176617
  H       6.230759      3.549126     -1.140219
  H       4.057286      1.440831     -0.086587
  H       5.163514      1.236811     -1.456086
  C       3.920505     -4.389093      0.398918
  H       3.988954     -4.932104      1.354361
  H       4.848059     -4.566096     -0.170840
  H       3.078167     -4.786592     -0.182415
  C       2.426677     -2.655728      1.390598
  H       2.417460     -2.456909      2.464853
  C       0.489992     -0.123954     -0.670402
  C       0.962354      0.283837      0.687221
  O       0.193990     -0.177356      1.692641
  C       0.591572      0.190145      3.008866
  H      -0.183511     -0.196040      3.683037
  H       1.566983     -0.254210      3.262541
  H       0.673358      1.283569      3.104908
  O       1.942369      0.972667      0.886111
  C      -0.527297     -0.989080     -0.804911
  H      -1.039896     -1.402582      0.065266
  H      -0.859984     -1.310640     -1.795527
  C       1.244084      0.478289     -1.821354
  H       2.306961      0.200176     -1.776873
  H       1.195479      1.579317     -1.784001
  H       0.831245      0.132749     -2.779048
  H       1.482751     -2.795735      0.861209
  O       4.194920     -1.021028     -0.949055
44
Coordinates from ORCA-job orca E -886.384802327416
  O       2.812227     -2.619337     -1.546151
  C       3.554777     -2.179388     -0.705627
  C       3.724596     -2.875555      0.667349
  C       4.907782     -2.308600      1.471318
  H       4.825660     -2.645505      2.517980
  H       5.853090     -2.727266      1.083000
  C       4.950298     -0.788754      1.373901
  H       5.771846     -0.379832      1.982152
  H       4.010394     -0.342606      1.739166
  C       5.165390     -0.388222     -0.075854
  H       6.156328     -0.759947     -0.402091
  C       5.068605      1.105140     -0.364021
  C       6.128791      1.950408      0.344981
  H       6.004302      1.869227      1.439018
  H       7.135842      1.550044      0.122375
  C       6.063441      3.424188     -0.056968
  H       6.824220      4.022815      0.469362
  H       5.075442      3.854106      0.177713
  H       6.228043      3.550296     -1.140315
  H       4.057037      1.440567     -0.085908
  H       5.162790      1.236179     -1.455863
  C       3.918379     -4.388367      0.399642
  H       3.987162     -4.931839      1.354820
  H       4.845153     -4.566247     -0.171083
  H       3.075025     -4.784672     -0.180987
  C       2.427696     -2.653416      1.393431
  H       2.419527     -2.457115      2.468214
  C       0.491236     -0.124928     -0.671811
  C       0.963410      0.282187      0.685968
  O       0.194316     -0.178682      1.690803
  C       0.592514      0.187357      3.007306
  H      -0.182266     -0.199749      3.681306
  H       1.567935     -0.257365      3.259806
  H       0.674226      1.280686      3.104367
  O       1.942910      0.971672      0.885293
  C      -0.529116     -0.986565     -0.805703
  H      -1.044149     -1.397942      0.063885
  H      -0.863203     -1.306026     -1.796616
  C       1.246731      0.476268     -1.822200
  H       2.309658      0.198787     -1.778681
  H       1.198248      1.577334     -1.783494
  H       0.833524      0.132018     -2.780239
  H       1.483099     -2.794583      0.866284
  O       4.195231     -1.020980     -0.948548
44
Coordinates from ORCA-job orca E -886.384809077020
  O       2.809382     -2.618417     -1.542855
  C       3.553332     -2.178537     -0.703579
  C       3.724166     -2.874255      0.669182
  C       4.910079     -2.308904      1.470267
  H       4.830939     -2.646905      2.516826
  H       5.854337     -2.726957      1.078792
  C       4.952218     -0.789118      1.374192
  H       5.774395     -0.380570      1.981866
  H       4.012447     -0.343771      1.740547
  C       5.165564     -0.387681     -0.075686
  H       6.156448     -0.758687     -0.402841
  C       5.067698      1.105699     -0.363439
  C       6.128178      1.951252      0.344622
  H       6.005184      1.869236      1.438774
  H       7.135213      1.551738      0.120424
  C       6.061269      3.425229     -0.056330
  H       6.822439      4.024039      0.469226
  H       5.073335      3.854352      0.180066
  H       6.224181      3.552074     -1.139847
  H       4.056163      1.440648     -0.084699
  H       5.160862      1.236318     -1.455443
  C       3.914679     -4.387537      0.401896
  H       3.983911     -4.931043      1.357033
  H       4.840158     -4.567465     -0.170251
  H       3.069599     -4.782258     -0.177276
  C       2.429156     -2.649093      1.397442
  H       2.421985     -2.456887      2.473058
  C       0.492780     -0.125381     -0.673711
  C       0.965060      0.280435      0.683999
  O       0.195461     -0.180797      1.688162
  C       0.594038      0.182876      3.005192
  H      -0.180533     -0.205837      3.678530
  H       1.569495     -0.262180      3.256539
  H       0.675472      1.276050      3.104168
  O       1.944073      0.970491      0.884071
  C      -0.530532     -0.983627     -0.807372
  H      -1.048336     -1.392804      0.061484
  H      -0.865944     -1.300542     -1.798729
  C       1.249784      0.474181     -1.823876
  H       2.312671      0.196786     -1.781396
  H       1.202118      1.575356     -1.784607
  H       0.836351      0.131288     -2.782342
  H       1.483619     -2.791822      0.873038
  O       4.195253     -1.021183     -0.947837
44
Coordinates from ORCA-job orca E -886.384820023375
  O       2.805463     -2.617260     -1.538972
  C       3.551345     -2.177725     -0.701227
  C       3.723670     -2.872743      0.671339
  C       4.912670     -2.309244      1.468921
  H       4.837051     -2.648288      2.515414
  H       5.855423     -2.727145      1.073665
  C       4.955060     -0.789458      1.374054
  H       5.778044     -0.381401      1.980909
  H       4.015591     -0.344545      1.741626
  C       5.165603     -0.386953     -0.076119
  H       6.156279     -0.756683     -0.405308
  C       5.066116      1.106500     -0.362894
  C       6.127233      1.951948      0.344280
  H       6.005987      1.868704      1.438533
  H       7.134132      1.553212      0.118084
  C       6.058946      3.426289     -0.055105
  H       6.820743      4.024951      0.469720
  H       5.071216      3.854721      0.183383
  H       6.219951      3.554232     -1.138775
  H       4.054744      1.440999     -0.083059
  H       5.157746      1.237519     -1.455012
  C       3.910063     -4.386788      0.405539
  H       3.979527     -4.929667      1.361012
  H       4.834153     -4.569607     -0.167924
  H       3.063070     -4.779981     -0.171881
  C       2.430709     -2.643540      1.401938
  H       2.424675     -2.456685      2.478579
  C       0.494384     -0.125187     -0.675775
  C       0.967026      0.278966      0.681803
  O       0.197430     -0.183570      1.685393
  C       0.596041      0.177388      3.003059
  H      -0.178326     -0.213398      3.675456
  H       1.571680     -0.267749      3.253403
  H       0.676878      1.270391      3.104535
  O       1.945763      0.969222      0.882813
  C      -0.531071     -0.980881     -0.810165
  H      -1.051326     -1.388540      0.057911
  H      -0.867247     -1.295315     -1.802063
  C       1.252473      0.472806     -1.826123
  H       2.315214      0.194635     -1.784555
  H       1.206268      1.574120     -1.787314
  H       0.838866      0.131022     -2.784936
  H       1.484054     -2.787869      0.880213
  O       4.194831     -1.021611     -0.947095
44
Coordinates from ORCA-job orca E -886.384828356671
  O       2.800434     -2.615422     -1.534573
  C       3.548829     -2.176765     -0.698560
  C       3.723002     -2.870974      0.673865
  C       4.915288     -2.309480      1.467568
  H       4.843326     -2.649272      2.514067
  H       5.856109     -2.727996      1.068297
  C       4.958697     -0.789642      1.373559
  H       5.782738     -0.382140      1.979225
  H       4.019766     -0.344759      1.742652
  C       5.165518     -0.386059     -0.076992
  H       6.155841     -0.754005     -0.409200
  C       5.063838      1.107527     -0.362236
  C       6.125936      1.952597      0.343958
  H       6.006519      1.868237      1.438316
  H       7.132554      1.554331      0.115674
  C       6.056704      3.427280     -0.053988
  H       6.819325      4.025605      0.470020
  H       5.069325      3.855345      0.186589
  H       6.215800      3.556174     -1.137826
  H       4.052787      1.441504     -0.080603
  H       5.153293      1.239961     -1.454388
  C       3.904506     -4.385978      0.410336
  H       3.974061     -4.927577      1.366511
  H       4.827117     -4.572415     -0.164368
  H       3.055434     -4.777727     -0.165042
  C       2.432226     -2.636987      1.407031
  H       2.428061     -2.457430      2.484979
  C       0.496223     -0.124503     -0.678075
  C       0.969255      0.277554      0.679604
  O       0.200178     -0.187439      1.682628
  C       0.598521      0.170560      3.001023
  H      -0.175432     -0.222864      3.672366
  H       1.574630     -0.274242      3.250284
  H       0.678246      1.263380      3.105596
  O       1.947928      0.967560      0.881854
  C      -0.530701     -0.978223     -0.814513
  H      -1.053014     -1.385337      0.052663
  H      -0.866998     -1.290126     -1.807110
  C       1.254952      0.472440     -1.828760
  H       2.317389      0.192470     -1.788050
  H       1.210821      1.573902     -1.791128
  H       0.840976      0.131621     -2.787753
  H       1.484170     -2.782831      0.888003
  O       4.193971     -1.022065     -0.946223
44
Coordinates from ORCA-job orca E -886.384837877336
  O       2.796375     -2.613408     -1.531546
  C       3.546766     -2.175867     -0.696681
  C       3.722216     -2.869583      0.675748
  C       4.916545     -2.309386      1.466999
  H       4.846551     -2.649165      2.513619
  H       5.855888     -2.729165      1.065471
  C       4.961333     -0.789489      1.372979
  H       5.786359     -0.382388      1.977485
  H       4.023060     -0.344120      1.743398
  C       5.165339     -0.385409     -0.077842
  H       6.155328     -0.751990     -0.412553
  C       5.061979      1.108330     -0.361764
  C       6.125053      1.953029      0.343607
  H       6.006780      1.868375      1.438050
  H       7.131363      1.554663      0.114125
  C       6.055729      3.427843     -0.053838
  H       6.818991      4.025867      0.469586
  H       5.068675      3.856065      0.187801
  H       6.213816      3.556989     -1.137792
  H       4.051321      1.441877     -0.078194
  H       5.149433      1.242598     -1.453857
  C       3.900298     -4.385213      0.413967
  H       3.969684     -4.925601      1.370825
  H       4.822060     -4.574245     -0.161293
  H       3.049976     -4.776147     -0.160151
  C       2.432892     -2.632364      1.410766
  H       2.431049     -2.459738      2.489880
  C       0.497643     -0.123767     -0.679714
  C       0.970771      0.276509      0.678415
  O       0.202405     -0.191118      1.680961
  C       0.600271      0.165046      2.999869
  H      -0.173126     -0.230548      3.670587
  H       1.577024     -0.278963      3.248321
  H       0.678635      1.257763      3.106735
  O       1.949601      0.965897      0.881782
  C      -0.529536     -0.976821     -0.818536
  H      -1.052370     -1.384848      0.048016
  H      -0.865365     -1.287213     -1.811673
  C       1.256403      0.473372     -1.830502
  H       2.318431      0.191197     -1.790367
  H       1.214077      1.574906     -1.793949
  H       0.841739      0.133052     -2.789366
  H       1.483667     -2.778838      0.893496
  O       4.193019     -1.022193     -0.945592
44
Coordinates from ORCA-job orca E -886.384846064364
  O       2.792661     -2.610996     -1.529155
  C       3.544758     -2.174707     -0.695111
  C       3.721014     -2.868148      0.677407
  C       4.916789     -2.308879      1.467040
  H       4.847621     -2.648056      2.513894
  H       5.854921     -2.730454      1.064467
  C       4.963294     -0.788968      1.372411
  H       5.789502     -0.382310      1.975543
  H       4.025968     -0.342622      1.744318
  C       5.165141     -0.384903     -0.078608
  H       6.154786     -0.750570     -0.415294
  C       5.060543      1.108982     -0.361406
  C       6.124714      1.953409      0.342917
  H       6.007464      1.869009      1.437480
  H       7.130675      1.554663      0.112536
  C       6.055529      3.428219     -0.054599
  H       6.819356      4.026068      0.468209
  H       5.068785      3.856781      0.187723
  H       6.212866      3.557227     -1.138681
  H       4.050410      1.442104     -0.075484
  H       5.145881      1.245308     -1.453397
  C       3.896542     -4.384173      0.416705
  H       3.965416     -4.923635      1.374117
  H       4.817912     -4.575121     -0.158596
  H       3.045535     -4.774455     -0.156861
  C       2.432847     -2.628807      1.414157
  H       2.434265     -2.464392      2.494569
  C       0.499056     -0.123139     -0.681178
  C       0.971911      0.275320      0.677817
  O       0.204181     -0.195088      1.679731
  C       0.601366      0.159924      2.999095
  H      -0.171252     -0.237783      3.669457
  H       1.578981     -0.282767      3.246765
  H       0.677888      1.252606      3.107785
  O       1.951013      0.963835      0.882411
  C      -0.527716     -0.976228     -0.822456
  H      -1.049805     -1.386410      0.043634
  H      -0.862845     -1.285706     -1.816033
  C       1.257680      0.475233     -1.831603
  H       2.319115      0.190310     -1.792082
  H       1.217147      1.576772     -1.795597
  H       0.841827      0.135363     -2.790111
  H       1.482435     -2.775111      0.898439
  O       4.191975     -1.021917     -0.945096
44
Coordinates from ORCA-job orca E -886.384844390546
  O       2.789976     -2.608725     -1.527705
  C       3.543061     -2.173348     -0.694046
  C       3.719483     -2.866782      0.678546
  C       4.915986     -2.308039      1.467642
  H       4.846494     -2.646308      2.514764
  H       5.853457     -2.731330      1.065309
  C       4.964107     -0.788200      1.372142
  H       5.791586     -0.382142      1.973953
  H       4.027931     -0.340533      1.745496
  C       5.164961     -0.384561     -0.078994
  H       6.154339     -0.750161     -0.416538
  C       5.059971      1.109440     -0.361195
  C       6.125225      1.953767      0.341856
  H       6.008952      1.870021      1.436579
  H       7.130830      1.554523      0.110781
  C       6.056207      3.428450     -0.056177
  H       6.820463      4.026298      0.466000
  H       5.069708      3.857365      0.186527
  H       6.212989      3.557042     -1.140390
  H       4.050377      1.442250     -0.072973
  H       5.143476      1.247270     -1.453119
  C       3.893904     -4.382902      0.417800
  H       3.962454     -4.922134      1.375378
  H       4.815184     -4.574567     -0.157437
  H       3.042665     -4.772756     -0.155715
  C       2.432058     -2.627032      1.416755
  H       2.436976     -2.471112      2.498437
  C       0.500245     -0.122894     -0.682232
  C       0.972472      0.274016      0.677738
  O       0.204894     -0.198373      1.678876
  C       0.601301      0.156234      2.998609
  H      -0.170566     -0.243187      3.668810
  H       1.579754     -0.284924      3.245693
  H       0.675868      1.248955      3.108306
  O       1.951828      0.961726      0.883462
  C      -0.525590     -0.976747     -0.825166
  H      -1.045798     -1.389844      0.040691
  H      -0.860102     -1.286021     -1.818977
  C       1.258745      0.477452     -1.831764
  H       2.319504      0.189846     -1.792939
  H       1.219681      1.578928     -1.795158
  H       0.841416      0.138240     -2.789884
  H       1.480627     -2.772232      0.902336
  O       4.191053     -1.021179     -0.944797
44
Coordinates from ORCA-job orca E -886.384861419963
  O       2.787715     -2.606446     -1.526616
  C       3.541241     -2.171525     -0.693116
  C       3.717402     -2.865096      0.679447
  C       4.914363     -2.306840      1.468584
  H       4.843976     -2.644193      2.515952
  H       5.851516     -2.731621      1.067130
  C       4.964130     -0.787164      1.372277
  H       5.793259     -0.382149      1.972637
  H       4.029499     -0.337703      1.747343
  C       5.164728     -0.384223     -0.078986
  H       6.153821     -0.750656     -0.416471
  C       5.060204      1.109843     -0.361095
  C       6.126791      1.954110      0.340138
  H       6.012011      1.871054      1.435087
  H       7.131967      1.554423      0.107934
  C       6.057570      3.428640     -0.058404
  H       6.822351      4.026625      0.462858
  H       5.071333      3.857720      0.185082
  H       6.213322      3.556867     -1.142813
  H       4.051278      1.442557     -0.070427
  H       5.141872      1.248361     -1.453052
  C       3.891813     -4.381093      0.417628
  H       3.960471     -4.920843      1.374927
  H       4.813054     -4.572466     -0.157770
  H       3.040498     -4.770555     -0.156022
  C       2.430620     -2.626417      1.419295
  H       2.439321     -2.480814      2.502447
  C       0.501449     -0.123139     -0.683144
  C       0.972616      0.272351      0.677872
  O       0.204470     -0.201048      1.677980
  C       0.599942      0.153483      2.998112
  H      -0.171239     -0.247597      3.668099
  H       1.579228     -0.285917      3.244732
  H       0.672319      1.246296      3.108330
  O       1.952128      0.959434      0.884788
  C      -0.522868     -0.978570     -0.826958
  H      -1.040261     -1.395325      0.038771
  H      -0.856836     -1.288125     -1.820884
  C       1.259897      0.479935     -1.831231
  H       2.319861      0.189538     -1.793423
  H       1.222277      1.581282     -1.792401
  H       0.840819      0.142165     -2.789151
  H       1.478126     -2.769444      0.906350
  O       4.190096     -1.019924     -0.944556
44
Coordinates from ORCA-job orca E -886.384873254998
  O       2.783975     -2.603128     -1.524492
  C       3.538110     -2.168457     -0.691419
  C       3.714159     -2.862193      0.680868
  C       4.912188     -2.305025      1.469659
  H       4.841267     -2.641667      2.517246
  H       5.848851     -2.731277      1.068698
  C       4.964265     -0.785626      1.372851
  H       5.796038     -0.382656      1.971077
  H       4.032063     -0.333481      1.750609
  C       5.164253     -0.383425     -0.078688
  H       6.152801     -0.751432     -0.416011
  C       5.060784      1.110684     -0.360871
  C       6.129746      1.954615      0.337132
  H       6.018098      1.872038      1.432465
  H       7.134072      1.554387      0.102232
  C       6.059917      3.429064     -0.061619
  H       6.826177      4.027001      0.457516
  H       5.074416      3.858415      0.184346
  H       6.212808      3.557052     -1.146466
  H       4.052895      1.443610     -0.066826
  H       5.139658      1.249062     -1.453033
  C       3.888666     -4.378096      0.417356
  H       3.958211     -4.918904      1.374027
  H       4.809451     -4.568831     -0.158955
  H       3.036861     -4.766900     -0.155953
  C       2.428614     -2.625472      1.423447
  H       2.441738     -2.496374      2.508770
  C       0.503253     -0.123871     -0.684473
  C       0.972678      0.269751      0.677753
  O       0.202977     -0.204139      1.676171
  C       0.596947      0.149612      2.997087
  H      -0.173594     -0.254157      3.666191
  H       1.577221     -0.287520      3.243230
  H       0.666257      1.242521      3.108360
  O       1.952145      0.956377      0.886477
  C      -0.518310     -0.982370     -0.829132
  H      -1.032047     -1.404181      0.036180
  H      -0.851371     -1.292204     -1.823348
  C       1.261646      0.483221     -1.830310
  H       2.320488      0.189144     -1.794346
  H       1.226291      1.584351     -1.786777
  H       0.840344      0.148925     -2.788530
  H       1.474619     -2.764795      0.912760
  O       4.188526     -1.017858     -0.943980
44
Coordinates from ORCA-job orca E -886.384884442308
  O       2.782323     -2.601916     -1.523407
  C       3.536453     -2.166876     -0.690540
  C       3.712606     -2.860752      0.681368
  C       4.911101     -2.304132      1.470032
  H       4.840354     -2.640997      2.517562
  H       5.847686     -2.730310      1.068884
  C       4.964118     -0.784848      1.373528
  H       5.797285     -0.383238      1.970828
  H       4.033225     -0.331294      1.752635
  C       5.163890     -0.382884     -0.078214
  H       6.152083     -0.752177     -0.415176
  C       5.061600      1.111183     -0.360909
  C       6.132019      1.954667      0.335172
  H       6.022682      1.871575      1.430707
  H       7.135799      1.554422      0.097997
  C       6.061452      3.429278     -0.062818
  H       6.828872      4.026942      0.454903
  H       5.076509      3.858576      0.185478
  H       6.211965      3.557714     -1.147941
  H       4.054297      1.444763     -0.065692
  H       5.139270      1.248119     -1.453329
  C       3.887966     -4.376590      0.416646
  H       3.958891     -4.918266      1.372727
  H       4.808262     -4.566266     -0.160781
  H       3.035756     -4.765358     -0.156066
  C       2.427561     -2.626010      1.425271
  H       2.441449     -2.505358      2.511621
  C       0.503886     -0.124943     -0.684821
  C       0.972155      0.268620      0.677600
  O       0.200924     -0.203880      1.675280
  C       0.594348      0.149308      2.996590
  H      -0.176216     -0.255525      3.665013
  H       1.574826     -0.287171      3.242702
  H       0.662680      1.242243      3.108232
  O       1.951374      0.955524      0.886948
  C      -0.515677     -0.985771     -0.829496
  H      -1.028225     -1.409576      0.035406
  H      -0.848018     -1.295902     -1.823905
  C       1.261997      0.484392     -1.829536
  H       2.320484      0.189208     -1.794792
  H       1.227675      1.585364     -1.781850
  H       0.839968      0.153321     -2.788579
  H       1.472876     -2.762672      0.915503
  O       4.187620     -1.016718     -0.943499
44
Coordinates from ORCA-job orca E -886.384900823263
  O       2.777984     -2.599186     -1.520399
  C       3.532785     -2.163852     -0.688309
  C       3.710024     -2.857983      0.682722
  C       4.909822     -2.302623      1.470274
  H       4.840580     -2.640356      2.517615
  H       5.845807     -2.728501      1.067458
  C       4.964770     -0.783467      1.374682
  H       5.800530     -0.384474      1.970214
  H       4.036283     -0.327334      1.756422
  C       5.162989     -0.381532     -0.077508
  H       6.150299     -0.752657     -0.415042
  C       5.062548      1.112482     -0.360920
  C       6.136194      1.954564      0.331466
  H       6.031612      1.869952      1.427367
  H       7.138693      1.554083      0.089383
  C       6.064728      3.429667     -0.064508
  H       6.835031      4.026219      0.450196
  H       5.081270      3.859334      0.188971
  H       6.210106      3.559174     -1.150195
  H       4.056441      1.447815     -0.063650
  H       5.137605      1.246555     -1.453884
  C       3.886324     -4.373875      0.416439
  H       3.960210     -4.916673      1.371660
  H       4.805359     -4.562005     -0.163470
  H       3.033021     -4.762695     -0.154578
  C       2.426157     -2.626277      1.429237
  H       2.439949     -2.522129      2.517442
  C       0.504936     -0.127211     -0.685457
  C       0.970839      0.266855      0.677089
  O       0.196737     -0.202982      1.673527
  C       0.589331      0.148435      2.995592
  H      -0.181339     -0.258657      3.662521
  H       1.570138     -0.287180      3.241578
  H       0.656165      1.241330      3.108643
  O       1.949463      0.954467      0.887559
  C      -0.510016     -0.993257     -0.831228
  H      -1.021766     -1.420243      0.032473
  H      -0.840057     -1.303665     -1.826361
  C       1.262008      0.486508     -1.828394
  H       2.320022      0.189596     -1.796211
  H       1.229991      1.587155     -1.772354
  H       0.838989      0.162875     -2.789515
  H       1.470195     -2.757754      0.920808
  O       4.185390     -1.014705     -0.942078
44
Coordinates from ORCA-job orca E -886.384889417913
  O       2.775128     -2.597317     -1.518554
  C       3.530727     -2.162363     -0.686984
  C       3.709060     -2.856779      0.683550
  C       4.909453     -2.301862      1.470378
  H       4.841217     -2.639968      2.517648
  H       5.844948     -2.727813      1.066429
  C       4.965558     -0.782697      1.375095
  H       5.802446     -0.384844      1.969785
  H       4.038183     -0.325287      1.758078
  C       5.162388     -0.380660     -0.077340
  H       6.149137     -0.752185     -0.416073
  C       5.062667      1.113379     -0.360925
  C       6.138308      1.954300      0.329650
  H       6.035981      1.868981      1.425697
  H       7.139977      1.553192      0.085170
  C       6.067249      3.429673     -0.065404
  H       6.839370      4.025239      0.447718
  H       5.084808      3.860161      0.190622
  H       6.210163      3.559501     -1.151375
  H       4.057282      1.450068     -0.062712
  H       5.136198      1.246311     -1.454131
  C       3.885637     -4.372737      0.416857
  H       3.960875     -4.915694      1.371859
  H       4.804122     -4.560277     -0.164134
  H       3.031898     -4.761810     -0.153342
  C       2.425682     -2.626350      1.431137
  H       2.438398     -2.530663      2.520172
  C       0.505113     -0.128462     -0.685539
  C       0.969541      0.266439      0.677077
  O       0.194179     -0.202416      1.673001
  C       0.586476      0.147904      2.995404
  H      -0.184139     -0.260383      3.661660
  H       1.567502     -0.287373      3.241273
  H       0.652696      1.240736      3.109561
  O       1.947861      0.954357      0.888083
  C      -0.506462     -0.998171     -0.832861
  H      -1.018491     -1.426695      0.029937
  H      -0.834380     -1.308856     -1.828582
  C       1.261133      0.487960     -1.827752
  H       2.319066      0.190386     -1.797041
  H       1.230456      1.588422     -1.767278
  H       0.837665      0.168884     -2.790152
  H       1.469243     -2.754761      0.922627
  O       4.183831     -1.013680     -0.941010
44
Coordinates from ORCA-job orca E -886.384904404289
  O       2.768962     -2.592901     -1.514791
  C       3.526622     -2.159356     -0.684330
  C       3.707211     -2.854481      0.685360
  C       4.908545     -2.300111      1.470930
  H       4.841619     -2.638185      2.518267
  H       5.843020     -2.727020      1.065502
  C       4.967051     -0.780964      1.375512
  H       5.805955     -0.384893      1.968505
  H       4.041724     -0.321138      1.760768
  C       5.161108     -0.378972     -0.077318
  H       6.146782     -0.750857     -0.418807
  C       5.062547      1.115180     -0.360879
  C       6.142277      1.953676      0.326237
  H       6.043842      1.867763      1.422570
  H       7.142181      1.550649      0.077742
  C       6.073032      3.429403     -0.067835
  H       6.849059      4.022795      0.441901
  H       5.092895      3.862324      0.192862
  H       6.211263      3.559189     -1.154413
  H       4.058659      1.454515     -0.060455
  H       5.132907      1.247182     -1.454401
  C       3.884121     -4.370466      0.418016
  H       3.961513     -4.913399      1.372846
  H       4.801757     -4.557177     -0.164644
  H       3.029712     -4.760109     -0.150805
  C       2.424631     -2.626135      1.434772
  H       2.435749     -2.547118      2.525265
  C       0.505378     -0.130456     -0.685702
  C       0.966699      0.265806      0.677471
  O       0.189431     -0.202678      1.672193
  C       0.580931      0.145620      2.995256
  H      -0.189277     -0.265162      3.660457
  H       1.562628     -0.288617      3.240713
  H       0.645541      1.238322      3.111810
  O       1.944575      0.953873      0.889843
  C      -0.498975     -1.007835     -0.836683
  H      -1.010976     -1.440087      0.024383
  H      -0.822175     -1.319454     -1.833582
  C       1.259207      0.491763     -1.826308
  H       2.316868      0.192490     -1.798502
  H       1.231141      1.591843     -1.758203
  H       0.834342      0.180886     -2.790692
  H       1.467610     -2.748441      0.925333
  O       4.180458     -1.011476     -0.938886
44
Coordinates from ORCA-job orca E -886.384905495929
  O       2.769761     -2.593318     -1.515300
  C       3.527481     -2.160088     -0.684739
  C       3.708092     -2.855356      0.685057
  C       4.908933     -2.300413      1.471068
  H       4.841384     -2.638070      2.518498
  H       5.843629     -2.727514      1.066332
  C       4.966836     -0.781212      1.375233
  H       5.804879     -0.384206      1.968782
  H       4.040742     -0.322273      1.759679
  C       5.161228     -0.379245     -0.077450
  H       6.147092     -0.750568     -0.418998
  C       5.062362      1.114951     -0.360899
  C       6.141430      1.953644      0.327188
  H       6.041420      1.868530      1.423446
  H       7.141583      1.550209      0.080362
  C       6.073110      3.429150     -0.067890
  H       6.848457      4.022679      0.442716
  H       5.092665      3.862468      0.190978
  H       6.213142      3.558249     -1.154321
  H       4.058267      1.454240     -0.061151
  H       5.133431      1.247772     -1.454282
  C       3.885047     -4.371225      0.417912
  H       3.961535     -4.913928      1.372943
  H       4.803179     -4.558112     -0.163913
  H       3.031138     -4.760953     -0.151607
  C       2.425034     -2.626380      1.433571
  H       2.435798     -2.543266      2.523646
  C       0.504816     -0.130149     -0.685378
  C       0.966349      0.266416      0.677873
  O       0.189790     -0.202822      1.672944
  C       0.581745      0.145760      2.995828
  H      -0.188304     -0.264388      3.661608
  H       1.563375     -0.288852      3.241060
  H       0.646906      1.238445      3.112222
  O       1.944308      0.954324      0.889994
  C      -0.500341     -1.006559     -0.836459
  H      -1.013103     -1.437786      0.024729
  H      -0.823601     -1.318290     -1.833279
  C       1.258746      0.491355     -1.826379
  H       2.316700      0.192918     -1.798335
  H       1.229961      1.591519     -1.759841
  H       0.833916      0.179199     -2.790360
  H       1.468502     -2.749241      0.923183
  O       4.180728     -1.011822     -0.938992
44
Coordinates from ORCA-job orca E -886.384905287755
  O       2.769157     -2.592737     -1.514820
  C       3.527497     -2.160125     -0.684504
  C       3.708618     -2.855729      0.685256
  C       4.909193     -2.300249      1.471456
  H       4.840937     -2.637157      2.519081
  H       5.843972     -2.727944      1.067534
  C       4.966706     -0.781040      1.374923
  H       5.804182     -0.383172      1.968681
  H       4.040093     -0.322788      1.758931
  C       5.161050     -0.379231     -0.077633
  H       6.146919     -0.750157     -0.419590
  C       5.062234      1.115040     -0.360866
  C       6.141270      1.953615      0.327666
  H       6.039855      1.869784      1.423904
  H       7.141410      1.549151      0.082467
  C       6.074547      3.428793     -0.068893
  H       6.849480      4.022273      0.442398
  H       5.094000      3.863044      0.188005
  H       6.216459      3.556804     -1.155213
  H       4.058264      1.454788     -0.061198
  H       5.133509      1.248970     -1.454101
  C       3.885570     -4.371408      0.417972
  H       3.961185     -4.914066      1.373106
  H       4.804167     -4.558416     -0.163084
  H       3.032099     -4.761066     -0.152258
  C       2.425288     -2.626199      1.433313
  H       2.436015     -2.542559      2.523340
  C       0.504433     -0.130157     -0.685282
  C       0.965473      0.266597      0.678361
  O       0.189357     -0.203849      1.673334
  C       0.581661      0.144501      2.996171
  H      -0.187979     -0.265569      3.662480
  H       1.563419     -0.290217      3.240719
  H       0.646921      1.237134      3.112978
  O       1.943445      0.954268      0.890775
  C      -0.500716     -1.006467     -0.836777
  H      -1.014033     -1.437250      0.024381
  H      -0.823409     -1.318621     -1.833624
  C       1.258271      0.491682     -1.826190
  H       2.316437      0.193740     -1.798921
  H       1.229062      1.591861     -1.760021
  H       0.832684      0.179403     -2.789811
  H       1.469245     -2.747957      0.921572
  O       4.180204     -1.011528     -0.938738
44
Coordinates from ORCA-job orca E -886.382981545843
  O       2.769803     -2.587257     -1.514910
  C       3.529588     -2.158450     -0.680381
  C       3.722084     -2.870300      0.705409
  C       4.922242     -2.306772      1.481247
  H       4.862355     -2.643585      2.529447
  H       5.859025     -2.726319      1.073332
  C       4.967894     -0.781631      1.374594
  H       5.806507     -0.378800      1.963421
  H       4.039851     -0.321514      1.756655
  C       5.159008     -0.380516     -0.078020
  H       6.145852     -0.750025     -0.418706
  C       5.058321      1.113392     -0.361416
  C       6.137468      1.949571      0.329862
  H       6.033201      1.865807      1.425842
  H       7.137342      1.543007      0.087046
  C       6.074859      3.424946     -0.066657
  H       6.849811      4.016703      0.446605
  H       5.094612      3.861254      0.187910
  H       6.219692      3.552804     -1.152614
  H       4.054479      1.455745     -0.064627
  H       5.133778      1.246069     -1.454279
  C       3.898249     -4.384450      0.428937
  H       3.983666     -4.931739      1.380664
  H       4.811488     -4.567510     -0.161858
  H       3.039762     -4.772291     -0.135027
  C       2.452980     -2.646119      1.468407
  H       2.462014     -2.559026      2.554991
  C       0.479014     -0.101274     -0.727266
  C       0.952997      0.272936      0.664505
  O       0.181585     -0.205403      1.666406
  C       0.583616      0.135724      2.996745
  H      -0.184923     -0.274336      3.664331
  H       1.572071     -0.299526      3.249006
  H       0.648495      1.228568      3.111805
  O       1.936324      0.956824      0.881720
  C      -0.524642     -0.980669     -0.855987
  H      -1.015817     -1.421152      0.024088
  H      -0.865129     -1.298769     -1.845212
  C       1.240560      0.513759     -1.848969
  H       2.314107      0.202505     -1.810686
  H       1.222789      1.614287     -1.783563
  H       0.814020      0.208587     -2.814473
  H       1.469648     -2.759768      0.939211
  O       4.177503     -1.009498     -0.940252
44
Coordinates from ORCA-job orca E -886.384576568303
  O       2.756231     -2.596995     -1.491134
  C       3.522744     -2.165179     -0.667594
  C       3.721912     -2.870780      0.705030
  C       4.923691     -2.303871      1.479466
  H       4.867586     -2.640578      2.527793
  H       5.860944     -2.720166      1.069222
  C       4.966330     -0.782798      1.378073
  H       5.803269     -0.379730      1.969014
  H       4.037662     -0.324620      1.757734
  C       5.156522     -0.383579     -0.074680
  H       6.141726     -0.755164     -0.417985
  C       5.056957      1.110825     -0.360296
  C       6.136981      1.948551      0.328247
  H       6.033412      1.867622      1.424449
  H       7.136508      1.540964      0.085787
  C       6.074941      3.423027     -0.071818
  H       6.850437      4.015706      0.439566
  H       5.095051      3.860429      0.182233
  H       6.219216      3.548211     -1.158164
  H       4.052828      1.454133     -0.063796
  H       5.130798      1.242320     -1.453674
  C       3.906858     -4.381161      0.420305
  H       3.995465     -4.933036      1.369052
  H       4.820800     -4.556006     -0.171834
  H       3.050138     -4.770558     -0.145452
  C       2.448522     -2.655040      1.467789
  H       2.456599     -2.565433      2.556703
  C       0.478743     -0.093806     -0.712535
  C       0.953960      0.275596      0.664832
  O       0.183589     -0.206621      1.659674
  C       0.577698      0.136102      2.985995
  H      -0.195034     -0.272917      3.649067
  H       1.558177     -0.298266      3.240145
  H       0.643329      1.228732      3.100956
  O       1.935206      0.956881      0.882011
  C      -0.525684     -0.972826     -0.848318
  H      -1.016175     -1.411671      0.021735
  H      -0.863115     -1.288294     -1.839722
  C       1.247336      0.516808     -1.841008
  H       2.302964      0.204751     -1.802775
  H       1.235728      1.617746     -1.779431
  H       0.824150      0.209335     -2.807500
  H       1.491908     -2.766592      0.950551
  O       4.171243     -1.016259     -0.930433
44
Coordinates from ORCA-job orca E -886.384746246961
  O       2.750429     -2.600819     -1.481002
  C       3.520870     -2.168265     -0.662167
  C       3.724243     -2.870875      0.704116
  C       4.925130     -2.302669      1.480238
  H       4.868428     -2.638758      2.528840
  H       5.862684     -2.718964      1.070875
  C       4.967465     -0.783239      1.380215
  H       5.802919     -0.378977      1.972495
  H       4.037814     -0.326886      1.759085
  C       5.156676     -0.385029     -0.073647
  H       6.140779     -0.757600     -0.418851
  C       5.058046      1.108928     -0.360665
  C       6.138169      1.947481      0.326510
  H       6.034900      1.867878      1.422853
  H       7.137647      1.539650      0.084241
  C       6.075861      3.421428     -0.075335
  H       6.851344      4.014803      0.435242
  H       5.095954      3.859007      0.178362
  H       6.219946      3.545381     -1.161849
  H       4.054103      1.452132     -0.064157
  H       5.131003      1.240087     -1.454227
  C       3.916878     -4.380888      0.419802
  H       4.009434     -4.932457      1.368435
  H       4.830996     -4.551171     -0.173304
  H       3.061545     -4.774770     -0.144680
  C       2.447231     -2.661227      1.466242
  H       2.456773     -2.571173      2.555418
  C       0.477606     -0.091857     -0.704627
  C       0.952474      0.276918      0.664837
  O       0.182358     -0.206879      1.657527
  C       0.573078      0.135196      2.982755
  H      -0.201198     -0.274153      3.644147
  H       1.552133     -0.300296      3.236181
  H       0.639526      1.227665      3.100279
  O       1.934704      0.956351      0.881780
  C      -0.531801     -0.964415     -0.849280
  H      -1.029677     -1.401522      0.016716
  H      -0.866283     -1.274034     -1.843361
  C       1.246344      0.520368     -1.837416
  H       2.299015      0.206832     -1.799673
  H       1.235158      1.621273     -1.775790
  H       0.824373      0.212477     -2.804346
  H       1.493471     -2.771728      0.950717
  O       4.169604     -1.019416     -0.926252
44
Coordinates from ORCA-job orca E -886.384809154151
  O       2.747497     -2.601661     -1.477026
  C       3.520243     -2.169564     -0.659984
  C       3.726401     -2.871104      0.703413
  C       4.925585     -2.302130      1.482099
  H       4.866657     -2.637333      2.530885
  H       5.863376     -2.719769      1.074791
  C       4.968639     -0.783137      1.381604
  H       5.802936     -0.377366      1.974423
  H       4.038178     -0.328478      1.760486
  C       5.157011     -0.385834     -0.073229
  H       6.140442     -0.759179     -0.419496
  C       5.059158      1.107572     -0.361280
  C       6.139242      1.946826      0.324880
  H       6.036304      1.868102      1.421324
  H       7.138758      1.539033      0.082668
  C       6.076361      3.420386     -0.078192
  H       6.851735      4.014419      0.431781
  H       5.096355      3.857839      0.175334
  H       6.220203      3.543533     -1.164830
  H       4.055401      1.450358     -0.064344
  H       5.131430      1.238500     -1.454924
  C       3.924925     -4.381483      0.421380
  H       4.021058     -4.931316      1.370632
  H       4.839068     -4.548746     -0.172531
  H       3.070520     -4.779935     -0.141290
  C       2.446795     -2.666145      1.464751
  H       2.458467     -2.576483      2.554007
  C       0.477205     -0.092198     -0.700719
  C       0.951432      0.277429      0.665377
  O       0.181486     -0.207012      1.657917
  C       0.570692      0.133913      2.983128
  H      -0.203752     -0.276044      3.644054
  H       1.549578     -0.303061      3.234529
  H       0.638065      1.226088      3.103669
  O       1.934861      0.955694      0.882144
  C      -0.537786     -0.957173     -0.853552
  H      -1.044594     -1.391769      0.009230
  H      -0.869560     -1.260669     -1.850191
  C       1.244581      0.522729     -1.835925
  H       2.297392      0.208491     -1.798853
  H       1.231976      1.623359     -1.772538
  H       0.822892      0.215285     -2.803007
  H       1.491946     -2.775385      0.949065
  O       4.168993     -1.020793     -0.924381
44
Coordinates from ORCA-job orca E -886.384842905554
  O       2.747037     -2.600983     -1.476613
  C       3.520463     -2.169645     -0.659601
  C       3.727487     -2.871312      0.703376
  C       4.925470     -2.301949      1.483775
  H       4.864599     -2.636495      2.532618
  H       5.863441     -2.720785      1.078127
  C       4.969014     -0.782819      1.382293
  H       5.802737     -0.375871      1.975034
  H       4.038029     -0.329395      1.761554
  C       5.157314     -0.386210     -0.072813
  H       6.140585     -0.760117     -0.418999
  C       5.059774      1.106873     -0.361583
  C       6.139742      1.946812      0.323861
  H       6.037145      1.868649      1.420372
  H       7.139353      1.539256      0.081626
  C       6.076164      3.420119     -0.080002
  H       6.851415      4.014726      0.429492
  H       5.096036      3.857295      0.173516
  H       6.219701      3.542759     -1.166733
  H       4.056045      1.449214     -0.064191
  H       5.131673      1.237381     -1.455266
  C       3.928521     -4.381829      0.422292
  H       4.026181     -4.930662      1.371908
  H       4.842769     -4.547637     -0.171884
  H       3.074621     -4.782442     -0.139701
  C       2.446763     -2.668790      1.464099
  H       2.460164     -2.579781      2.553363
  C       0.477539     -0.093380     -0.699964
  C       0.951219      0.277097      0.666092
  O       0.181048     -0.207251      1.658905
  C       0.570276      0.132905      2.984364
  H      -0.203661     -0.277477      3.645589
  H       1.549395     -0.305109      3.233799
  H       0.638219      1.224862      3.106657
  O       1.935131      0.954987      0.882888
  C      -0.541463     -0.952860     -0.856859
  H      -1.054453     -1.385140      0.003913
  H      -0.872209     -1.252244     -1.854959
  C       1.244378      0.522792     -1.835603
  H       2.297746      0.208847     -1.799229
  H       1.230390      1.623216     -1.770260
  H       0.822216      0.216072     -2.802594
  H       1.491008     -2.776943      0.948462
  O       4.169128     -1.020947     -0.923839
44
Coordinates from ORCA-job orca E -886.384833497483
  O       2.747456     -2.600096     -1.476715
  C       3.521063     -2.169427     -0.659425
  C       3.728138     -2.871462      0.703728
  C       4.925400     -2.301867      1.485219
  H       4.863075     -2.635989      2.534078
  H       5.863551     -2.721472      1.080759
  C       4.968937     -0.782558      1.382916
  H       5.802269     -0.374565      1.975452
  H       4.037461     -0.330399      1.762625
  C       5.157698     -0.386516     -0.072100
  H       6.141063     -0.760906     -0.417587
  C       5.060222      1.106383     -0.361584
  C       6.139952      1.947213      0.323143
  H       6.037728      1.869617      1.419732
  H       7.139728      1.540066      0.080878
  C       6.075448      3.420264     -0.081517
  H       6.850504      4.015581      0.427452
  H       5.095138      3.857011      0.172023
  H       6.218618      3.542394     -1.168353
  H       4.056423      1.448195     -0.063836
  H       5.131866      1.236194     -1.455326
  C       3.930220     -4.381868      0.422342
  H       4.028364     -4.930502      1.371995
  H       4.844650     -4.546744     -0.171845
  H       3.076694     -4.783240     -0.139740
  C       2.446906     -2.670455      1.463999
  H       2.461870     -2.582269      2.553300
  C       0.478202     -0.094675     -0.700098
  C       0.951397      0.276225      0.666643
  O       0.180585     -0.207601      1.659431
  C       0.570602      0.131915      2.985042
  H      -0.202673     -0.278731      3.646822
  H       1.549938     -0.306946      3.232546
  H       0.639001      1.223712      3.108333
  O       1.935380      0.954004      0.883639
  C      -0.544555     -0.949216     -0.858789
  H      -1.062468     -1.379021      0.000419
  H      -0.875491     -1.245231     -1.857803
  C       1.245470      0.521472     -1.835462
  H       2.299223      0.208256     -1.799945
  H       1.230514      1.621787     -1.768241
  H       0.822437      0.215572     -2.802267
  H       1.490461     -2.777496      0.948864
  O       4.169687     -1.020821     -0.923468
44
Coordinates from ORCA-job orca E -886.384842697239
  O       2.748130     -2.599297     -1.476650
  C       3.521751     -2.169086     -0.659131
  C       3.728525     -2.871494      0.704321
  C       4.925545     -2.301853      1.486338
  H       4.862388     -2.635818      2.535184
  H       5.863823     -2.721757      1.082500
  C       4.968590     -0.782440      1.383648
  H       5.801629     -0.373529      1.975990
  H       4.036605     -0.331728      1.763828
  C       5.158073     -0.386755     -0.071101
  H       6.141682     -0.761504     -0.415546
  C       5.060464      1.106024     -0.361278
  C       6.139867      1.947891      0.322649
  H       6.038117      1.870807      1.419327
  H       7.139834      1.541295      0.080249
  C       6.074205      3.420698     -0.082752
  H       6.849050      4.016809      0.425603
  H       5.093685      3.856894      0.170937
  H       6.216866      3.542361     -1.169712
  H       4.056520      1.447188     -0.063267
  H       5.131880      1.234879     -1.455121
  C       3.930827     -4.381674      0.421878
  H       4.028849     -4.930728      1.371308
  H       4.845435     -4.545969     -0.172213
  H       3.077553     -4.782865     -0.140706
  C       2.447243     -2.671328      1.464450
  H       2.463682     -2.584315      2.553846
  C       0.479134     -0.095942     -0.700658
  C       0.951958      0.274937      0.666813
  O       0.180119     -0.207966      1.659284
  C       0.571508      0.130761      2.984930
  H      -0.201097     -0.280045      3.647360
  H       1.550951     -0.308944      3.230398
  H       0.640433      1.222426      3.108779
  O       1.935811      0.952726      0.884150
  C      -0.547612     -0.945525     -0.859574
  H      -1.069740     -1.372512     -0.001581
  H      -0.879725     -1.238636     -1.859114
  C       1.247609      0.519126     -1.835520
  H       2.301598      0.206811     -1.801039
  H       1.232204      1.619403     -1.766627
  H       0.823510      0.214131     -2.802124
  H       1.490197     -2.777052      0.950297
  O       4.170474     -1.020616     -0.923071
44
Coordinates from ORCA-job orca E -886.384839635064
  O       2.748404     -2.599014     -1.476174
  C       3.522054     -2.168848     -0.658714
  C       3.728558     -2.871389      0.704884
  C       4.925963     -2.302022      1.486633
  H       4.863020     -2.636206      2.535435
  H       5.864185     -2.721712      1.082487
  C       4.968341     -0.782591      1.384214
  H       5.801265     -0.373250      1.976467
  H       4.035996     -0.333000      1.764747
  C       5.158251     -0.386799     -0.070330
  H       6.142108     -0.761560     -0.414047
  C       5.060343      1.105975     -0.360828
  C       6.139508      1.948575      0.322511
  H       6.038302      1.871567      1.419255
  H       7.139617      1.542559      0.079726
  C       6.072774      3.421301     -0.083023
  H       6.847517      4.017930      0.424878
  H       5.092118      3.856940      0.171095
  H       6.214827      3.542916     -1.170065
  H       4.056257      1.446608     -0.062699
  H       5.131537      1.234080     -1.454771
  C       3.930264     -4.381451      0.421528
  H       4.027955     -4.931101      1.370670
  H       4.844827     -4.545830     -0.172609
  H       3.076859     -4.781852     -0.141375
  C       2.447705     -2.671007      1.465373
  H       2.465000     -2.585326      2.554904
  C       0.480021     -0.096678     -0.701377
  C       0.952747      0.273859      0.666396
  O       0.179979     -0.208065      1.658526
  C       0.572743      0.129775      2.984125
  H      -0.199482     -0.281070      3.646968
  H       1.552135     -0.310646      3.228067
  H       0.642237      1.221356      3.108157
  O       1.936469      0.951670      0.884044
  C      -0.549591     -0.942931     -0.859385
  H      -1.073922     -1.367760     -0.001833
  H      -0.883149     -1.234644     -1.858940
  C       1.249765      0.516828     -1.835961
  H       2.303791      0.205055     -1.802311
  H       1.234624      1.617146     -1.766377
  H       0.824929      0.212457     -2.802461
  H       1.490242     -2.775507      0.952253
  O       4.171058     -1.020552     -0.922786
44
Coordinates from ORCA-job orca E -886.384855351909
  O       2.748056     -2.598961     -1.475274
  C       3.521892     -2.168647     -0.658131
  C       3.728391     -2.871133      0.705459
  C       4.926716     -2.302365      1.486274
  H       4.864859     -2.637087      2.534988
  H       5.864665     -2.721546      1.080998
  C       4.968349     -0.782949      1.384634
  H       5.801262     -0.373474      1.976846
  H       4.035720     -0.334345      1.765515
  C       5.158166     -0.386653     -0.069785
  H       6.142239     -0.761064     -0.413235
  C       5.059737      1.106165     -0.360216
  C       6.138752      1.949199      0.322703
  H       6.038156      1.871881      1.419495
  H       7.138956      1.543775      0.079316
  C       6.071017      3.421976     -0.082483
  H       6.845770      4.018902      0.425052
  H       5.090294      3.857060      0.172321
  H       6.212333      3.543865     -1.169589
  H       4.055526      1.446299     -0.061977
  H       5.130613      1.233794     -1.454241
  C       3.928829     -4.381265      0.421669
  H       4.026236     -4.931383      1.370589
  H       4.843078     -4.546338     -0.172735
  H       3.074900     -4.780618     -0.141144
  C       2.448391     -2.669623      1.466827
  H       2.466220     -2.585807      2.556535
  C       0.481014     -0.097074     -0.702315
  C       0.953848      0.273008      0.665435
  O       0.180293     -0.207886      1.657332
  C       0.574527      0.128710      2.982875
  H      -0.197485     -0.282143      3.645964
  H       1.553769     -0.312563      3.225376
  H       0.644827      1.220196      3.107139
  O       1.937578      0.950713      0.883342
  C      -0.550828     -0.940885     -0.859055
  H      -1.076257     -1.363911     -0.001443
  H      -0.885802     -1.232141     -1.858338
  C       1.251864      0.514634     -1.836908
  H       2.305813      0.202993     -1.803987
  H       1.237508      1.615039     -1.767386
  H       0.826534      0.210724     -2.803368
  H       1.490480     -2.772658      0.954754
  O       4.171345     -1.020622     -0.922548
44
Coordinates from ORCA-job orca E -886.384853915319
  O       2.746777     -2.598899     -1.473489
  C       3.521206     -2.168438     -0.657041
  C       3.728063     -2.870674      0.706380
  C       4.928144     -2.303053      1.485355
  H       4.868429     -2.638699      2.533915
  H       5.865415     -2.721566      1.077838
  C       4.968927     -0.783610      1.385041
  H       5.801895     -0.374085      1.977157
  H       4.035935     -0.336333      1.766471
  C       5.157890     -0.386340     -0.069319
  H       6.142179     -0.759901     -0.413041
  C       5.058398      1.106558     -0.359306
  C       6.137289      1.949995      0.323124
  H       6.037778      1.871785      1.419959
  H       7.137598      1.545586      0.078506
  C       6.067923      3.423003     -0.080954
  H       6.842754      4.020217      0.426123
  H       5.087127      3.857117      0.175222
  H       6.207941      3.545730     -1.168133
  H       4.054057      1.445968     -0.060780
  H       5.128607      1.233934     -1.453430
  C       3.926058     -4.381141      0.422716
  H       4.023291     -4.931519      1.371518
  H       4.839567     -4.547789     -0.172357
  H       3.070996     -4.779020     -0.139394
  C       2.449560     -2.666764      1.469431
  H       2.468072     -2.586461      2.559446
  C       0.482633     -0.097383     -0.703869
  C       0.955797      0.272128      0.663625
  O       0.181358     -0.207347      1.655406
  C       0.577694      0.126933      2.980953
  H      -0.194129     -0.283983      3.644222
  H       1.556659     -0.315901      3.221273
  H       0.649505      1.218214      3.106049
  O       1.939845      0.949355      0.881759
  C      -0.552037     -0.938067     -0.859238
  H      -1.078531     -1.358778     -0.001271
  H      -0.888648     -1.229108     -1.858079
  C       1.254690      0.511800     -1.838847
  H       2.308471      0.199763     -1.806866
  H       1.241822      1.612340     -1.770093
  H       0.828826      0.208373     -2.805264
  H       1.490855     -2.767187      0.958737
  O       4.171464     -1.020962     -0.922176
44
Coordinates from ORCA-job orca E -886.384862687761
  O       2.744681     -2.598482     -1.471584
  C       3.519998     -2.168124     -0.655922
  C       3.727581     -2.870062      0.707263
  C       4.929594     -2.303734      1.484107
  H       4.872274     -2.640355      2.532489
  H       5.865969     -2.721773      1.074041
  C       4.969890     -0.784215      1.385118
  H       5.802971     -0.374789      1.977101
  H       4.036636     -0.337945      1.767103
  C       5.157349     -0.385810     -0.069273
  H       6.141702     -0.758246     -0.414007
  C       5.056620      1.107196     -0.358389
  C       6.135640      1.950592      0.323787
  H       6.037006      1.871509      1.420641
  H       7.135938      1.546801      0.078090
  C       6.065370      3.423844     -0.079212
  H       6.840430      4.021003      0.427582
  H       5.084636      3.857412      0.178110
  H       6.204395      3.547333     -1.166433
  H       4.052230      1.446021     -0.059394
  H       5.126011      1.235003     -1.452534
  C       3.922732     -4.381044      0.424522
  H       4.019991     -4.931114      1.373496
  H       4.835328     -4.549712     -0.171368
  H       3.066335     -4.777712     -0.136407
  C       2.450706     -2.663218      1.472242
  H       2.469777     -2.587136      2.562593
  C       0.484073     -0.097298     -0.705409
  C       0.957641      0.271780      0.661746
  O       0.182801     -0.206835      1.653603
  C       0.580950      0.124851      2.979256
  H      -0.190757     -0.286281      3.642513
  H       1.559639     -0.319630      3.217526
  H       0.654337      1.215875      3.105727
  O       1.942295      0.948177      0.879967
  C      -0.551930     -0.936544     -0.860185
  H      -1.078432     -1.356077     -0.001644
  H      -0.889302     -1.228014     -1.858642
  C       1.256673      0.510053     -1.840991
  H       2.310217      0.196956     -1.809744
  H       1.245415      1.610733     -1.773580
  H       0.830443      0.206855     -2.807344
  H       1.491220     -2.760777      0.962558
  O       4.171076     -1.021276     -0.921838
44
Coordinates from ORCA-job orca E -886.384870272826
  O       2.740698     -2.597064     -1.468499
  C       3.517762     -2.167403     -0.654055
  C       3.726729     -2.868933      0.708763
  C       4.931684     -2.304565      1.482348
  H       4.877781     -2.642460      2.530496
  H       5.866526     -2.722401      1.068524
  C       4.971712     -0.784878      1.384970
  H       5.804959     -0.375505      1.976634
  H       4.038130     -0.339987      1.767860
  C       5.156431     -0.384895     -0.069495
  H       6.140703     -0.755532     -0.416387
  C       5.053683      1.108259     -0.357060
  C       6.133135      1.951362      0.324807
  H       6.035531      1.871336      1.421680
  H       7.133316      1.548018      0.077856
  C       6.062251      3.424917     -0.076994
  H       6.837742      4.021818      0.429457
  H       5.081711      3.858166      0.181602
  H       6.200194      3.549194     -1.164261
  H       4.049350      1.446272     -0.056985
  H       5.121606      1.237419     -1.451169
  C       3.917346     -4.380773      0.427923
  H       4.014829     -4.929846      1.377429
  H       4.828490     -4.552653     -0.169264
  H       3.058914     -4.775972     -0.130956
  C       2.452244     -2.657552      1.476695
  H       2.472538     -2.589132      2.567581
  C       0.486130     -0.096961     -0.707686
  C       0.960231      0.271630      0.659081
  O       0.185165     -0.206373      1.651103
  C       0.585815      0.120942      2.977047
  H      -0.185653     -0.290796      3.640188
  H       1.564110     -0.326246      3.212029
  H       0.661635      1.211455      3.106537
  O       1.946169      0.946249      0.877348
  C      -0.550710     -0.935218     -0.862794
  H      -1.076894     -1.354020     -0.003564
  H      -0.888201     -1.227240     -1.860979
  C       1.258909      0.508609     -1.844228
  H       2.311985      0.193194     -1.814060
  H       1.250002      1.609427     -1.778903
  H       0.831903      0.205661     -2.810331
  H       1.491468     -2.750098      0.968188
  O       4.170090     -1.021632     -0.921198
44
Coordinates from ORCA-job orca E -886.384875229900
  O       2.738061     -2.595527     -1.466748
  C       3.516296     -2.166685     -0.652914
  C       3.726067     -2.868068      0.709761
  C       4.932479     -2.304674      1.481757
  H       4.879910     -2.642942      2.529836
  H       5.866410     -2.722965      1.066288
  C       4.972802     -0.784872      1.384726
  H       5.806157     -0.375375      1.976082
  H       4.039106     -0.340577      1.768182
  C       5.155963     -0.384332     -0.069790
  H       6.140062     -0.754122     -0.418089
  C       5.052225      1.108907     -0.356491
  C       6.132122      1.951708      0.325174
  H       6.034767      1.871660      1.422059
  H       7.132146      1.548120      0.077966
  C       6.061599      3.425311     -0.076526
  H       6.837326      4.021966      0.429856
  H       5.081216      3.858835      0.182197
  H       6.199460      3.549596     -1.163802
  H       4.048071      1.446592     -0.055457
  H       5.119206      1.239319     -1.450510
  C       3.914349     -4.380337      0.430022
  H       4.011990     -4.928620      1.379954
  H       4.824808     -4.553813     -0.167777
  H       3.055000     -4.775057     -0.127817
  C       2.452684     -2.654523      1.479197
  H       2.474246     -2.591583      2.570412
  C       0.486977     -0.096719     -0.708814
  C       0.961194      0.271709      0.657984
  O       0.186221     -0.206592      1.650015
  C       0.588063      0.118075      2.976225
  H      -0.183131     -0.294259      3.639301
  H       1.566191     -0.330680      3.209223
  H       0.665075      1.208222      3.108138
  O       1.948073      0.944938      0.876293
  C      -0.549261     -0.935510     -0.865040
  H      -1.075099     -1.354920     -0.005771
  H      -0.885967     -1.227540     -1.863410
  C       1.259437      0.508896     -1.845761
  H       2.312140      0.191658     -1.816257
  H       1.251657      1.609726     -1.781226
  H       0.831598      0.206076     -2.811538
  H       1.491155     -2.743648      0.971119
  O       4.169299     -1.021584     -0.920750
44
Coordinates from ORCA-job orca E -886.384882550538
  O       2.735057     -2.593192     -1.464887
  C       3.514652     -2.165524     -0.651649
  C       3.725080     -2.866827      0.711001
  C       4.932783     -2.304272      1.481675
  H       4.880866     -2.642453      2.529797
  H       5.865794     -2.723643      1.065175
  C       4.973839     -0.784392      1.384368
  H       5.807384     -0.374651      1.975230
  H       4.040165     -0.340508      1.768475
  C       5.155680     -0.383775     -0.070178
  H       6.139485     -0.753107     -0.419777
  C       5.051291      1.109541     -0.356167
  C       6.131832      1.952030      0.325121
  H       6.034607      1.872378      1.422039
  H       7.131643      1.547915      0.077898
  C       6.061943      3.425588     -0.076886
  H       6.837857      4.022037      0.429458
  H       5.081707      3.859570      0.181648
  H       6.199962      3.549620     -1.164178
  H       4.047512      1.447054     -0.053747
  H       5.117209      1.241480     -1.450052
  C       3.911285     -4.379452      0.432149
  H       4.009072     -4.926894      1.382540
  H       4.821173     -4.554294     -0.166154
  H       3.051230     -4.773883     -0.124828
  C       2.452576     -2.651632      1.481801
  H       2.476261     -2.596125      2.573411
  C       0.487536     -0.096479     -0.709903
  C       0.961640      0.271692      0.657215
  O       0.186690     -0.207323      1.649002
  C       0.589722      0.114361      2.975561
  H      -0.181034     -0.298823      3.638615
  H       1.567701     -0.336037      3.206317
  H       0.667722      1.204056      3.110571
  O       1.949654      0.943118      0.875719
  C      -0.547147     -0.936822     -0.867717
  H      -1.072470     -1.357840     -0.008816
  H      -0.882482     -1.228488     -1.866576
  C       1.259469      0.510143     -1.846952
  H       2.311592      0.190501     -1.818377
  H       1.252854      1.610892     -1.782385
  H       0.830129      0.207690     -2.812176
  H       1.490192     -2.736250      0.974158
  O       4.168437     -1.021192     -0.920260
44
Coordinates from ORCA-job orca E -886.384884881259
  O       2.733303     -2.591225     -1.463839
  C       3.513624     -2.164314     -0.650864
  C       3.724133     -2.865651      0.711852
  C       4.932296     -2.303444      1.482217
  H       4.880011     -2.641126      2.530484
  H       5.864889     -2.723895      1.065869
  C       4.974149     -0.783587      1.384204
  H       5.807954     -0.373741      1.974616
  H       4.040689     -0.339573      1.768727
  C       5.155720     -0.383408     -0.070372
  H       6.139287     -0.753032     -0.420342
  C       5.051534      1.109938     -0.356235
  C       6.132716      1.952185      0.324554
  H       6.035566      1.873187      1.421527
  H       7.132296      1.547426      0.077447
  C       6.063500      3.425599     -0.078078
  H       6.839554      4.021937      0.428174
  H       5.083398      3.860088      0.180117
  H       6.201747      3.549173     -1.165396
  H       4.048163      1.447644     -0.052681
  H       5.116792      1.242733     -1.450045
  C       3.909663     -4.378352      0.433004
  H       4.007401     -4.925567      1.383535
  H       4.819448     -4.553549     -0.165377
  H       3.049508     -4.772680     -0.123887
  C       2.451924     -2.650323      1.483302
  H       2.477531     -2.601030      2.575206
  C       0.487436     -0.096477     -0.710419
  C       0.961194      0.271360      0.657127
  O       0.186030     -0.208284      1.648466
  C       0.589653      0.111556      2.975289
  H      -0.180771     -0.302314      3.638320
  H       1.567572     -0.339661      3.204738
  H       0.667854      1.200976      3.112382
  O       1.949875      0.941587      0.876009
  C      -0.545333     -0.938911     -0.869232
  H      -1.069986     -1.361933     -0.010895
  H      -0.879478     -1.230233     -1.868580
  C       1.258850      0.511780     -1.847094
  H       2.310450      0.190338     -1.819372
  H       1.252989      1.612384     -1.781313
  H       0.828060      0.210029     -2.811894
  H       1.489008     -2.731354      0.976009
  O       4.167949     -1.020468     -0.919981
44
Coordinates from ORCA-job orca E -886.384890290816
  O       2.731189     -2.588371     -1.462411
  C       3.512234     -2.162163     -0.649755
  C       3.722498     -2.863533      0.713042
  C       4.931073     -2.301765      1.483400
  H       4.877889     -2.638525      2.531927
  H       5.863282     -2.723747      1.067767
  C       4.974181     -0.782048      1.384282
  H       5.808602     -0.372323      1.973954
  H       4.041263     -0.337424      1.769406
  C       5.155966     -0.382817     -0.070388
  H       6.139208     -0.753473     -0.420189
  C       5.052791      1.110552     -0.356486
  C       6.135146      1.952394      0.323153
  H       6.038544      1.874346      1.420245
  H       7.134273      1.546672      0.075811
  C       6.066736      3.425584     -0.080380
  H       6.843205      4.021788      0.425393
  H       5.086933      3.860783      0.177757
  H       6.204811      3.548488     -1.167793
  H       4.050150      1.448883     -0.051253
  H       5.117141      1.243887     -1.450260
  C       3.907757     -4.376203      0.433581
  H       4.005451     -4.923607      1.384033
  H       4.817518     -4.551407     -0.164860
  H       3.047591     -4.770275     -0.123449
  C       2.450630     -2.648927      1.485413
  H       2.479155     -2.610141      2.577747
  C       0.486907     -0.096879     -0.711082
  C       0.959961      0.270201      0.657118
  O       0.183983     -0.209907      1.647557
  C       0.588403      0.107368      2.974742
  H      -0.181632     -0.307483      3.637648
  H       1.566227     -0.344761      3.202529
  H       0.666613      1.196452      3.114414
  O       1.949349      0.938982      0.876881
  C      -0.542841     -0.942747     -0.870778
  H      -1.066279     -1.369071     -0.013416
  H      -0.875491     -1.233677     -1.870776
  C       1.257550      0.514304     -1.846802
  H       2.308308      0.190285     -1.820712
  H       1.253079      1.614613     -1.777817
  H       0.824429      0.214515     -2.811185
  H       1.486906     -2.724032      0.978904
  O       4.167461     -1.019003     -0.919634
44
Coordinates from ORCA-job orca E -886.384896718184
  O       2.729641     -2.586009     -1.461072
  C       3.511009     -2.159921     -0.648698
  C       3.720870     -2.861273      0.714050
  C       4.929707     -2.299967      1.484630
  H       4.875736     -2.635940      2.533382
  H       5.861740     -2.723052      1.069770
  C       4.973998     -0.780432      1.384713
  H       5.809251     -0.371234      1.973631
  H       4.041833     -0.334784      1.770397
  C       5.156267     -0.382137     -0.070116
  H       6.139215     -0.754145     -0.419305
  C       5.054554      1.111212     -0.356752
  C       6.138309      1.952558      0.321348
  H       6.042976      1.874998      1.418599
  H       7.136866      1.546071      0.072976
  C       6.070293      3.425670     -0.082548
  H       6.847553      4.021613      0.422316
  H       5.090966      3.861441      0.176467
  H       6.207315      3.548270     -1.170131
  H       4.052663      1.450463     -0.050093
  H       5.118018      1.244127     -1.450608
  C       3.906418     -4.373874      0.433625
  H       4.004286     -4.921889      1.383719
  H       4.816123     -4.548695     -0.165001
  H       3.046201     -4.767609     -0.123535
  C       2.449418     -2.647944      1.487461
  H       2.480205     -2.620225      2.580159
  C       0.486170     -0.097811     -0.711683
  C       0.958465      0.268400      0.656986
  O       0.181201     -0.211337      1.646507
  C       0.586262      0.103726      2.974014
  H      -0.183625     -0.311904      3.636640
  H       1.563977     -0.349026      3.200574
  H       0.664441      1.192595      3.115377
  O       1.948208      0.936283      0.877774
  C      -0.540974     -0.946751     -0.871650
  H      -1.063123     -1.376074     -0.015132
  H      -0.872673     -1.237608     -1.872058
  C       1.256055      0.516333     -1.846277
  H       2.306028      0.190112     -1.822090
  H       1.253345      1.616301     -1.773061
  H       0.820893      0.219576     -2.810690
  H       1.484881     -2.716929      0.981968
  O       4.167186     -1.017390     -0.919304
44
Coordinates from ORCA-job orca E -886.384902974403
  O       2.727793     -2.583211     -1.459222
  C       3.509413     -2.156925     -0.647253
  C       3.718883     -2.858242      0.715227
  C       4.928132     -2.297703      1.486014
  H       4.873739     -2.633090      2.534951
  H       5.859999     -2.721617      1.071665
  C       4.973895     -0.778385      1.385659
  H       5.810464     -0.370356      1.973618
  H       4.042922     -0.331020      1.772115
  C       5.156586     -0.381004     -0.069457
  H       6.139153     -0.754734     -0.417878
  C       5.056897      1.112296     -0.356923
  C       6.142822      1.952776      0.318694
  H       6.050041      1.875282      1.416177
  H       7.140459      1.545481      0.067974
  C       6.074992      3.425925     -0.085061
  H       6.853876      4.021277      0.417980
  H       5.096616      3.862427      0.176295
  H       6.209498      3.548468     -1.172961
  H       4.055990      1.453007     -0.048672
  H       5.118957      1.243731     -1.451025
  C       3.904938     -4.370818      0.433647
  H       4.003348     -4.919745      1.383183
  H       4.814421     -4.545063     -0.165463
  H       3.044440     -4.764070     -0.123390
  C       2.448252     -2.646717      1.490333
  H       2.480776     -2.634393      2.583375
  C       0.485175     -0.099622     -0.712481
  C       0.956431      0.265453      0.656597
  O       0.177112     -0.212970      1.645008
  C       0.582796      0.099370      2.972970
  H      -0.187212     -0.317106      3.634943
  H       1.560339     -0.354082      3.198276
  H       0.661191      1.188040      3.115800
  O       1.946364      0.932666      0.878751
  C      -0.539187     -0.951868     -0.872727
  H      -1.059694     -1.384574     -0.017075
  H      -0.870102     -1.242909     -1.873421
  C       1.254041      0.518275     -1.845569
  H       2.303113      0.189517     -1.824201
  H       1.254173      1.617758     -1.766062
  H       0.816743      0.226868     -2.810653
  H       1.482645     -2.707361      0.986256
  O       4.166923     -1.015240     -0.918735
44
Coordinates from ORCA-job orca E -886.384916544822
  O       2.726455     -2.581288     -1.457664
  C       3.508265     -2.154784     -0.646012
  C       3.717754     -2.856131      0.716048
  C       4.927440     -2.296285      1.486751
  H       4.873374     -2.631724      2.535681
  H       5.859165     -2.720294      1.072155
  C       4.974268     -0.777052      1.386622
  H       5.811955     -0.370276      1.973907
  H       4.044341     -0.328095      1.773701
  C       5.156830     -0.379984     -0.068745
  H       6.139092     -0.754711     -0.416969
  C       5.058435      1.113255     -0.356853
  C       6.146229      1.952906      0.316512
  H       6.056145      1.874822      1.414183
  H       7.143025      1.545241      0.063099
  C       6.078171      3.426263     -0.086474
  H       6.858849      4.020935      0.414586
  H       5.100808      3.863279      0.177802
  H       6.209679      3.549114     -1.174704
  H       4.058227      1.455219     -0.047713
  H       5.119128      1.242910     -1.451239
  C       3.904127     -4.368755      0.433858
  H       4.003300     -4.918254      1.382985
  H       4.813268     -4.542564     -0.165879
  H       3.043222     -4.761748     -0.122718
  C       2.447940     -2.645866      1.492651
  H       2.480334     -2.645486      2.585822
  C       0.484472     -0.101564     -0.713040
  C       0.954904      0.262837      0.656182
  O       0.173882     -0.213988      1.643939
  C       0.579727      0.096717      2.972275
  H      -0.190638     -0.320163      3.633557
  H       1.557152     -0.357171      3.197007
  H       0.658616      1.185306      3.115510
  O       1.944804      0.929919      0.879210
  C      -0.538676     -0.955156     -0.873968
  H      -1.058386     -1.389634     -0.018787
  H      -0.869288     -1.246278     -1.874760
  C       1.252627      0.518904     -1.845044
  H       2.301224      0.188617     -1.826046
  H       1.255272      1.618007     -1.760444
  H       0.814286      0.232776     -2.811219
  H       1.481550     -2.700205      0.989535
  O       4.166797     -1.013781     -0.918021
44
Coordinates from ORCA-job orca E -886.384922224660
  O       2.725746     -2.580245     -1.456714
  C       3.507769     -2.153783     -0.645229
  C       3.717637     -2.855276      0.716415
  C       4.927576     -2.295749      1.486911
  H       4.874134     -2.631591      2.535717
  H       5.859204     -2.719421      1.071717
  C       4.975089     -0.776488      1.387222
  H       5.813499     -0.370732      1.974166
  H       4.045951     -0.326210      1.774648
  C       5.157075     -0.379313     -0.068289
  H       6.139119     -0.754191     -0.416963
  C       5.059066      1.113885     -0.356731
  C       6.148118      1.952896      0.315158
  H       6.060068      1.873969      1.412938
  H       7.144328      1.545155      0.059582
  C       6.079805      3.426519     -0.086833
  H       6.861954      4.020536      0.412713
  H       5.103270      3.863885      0.179915
  H       6.208888      3.549805     -1.175297
  H       4.059186      1.456704     -0.047407
  H       5.118679      1.242115     -1.451348
  C       3.904217     -4.367969      0.434152
  H       4.004124     -4.917561      1.383126
  H       4.813067     -4.541453     -0.166107
  H       3.043017     -4.761062     -0.121896
  C       2.448331     -2.645699      1.493871
  H       2.479116     -2.651869      2.587047
  C       0.483949     -0.103275     -0.713172
  C       0.953832      0.261033      0.656059
  O       0.171898     -0.214591      1.643679
  C       0.577304      0.096091      2.972240
  H      -0.193471     -0.320732      3.633023
  H       1.554737     -0.357739      3.197262
  H       0.656606      1.184736      3.114869
  O       1.943578      0.928364      0.879295
  C      -0.539337     -0.956479     -0.875286
  H      -1.059162     -1.391227     -0.020257
  H      -0.869896     -1.247347     -1.876133
  C       1.251821      0.518480     -1.844567
  H       2.300391      0.187775     -1.827107
  H       1.256077      1.617381     -1.756862
  H       0.813418      0.236518     -2.811907
  H       1.481588     -2.696879      0.990991
  O       4.166783     -1.013177     -0.917328
44
Coordinates from ORCA-job orca E -886.384907919041
  O       2.724455     -2.578760     -1.455560
  C       3.507139     -2.152908     -0.644338
  C       3.717643     -2.854645      0.716972
  C       4.928002     -2.295408      1.486965
  H       4.875136     -2.631544      2.535687
  H       5.859318     -2.719122      1.071059
  C       4.976270     -0.776086      1.387493
  H       5.815252     -0.371070      1.974119
  H       4.047768     -0.324782      1.775337
  C       5.157337     -0.378718     -0.068097
  H       6.139131     -0.753318     -0.417762
  C       5.059170      1.114485     -0.356525
  C       6.149251      1.952980      0.314252
  H       6.062509      1.873677      1.412101
  H       7.144980      1.544922      0.057323
  C       6.081157      3.426736     -0.087302
  H       6.864486      4.020167      0.411089
  H       5.105323      3.864681      0.181043
  H       6.208630      3.550068     -1.175948
  H       4.059572      1.457844     -0.046824
  H       5.117645      1.242199     -1.451270
  C       3.903953     -4.367402      0.434834
  H       4.004460     -4.916763      1.383868
  H       4.812504     -4.540863     -0.165904
  H       3.042473     -4.760657     -0.120683
  C       2.448805     -2.645168      1.495109
  H       2.478306     -2.657191      2.588303
  C       0.483585     -0.104621     -0.713348
  C       0.952994      0.259578      0.656071
  O       0.170578     -0.215636      1.643519
  C       0.575492      0.095121      2.972282
  H      -0.195524     -0.321724      3.632727
  H       1.552954     -0.358698      3.197485
  H       0.655076      1.183767      3.114757
  O       1.942855      0.926714      0.879403
  C      -0.539845     -0.957327     -0.877062
  H      -1.060013     -1.392283     -0.022238
  H      -0.870080     -1.247529     -1.878135
  C       1.251420      0.518163     -1.844216
  H       2.299923      0.186806     -1.828133
  H       1.257007      1.616924     -1.754422
  H       0.812663      0.239547     -2.812349
  H       1.481797     -2.693632      0.992144
  O       4.166593     -1.012734     -0.916544
44
Coordinates from ORCA-job orca E -886.384919523564
  O       2.722314     -2.576490     -1.453727
  C       3.506148     -2.151666     -0.643023
  C       3.717413     -2.853681      0.717962
  C       4.928444     -2.294859      1.487216
  H       4.876025     -2.631007      2.535942
  H       5.859226     -2.719138      1.070649
  C       4.977780     -0.775527      1.387661
  H       5.817446     -0.371193      1.973779
  H       4.049996     -0.323243      1.776151
  C       5.157731     -0.378100     -0.068007
  H       6.139200     -0.752406     -0.418911
  C       5.059288      1.115130     -0.356282
  C       6.150504      1.953196      0.313175
  H       6.065111      1.873807      1.411118
  H       7.145726      1.544729      0.054949
  C       6.082599      3.427008     -0.088206
  H       6.867121      4.019951      0.408886
  H       5.107482      3.865568      0.181723
  H       6.208371      3.550226     -1.177064
  H       4.060093      1.458918     -0.045713
  H       5.116336      1.242857     -1.451099
  C       3.903131     -4.366503      0.435850
  H       4.004225     -4.915606      1.384965
  H       4.811296     -4.540125     -0.165454
  H       3.041293     -4.759813     -0.119081
  C       2.449118     -2.644096      1.496896
  H       2.478014     -2.663974      2.590054
  C       0.483366     -0.105885     -0.713773
  C       0.952246      0.257833      0.656046
  O       0.169259     -0.217359      1.643055
  C       0.573714      0.093067      2.972103
  H      -0.197458     -0.323992      3.632214
  H       1.551151     -0.360933      3.197195
  H       0.653468      1.181636      3.115064
  O       1.942494      0.924234      0.879694
  C      -0.540118     -0.958134     -0.879288
  H      -1.060795     -1.393561     -0.024933
  H      -0.869827     -1.247204     -1.880810
  C       1.251372      0.518083     -1.843912
  H       2.299574      0.185394     -1.829586
  H       1.258611      1.616669     -1.751896
  H       0.811543      0.242891     -2.812544
  H       1.481838     -2.688797      0.993833
  O       4.166283     -1.012116     -0.915591
44
Coordinates from ORCA-job orca E -886.384918796081
  O       2.722103     -2.576216     -1.453548
  C       3.506254     -2.151792     -0.642948
  C       3.717765     -2.853983      0.718007
  C       4.928735     -2.294951      1.487247
  H       4.876062     -2.630889      2.536033
  H       5.859469     -2.719538      1.070874
  C       4.978327     -0.775630      1.387401
  H       5.818053     -0.371340      1.973465
  H       4.050699     -0.323102      1.775946
  C       5.158014     -0.378222     -0.068253
  H       6.139414     -0.752283     -0.419597
  C       5.059262      1.115052     -0.356345
  C       6.150336      1.953229      0.313305
  H       6.064527      1.874110      1.411241
  H       7.145630      1.544637      0.055545
  C       6.082656      3.426963     -0.088377
  H       6.867006      4.019951      0.408927
  H       5.107457      3.865631      0.181070
  H       6.208894      3.549980     -1.177206
  H       4.060031      1.458691     -0.045710
  H       5.116221      1.243332     -1.451115
  C       3.903567     -4.366717      0.435745
  H       4.004592     -4.915788      1.384889
  H       4.811814     -4.540231     -0.165477
  H       3.041886     -4.760150     -0.119349
  C       2.449230     -2.644405      1.496580
  H       2.477820     -2.663411      2.589697
  C       0.483209     -0.105958     -0.713580
  C       0.952097      0.257577      0.656438
  O       0.169384     -0.218172      1.643436
  C       0.573123      0.093425      2.972459
  H      -0.198097     -0.323437      3.632647
  H       1.550648     -0.360024      3.198360
  H       0.652319      1.182101      3.114893
  O       1.942414      0.923840      0.880041
  C      -0.540791     -0.957498     -0.879469
  H      -1.062051     -1.392531     -0.025276
  H      -0.870447     -1.245946     -1.881176
  C       1.251664      0.517770     -1.843608
  H       2.299889      0.185117     -1.829344
  H       1.258747      1.616394     -1.751986
  H       0.811633      0.242437     -2.812119
  H       1.482301     -2.690017      0.993001
  O       4.166286     -1.012216     -0.915484
44
Coordinates from ORCA-job orca E -886.382828397992
  O       2.722649     -2.570796     -1.454068
  C       3.508298     -2.150264     -0.639118
  C       3.731058     -2.868450      0.737982
  C       4.941673     -2.300847      1.496368
  H       4.897629     -2.636337      2.545731
  H       5.874156     -2.717463      1.075777
  C       4.979566     -0.775945      1.386484
  H       5.820548     -0.366691      1.967324
  H       4.050746     -0.321680      1.773481
  C       5.155865     -0.379546     -0.068972
  H       6.138159     -0.752259     -0.419252
  C       5.055263      1.113381     -0.356868
  C       6.146556      1.949136      0.315457
  H       6.058153      1.869856      1.413179
  H       7.141591      1.538601      0.059778
  C       6.082761      3.423130     -0.085924
  H       6.867213      4.014373      0.413300
  H       5.107855      3.863697      0.181495
  H       6.211661      3.546224     -1.174436
  H       4.056119      1.459449     -0.048683
  H       5.116255      1.240709     -1.451310
  C       3.915992     -4.379761      0.447522
  H       4.026820     -4.932731      1.393368
  H       4.818667     -4.549618     -0.163173
  H       3.049451     -4.771896     -0.100949
  C       2.476127     -2.664720      1.531838
  H       2.504087     -2.679114      2.621411
  C       0.457636     -0.077743     -0.755789
  C       0.939211      0.263495      0.643590
  O       0.161684     -0.219922      1.637553
  C       0.575646      0.084394      2.973772
  H      -0.194251     -0.332287      3.635620
  H       1.560070     -0.369790      3.206814
  H       0.654555      1.173346      3.114252
  O       1.935130      0.926153      0.871894
  C      -0.564387     -0.931636     -0.900516
  H      -1.063821     -1.375351     -0.028277
  H      -0.911515     -1.225633     -1.894876
  C       1.234502      0.539459     -1.865866
  H       2.297664      0.193744     -1.840676
  H       1.252614      1.638040     -1.774573
  H       0.794524      0.271389     -2.836466
  H       1.480458     -2.701817      1.010199
  O       4.163513     -1.010490     -0.917116
44
Coordinates from ORCA-job orca E -886.384611770714
  O       2.709058     -2.579719     -1.429381
  C       3.501282     -2.156462     -0.625660
  C       3.730654     -2.868670      0.737866
  C       4.942755     -2.298114      1.495076
  H       4.902261     -2.633442      2.544527
  H       5.875547     -2.711910      1.072263
  C       4.978027     -0.777098      1.390159
  H       5.817299     -0.367630      1.973207
  H       4.048491     -0.324567      1.774557
  C       5.153594     -0.382533     -0.065550
  H       6.134231     -0.757296     -0.418399
  C       5.054026      1.110936     -0.355948
  C       6.146075      1.948246      0.313798
  H       6.058080      1.872022      1.411716
  H       7.140806      1.536573      0.058820
  C       6.083003      3.421261     -0.091407
  H       6.867841      4.013453      0.406094
  H       5.108384      3.863029      0.175074
  H       6.211734      3.541482     -1.180260
  H       4.054621      1.458018     -0.048286
  H       5.113453      1.237195     -1.450833
  C       3.923825     -4.375950      0.438373
  H       4.037401     -4.933862      1.380950
  H       4.827213     -4.537660     -0.173449
  H       3.059101     -4.769151     -0.112391
  C       2.472231     -2.673368      1.531459
  H       2.499771     -2.685162      2.623943
  C       0.457782     -0.069896     -0.740969
  C       0.940484      0.265778      0.643182
  O       0.163885     -0.222066      1.629912
  C       0.569440      0.084634      2.962125
  H      -0.204653     -0.330918      3.619469
  H       1.546043     -0.368121      3.197811
  H       0.648489      1.173453      3.102051
  O       1.933825      0.925806      0.871511
  C      -0.565118     -0.924269     -0.892131
  H      -1.063715     -1.367730     -0.029116
  H      -0.909626     -1.215233     -1.888541
  C       1.241362      0.542821     -1.857922
  H       2.286820      0.196498     -1.832237
  H       1.265496      1.641730     -1.770654
  H       0.804711      0.272197     -2.829555
  H       1.504732     -2.711541      1.023046
  O       4.157428     -1.016977     -0.907020
44
Coordinates from ORCA-job orca E -886.384737816904
  O       2.702713     -2.583242     -1.418431
  C       3.499118     -2.159434     -0.619839
  C       3.732919     -2.868682      0.737112
  C       4.944325     -2.297021      1.495879
  H       4.903346     -2.631696      2.545604
  H       5.877322     -2.710942      1.073845
  C       4.979327     -0.777587      1.392291
  H       5.817162     -0.366986      1.976653
  H       4.048819     -0.326676      1.775893
  C       5.153799     -0.384082     -0.064590
  H       6.133332     -0.759709     -0.419375
  C       5.055039      1.108898     -0.356424
  C       6.147050      1.947075      0.312114
  H       6.059134      1.872224      1.410147
  H       7.141787      1.535157      0.057550
  C       6.083762      3.419547     -0.094917
  H       6.868421      4.012463      0.401988
  H       5.109035      3.861478      0.170915
  H       6.212628      3.538516     -1.183894
  H       4.055807      1.455807     -0.048831
  H       5.113630      1.234943     -1.451452
  C       3.933616     -4.375460      0.437396
  H       4.050983     -4.933265      1.379652
  H       4.837110     -4.532654     -0.175364
  H       3.070304     -4.772858     -0.112302
  C       2.471488     -2.679307      1.530340
  H       2.501633     -2.689850      2.623141
  C       0.456947     -0.067953     -0.732943
  C       0.938917      0.266791      0.642914
  O       0.162473     -0.222900      1.627523
  C       0.564511      0.083896      2.958458
  H      -0.210939     -0.331970      3.614344
  H       1.539869     -0.369348      3.193846
  H       0.643858      1.172597      3.100485
  O       1.933080      0.924951      0.870934
  C      -0.570936     -0.915735     -0.893047
  H      -1.077363     -1.357510     -0.034536
  H      -0.912105     -1.200561     -1.892245
  C       1.240608      0.546419     -1.854196
  H       2.282958      0.198480     -1.828756
  H       1.265152      1.645271     -1.766997
  H       0.805191      0.275247     -2.826266
  H       1.506539     -2.718354      1.025456
  O       4.155782     -1.020191     -0.902792
44
Coordinates from ORCA-job orca E -886.384801147029
  O       2.698932     -2.583615     -1.413716
  C       3.498067     -2.160514     -0.617361
  C       3.734906     -2.868725      0.736531
  C       4.945025     -2.296580      1.497491
  H       4.902114     -2.630432      2.547417
  H       5.878122     -2.711913      1.077206
  C       4.980804     -0.777588      1.393543
  H       5.817624     -0.365639      1.978346
  H       4.049636     -0.328190      1.777289
  C       5.154202     -0.384980     -0.064336
  H       6.133037     -0.761277     -0.420315
  C       5.056072      1.107428     -0.357099
  C       6.147901      1.946392      0.310585
  H       6.060145      1.872415      1.408696
  H       7.142743      1.534569      0.056238
  C       6.084024      3.418480     -0.097660
  H       6.868411      4.012085      0.398848
  H       5.109108      3.860219      0.167781
  H       6.212907      3.536684     -1.186721
  H       4.056982      1.453744     -0.049042
  H       5.114012      1.233384     -1.452187
  C       3.941213     -4.375796      0.438524
  H       4.062104     -4.932085      1.381201
  H       4.844588     -4.530054     -0.175142
  H       3.078740     -4.777422     -0.109416
  C       2.471528     -2.683842      1.529575
  H       2.505322     -2.693661      2.622340
  C       0.456842     -0.068565     -0.729046
  C       0.937830      0.266814      0.643387
  O       0.161501     -0.223708      1.627905
  C       0.561844      0.082755      2.958636
  H      -0.213591     -0.333718      3.614285
  H       1.537194     -0.371242      3.192435
  H       0.641573      1.171196      3.103163
  O       1.933094      0.923883      0.871208
  C      -0.576549     -0.908377     -0.897695
  H      -1.092614     -1.347534     -0.043002
  H      -0.914334     -1.186756     -1.899632
  C       1.239262      0.548599     -1.852624
  H       2.281597      0.199780     -1.827626
  H       1.262424      1.647181     -1.763720
  H       0.804208      0.277819     -2.824848
  H       1.504458     -2.723800      1.026835
  O       4.155137     -1.021625     -0.900997
44
Coordinates from ORCA-job orca E -886.384837937164
  O       2.697711     -2.582365     -1.412834
  C       3.497933     -2.160306     -0.616805
  C       3.735854     -2.868751      0.736580
  C       4.945137     -2.296482      1.498935
  H       4.900549     -2.629758      2.548936
  H       5.878271     -2.713081      1.080014
  C       4.981586     -0.777369      1.394120
  H       5.817982     -0.364438      1.978759
  H       4.050058     -0.329077      1.778415
  C       5.154657     -0.385370     -0.064052
  H       6.133297     -0.762151     -0.420124
  C       5.056691      1.106727     -0.357388
  C       6.148261      1.946475      0.309668
  H       6.060696      1.873166      1.407834
  H       7.143258      1.534918      0.055468
  C       6.083661      3.418259     -0.099515
  H       6.867782      4.012536      0.396606
  H       5.108544      3.859686      0.165688
  H       6.212441      3.535863     -1.188649
  H       4.057591      1.452403     -0.048789
  H       5.114258      1.232382     -1.452493
  C       3.944401     -4.375951      0.439195
  H       4.066891     -4.931385      1.382114
  H       4.847734     -4.528808     -0.174893
  H       3.082285     -4.779509     -0.107987
  C       2.471742     -2.686204      1.529492
  H       2.508328     -2.695821      2.622153
  C       0.457412     -0.069978     -0.728347
  C       0.937800      0.266061      0.644056
  O       0.161196     -0.224564      1.628738
  C       0.561047      0.081615      2.959733
  H      -0.213925     -0.335342      3.615592
  H       1.536668     -0.372911      3.192098
  H       0.640922      1.169860      3.105773
  O       1.933489      0.922813      0.872033
  C      -0.580131     -0.903725     -0.901214
  H      -1.102861     -1.340495     -0.048798
  H      -0.916630     -1.177617     -1.904700
  C       1.239481      0.548392     -1.852311
  H       2.282330      0.199724     -1.827812
  H       1.261352      1.646765     -1.761461
  H       0.804034      0.278334     -2.824438
  H       1.503027     -2.726946      1.028431
  O       4.155337     -1.021786     -0.900539
44
Coordinates from ORCA-job orca E -886.384829557109
  O       2.697403     -2.580865     -1.412458
  C       3.498221     -2.159758     -0.616427
  C       3.736405     -2.868686      0.737084
  C       4.945337     -2.296461      1.500122
  H       4.899633     -2.629381      2.550155
  H       5.878454     -2.713925      1.082022
  C       4.982031     -0.777202      1.394605
  H       5.818243     -0.363502      1.978931
  H       4.050218     -0.329986      1.779543
  C       5.155284     -0.385654     -0.063495
  H       6.133968     -0.762839     -0.419089
  C       5.057175      1.106293     -0.357399
  C       6.148392      1.947016      0.308999
  H       6.061109      1.874302      1.407230
  H       7.143602      1.535923      0.054859
  C       6.082783      3.418524     -0.101020
  H       6.866595      4.013590      0.394651
  H       5.107412      3.859454      0.164082
  H       6.211310      3.535601     -1.190239
  H       4.057964      1.451260     -0.048337
  H       5.114450      1.231369     -1.452546
  C       3.945605     -4.375770      0.439157
  H       4.068627     -4.931167      1.382002
  H       4.848963     -4.527797     -0.175118
  H       3.083661     -4.779799     -0.108001
  C       2.472055     -2.687514      1.529888
  H       2.510845     -2.697210      2.622471
  C       0.458284     -0.071410     -0.728591
  C       0.938359      0.264826      0.644485
  O       0.161078     -0.225555      1.628917
  C       0.560851      0.080316      2.960210
  H      -0.213720     -0.337012      3.616257
  H       1.536641     -0.374600      3.191442
  H       0.640738      1.168425      3.107110
  O       1.934056      0.921495      0.872904
  C      -0.583307     -0.899599     -0.903055
  H      -1.111066     -1.333831     -0.052219
  H      -0.920128     -1.169820     -1.907411
  C       1.241043      0.546656     -1.852286
  H       2.284256      0.198555     -1.828364
  H       1.262151      1.644912     -1.759686
  H       0.804841      0.277366     -2.824214
  H       1.502259     -2.729062      1.030366
  O       4.156068     -1.021687     -0.900255
44
Coordinates from ORCA-job orca E -886.384839140813
  O       2.697205     -2.579288     -1.411700
  C       3.498620     -2.159034     -0.615812
  C       3.736779     -2.868481      0.737905
  C       4.945840     -2.296521      1.501036
  H       4.899634     -2.629319      2.551075
  H       5.878838     -2.714480      1.083182
  C       4.982416     -0.777176      1.395180
  H       5.818595     -0.362840      1.979131
  H       4.050345     -0.331203      1.780904
  C       5.156070     -0.385873     -0.062682
  H       6.134963     -0.763302     -0.417489
  C       5.057526      1.105993     -0.357151
  C       6.148276      1.947914      0.308446
  H       6.061458      1.875705      1.406759
  H       7.143754      1.537536      0.054187
  C       6.081241      3.419159     -0.102315
  H       6.864679      4.015185      0.392793
  H       5.105554      3.859350      0.162860
  H       6.209310      3.535774     -1.191638
  H       4.058134      1.450082     -0.047669
  H       5.114453      1.230228     -1.452386
  C       3.945725     -4.375359      0.438741
  H       4.068724     -4.931287      1.381284
  H       4.849071     -4.526965     -0.175675
  H       3.083768     -4.778929     -0.108723
  C       2.472569     -2.688060      1.530813
  H       2.513283     -2.698161      2.623352
  C       0.459512     -0.072797     -0.729275
  C       0.939474      0.263086      0.644529
  O       0.161118     -0.226763      1.628338
  C       0.561025      0.078615      2.959908
  H      -0.213290     -0.339052      3.616009
  H       1.536838     -0.376681      3.190139
  H       0.640895      1.166630      3.107323
  O       1.934966      0.919737      0.873662
  C      -0.586823     -0.894856     -0.903728
  H      -1.119019     -1.325998     -0.054092
  H      -0.925206     -1.161602     -1.908557
  C       1.243850      0.543656     -1.852498
  H       2.287259      0.196263     -1.829260
  H       1.264773      1.641864     -1.758382
  H       0.806707      0.275195     -2.824215
  H       1.502042     -2.730573      1.032914
  O       4.157198     -1.021584     -0.899941
44
Coordinates from ORCA-job orca E -886.384833852136
  O       2.696731     -2.578359     -1.410590
  C       3.498693     -2.158496     -0.615089
  C       3.736835     -2.868179      0.738677
  C       4.946541     -2.296692      1.501198
  H       4.900791     -2.629663      2.551210
  H       5.879280     -2.714643      1.082782
  C       4.982792     -0.777347      1.395577
  H       5.819115     -0.362811      1.979230
  H       4.050616     -0.332242      1.781975
  C       5.156573     -0.385899     -0.062115
  H       6.135681     -0.763203     -0.416432
  C       5.057475      1.105959     -0.356820
  C       6.147944      1.948682      0.308153
  H       6.061781      1.876420      1.406521
  H       7.143590      1.539042      0.053371
  C       6.079576      3.419882     -0.102573
  H       6.862868      4.016508      0.392043
  H       5.103718      3.859341      0.163185
  H       6.206885      3.536572     -1.191978
  H       4.057941      1.449377     -0.047083
  H       5.114036      1.229552     -1.452140
  C       3.944857     -4.374957      0.438489
  H       4.067686     -4.931549      1.380680
  H       4.847980     -4.526750     -0.176204
  H       3.082557     -4.777589     -0.109080
  C       2.473131     -2.687466      1.532079
  H       2.514709     -2.698244      2.624616
  C       0.460635     -0.073548     -0.730064
  C       0.940687      0.261638      0.644077
  O       0.161405     -0.227607      1.627333
  C       0.561551      0.077182      2.959051
  H      -0.212796     -0.340664      3.615000
  H       1.537238     -0.378427      3.188764
  H       0.641512      1.165153      3.106581
  O       1.935997      0.918261      0.873828
  C      -0.589184     -0.891351     -0.903488
  H      -1.123647     -1.320070     -0.054223
  H      -0.929342     -1.156277     -1.908279
  C       1.246535      0.540855     -1.853041
  H       2.289895      0.193786     -1.830249
  H       1.267972      1.639103     -1.758489
  H       0.808853      0.272886     -2.824665
  H       1.502382     -2.730731      1.035192
  O       4.158076     -1.021648     -0.899728
44
Coordinates from ORCA-job orca E -886.384854498020
  O       2.695644     -2.577654     -1.409036
  C       3.498334     -2.158020     -0.614200
  C       3.736726     -2.867760      0.739414
  C       4.947516     -2.296994      1.500764
  H       4.902979     -2.630384      2.550705
  H       5.879800     -2.714680      1.081095
  C       4.983410     -0.777671      1.395814
  H       5.820029     -0.363222      1.979139
  H       4.051258     -0.333217      1.782945
  C       5.156800     -0.385744     -0.061787
  H       6.136115     -0.762540     -0.416039
  C       5.056936      1.106147     -0.356365
  C       6.147263      1.949340      0.308119
  H       6.061848      1.876684      1.406533
  H       7.142993      1.540389      0.052581
  C       6.077739      3.420621     -0.102132
  H       6.861039      4.017566      0.392086
  H       5.101810      3.859425      0.164442
  H       6.204200      3.537681     -1.191596
  H       4.057283      1.448971     -0.046382
  H       5.112999      1.229395     -1.451764
  C       3.943305     -4.374612      0.438675
  H       4.066058     -4.931736      1.380583
  H       4.845955     -4.527117     -0.176519
  H       3.080327     -4.776146     -0.108605
  C       2.473872     -2.685931      1.533752
  H       2.515762     -2.697763      2.626301
  C       0.461780     -0.073922     -0.730954
  C       0.942030      0.260377      0.643248
  O       0.161998     -0.228251      1.626116
  C       0.562471      0.075742      2.957917
  H      -0.212060     -0.342230      3.613579
  H       1.537965     -0.380245      3.187279
  H       0.642699      1.163678      3.105521
  O       1.937303      0.916838      0.873530
  C      -0.590829     -0.888441     -0.903233
  H      -1.126502     -1.315099     -0.053868
  H      -0.932608     -1.152494     -1.907775
  C       1.249112      0.538278     -1.853916
  H       2.292288      0.191075     -1.831401
  H       1.271547      1.636614     -1.759723
  H       0.811223      0.270607     -2.825564
  H       1.503064     -2.729900      1.037562
  O       4.158669     -1.021867     -0.899564
44
Coordinates from ORCA-job orca E -886.384849578144
  O       2.693180     -2.576528     -1.406212
  C       3.497373     -2.157402     -0.612657
  C       3.736523     -2.867079      0.740572
  C       4.949276     -2.297661      1.499772
  H       4.906972     -2.631768      2.549598
  H       5.880615     -2.715090      1.077773
  C       4.984917     -0.778326      1.395934
  H       5.822098     -0.364132      1.978653
  H       4.052936     -0.334668      1.784300
  C       5.157037     -0.385501     -0.061673
  H       6.136566     -0.761223     -0.416430
  C       5.055776      1.106462     -0.355749
  C       6.145971      1.950212      0.308104
  H       6.061931      1.876456      1.406557
  H       7.141821      1.542538      0.051010
  C       6.074393      3.421789     -0.100739
  H       6.857767      4.019100      0.392919
  H       5.098380      3.859358      0.167550
  H       6.199234      3.539916     -1.190273
  H       4.055998      1.448378     -0.045263
  H       5.110878      1.229616     -1.451226
  C       3.940531     -4.374244      0.439751
  H       4.063560     -4.931704      1.381439
  H       4.842163     -4.528269     -0.176542
  H       3.076197     -4.774315     -0.106434
  C       2.475169     -2.682960      1.536661
  H       2.517468     -2.696769      2.629201
  C       0.463618     -0.074295     -0.732376
  C       0.944217      0.258660      0.641734
  O       0.163289     -0.229075      1.624270
  C       0.564280      0.073515      2.956201
  H      -0.210548     -0.344638      3.611412
  H       1.539485     -0.383226      3.184943
  H       0.645170      1.161346      3.104218
  O       1.939757      0.914542      0.872635
  C      -0.592920     -0.884028     -0.903695
  H      -1.130254     -1.307730     -0.054055
  H      -0.936580     -1.147012     -1.907910
  C       1.252845      0.534738     -1.855580
  H       2.295668      0.186727     -1.833329
  H       1.277080      1.633210     -1.762539
  H       0.814859      0.267366     -2.827295
  H       1.504127     -2.727994      1.041430
  O       4.159325     -1.022502     -0.899378
44
Coordinates from ORCA-job orca E -886.384853251660
  O       2.690971     -2.575628     -1.404304
  C       3.496315     -2.156958     -0.611653
  C       3.736259     -2.866542      0.741262
  C       4.950523     -2.298153      1.498729
  H       4.910035     -2.632855      2.548438
  H       5.881052     -2.715454      1.074808
  C       4.986211     -0.778767      1.395744
  H       5.823889     -0.364937      1.977976
  H       4.054502     -0.335311      1.785029
  C       5.156869     -0.385118     -0.061923
  H       6.136448     -0.759794     -0.417633
  C       5.054470      1.106935     -0.355209
  C       6.144791      1.950647      0.308444
  H       6.061430      1.876247      1.406902
  H       7.140606      1.543396      0.050518
  C       6.072622      3.422408     -0.099610
  H       6.856225      4.019632      0.393788
  H       5.096707      3.859647      0.169561
  H       6.196694      3.541071     -1.189175
  H       4.054671      1.448357     -0.044238
  H       5.108794      1.230660     -1.450676
  C       3.938130     -4.374083      0.441030
  H       4.061518     -4.931346      1.382783
  H       4.838889     -4.529531     -0.176169
  H       3.072684     -4.773342     -0.104007
  C       2.476079     -2.680299      1.538793
  H       2.518464     -2.695887      2.631313
  C       0.464639     -0.074207     -0.733298
  C       0.945461      0.257900      0.640697
  O       0.164300     -0.229533      1.623237
  C       0.565710      0.071959      2.955246
  H      -0.209260     -0.346345      3.610186
  H       1.540754     -0.385359      3.183527
  H       0.647194      1.159677      3.103854
  O       1.941483      0.913052      0.871816
  C      -0.593169     -0.882344     -0.904735
  H      -1.130750     -1.305013     -0.054721
  H      -0.937232     -1.145323     -1.908796
  C       1.254693      0.533288     -1.856768
  H       2.297180      0.184110     -1.834520
  H       1.280312      1.631861     -1.765060
  H       0.816830      0.265948     -2.828564
  H       1.504830     -2.725955      1.043975
  O       4.159328     -1.022921     -0.899315
44
Coordinates from ORCA-job orca E -886.384860572627
  O       2.686874     -2.573619     -1.401128
  C       3.494364     -2.156122     -0.609955
  C       3.735785     -2.865581      0.742492
  C       4.952537     -2.298911      1.497088
  H       4.914823     -2.634471      2.546609
  H       5.881581     -2.716440      1.070094
  C       4.988766     -0.779391      1.395223
  H       5.827359     -0.366147      1.976473
  H       4.057666     -0.336085      1.786229
  C       5.156586     -0.384463     -0.062558
  H       6.136112     -0.757322     -0.420280
  C       5.052149      1.107753     -0.354347
  C       6.142810      1.951317      0.308983
  H       6.060410      1.876106      1.407451
  H       7.138524      1.544516      0.049914
  C       6.070021      3.423331     -0.098048
  H       6.853996      4.020365      0.394991
  H       5.094290      3.860259      0.172290
  H       6.193091      3.542666     -1.187652
  H       4.052422      1.448346     -0.042224
  H       5.104978      1.232998     -1.449739
  C       3.934006     -4.373800      0.443621
  H       4.058132     -4.930301      1.385706
  H       4.833297     -4.531678     -0.175101
  H       3.066761     -4.772042     -0.099346
  C       2.477478     -2.675783      1.542394
  H       2.520592     -2.694892      2.634842
  C       0.466177     -0.073973     -0.734720
  C       0.947286      0.256861      0.639192
  O       0.165875     -0.230396      1.621734
  C       0.567960      0.069033      2.953950
  H      -0.207078     -0.349653      3.608553
  H       1.542806     -0.389423      3.181107
  H       0.650526      1.156458      3.104204
  O       1.944499      0.910235      0.870561
  C      -0.593085     -0.879997     -0.907489
  H      -1.131303     -1.301578     -0.057192
  H      -0.936936     -1.142632     -1.911613
  C       1.257365      0.531661     -1.858589
  H       2.299190      0.179915     -1.836336
  H       1.285278      1.630338     -1.769033
  H       0.819471      0.264388     -2.830401
  H       1.505567     -2.722447      1.048504
  O       4.159144     -1.023606     -0.899172
44
Coordinates from ORCA-job orca E -886.384862662580
  O       2.684112     -2.571866     -1.399055
  C       3.493129     -2.155422     -0.608805
  C       3.735412     -2.864822      0.743445
  C       4.953741     -2.299253      1.496231
  H       4.917471     -2.635168      2.545677
  H       5.881742     -2.717345      1.067491
  C       4.990665     -0.779667      1.394751
  H       5.829972     -0.366777      1.975179
  H       4.060089     -0.336333      1.787072
  C       5.156618     -0.384119     -0.063082
  H       6.136055     -0.755902     -0.422173
  C       5.050811      1.108197     -0.353871
  C       6.141685      1.951779      0.309192
  H       6.059798      1.876289      1.407673
  H       7.137356      1.545230      0.049565
  C       6.068453      3.423894     -0.097409
  H       6.852528      4.020941      0.395467
  H       5.092755      3.860585      0.173442
  H       6.191061      3.543532     -1.187031
  H       4.051226      1.448192     -0.040680
  H       5.102561      1.234711     -1.449167
  C       3.931210     -4.373442      0.445399
  H       4.055781     -4.929349      1.387768
  H       4.829591     -4.532856     -0.174265
  H       3.062880     -4.771094     -0.096286
  C       2.478207     -2.672951      1.544749
  H       2.522530     -2.694829      2.637110
  C       0.467079     -0.073872     -0.735636
  C       0.948313      0.256180      0.638403
  O       0.166611     -0.231036      1.620792
  C       0.569181      0.066839      2.953202
  H      -0.205753     -0.352183      3.607706
  H       1.543918     -0.392481      3.179288
  H       0.652432      1.154006      3.104977
  O       1.946567      0.907911      0.869952
  C      -0.592921     -0.878632     -0.909721
  H      -1.131891     -1.299873     -0.059603
  H      -0.936280     -1.140563     -1.914147
  C       1.259090      0.530948     -1.859557
  H       2.300333      0.177121     -1.837370
  H       1.288554      1.629630     -1.770967
  H       0.820767      0.263863     -2.831234
  H       1.505611     -2.720232      1.051875
  O       4.159102     -1.023989     -0.899065
44
Coordinates from ORCA-job orca E -886.384865408087
  O       2.682995     -2.570680     -1.398482
  C       3.492539     -2.154840     -0.608414
  C       3.735001     -2.864227      0.743924
  C       4.953864     -2.299070      1.496146
  H       4.917674     -2.634860      2.545634
  H       5.881370     -2.717945      1.067083
  C       4.991649     -0.779475      1.394392
  H       5.831486     -0.366873      1.974242
  H       4.061591     -0.335709      1.787516
  C       5.156732     -0.383874     -0.063478
  H       6.136011     -0.755335     -0.423339
  C       5.050445      1.108503     -0.353737
  C       6.141628      1.951964      0.309163
  H       6.059664      1.876876      1.407663
  H       7.137208      1.545055      0.049722
  C       6.068822      3.423989     -0.097844
  H       6.852890      4.020998      0.395088
  H       5.093153      3.860972      0.172636
  H       6.191746      3.543332     -1.187464
  H       4.051098      1.448353     -0.039621
  H       5.101588      1.236091     -1.448931
  C       3.929834     -4.372983      0.446192
  H       4.054353     -4.928529      1.388772
  H       4.828035     -4.532969     -0.173608
  H       3.061287     -4.770503     -0.095248
  C       2.478108     -2.671755      1.545697
  H       2.523758     -2.695779      2.637988
  C       0.467010     -0.073738     -0.735923
  C       0.948157      0.256003      0.638382
  O       0.166231     -0.231369      1.620515
  C       0.569082      0.065451      2.953086
  H      -0.205627     -0.353876      3.607657
  H       1.543801     -0.394370      3.178317
  H       0.652576      1.152421      3.106183
  O       1.947277      0.906307      0.870044
  C      -0.592123     -0.879330     -0.911083
  H      -1.131020     -1.301598     -0.061342
  H      -0.934578     -1.140893     -1.915880
  C       1.259215      0.531662     -1.859586
  H       2.299958      0.176172     -1.837508
  H       1.289530      1.630248     -1.770853
  H       0.820212      0.264872     -2.831036
  H       1.504956     -2.719057      1.053660
  O       4.158963     -1.023841     -0.899045
44
Coordinates from ORCA-job orca E -886.384870810076
  O       2.681607     -2.568694     -1.397684
  C       3.491714     -2.153580     -0.607780
  C       3.734067     -2.862854      0.744834
  C       4.953781     -2.298419      1.496262
  H       4.917484     -2.633788      2.545881
  H       5.880493     -2.718786      1.066953
  C       4.993199     -0.778897      1.393908
  H       5.834195     -0.366987      1.972588
  H       4.064259     -0.334172      1.788603
  C       5.157161     -0.383418     -0.064012
  H       6.136176     -0.754712     -0.424749
  C       5.050409      1.109061     -0.353585
  C       6.142232      1.952372      0.308741
  H       6.060388      1.877966      1.407298
  H       7.137608      1.544905      0.049397
  C       6.069924      3.424243     -0.098908
  H       6.853999      4.021262      0.394006
  H       5.094296      3.861604      0.171133
  H       6.193154      3.543134     -1.188542
  H       4.051588      1.448741     -0.037674
  H       5.100479      1.238169     -1.448632
  C       3.927507     -4.371773      0.447195
  H       4.051846     -4.927057      1.389963
  H       4.825469     -4.532526     -0.172778
  H       3.058649     -4.768875     -0.094046
  C       2.477677     -2.669833      1.547379
  H       2.526051     -2.698240      2.639512
  C       0.466700     -0.073726     -0.736522
  C       0.947673      0.255224      0.638322
  O       0.164786     -0.231901      1.619738
  C       0.568246      0.062749      2.952617
  H      -0.206121     -0.357173      3.607225
  H       1.542875     -0.397995      3.176211
  H       0.652075      1.149361      3.108031
  O       1.948318      0.902872      0.870486
  C      -0.591057     -0.880743     -0.912827
  H      -1.129710     -1.304928     -0.063857
  H      -0.932371     -1.141582     -1.918193
  C       1.259392      0.532727     -1.859468
  H       2.299110      0.174213     -1.837832
  H       1.291528      1.631071     -1.769551
  H       0.818847      0.266987     -2.830516
  H       1.503506     -2.716924      1.057189
  O       4.158942     -1.023287     -0.899041
44
Coordinates from ORCA-job orca E -886.384872403689
  O       2.680852     -2.567128     -1.397053
  C       3.491107     -2.152203     -0.607213
  C       3.733083     -2.861289      0.745618
  C       4.953463     -2.297527      1.496580
  H       4.916983     -2.632434      2.546351
  H       5.879611     -2.719137      1.067269
  C       4.994351     -0.778132      1.393735
  H       5.836591     -0.367073      1.971259
  H       4.066581     -0.332334      1.789944
  C       5.157635     -0.382914     -0.064269
  H       6.136415     -0.754461     -0.425363
  C       5.050940      1.109614     -0.353544
  C       6.143563      1.952718      0.307903
  H       6.062345      1.878688      1.406540
  H       7.138653      1.544844      0.048108
  C       6.071428      3.424525     -0.099999
  H       6.855703      4.021506      0.392641
  H       5.095940      3.862095      0.170219
  H       6.194393      3.543261     -1.189685
  H       4.052649      1.449336     -0.036001
  H       5.099991      1.239421     -1.448547
  C       3.925735     -4.370308      0.447722
  H       4.049892     -4.925721      1.390450
  H       4.823557     -4.531477     -0.172350
  H       3.056661     -4.766910     -0.093511
  C       2.477157     -2.668301      1.548904
  H       2.527852     -2.701224      2.640873
  C       0.466225     -0.074005     -0.737093
  C       0.946986      0.253969      0.638177
  O       0.162673     -0.232238      1.618813
  C       0.566737      0.060168      2.952005
  H      -0.207489     -0.360333      3.606427
  H       1.541220     -0.401425      3.174161
  H       0.650861      1.146493      3.109315
  O       1.948886      0.899318      0.871079
  C      -0.590545     -0.882167     -0.913767
  H      -1.128838     -1.308017     -0.065480
  H      -0.931296     -1.142495     -1.919498
  C       1.259381      0.533386     -1.859230
  H       2.298104      0.172241     -1.838241
  H       1.293526      1.631446     -1.767332
  H       0.817432      0.269295     -2.830108
  H       1.502144     -2.714835      1.060471
  O       4.159012     -1.022445     -0.898999
44
Coordinates from ORCA-job orca E -886.384885274197
  O       2.680368     -2.565452     -1.396252
  C       3.490448     -2.150236     -0.606419
  C       3.731793     -2.859013      0.746559
  C       4.952975     -2.296171      1.497101
  H       4.916468     -2.630607      2.547033
  H       5.878540     -2.718980      1.067733
  C       4.995623     -0.776952      1.393958
  H       5.839660     -0.367300      1.969946
  H       4.069517     -0.329560      1.792182
  C       5.158225     -0.382075     -0.064209
  H       6.136708     -0.754301     -0.425391
  C       5.052120      1.110492     -0.353454
  C       6.146083      1.953181      0.306374
  H       6.066415      1.879284      1.405144
  H       7.140633      1.544870      0.045211
  C       6.073909      3.424994     -0.101464
  H       6.858886      4.021781      0.390278
  H       5.098846      3.862805      0.169906
  H       6.195597      3.543757     -1.191292
  H       4.054569      1.450555     -0.033972
  H       5.099751      1.240220     -1.448519
  C       3.923874     -4.368145      0.448109
  H       4.048044     -4.924038      1.390575
  H       4.821436     -4.529576     -0.172263
  H       3.054428     -4.764036     -0.093009
  C       2.476534     -2.666525      1.550930
  H       2.529481     -2.705870      2.642662
  C       0.465424     -0.074824     -0.737852
  C       0.945835      0.251637      0.637848
  O       0.159120     -0.232525      1.617444
  C       0.563993      0.056760      2.951055
  H      -0.210307     -0.364495      3.604924
  H       1.538203     -0.405936      3.171537
  H       0.648638      1.142760      3.110431
  O       1.949124      0.894338      0.871990
  C      -0.590562     -0.883994     -0.914524
  H      -1.128320     -1.311655     -0.066966
  H      -0.931101     -1.143885     -1.920514
  C       1.259076      0.533731     -1.858882
  H       2.296565      0.169469     -1.839025
  H       1.296199      1.631350     -1.763490
  H       0.815589      0.272774     -2.829920
  H       1.500626     -2.711798      1.064519
  O       4.159116     -1.021018     -0.898753
44
Coordinates from ORCA-job orca E -886.384888510374
  O       2.679956     -2.563726     -1.395147
  C       3.489719     -2.147894     -0.605341
  C       3.730529     -2.856357      0.747562
  C       4.952514     -2.294583      1.497774
  H       4.916231     -2.628693      2.547819
  H       5.877570     -2.718293      1.068217
  C       4.997022     -0.775515      1.394604
  H       5.843151     -0.367672      1.968892
  H       4.072877     -0.326136      1.795052
  C       5.158802     -0.380909     -0.063806
  H       6.136886     -0.754106     -0.425060
  C       5.053757      1.111682     -0.353314
  C       6.149627      1.953642      0.304162
  H       6.072598      1.879359      1.403100
  H       7.143339      1.544931      0.040460
  C       6.077190      3.425625     -0.103023
  H       6.863581      4.021910      0.387076
  H       5.102958      3.863774      0.170797
  H       6.196334      3.544735     -1.193094
  H       4.057068      1.452493     -0.031954
  H       5.099577      1.240384     -1.448554
  C       3.922318     -4.365631      0.448549
  H       4.046846     -4.922110      1.390624
  H       4.819479     -4.527143     -0.172343
  H       3.052371     -4.760869     -0.092219
  C       2.476063     -2.664702      1.553221
  H       2.530185     -2.711786      2.644649
  C       0.464297     -0.076229     -0.738635
  C       0.944214      0.248410      0.637398
  O       0.154463     -0.232810      1.615920
  C       0.560140      0.052906      2.950035
  H      -0.214517     -0.369167      3.602956
  H       1.533993     -0.411045      3.168935
  H       0.645643      1.138567      3.111363
  O       1.948851      0.888526      0.873029
  C      -0.591238     -0.886004     -0.915430
  H      -1.128417     -1.315264     -0.068451
  H      -0.931831     -1.145591     -1.921556
  C       1.258299      0.533690     -1.858442
  H       2.294565      0.166313     -1.840156
  H       1.299051      1.630753     -1.758475
  H       0.813584      0.277351     -2.830137
  H       1.499442     -2.707892      1.068362
  O       4.159065     -1.019133     -0.898138
44
Coordinates from ORCA-job orca E -886.384898616237
  O       2.679510     -2.562195     -1.393909
  C       3.489128     -2.145894     -0.604192
  C       3.729866     -2.854232      0.748414
  C       4.952412     -2.293255      1.498441
  H       4.916498     -2.627343      2.548500
  H       5.877145     -2.717329      1.068550
  C       4.998368     -0.774247      1.395472
  H       5.846216     -0.367981      1.968415
  H       4.075866     -0.323128      1.797659
  C       5.159197     -0.379749     -0.063183
  H       6.136850     -0.753780     -0.424750
  C       5.055209      1.112845     -0.353103
  C       6.153024      1.953940      0.301970
  H       6.078864      1.878982      1.401062
  H       7.145808      1.544857      0.035402
  C       6.080363      3.426155     -0.104327
  H       6.868579      4.021684      0.383739
  H       5.107223      3.864831      0.172515
  H       6.196407      3.545653     -1.194685
  H       4.059250      1.454622     -0.030506
  H       5.099260      1.240005     -1.448585
  C       3.921664     -4.363626      0.449114
  H       4.046806     -4.920435      1.390910
  H       4.818446     -4.525012     -0.172341
  H       3.051304     -4.758626     -0.091161
  C       2.475982     -2.663393      1.555047
  H       2.529569     -2.717339      2.646211
  C       0.463064     -0.077892     -0.739152
  C       0.942491      0.245239      0.637090
  O       0.150154     -0.233238      1.614857
  C       0.556313      0.049684      2.949422
  H      -0.218817     -0.373004      3.601355
  H       1.529845     -0.415328      3.167291
  H       0.642813      1.135079      3.112103
  O       1.948091      0.883507      0.873905
  C      -0.592565     -0.887432     -0.916746
  H      -1.129597     -1.317519     -0.070141
  H      -0.933222     -1.146592     -1.922968
  C       1.257210      0.533304     -1.857979
  H       2.292694      0.163747     -1.841337
  H       1.301067      1.629876     -1.753804
  H       0.811886      0.281840     -2.830641
  H       1.499128     -2.704121      1.070520
  O       4.158782     -1.017371     -0.897170
44
Coordinates from ORCA-job orca E -886.384896836764
  O       2.678753     -2.560306     -1.392338
  C       3.488565     -2.143934     -0.602805
  C       3.729743     -2.852405      0.749348
  C       4.952640     -2.291941      1.499257
  H       4.917042     -2.626120      2.549277
  H       5.877137     -2.716204      1.069024
  C       4.999958     -0.772925      1.396443
  H       5.849313     -0.368085      1.968191
  H       4.078975     -0.320060      1.800112
  C       5.159569     -0.378491     -0.062446
  H       6.136677     -0.753235     -0.424792
  C       5.056625      1.114102     -0.352825
  C       6.156616      1.954127      0.299661
  H       6.085493      1.878490      1.398912
  H       7.148322      1.544427      0.030049
  C       6.084075      3.426580     -0.105816
  H       6.874582      4.021100      0.379772
  H       5.112339      3.866197      0.174436
  H       6.196580      3.546259     -1.196519
  H       4.061390      1.457133     -0.029278
  H       5.098705      1.239551     -1.448586
  C       3.921717     -4.361882      0.449969
  H       4.047674     -4.918717      1.391629
  H       4.818139     -4.522974     -0.172070
  H       3.051055     -4.757042     -0.089712
  C       2.476156     -2.662379      1.556548
  H       2.527768     -2.723331      2.647438
  C       0.461441     -0.079894     -0.739470
  C       0.940315      0.241877      0.637058
  O       0.145652     -0.234158      1.614178
  C       0.551984      0.046459      2.949217
  H      -0.223660     -0.376721      3.600185
  H       1.525217     -0.419556      3.166339
  H       0.639630      1.131592      3.113077
  O       1.946831      0.878436      0.874834
  C      -0.594484     -0.888716     -0.918794
  H      -1.131749     -1.319321     -0.072514
  H      -0.935011     -1.147032     -1.925228
  C       1.255690      0.532865     -1.857289
  H       2.290630      0.161519     -1.842613
  H       1.302442      1.628937     -1.748863
  H       0.809921      0.286948     -2.831132
  H       1.499501     -2.699889      1.071160
  O       4.158192     -1.015490     -0.895744
44
Coordinates from ORCA-job orca E -886.384902486646
  O       2.677939     -2.558673     -1.390955
  C       3.488289     -2.142760     -0.601681
  C       3.730204     -2.851577      0.750092
  C       4.953087     -2.291112      1.500029
  H       4.917388     -2.625276      2.550040
  H       5.877514     -2.715572      1.069790
  C       5.001249     -0.772052      1.397053
  H       5.851333     -0.367865      1.968180
  H       4.081091     -0.318118      1.801382
  C       5.159880     -0.377682     -0.061960
  H       6.136535     -0.752731     -0.425255
  C       5.057489      1.114916     -0.352592
  C       6.158947      1.954198      0.298219
  H       6.089550      1.878416      1.397565
  H       7.149916      1.543823      0.026935
  C       6.086901      3.426718     -0.107092
  H       6.879024      4.020469      0.376794
  H       5.116190      3.867310      0.175167
  H       6.197261      3.546174     -1.198033
  H       4.062710      1.458927     -0.028591
  H       5.098194      1.239474     -1.448510
  C       3.922414     -4.361031      0.450720
  H       4.048969     -4.917652      1.392415
  H       4.818677     -4.521804     -0.171660
  H       3.051713     -4.756612     -0.088602
  C       2.476445     -2.661982      1.557117
  H       2.525831     -2.727504      2.647833
  C       0.460007     -0.081383     -0.739508
  C       0.938543      0.239574      0.637321
  O       0.142738     -0.235447      1.614056
  C       0.548900      0.044286      2.949391
  H      -0.227015     -0.379030      3.599912
  H       1.521976     -0.422296      3.166231
  H       0.637262      1.129268      3.113893
  O       1.945711      0.874948      0.875494
  C      -0.596369     -0.889192     -0.920652
  H      -1.134243     -1.319847     -0.074660
  H      -0.936662     -1.146339     -1.927398
  C       1.254448      0.532565     -1.856597
  H       2.289196      0.160298     -1.843545
  H       1.302788      1.628342     -1.745573
  H       0.808200      0.290520     -2.831169
  H       1.500338     -2.696671      1.070129
  O       4.157591     -1.014230     -0.894444
44
Coordinates from ORCA-job orca E -886.384900981493
  O       2.677091     -2.557087     -1.389564
  C       3.488216     -2.141924     -0.600644
  C       3.730971     -2.851176      0.750825
  C       4.953590     -2.290362      1.500921
  H       4.917328     -2.624242      2.550995
  H       5.878028     -2.715257      1.071106
  C       5.002453     -0.771293      1.397394
  H       5.852932     -0.367373      1.968117
  H       4.082823     -0.316535      1.801993
  C       5.160265     -0.377140     -0.061700
  H       6.136466     -0.752373     -0.426048
  C       5.058241      1.115478     -0.352432
  C       6.160807      1.954203      0.297204
  H       6.092309      1.878695      1.396622
  H       7.151228      1.543035      0.025149
  C       6.089544      3.426680     -0.108397
  H       6.882824      4.019822      0.374337
  H       5.119599      3.868282      0.174905
  H       6.198722      3.545663     -1.199509
  H       4.063860      1.460356     -0.028042
  H       5.097858      1.239818     -1.448421
  C       3.923575     -4.360488      0.451407
  H       4.050394     -4.916850      1.393218
  H       4.819926     -4.520863     -0.170971
  H       3.053122     -4.756599     -0.087935
  C       2.476694     -2.661843      1.557144
  H       2.523960     -2.731025      2.647722
  C       0.458461     -0.082629     -0.739461
  C       0.936840      0.237575      0.637778
  O       0.140460     -0.237241      1.614186
  C       0.546306      0.042380      2.949701
  H      -0.229721     -0.380804      3.600164
  H       1.519268     -0.424550      3.166432
  H       0.635080      1.127264      3.114601
  O       1.944711      0.871692      0.876122
  C      -0.598542     -0.889180     -0.922305
  H      -1.137315     -1.319705     -0.076697
  H      -0.938612     -1.144762     -1.929470
  C       1.253295      0.532321     -1.855854
  H       2.287911      0.159330     -1.844502
  H       1.302690      1.627879     -1.742937
  H       0.806134      0.293308     -2.830764
  H       1.501397     -2.693506      1.068103
  O       4.156961     -1.013183     -0.893213
44
Coordinates from ORCA-job orca E -886.384901160098
  O       2.676355     -2.555845     -1.388346
  C       3.488203     -2.141304     -0.599818
  C       3.731613     -2.850896      0.751461
  C       4.954007     -2.289705      1.501683
  H       4.917107     -2.623096      2.551898
  H       5.878442     -2.715197      1.072443
  C       5.003426     -0.770682      1.397504
  H       5.854189     -0.366881      1.967890
  H       4.084173     -0.315298      1.802257
  C       5.160663     -0.376804     -0.061648
  H       6.136493     -0.752213     -0.426819
  C       5.058902      1.115865     -0.352268
  C       6.162158      1.954280      0.296724
  H       6.093839      1.879345      1.396199
  H       7.152284      1.542394      0.024667
  C       6.091687      3.426633     -0.109464
  H       6.885466      4.019467      0.372824
  H       5.122108      3.868998      0.173895
  H       6.200693      3.545090     -1.200653
  H       4.064863      1.461312     -0.027363
  H       5.097803      1.240626     -1.448238
  C       3.924496     -4.360053      0.451900
  H       4.051288     -4.916313      1.393782
  H       4.821006     -4.520185     -0.170332
  H       3.054301     -4.756472     -0.087641
  C       2.476825     -2.661599      1.557045
  H       2.522926     -2.733593      2.647499
  C       0.457111     -0.083522     -0.739533
  C       0.935599      0.235780      0.638088
  O       0.138902     -0.239134      1.614195
  C       0.544555      0.040689      2.949749
  H      -0.231489     -0.382159      3.600419
  H       1.517422     -0.426459      3.166419
  H       0.633463      1.125534      3.114827
  O       1.944243      0.868515      0.876591
  C      -0.600623     -0.888856     -0.923277
  H      -1.140227     -1.319210     -0.078077
  H      -0.940690     -1.142953     -1.930807
  C       1.252420      0.532019     -1.855366
  H       2.286780      0.158185     -1.845593
  H       1.302640      1.627415     -1.741231
  H       0.803977      0.294893     -2.830180
  H       1.502289     -2.690470      1.066309
  O       4.156461     -1.012351     -0.892332
44
Coordinates from ORCA-job orca E -886.384902618394
  O       2.675963     -2.555056     -1.387359
  C       3.488320     -2.140802     -0.599206
  C       3.732142     -2.850571      0.751964
  C       4.954318     -2.289041      1.502368
  H       4.916721     -2.621789      2.552779
  H       5.878785     -2.715212      1.073864
  C       5.004207     -0.770112      1.397493
  H       5.855251     -0.366421      1.967550
  H       4.085276     -0.314174      1.802311
  C       5.161045     -0.376539     -0.061744
  H       6.136555     -0.752197     -0.427497
  C       5.059583      1.116194     -0.352110
  C       6.163298      1.954344      0.296621
  H       6.094801      1.880005      1.396132
  H       7.153256      1.541830      0.024911
  C       6.093579      3.426573     -0.110138
  H       6.887433      4.019256      0.372222
  H       5.124098      3.869449      0.172759
  H       6.202995      3.544650     -1.201331
  H       4.065870      1.462021     -0.026565
  H       5.098061      1.241762     -1.448009
  C       3.925335     -4.359563      0.452242
  H       4.051882     -4.915873      1.394135
  H       4.822069     -4.519551     -0.169708
  H       3.055398     -4.756100     -0.087615
  C       2.476876     -2.661218      1.556883
  H       2.522460     -2.735498      2.647211
  C       0.455805     -0.084255     -0.739753
  C       0.934726      0.233851      0.638155
  O       0.137796     -0.241076      1.614075
  C       0.543412      0.039136      2.949559
  H      -0.232681     -0.383121      3.600574
  H       1.516143     -0.428177      3.166289
  H       0.632361      1.123999      3.114495
  O       1.944240      0.865042      0.876830
  C      -0.602920     -0.888230     -0.923574
  H      -1.143240     -1.318301     -0.078726
  H      -0.943342     -1.140991     -1.931345
  C       1.251532      0.531464     -1.855267
  H       2.285511      0.156595     -1.847147
  H       1.302613      1.626725     -1.740318
  H       0.801485      0.295444     -2.829661
  H       1.503081     -2.687115      1.064690
  O       4.156054     -1.011566     -0.891760
44
Coordinates from ORCA-job orca E -886.384905402202
  O       2.675961     -2.554765     -1.386728
  C       3.488490     -2.140352     -0.598848
  C       3.732437     -2.850080      0.752274
  C       4.954537     -2.288414      1.502797
  H       4.916525     -2.620601      2.553387
  H       5.879029     -2.715074      1.074855
  C       5.004779     -0.769592      1.397449
  H       5.856181     -0.366104      1.967135
  H       4.086166     -0.313159      1.802379
  C       5.161336     -0.376264     -0.061891
  H       6.136624     -0.752228     -0.427920
  C       5.060168      1.116524     -0.351892
  C       6.164190      1.954389      0.296811
  H       6.095545      1.880320      1.396331
  H       7.154042      1.541490      0.025316
  C       6.094925      3.426583     -0.110142
  H       6.888631      4.019197      0.372552
  H       5.125381      3.869617      0.172312
  H       6.204823      3.544641     -1.201293
  H       4.066746      1.462491     -0.025625
  H       5.098413      1.242949     -1.447700
  C       3.925792     -4.359012      0.452506
  H       4.052070     -4.915466      1.394364
  H       4.822668     -4.519049     -0.169218
  H       3.055944     -4.755473     -0.087553
  C       2.476961     -2.660582      1.556931
  H       2.522666     -2.736643      2.647130
  C       0.454767     -0.084902     -0.740155
  C       0.934454      0.231811      0.637831
  O       0.137192     -0.242648      1.613728
  C       0.542982      0.037825      2.949080
  H      -0.233298     -0.383682      3.600382
  H       1.515506     -0.429731      3.165971
  H       0.632132      1.122737      3.113626
  O       1.944894      0.861418      0.876682
  C      -0.605238     -0.887350     -0.923357
  H      -1.146076     -1.316963     -0.078685
  H      -0.946443     -1.139106     -1.931168
  C       1.250691      0.530492     -1.855721
  H       2.284170      0.154371     -1.849169
  H       1.302882      1.625629     -1.740292
  H       0.799037      0.295010     -2.829535
  H       1.503667     -2.683607      1.063872
  O       4.155801     -1.010859     -0.891529
