44
Coordinates from ORCA-job orca E -886.381712430701
  O           3.49195466708338     -2.77772406444485     -2.01991595145028
  C           3.92055754239591     -2.24960901491254     -1.02635497286304
  C           3.72028863872445     -2.86522586385381      0.37964870530451
  C           4.71555200861685     -2.29506350157505      1.40336225284522
  H           4.41215984812258     -2.61269733200442      2.41495353690598
  H           5.71244141558942     -2.73501632436756      1.22302229898715
  C           4.80526052144434     -0.77790586439574      1.30355066689655
  H           5.52643901166519     -0.38445463018837      2.03710967155380
  H           3.83440451460488     -0.30403741638552      1.51649465477409
  C           5.26218657812472     -0.37476533955472     -0.08980832706372
  H           6.30695363128311     -0.71216177663669     -0.23455606110550
  C           5.16687082669680      1.11710845470497     -0.38648858334908
  C           6.09372406808265      1.98400136225294      0.46856541064324
  H           5.82583450148427      1.88162876929253      1.53473150289886
  H           7.13350394154331      1.61737421443729      0.37852366631875
  C           6.03557774969983      3.46129190857065      0.07906388060797
  H           6.70235637112008      4.07315244067462      0.70775930658663
  H           5.01264272533340      3.85852647984404      0.18797461666021
  H           6.33625243228450      3.60959896255083     -0.97178383719936
  H           4.11900424135496      1.42854624979567     -0.24500458209264
  H           5.40655014371283      1.25870451594104     -1.45414284885885
  C           3.87578988273369     -4.39681674255684      0.25871847773964
  H           3.67276019792780     -4.87239712319626      1.23084280971852
  H           4.90008825680002     -4.66020660052553     -0.05267411157621
  H           3.17983605140214     -4.79646306043516     -0.49050311101233
  C           2.29959593628025     -2.52442832473975      0.73769307625605
  H           2.04440237084406     -2.09370276700164      1.70752395020114
  C           0.47798741931892     -0.32179761062807     -0.41307283077986
  C           0.99571571465661      0.29707765088802      0.84239114549866
  O           0.30705551829034     -0.05326538986238      1.94636354503735
  C           0.74370692838372      0.52615597775936      3.17232212809994
  H           0.02293386395459      0.20731665114325      3.93583337875409
  H           1.75307747598162      0.17170495448711      3.43622190305505
  H           0.76998444824100      1.62409233411647      3.10226388510596
  O           1.94628946051206      1.05076331088228      0.88467239061877
  C          -0.63518413658594     -1.07279965317418     -0.39810654308416
  H          -1.16784987237401     -1.28176904746720      0.53095869667540
  H          -1.02746089769850     -1.50707024906228     -1.32206535627319
  C           1.23583191879365      0.03588624550830     -1.66035736654412
  H           2.31233043102937     -0.15026333347337     -1.54837361507471
  H           1.12783276359797      1.11251245510704     -1.87593694873425
  H           0.86773861144876     -0.53616384499376     -2.52296109685628
  H           1.49571933554161     -2.88226774061652      0.09576229354830
  O           4.48945294195096     -1.03158032190399     -1.12694170737459
