44
Coordinates from ORCA-job orca E -886.383402857922
  O           3.21655369778828     -2.71060272582611     -1.86719542837305
  C           3.77067654962410     -2.21487327556634     -0.91987153357114
  C           3.71152616222413     -2.85744280308301      0.48721191428092
  C           4.79129471712862     -2.29436072793879      1.42602918305959
  H           4.57720477819311     -2.62275392431234      2.45676336856400
  H           5.77161370376886     -2.72608952233635      1.15697785635245
  C           4.86205894416297     -0.77592646326971      1.32856443899729
  H           5.62277559727457     -0.37599826653737      2.01701665451978
  H           3.89847013061577     -0.31441237372286      1.59690424258815
  C           5.22689479792990     -0.37286454236790     -0.09138133637543
  H           6.25377231919010     -0.72599037679524     -0.30859943255192
  C           5.13492726743911      1.12031506265372     -0.38150155842984
  C           6.12568418668966      1.97228909210061      0.41486068649702
  H           5.91818869134173      1.87812770619579      1.49515484465744
  H           7.15158921970407      1.58596185705481      0.26649995822669
  C           6.07293728757689      3.44911827981106      0.02289183179692
  H           6.78578808901549      4.05041350056360      0.60981817946679
  H           5.06552880134839      3.86618542381044      0.18802397755895
  H           6.31587333135310      3.58811654154366     -1.04403533128674
  H           4.10175963483393      1.44627140342105     -0.17912862604595
  H           5.31250623853572      1.25891970622522     -1.46176047732521
  C           3.87118626078056     -4.38496803430812      0.31856573985179
  H           3.77629666375265     -4.88240784482148      1.29630171255688
  H           4.86071782374844     -4.62758539787292     -0.10289300562274
  H           3.10466539612795     -4.77832944521555     -0.36194305783853
  C           2.33209091181301     -2.53980409132176      0.99293062799295
  H           2.17605178007660     -2.14996699619256      2.00066618015966
  C           0.49387747659373     -0.26873570506947     -0.50946152743089
  C           0.98376211813906      0.26965540140364      0.79422131190559
  O           0.25107098492014     -0.12232976845029      1.85444020798066
  C           0.66273852517359      0.37558179517964      3.12311647716277
  H          -0.08126981148491      0.02201623313801      3.84809931789622
  H           1.66122017573889     -0.00627006196016      3.39059165291791
  H           0.70419307966003      1.47544565134448      3.12062696413381
  O           1.94630555140451      1.00097001383638      0.90754427996049
  C          -0.57218112285984     -1.08368500464815     -0.55648354272791
  H          -1.09646761667322     -1.38788893646260      0.35078945438696
  H          -0.93479333642514     -1.47243084864091     -1.51212482316221
  C           1.24265445241476      0.20763100130845     -1.72158374860603
  H           2.31956450803813      0.00878524259513     -1.63477058211144
  H           1.13156321660696      1.29945728501536     -1.83498887166232
  H           0.86950458014745     -0.28435076391719     -2.63013245136632
  H           1.46577040132256     -2.83124680766972      0.39989810043221
  O           4.37200383524344     -1.01815648889388     -1.06937382941663
