44
Coordinates from ORCA-job orca E -886.382659443630
  O           3.36255172782682     -2.74497586486032     -1.94937712778639
  C           3.84979927863142     -2.23110269898186     -0.97542074584391
  C           3.71887216695871     -2.86011844172617      0.43264016892532
  C           4.75616733541236     -2.29323844998468      1.41601982255994
  H           4.49654062296376     -2.61710645905043      2.43766997280819
  H           5.74578590909239     -2.72900303428916      1.19102907192743
  C           4.83758034579491     -0.77521938580295      1.31840877785526
  H           5.58154252489081     -0.38103607915564      2.02838022047918
  H           3.87200162921391     -0.30480317420207      1.56256835214030
  C           5.24636437707436     -0.37108228753728     -0.08952778570029
  H           6.28195656397411     -0.71765698531027     -0.27323418715606
  C           5.15277758152460      1.12166961715198     -0.38122502115280
  C           6.11488301070958      1.97969889533833      0.44320325295913
  H           5.88012589651087      1.88043403642503      1.51745431714576
  H           7.14755923754682      1.60257728477893      0.32048149631454
  C           6.05972887979558      3.45726359914133      0.05430201819137
  H           6.75254575548235      4.06255420396624      0.66081005713721
  H           5.04505629323914      3.86553461744073      0.19511971930584
  H           6.32844809586118      3.60152887752192     -1.00572316692356
  H           4.11213931411915      1.43965873807450     -0.20582820738327
  H           5.35829222968602      1.26271484038428     -1.45609372466665
  C           3.87714573736468     -4.38973177844165      0.28889839625248
  H           3.72956769054393     -4.87618921241834      1.26561320728926
  H           4.88519900021490     -4.64249833892482     -0.07921066358377
  H           3.14443521800950     -4.78671771999877     -0.42590324164198
  C           2.31651904044935     -2.53015070945599      0.86296925362448
  H           2.10898247063122     -2.10551453384272      1.84684876635095
  C           0.47471583606904     -0.29784553596051     -0.46299676662842
  C           0.98395315611562      0.27818481933313      0.81626036708136
  O           0.27004055349136     -0.08477057599372      1.89957866037944
  C           0.70288363523721      0.44952466244010      3.14678383885868
  H          -0.03259974445621      0.12246223124163      3.89259391082562
  H           1.70250548537839      0.06866440830612      3.41135004201315
  H           0.75075953441181      1.54840388598158      3.10996193328689
  O           1.94732959684941      1.01295109407502      0.89268160127238
  C          -0.62186623408362     -1.07259967509065     -0.47748666470802
  H          -1.15282848746960     -1.32350785090318      0.44217250118111
  H          -1.00302664642930     -1.48199782682997     -1.41719778100685
  C           1.23289306078819      0.10968658179437     -1.69430176767487
  H           2.30728934970352     -0.09635243983502     -1.59455053760079
  H           1.13779101003776      1.19653298336384     -1.85862805369723
  H           0.85571525300693     -0.41792380355963     -2.58089688922361
  H           1.48083601228863     -2.86283870924835      0.24812807850247
  O           4.42919069553643     -1.02027380535464     -1.09704547228964
