44
Coordinates from ORCA-job orca E -886.370611740553
  O           3.31314978718303     -2.28937070701066     -2.19098907211049
  C           3.76035375044451     -1.79135721151112     -1.18890139131782
  C           3.35768171062255     -2.31057228772542      0.20857187089316
  C           3.84147065662585     -1.43385230225424      1.39591337615416
  H           3.05225446844807     -1.37925679628187      2.16011772315675
  H           4.69368885899272     -1.93718135881288      1.88250141528818
  C           4.29508746949972     -0.03860571796437      0.98160741706981
  H           4.78005381566402      0.46208372867577      1.83415169340825
  H           3.44250642399784      0.59219869453722      0.68962561149190
  C           5.27742256755952     -0.14280159565229     -0.17007910963479
  H           6.13559955034833     -0.77465835591331      0.13304870645109
  C           5.80565105101459      1.18481051665002     -0.69890045398601
  C           6.69993468502018      1.94254743964572      0.28437705128979
  H           6.12473871684336      2.21089302093193      1.18765115882576
  H           7.51278436222775      1.27626056990740      0.62856684514423
  C           7.30131763622482      3.20981503790222     -0.32362394081522
  H           7.93878107209692      3.74225177767505      0.40015553481693
  H           6.51236809747153      3.90749920059014     -0.65102692797370
  H           7.91988678309792      2.97496110070367     -1.20602240886274
  H           4.94569500050640      1.81131548920620     -0.99524056252872
  H           6.36654062593951      0.97161012289363     -1.62478174583843
  C           4.01886895630369     -3.71553885414172      0.31220912874438
  H           3.75727913723485     -4.18382802748604      1.27422575175876
  H           5.11733282179346     -3.63137338081852      0.26043940194134
  H           3.68389903396375     -4.36700002267545     -0.50698579846083
  C           1.85427136568642     -2.55256853423332      0.21322370942426
  H           1.48733905809404     -2.95341806412354      1.16473706186186
  C           0.55951405588853     -0.96593205998431     -0.01372351733200
  C           0.75172767688064     -0.25750690709017      1.29765336933097
  O           0.27750414733653     -0.95776540381194      2.34927303082272
  C           0.40062667983610     -0.33393487817977      3.62484711543291
  H          -0.05176381703199     -1.02372224230633      4.34850103744080
  H           1.45856990797476     -0.15876922295572      3.87621061866371
  H          -0.12187011960784      0.63475450124091      3.64087486014116
  O           1.27700801248019      0.82585771076699      1.42662284162145
  C          -0.70175626349301     -1.63746149826435     -0.16134951171442
  H          -1.24920467651338     -2.00374695648267      0.70792060360439
  H          -1.06069216691473     -1.90396189620535     -1.15855144015371
  C           1.04147825663274     -0.16590569080348     -1.21062403319847
  H           2.05563559942228      0.22484707170839     -1.06841040052553
  H           0.38048412723852      0.70178342977790     -1.37040746079260
  H           1.03856657372835     -0.78626245031424     -2.11660994083052
  H           1.52489482406654     -3.13994382471899     -0.64844071114148
  O           4.65146971916969     -0.79140316509102     -1.30107850756136
