44
Coordinates from ORCA-job orca E -886.384410545351
  O           3.02457854254260     -2.66865517317189     -1.73066941925775
  C           3.66551172550747     -2.19649313053171     -0.82667287081742
  C           3.71032148255499     -2.85925790935072      0.57177320007607
  C           4.84716242906487     -2.30104741809030      1.44371125103232
  H           4.69910219357992     -2.63454931890551      2.48430840976867
  H           5.80845679858452     -2.73191939848938      1.11172923194527
  C           4.91300556907477     -0.78184472392812      1.34837601303271
  H           5.71108176843664     -0.38425125803438      1.99436964591869
  H           3.96510742087258     -0.32198275475515      1.67219874207633
  C           5.19845478346326     -0.37691475828087     -0.08881443285891
  H           6.20878598913475     -0.73635295622401     -0.36539611859055
  C           5.10079001938792      1.11702364229959     -0.37345383638023
  C           6.12376965362586      1.96527040572559      0.38523264037990
  H           5.95445400260249      1.87443789896968      1.47243032519067
  H           7.14215037964927      1.57411087492249      0.20142769278033
  C           6.06384123367909      3.44156367266653     -0.00809004524487
  H           6.79862225287017      4.04129812822656      0.55282066332578
  H           5.06424891196553      3.86302298214245      0.19004254820688
  H           6.27094525828131      3.57713638203244     -1.08297373639422
  H           4.07652712119026      1.44447552151566     -0.13360795981413
  H           5.23854224271783      1.25656245387224     -1.45950716881678
  C           3.87082363419171     -4.38345601719344      0.36835004266614
  H           3.84344669183956     -4.89618123532369      1.34234302050417
  H           4.83301572365949     -4.61143331676244     -0.11977769308614
  H           3.06394006152474     -4.77235254046465     -0.26658242770760
  C           2.36771905394496     -2.56662682027896      1.18053406985538
  H           2.27995398296370     -2.22906915715958      2.21526489826833
  C           0.50092014063951     -0.20794348708739     -0.58832610182381
  C           0.98448512454162      0.26608754277925      0.74242863387169
  O           0.22916744181441     -0.15279004473879      1.77606075034620
  C           0.64093072602827      0.27212769152614      3.07015674531901
  H          -0.12035396216620     -0.09399309513659      3.77063843626867
  H           1.62487954086828     -0.15132544766463      3.32834488127628
  H           0.71400546113405      1.36919530641039      3.12133955481677
  O           1.96115716459566      0.97035807812656      0.89853079577809
  C          -0.53760878879189     -1.05403488311717     -0.67654353535609
  H          -1.05540132351305     -1.41354779380051      0.21427567881185
  H          -0.88526783532815     -1.41062619253249     -1.64992796869211
  C           1.24689676925563      0.33224238104049     -1.77535535438256
  H           2.32013909289689      0.10497828860657     -1.70679898312086
  H           1.15494675361932      1.43054706013898     -1.82349264397757
  H           0.85816700481549     -0.09881868827558     -2.70799556454091
  H           1.46241630741296     -2.80356783983201      0.62072290525706
  O           4.28431145526455     -1.01561295187138     -1.01614491591116
