44
Coordinates from ORCA-job orca E -887.629441237080
  O           3.46736113350073     -2.38292802870043     -2.19262026979456
  C           3.82700869007500     -1.84328173341596     -1.18202444443579
  C           3.29913913556367     -2.29323451758207      0.18843302729108
  C           3.81301605718604     -1.44266727734760      1.36815595039014
  H           3.05427994924906     -1.40575914856021      2.15093355018773
  H           4.67272403941978     -1.95122276619032      1.81480662368634
  C           4.26355130734774     -0.04950593121454      0.96564443045562
  H           4.71897397928031      0.45271276133731      1.82119285930361
  H           3.42993858719164      0.57581163377332      0.63917056181085
  C           5.28166214505912     -0.16164645618018     -0.14546142258946
  H           6.13660406413933     -0.75718246494893      0.20191316882192
  C           5.78539215228104      1.16485629180218     -0.68486714233382
  C           6.61208220556422      1.96278672044277      0.31697419747683
  H           5.99879858786356      2.22720480774863      1.18314388224095
  H           7.42676483666778      1.33600943159764      0.69612783436605
  C           7.18961495668795      3.23349216569544     -0.29269279875973
  H           7.77928478520349      3.79205205738275      0.43595688106404
  H           6.39582949300913      3.89200055436506     -0.65267935129467
  H           7.83820689833583      3.00310669623710     -1.14093343163139
  H           4.92551354169715      1.75397775305528     -1.02051778583232
  H           6.38640933542090      0.95590290260487     -1.57423087211573
  C           3.81762274277464     -3.73352877798145      0.36083852494510
  H           3.48899186554024     -4.12808511767413      1.32481750123770
  H           4.90929079417948     -3.76144356865294      0.33795506109546
  H           3.44355481163878     -4.37971446769027     -0.43241168835430
  C           1.75705707761615     -2.40302515229485      0.12018618296511
  H           1.43935547033641     -2.95211473621402      1.00996337047031
  C           0.85318509064630     -1.15057745733396     -0.00586454856428
  C           0.87005155978115     -0.29112137814138      1.26650545912716
  O           0.60229319350312     -1.01443737186890      2.36491833462649
  C           0.55581227819175     -0.28413297409940      3.58793521745988
  H           0.32934851890350     -1.01450271450519      4.36024820811656
  H           1.51602568033145      0.19416790083182      3.78532592279568
  H          -0.21761532959911      0.48244043392298      3.54703716847972
  O           1.05440723420496      0.89591820660044      1.30142499768452
  C          -0.56249402146841     -1.63226097227635     -0.12722171264452
  H          -0.90226985835378     -2.48593349363840      0.44379034760549
  H          -1.28532263430479     -1.05054159489410     -0.68351248930569
  C           1.19178500573614     -0.27303299873453     -1.21065582581408
  H           2.17313713949928      0.19091688552170     -1.12552918021252
  H           0.46483013639091      0.53333931009610     -1.30539099199191
  H           1.17841399943546     -0.87411573407564     -2.11920410971217
  H           1.52414745268114     -3.03105866428087     -0.74113316791647
  O           4.72438591159156     -0.85385101451876     -1.27916803040100
