101
Coordinates from ORCA-job orca E -2008.246188528969
  C          -0.01115253806627     -0.13486538651962     -1.21048015423404
  C           1.17209929065853     -0.20331518718606     -0.36288797280627
  O           1.80441967462178     -1.22846492674616     -0.18893125312387
  O           1.61797979000141      0.91853469990111      0.22241731108787
  C          -0.64507729575492      1.17260548009928     -1.53241338455512
  H          -1.59077808192888      1.23177822456644     -0.97724899216911
  H          -0.91262727763597      1.19960118185378     -2.59398322273474
  C           0.82080072024028      2.12314890442875      0.22449702637102
  H           0.01225573357702      1.96732778142706      0.95058749097391
  C           0.23512243243136      2.35344678473841     -1.15238265059144
  H          -0.35409197372543      3.27145732912454     -1.14913237778723
  H           1.04923331717273      2.49054933041223     -1.86849318168918
  C          -0.53958146413370     -1.42478940361291     -1.73911058531440
  H           0.24216840469146     -2.17071286649018     -1.61458812957648
  H          -0.73142731887531     -1.32896256697584     -2.81330857552688
  C           2.80564306291327      0.06763505545851     -3.35514562427926
  C           3.73426607184696      0.45548449014618     -2.49047885395030
  H           2.19237744222941      0.79712993150931     -3.86853588437633
  H           2.64334612818357     -0.98348130134880     -3.56326431163362
  C           3.85004648147797      1.92629933263472     -2.21759399141572
  C           4.63360484141213     -0.48865112679665     -1.74486544511852
  O           3.20009769647879      2.75787408110399     -2.79847254517387
  O           4.68689158095844      2.33464254755977     -1.25816368228515
  H           5.56392850849093     -0.62130327670451     -2.30958155686218
  H           4.15360917611132     -1.46409931977753     -1.66648531438358
  C           4.95337914759511      0.06942413714003     -0.36827067395245
  C           5.54672186205448      1.45461857081354     -0.49907821923571
  H           5.66774653941713     -0.57498714824470      0.14656712500812
  H           4.04453450575657      0.10936198437484      0.23676905567690
  H           6.49271264857801      1.39992252353024     -1.05342352750657
  C           1.75147608534530      3.21654314858036      0.71320207740795
  H           2.56122546304264      3.33702160636183     -0.01287068164416
  H           2.20809839706516      2.86660907871792      1.64422108708263
  C           5.78037529365793      2.16237006305784      0.82394276395922
  H           4.83394833911420      2.18562748178434      1.37401897692772
  H           6.04334506556202      3.20140945771893      0.60614898954050
  C          -4.54281037129587     -1.52783606658378     -1.45353583673890
  C          -4.72859369270424     -1.95685395284970      0.00540010670327
  O          -4.37672084089223     -3.04622921239222      0.38212855392954
  O          -5.35297841289834     -1.16367124350949      0.87075259099752
  C          -5.29972219479692     -0.22321692146939     -1.74027731019077
  H          -6.36874517393747     -0.43657432324814     -1.84421960965011
  H          -4.96773539217407      0.17740663395069     -2.70169090618865
  C          -5.68402582366809      0.22555385174088      0.66105108682429
  H          -6.77819056003071      0.24730120562324      0.58684750521305
  C          -5.09522143965737      0.77730624311972     -0.62081728559105
  H          -5.58760961391012      1.72366438119168     -0.85027669215447
  H          -4.03259534162928      0.98196295616044     -0.46941980862256
  C          -5.16283387492989     -2.63794224065820     -2.31575104873137
  H          -4.66808071001687     -3.59573097579980     -2.17805261713535
  H          -5.09883753474397     -2.35801448679422     -3.36990089310788
  C          -3.04482793533761     -1.30013892887759     -1.83065090344645
  C          -1.87314813458156     -1.98089995711269     -1.09784805714651
  H          -2.86221968340357     -0.22853575086848     -1.78514057285775
  H          -2.95257535652141     -1.57569046739466     -2.88630644207483
  C          -1.83071780345049     -1.52586792962227      0.36124669523317
  C          -1.86846409722279     -3.51897260779156     -1.26136583045127
  O          -2.35169840979117     -0.49855298437703      0.72694739601313
  O          -1.11555083137624     -2.22627707398422      1.22672647900110
  H          -1.21752609465553     -3.76598919293444     -2.10406325315478
  H          -2.86456686712717     -3.86033893006543     -1.52195768341545
  C          -1.42619601266872     -4.26962138681498     -0.00570659510494
  C          -0.46461145346567     -3.45770414687733      0.83464033823781
  H          -0.96044431987960     -5.21729956202079     -0.27991512543168
  H          -2.30102892065592     -4.49312241391206      0.60887314113405
  H           0.43135177147803     -3.18214721515889      0.27013937810560
  C          -5.24496255116838      0.95710430069042      1.91771815930023
  H          -4.16050564895797      0.84897234647040      2.00942608719587
  H          -5.68710840497715      0.44400385066362      2.77633216676904
  C          -0.03947438791049     -4.11930252294265      2.13111509984947
  H          -0.93357926325168     -4.38260413207440      2.70543191472630
  H           0.50489651670744     -3.37346685206285      2.71698795103820
  H          -6.21699997076587     -2.77524689832192     -2.06678908741213
  C          -5.64296547774757      2.42863068512649      1.93966776397138
  H          -6.72028339720041      2.52239918985787      1.76107053141010
  H          -5.14903952775651      2.96085807207147      1.12127629980088
  C           0.84255513809633     -5.34547382366855      1.92647403275831
  H           0.28675748902218     -6.12351550886308      1.39496509168440
  H           1.68931110542275     -5.07818497192902      1.28530521723135
  C           1.06740976668893      4.55619483857017      0.95631279716943
  H           0.21567178389193      4.41820749020571      1.63140844896874
  H           0.66041541511177      4.94248567912311      0.01767632880982
  C           6.87152318888497      1.52559605194513      1.67659365641134
  H           6.59408121263477      0.50018464587045      1.93637530881837
  H           7.79446574808899      1.45582661204960      1.09053115854982
  C           7.13928843563695      2.31078646965900      2.95411541878277
  H           7.93105187168033      1.84839620180981      3.54560909812307
  H           7.44388820873918      3.33551119870232      2.72923003627283
  H           6.24355361206081      2.36141085689912      3.57749588125402
  C           2.02745984919540      5.58302498988468      1.54347732050357
  H           2.87505004362755      5.74806507592707      0.87456712339961
  H           1.53571709832672      6.54389527544867      1.70361414430818
  H           2.42348891508078      5.24495997973347      2.50405225768276
  C          -5.28613950507399      3.10073701671217      3.25934086489078
  H          -5.56827803571771      4.15496779583073      3.25998793732171
  H          -5.79482599973422      2.61762967264892      4.09666508269737
  H          -4.21199877703735      3.04086344456289      3.44900143038046
  C           1.35927444869468     -5.91072928307995      3.24315374254617
  H           0.53341519213026     -6.20398418252257      3.89558279962590
  H           1.98396092223282     -6.79064430121948      3.08051845796921
  H           1.95721236072347     -5.17105726108935      3.78043156488276
