101
Coordinates from ORCA-job orca E -2008.239575154064
  C      -0.119810     -0.155301     -1.690134
  C       1.085562     -0.217027     -0.861681
  O       1.741376     -1.240364     -0.717063
  O       1.511465      0.909595     -0.258361
  C      -0.747674      1.154030     -2.038982
  H      -1.726274      1.206895     -1.525190
  H      -0.976562      1.180178     -3.120509
  C       0.658897      2.084936     -0.215629
  H      -0.174771      1.845605      0.471597
  C       0.108725      2.345286     -1.610627
  H      -0.495397      3.264974     -1.609854
  H       0.955500      2.503161     -2.296409
  C      -0.709243     -1.461101     -2.112256
  H       0.088710     -2.211315     -2.066262
  H      -1.054845     -1.405297     -3.158421
  C       3.379826      0.010537     -3.620171
  C       3.994334      0.357913     -2.481281
  H       2.844603      0.759257     -4.208204
  H       3.400658     -1.021986     -3.980000
  C       3.876410      1.792276     -2.048542
  C       4.773324     -0.606139     -1.618729
  O       3.224437      2.618270     -2.649155
  O       4.507130      2.172524     -0.923855
  H       5.807519     -0.680598     -2.006199
  H       4.325291     -1.607715     -1.691630
  C       4.813417     -0.135614     -0.168276
  C       5.315195      1.296692     -0.100891
  H       5.481373     -0.780848      0.422954
  H       3.806255     -0.198775      0.270408
  H       6.344944      1.345257     -0.506589
  C       1.504595      3.203305      0.375733
  H       2.325342      3.440990     -0.319231
  H       1.973401      2.809209      1.293837
  C       5.300781      1.917075      1.291136
  H       4.274962      1.846331      1.692549
  H       5.517495      2.992990      1.177472
  C      -4.640932     -1.548369     -1.222915
  C      -4.571351     -1.883363      0.277653
  O      -4.145365     -2.949180      0.660605
  O      -5.058371     -1.026065      1.178910
  C      -5.451117     -0.255521     -1.454168
  H      -6.528301     -0.472070     -1.342728
  H      -5.309827      0.081853     -2.494372
  C      -5.386633      0.367141      0.953994
  H      -6.482697      0.424443      1.091645
  C      -5.047491      0.822620     -0.458238
  H      -5.578173      1.765332     -0.662300
  H      -3.968120      1.025130     -0.525739
  C      -5.385921     -2.721463     -1.893683
  H      -4.856914     -3.673243     -1.763973
  H      -5.498330     -2.522909     -2.971923
  C      -3.220873     -1.356621     -1.861657
  C      -1.946938     -1.984857     -1.253895
  H      -3.040223     -0.278717     -1.936181
  H      -3.290826     -1.721175     -2.900019
  C      -1.706252     -1.414917      0.150123
  C      -1.945887     -3.539139     -1.302896
  O      -2.173954     -0.347990      0.495369
  O      -0.868623     -2.051415      0.959413
  H      -1.382652     -3.851695     -2.197453
  H      -2.968111     -3.905661     -1.433687
  C      -1.361334     -4.192780     -0.044898
  C      -0.286786     -3.335828      0.603137
  H      -0.944791     -5.181783     -0.289919
  H      -2.164712     -4.338453      0.693028
  H       0.542423     -3.127118     -0.091726
  C      -4.693057      1.151308      2.063607
  H      -3.607298      0.998192      1.954522
  H      -4.980652      0.693998      3.025661
  C       0.289938     -3.890782      1.897349
  H      -0.538354     -4.102121      2.596952
  H       0.892471     -3.088586      2.355833
  H      -6.393203     -2.842299     -1.464403
  C      -5.032250      2.643309      2.078894
  H      -6.129946      2.775240      2.118788
  H      -4.704773      3.112837      1.134518
  C       1.157883     -5.136035      1.705339
  H       0.554896     -5.954510      1.274069
  H       1.948226     -4.917139      0.964015
  C       0.709117      4.465409      0.715537
  H      -0.146249      4.201650      1.365429
  H       0.271928      4.893698     -0.203590
  C       6.297064      1.291233      2.269295
  H       6.059204      0.223485      2.417936
  H       7.310335      1.317817      1.827177
  C       6.311925      1.996633      3.625527
  H       7.033710      1.531608      4.315884
  H       6.585845      3.059916      3.520322
  H       5.319168      1.958627      4.104658
  C       1.566976      5.527218      1.403801
  H       2.415026      5.826867      0.765702
  H       0.983877      6.433184      1.634850
  H       1.986327      5.147938      2.351021
  C      -4.384948      3.378536      3.252898
  H      -4.630106      4.452796      3.244577
  H      -4.721838      2.964801      4.218199
  H      -3.286522      3.284022      3.221025
  C       1.796273     -5.615428      3.009042
  H       1.028269     -5.867166      3.759734
  H       2.415675     -6.512849      2.850977
  H       2.441276     -4.835535      3.447550
101
Coordinates from ORCA-job orca E -2008.244564414281
  C      -0.120398     -0.174609     -1.600821
  C       1.095126     -0.215451     -0.794493
  O       1.761008     -1.225086     -0.650332
  O       1.520295      0.915810     -0.211760
  C      -0.757523      1.122661     -1.958507
  H      -1.722820      1.176842     -1.438660
  H      -0.993426      1.133713     -3.028961
  C       0.657298      2.076960     -0.170802
  H      -0.158727      1.838086      0.524646
  C       0.092199      2.319461     -1.556602
  H      -0.514917      3.226321     -1.556718
  H       0.922336      2.476612     -2.250313
  C      -0.701489     -1.484365     -2.015932
  H       0.094662     -2.225191     -1.971206
  H      -1.042792     -1.428485     -3.054613
  C       3.354631      0.003675     -3.573528
  C       3.981782      0.365208     -2.459233
  H       2.806503      0.734430     -4.154016
  H       3.375262     -1.023870     -3.917247
  C       3.857781      1.798372     -2.040285
  C       4.776577     -0.580922     -1.601011
  O       3.195119      2.609504     -2.638205
  O       4.495503      2.197021     -0.933678
  H       5.796792     -0.650818     -1.998231
  H       4.337027     -1.578076     -1.656764
  C       4.829967     -0.095110     -0.161461
  C       5.319836      1.336357     -0.118883
  H       5.506065     -0.722160      0.423198
  H       3.836323     -0.160217      0.290118
  H       6.335043      1.390670     -0.535887
  C       1.499749      3.203661      0.395615
  H       2.305284      3.442257     -0.306365
  H       1.979815      2.825960      1.304196
  C       5.313352      1.968002      1.261817
  H       4.301679      1.890292      1.675193
  H       5.516729      3.036244      1.137707
  C      -4.638404     -1.521205     -1.190885
  C      -4.655520     -1.830946      0.311313
  O      -4.305016     -2.904802      0.730862
  O      -5.166127     -0.954559      1.172301
  C      -5.398793     -0.218192     -1.477461
  H      -6.476745     -0.403724     -1.413149
  H      -5.200284      0.094845     -2.506337
  C      -5.438442      0.439445      0.908267
  H      -6.528726      0.532133      0.988519
  C      -5.013873      0.860886     -0.484532
  H      -5.502421      1.806550     -0.727067
  H      -3.934556      1.030409     -0.497838
  C      -5.388808     -2.673224     -1.877399
  H      -4.901760     -3.632164     -1.718718
  H      -5.449600     -2.483215     -2.951929
  C      -3.196484     -1.369260     -1.782536
  C      -1.936798     -2.019885     -1.172434
  H      -2.994658     -0.302090     -1.850159
  H      -3.254026     -1.722028     -2.817686
  C      -1.694937     -1.499719      0.245976
  C      -1.937951     -3.564616     -1.274960
  O      -2.153734     -0.448204      0.629954
  O      -0.865075     -2.163121      1.032992
  H      -1.379335     -3.841501     -2.173455
  H      -2.952260     -3.923621     -1.415971
  C      -1.350796     -4.260569     -0.048632
  C      -0.282148     -3.424756      0.621167
  H      -0.932923     -5.228747     -0.330831
  H      -2.143965     -4.438065      0.680764
  H       0.534777     -3.185132     -0.065879
  C      -4.774586      1.216690      2.032427
  H      -3.700156      1.020818      1.983494
  H      -5.126979      0.800583      2.981152
  C       0.303435     -4.026216      1.883396
  H      -0.511317     -4.278308      2.571081
  H       0.896255     -3.246246      2.370636
  H      -6.407449     -2.755174     -1.491549
  C      -5.048309      2.715064      1.989529
  H      -6.129989      2.895739      1.979022
  H      -4.660679      3.137461      1.056678
  C       1.181382     -5.244249      1.623484
  H       0.590241     -6.041721      1.161892
  H       1.957520     -4.979950      0.895690
  C       0.696388      4.454272      0.732020
  H      -0.142096      4.188881      1.387196
  H       0.252090      4.869187     -0.178232
  C       6.325855      1.361848      2.226059
  H       6.101469      0.303168      2.388962
  H       7.323717      1.394877      1.773487
  C       6.350344      2.082053      3.567602
  H       7.080350      1.637499      4.246540
  H       6.608378      3.137149      3.445306
  H       5.373338      2.037982      4.055756
  C       1.550573      5.521507      1.403208
  H       2.382415      5.819706      0.760189
  H       0.967630      6.415751      1.631985
  H       1.976352      5.152820      2.340244
  C      -4.415241      3.446901      3.165309
  H      -4.605307      4.520955      3.118635
  H      -4.807666      3.079734      4.117010
  H      -3.332033      3.298662      3.178727
  C       1.830921     -5.774008      2.894904
  H       1.077067     -6.067444      3.630033
  H       2.453785     -6.647139      2.691396
  H       2.464122     -5.014272      3.360262
101
Coordinates from ORCA-job orca E -2008.244476718405
  C      -0.111533     -0.159349     -1.635334
  C       1.095574     -0.203815     -0.820341
  O       1.753967     -1.214740     -0.668122
  O       1.521668      0.924404     -0.237124
  C      -0.737124      1.139625     -2.002220
  H      -1.703290      1.203014     -1.489269
  H      -0.963525      1.148434     -3.072246
  C       0.664138      2.087519     -0.207698
  H      -0.158153      1.854590      0.479047
  C       0.115399      2.330934     -1.597476
  H      -0.485860      3.238998     -1.604219
  H       0.950847      2.482047     -2.282793
  C      -0.697138     -1.466234     -2.048880
  H       0.091739     -2.210823     -1.989339
  H      -1.026983     -1.416371     -3.089376
  C       3.387866     -0.003906     -3.571356
  C       4.010995      0.357249     -2.459504
  H       2.847610      0.725650     -4.156758
  H       3.402572     -1.031307     -3.909009
  C       3.892936      1.791786     -2.045757
  C       4.791224     -0.590411     -1.592242
  O       3.243626      2.604280     -2.653044
  O       4.519291      2.190402     -0.935890
  H       5.812429     -0.667531     -1.978083
  H       4.345285     -1.582268     -1.649543
  C       4.831515     -0.100978     -0.155263
  C       5.329156      1.325995     -0.112457
  H       5.496794     -0.728155      0.437363
  H       3.835063     -0.158845      0.286292
  H       6.346479      1.374058     -0.518458
  C       1.505737      3.209905      0.364362
  H       2.318910      3.443888     -0.327672
  H       1.972957      2.832635      1.277127
  C       5.310076      1.959009      1.266055
  H       4.295939      1.886070      1.668268
  H       5.520413      3.023804      1.144374
  C      -4.616343     -1.532148     -1.211066
  C      -4.568920     -1.875547      0.279203
  O      -4.122100     -2.926556      0.660746
  O      -5.050623     -1.026993      1.182397
  C      -5.414087     -0.243992     -1.446019
  H      -6.482342     -0.455706     -1.349291
  H      -5.256659      0.093180     -2.472068
  C      -5.376007      0.361280      0.953239
  H      -6.462217      0.416157      1.078211
  C      -5.020049      0.822041     -0.444994
  H      -5.542418      1.756252     -0.647168
  H      -3.948643      1.023171     -0.495787
  C      -5.351555     -2.691150     -1.897520
  H      -4.832253     -3.636285     -1.773746
  H      -5.450536     -2.481066     -2.963139
  C      -3.197289     -1.340046     -1.822318
  C      -1.939955     -1.980926     -1.211869
  H      -3.014173     -0.271485     -1.882724
  H      -3.257106     -1.693210     -2.855247
  C      -1.708480     -1.440677      0.196815
  C      -1.971831     -3.524129     -1.280631
  O      -2.160038     -0.379431      0.554528
  O      -0.903266     -2.101378      1.009695
  H      -1.415291     -3.833664     -2.166707
  H      -2.993237     -3.861717     -1.419835
  C      -1.412527     -4.203790     -0.034394
  C      -0.334681     -3.374374      0.623425
  H      -1.013602     -5.184393     -0.290282
  H      -2.214233     -4.348158      0.691502
  H       0.486269     -3.158591     -0.064189
  C      -4.694416      1.145782      2.060880
  H      -3.617405      0.996857      1.963252
  H      -4.988742      0.703202      3.014544
  C       0.237933     -3.964580      1.895453
  H      -0.580617     -4.205881      2.578523
  H       0.831724     -3.185705      2.377861
  H      -6.352369     -2.811161     -1.482895
  C      -5.034025      2.630962      2.054638
  H      -6.119750      2.761385      2.089086
  H      -4.702611      3.084116      1.117520
  C       1.110679     -5.187632      1.649391
  H       0.520295     -5.984055      1.190934
  H       1.891775     -4.931356      0.927964
  C       0.703182      4.462326      0.689438
  H      -0.144987      4.200185      1.329505
  H       0.278570      4.881213     -0.225337
  C       6.307936      1.348569      2.240562
  H       6.074277      0.294867      2.405630
  H       7.308202      1.374258      1.799094
  C       6.322667      2.074738      3.577472
  H       7.042002      1.630617      4.264169
  H       6.587008      3.125222      3.451629
  H       5.342555      2.037619      4.054270
  C       1.552485      5.520885      1.377288
  H       2.395000      5.813521      0.750073
  H       0.972621      6.416245      1.597740
  H       1.957530      5.146607      2.318347
  C      -4.393259      3.373812      3.218785
  H      -4.643559      4.433828      3.200868
  H      -4.725864      2.969063      4.175110
  H      -3.306490      3.288536      3.185973
  C       1.747125     -5.710201      2.928686
  H       0.987393     -5.993841      3.657765
  H       2.365877     -6.585700      2.736049
  H       2.378932     -4.951279      3.391307
101
Coordinates from ORCA-job orca E -2008.245231378469
  C      -0.117632     -0.172291     -1.608308
  C       1.096207     -0.212995     -0.801905
  O       1.760348     -1.222335     -0.656408
  O       1.522490      0.917132     -0.220573
  C      -0.750782      1.125354     -1.970380
  H      -1.715310      1.185005     -1.450589
  H      -0.984218      1.134043     -3.040677
  C       0.661036      2.078047     -0.183621
  H      -0.156428      1.841465      0.509955
  C       0.100348      2.320661     -1.569759
  H      -0.505628      3.227616     -1.570903
  H       0.931010      2.476438     -2.262066
  C      -0.697219     -1.481212     -2.025281
  H       0.095851     -2.223474     -1.965592
  H      -1.025024     -1.430585     -3.068053
  C       3.368268      0.000419     -3.572251
  C       4.001673      0.363924     -2.465049
  H       2.818897      0.729229     -4.153591
  H       3.383672     -1.028548     -3.911248
  C       3.882547      1.798725     -2.048894
  C       4.793767     -0.581822     -1.604836
  O       3.225747      2.609953     -2.651620
  O       4.515932      2.198345     -0.942507
  H       5.813945     -0.654001     -1.999225
  H       4.350897     -1.576639     -1.660401
  C       4.842826     -0.094215     -0.166601
  C       5.335235      1.335593     -0.125128
  H       5.516265     -0.720263      0.421069
  H       3.848829     -0.157257      0.283096
  H       6.350816      1.388063     -0.539144
  C       1.502607      3.204324      0.383670
  H       2.310348      3.442675     -0.314931
  H       1.978588      2.827740      1.294138
  C       5.324595      1.966709      1.255556
  H       4.312420      1.888951      1.665650
  H       5.530270      3.034074      1.134013
  C      -4.629188     -1.524072     -1.213475
  C      -4.619245     -1.855684      0.281652
  O      -4.245895     -2.930728      0.677300
  O      -5.120402     -0.997040      1.165150
  C      -5.399099     -0.222091     -1.473161
  H      -6.474467     -0.414440     -1.399252
  H      -5.212480      0.106745     -2.498771
  C      -5.412047      0.396810      0.922903
  H      -6.501498      0.474704      1.018637
  C      -5.009587      0.843064     -0.468091
  H      -5.509057      1.787448     -0.688998
  H      -3.932225      1.023133     -0.491546
  C      -5.379172     -2.672478     -1.905158
  H      -4.883764     -3.629828     -1.766573
  H      -5.455685     -2.467278     -2.975283
  C      -3.195964     -1.357629     -1.809526
  C      -1.940463     -2.003043     -1.192748
  H      -3.001395     -0.290049     -1.876267
  H      -3.251502     -1.715001     -2.842705
  C      -1.709750     -1.467749      0.219131
  C      -1.958669     -3.547551     -1.272227
  O      -2.160733     -0.406117      0.580285
  O      -0.898709     -2.129125      1.027339
  H      -1.400092     -3.845573     -2.163147
  H      -2.977265     -3.894853     -1.411873
  C      -1.387620     -4.231656     -0.032366
  C      -0.317597     -3.394923      0.631812
  H      -0.977105     -5.206838     -0.297992
  H      -2.186586     -4.392163      0.694490
  H       0.502355     -3.166399     -0.055333
  C      -4.742986      1.170592      2.046554
  H      -3.666338      0.994309      1.979645
  H      -5.075092      0.739756      2.995080
  C       0.261140     -3.989647      1.900399
  H      -0.556839     -4.243101      2.582307
  H       0.849167     -3.208271      2.389482
  H      -6.391081     -2.766831     -1.506461
  C      -5.043828      2.664734      2.025159
  H      -6.127898      2.824607      2.033261
  H      -4.677061      3.104716      1.093038
  C       1.143820     -5.205612      1.646851
  H       0.558894     -6.004249      1.181243
  H       1.925048     -4.938313      0.927463
  C       0.697460      4.454645      0.715565
  H      -0.147284      4.188286      1.360953
  H       0.265721      4.874126     -0.197660
  C       6.332571      1.358518      2.222931
  H       6.102901      0.302459      2.389789
  H       7.330872      1.387500      1.772996
  C       6.355741      2.084683      3.561075
  H       7.083417      1.642197      4.243053
  H       6.615801      3.137864      3.433082
  H       5.377988      2.043888      4.046503
  C       1.547408      5.516189      1.400644
  H       2.386829      5.812892      0.768065
  H       0.964774      6.410898      1.625817
  H       1.959508      5.141372      2.340507
  C      -4.409781      3.395452      3.201537
  H      -4.628512      4.464153      3.172676
  H      -4.777723      3.004895      4.152874
  H      -3.323849      3.276813      3.195161
  C       1.782956     -5.733508      2.924009
  H       1.023007     -6.028482      3.651092
  H       2.409402     -6.604586      2.725444
  H       2.409643     -4.972130      3.393814
101
Coordinates from ORCA-job orca E -2008.245239496941
  C      -0.121878     -0.162714     -1.583585
  C       1.093796     -0.200330     -0.779446
  O       1.756338     -1.210360     -0.628813
  O       1.524041      0.932996     -0.206925
  C      -0.750887      1.134400     -1.956311
  H      -1.715597      1.201960     -1.437697
  H      -0.982975      1.135263     -3.027316
  C       0.665552      2.096372     -0.177203
  H      -0.152012      1.867015      0.519192
  C       0.103909      2.330649     -1.564509
  H      -0.500271      3.239221     -1.571020
  H       0.934123      2.480171     -2.259314
  C      -0.696410     -1.473320     -2.003945
  H       0.100258     -2.212083     -1.944293
  H      -1.019642     -1.421338     -3.048530
  C       3.362008     -0.010380     -3.554562
  C       4.003969      0.360819     -2.454513
  H       2.811014      0.714867     -4.139510
  H       3.372088     -1.042684     -3.884808
  C       3.891753      1.799804     -2.049275
  C       4.797793     -0.580280     -1.590276
  O       3.237205      2.608576     -2.658207
  O       4.527912      2.205791     -0.946849
  H       5.817310     -0.656575     -1.986584
  H       4.352549     -1.574646     -1.638387
  C       4.850366     -0.082948     -0.155329
  C       5.346124      1.346180     -0.124432
  H       5.524035     -0.706149      0.435835
  H       3.857020     -0.141099      0.297134
  H       6.361455      1.393435     -0.540588
  C       1.509927      3.225412      0.381175
  H       2.317027      3.457805     -0.320341
  H       1.986280      2.854684      1.294279
  C       5.339241      1.986314      1.252410
  H       4.327338      1.912865      1.664762
  H       5.547270      3.052782      1.124136
  C      -4.631234     -1.527828     -1.199028
  C      -4.626380     -1.852068      0.298079
  O      -4.232615     -2.916756      0.702832
  O      -5.126896     -0.988468      1.177029
  C      -5.408564     -0.231641     -1.467915
  H      -6.483353     -0.429415     -1.394259
  H      -5.221843      0.091771     -2.495553
  C      -5.425299      0.402339      0.925178
  H      -6.515308      0.476041      1.021972
  C      -5.025860      0.841930     -0.469074
  H      -5.531473      1.782135     -0.695776
  H      -3.949637      1.029012     -0.493396
  C      -5.372281     -2.683578     -1.888510
  H      -4.870990     -3.637756     -1.746066
  H      -5.447830     -2.481781     -2.959746
  C      -3.196001     -1.355893     -1.791339
  C      -1.940275     -2.006935     -1.179179
  H      -3.001949     -0.287492     -1.849909
  H      -3.249698     -1.704960     -2.827829
  C      -1.714894     -1.494907      0.243392
  C      -1.955980     -3.550296     -1.284578
  O      -2.175552     -0.444000      0.624790
  O      -0.912575     -2.172846      1.047233
  H      -1.394449     -3.832588     -2.179319
  H      -2.974236     -3.895674     -1.432839
  C      -1.388476     -4.256242     -0.054889
  C      -0.324605     -3.429049      0.631578
  H      -0.973711     -5.225393     -0.337042
  H      -2.190654     -4.433383      0.664924
  H       0.499503     -3.185799     -0.045882
  C      -4.757651      1.185823      2.042951
  H      -3.680643      1.009998      1.977676
  H      -5.090015      0.763085      2.995480
  C       0.247177     -4.046921      1.892654
  H      -0.575453     -4.318697      2.562417
  H       0.827920     -3.273278      2.403061
  H      -6.384658     -2.783032     -1.491228
  C      -5.058100      2.679878      2.009399
  H      -6.142330      2.841066      2.021174
  H      -4.694089      3.111453      1.071913
  C       1.137430     -5.254018      1.621198
  H       0.560156     -6.044872      1.132501
  H       1.924911     -4.967707      0.915718
  C       0.707264      4.480000      0.704624
  H      -0.139305      4.219448      1.350407
  H       0.278481      4.895461     -0.212241
  C       6.347572      1.382135      2.222613
  H       6.114117      0.328116      2.399137
  H       7.345314      1.404109      1.770128
  C       6.376141      2.119799      3.554850
  H       7.104499      1.681034      4.239141
  H       6.638978      3.171399      3.416647
  H       5.399002      2.085808      4.042911
  C       1.559080      5.543673      1.385071
  H       2.400936      5.833763      0.751992
  H       0.978360      6.441808      1.603381
  H       1.967898      5.173078      2.328472
  C      -4.416953      3.418881      3.176766
  H      -4.633049      4.488303      3.139861
  H      -4.781995      3.036941      4.133150
  H      -3.331040      3.296252      3.165999
  C       1.766114     -5.807496      2.893201
  H       0.999689     -6.121848      3.605805
  H       2.398687     -6.671549      2.681583
  H       2.384720     -5.053589      3.386115
101
Coordinates from ORCA-job orca E -2008.245361546105
  C      -0.119983     -0.167142     -1.582912
  C       1.096922     -0.205643     -0.780952
  O       1.760094     -1.215712     -0.633626
  O       1.527718      0.926507     -0.206700
  C      -0.750450      1.130463     -1.951515
  H      -1.713464      1.197334     -1.429514
  H      -0.985176      1.133244     -3.021786
  C       0.668398      2.088819     -0.173206
  H      -0.148110      1.857451      0.523697
  C       0.104756      2.326259     -1.558844
  H      -0.500089      3.234307     -1.561764
  H       0.933533      2.478180     -2.254778
  C      -0.696034     -1.477117     -2.002588
  H       0.098529     -2.217618     -1.938039
  H      -1.015214     -1.427321     -3.048568
  C       3.359104     -0.008039     -3.556229
  C       4.009785      0.363193     -2.461643
  H       2.803794      0.716571     -4.137664
  H       3.366212     -1.040415     -3.886055
  C       3.900828      1.802399     -2.055037
  C       4.808724     -0.578253     -1.602372
  O       3.246604      2.612094     -2.663104
  O       4.538574      2.206975     -0.953425
  H       5.827271     -0.651686     -2.001285
  H       4.364420     -1.572817     -1.651716
  C       4.863386     -0.083745     -0.166696
  C       5.358161      1.345607     -0.133883
  H       5.538898     -0.706924      0.422271
  H       3.871285     -0.143932      0.287767
  H       6.372638      1.394402     -0.551620
  C       1.511486      3.217801      0.386845
  H       2.316873      3.453344     -0.315245
  H       1.989184      2.846259      1.298785
  C       5.352866      1.982390      1.244461
  H       4.341923      1.906176      1.658310
  H       5.559729      3.049313      1.119106
  C      -4.632789     -1.526357     -1.211756
  C      -4.632077     -1.857673      0.283477
  O      -4.242538     -2.926045      0.682964
  O      -5.134293     -0.998397      1.165593
  C      -5.408868     -0.228842     -1.477605
  H      -6.483873     -0.426500     -1.408530
  H      -5.217909      0.099042     -2.502935
  C      -5.432608      0.393443      0.918793
  H      -6.522793      0.466088      1.013296
  C      -5.029456      0.839665     -0.472258
  H      -5.534926      1.780636     -0.695704
  H      -3.953367      1.027764     -0.492107
  C      -5.372181     -2.678693     -1.908663
  H      -4.872193     -3.633944     -1.769616
  H      -5.444668     -2.471343     -2.978981
  C      -3.195580     -1.351881     -1.797622
  C      -1.942535     -2.002336     -1.179670
  H      -3.002467     -0.283341     -1.855313
  H      -3.244140     -1.701859     -2.834052
  C      -1.717999     -1.482172      0.239861
  C      -1.964595     -3.546088     -1.273880
  O      -2.162095     -0.419501      0.607481
  O      -0.918369     -2.156949      1.049251
  H      -1.406075     -3.837463     -2.167512
  H      -2.984808     -3.887514     -1.417345
  C      -1.397955     -4.245409     -0.039882
  C      -0.331840     -3.415496      0.640142
  H      -0.986019     -5.217430     -0.315904
  H      -2.199599     -4.415678      0.682168
  H       0.491545     -3.177583     -0.040074
  C      -4.767994      1.173191      2.041154
  H      -3.690581      0.999992      1.976806
  H      -5.101502      0.746616      2.991444
  C       0.241316     -4.027515      1.903478
  H      -0.580735     -4.299828      2.573583
  H       0.820153     -3.251311      2.411869
  H      -6.385561     -2.779195     -1.514484
  C      -5.071567      2.667064      2.013716
  H      -6.156049      2.825574      2.026117
  H      -4.707724      3.103395      1.078534
  C       1.134870     -5.233100      1.635311
  H       0.560430     -6.026240      1.147261
  H       1.922904     -4.945641      0.931106
  C       0.706634      4.470275      0.713725
  H      -0.141124      4.206093      1.356399
  H       0.280430      4.889361     -0.202532
  C       6.363369      1.376918      2.211800
  H       6.129416      0.323249      2.388909
  H       7.359971      1.398922      1.757099
  C       6.395026      2.114721      3.544060
  H       7.125212      1.676452      4.226531
  H       6.657066      3.166215      3.404484
  H       5.419085      2.080193      4.034215
  C       1.556030      5.531716      1.400987
  H       2.399461      5.824307      0.771370
  H       0.974234      6.428598      1.620954
  H       1.961731      5.157177      2.344027
  C      -4.433117      3.402752      3.184981
  H      -4.654031      4.471257      3.153342
  H      -4.796721      3.014327      4.139165
  H      -3.346754      3.285248      3.173304
  C       1.762627     -5.782803      2.909558
  H       0.995539     -6.098523      3.620654
  H       2.398341     -6.644980      2.700270
  H       2.377590     -5.026084      3.402470
101
Coordinates from ORCA-job orca E -2008.245399216738
  C      -0.119074     -0.170965     -1.582640
  C       1.098548     -0.210942     -0.782235
  O       1.761451     -1.221494     -0.637908
  O       1.530620      0.919757     -0.206234
  C      -0.751103      1.127217     -1.945966
  H      -1.711596      1.193556     -1.419447
  H      -0.989214      1.132380     -3.015154
  C       0.670713      2.080928     -0.168812
  H      -0.144753      1.847810      0.528458
  C       0.105274      2.321990     -1.552556
  H      -0.499741      3.229653     -1.551623
  H       0.932555      2.476102     -2.249575
  C      -0.694446     -1.480059     -2.005305
  H       0.098480     -2.221387     -1.933608
  H      -1.004535     -1.431707     -3.053990
  C       3.348438     -0.007148     -3.554374
  C       4.015545      0.366352     -2.471018
  H       2.785763      0.715397     -4.130782
  H       3.348967     -1.040469     -3.880508
  C       3.914249      1.806955     -2.066064
  C       4.823662     -0.574049     -1.619205
  O       3.262190      2.617790     -2.674763
  O       4.555119      2.210814     -0.966559
  H       5.840403     -0.642830     -2.022565
  H       4.381548     -1.569214     -1.668831
  C       4.882085     -0.081781     -0.183240
  C       5.375957      1.347686     -0.149660
  H       5.560177     -0.704138      0.403290
  H       3.891921     -0.144080      0.274252
  H       6.389190      1.397514     -0.569546
  C       1.512124      3.210133      0.392477
  H       2.314706      3.449149     -0.311016
  H       1.991436      2.838966      1.303379
  C       5.372960      1.981625      1.229708
  H       4.363394      1.902269      1.645531
  H       5.578545      3.048822      1.107107
  C      -4.632682     -1.525156     -1.236937
  C      -4.630193     -1.868749      0.255127
  O      -4.260184     -2.948765      0.641822
  O      -5.132460     -1.017869      1.145011
  C      -5.399900     -0.220315     -1.491986
  H      -6.476007     -0.411811     -1.427607
  H      -5.203512      0.116374     -2.513170
  C      -5.427409      0.376788      0.910583
  H      -6.517549      0.450397      1.001678
  C      -5.017230      0.835213     -0.474267
  H      -5.516973      1.780946     -0.689086
  H      -3.940018      1.017868     -0.488067
  C      -5.380304     -2.666896     -1.942602
  H      -4.888100     -3.626998     -1.812278
  H      -5.452006     -2.449672     -3.010781
  C      -3.194989     -1.353348     -1.819462
  C      -1.945962     -1.999562     -1.190649
  H      -3.001972     -0.285237     -1.880934
  H      -3.238799     -1.709864     -2.853706
  C      -1.733689     -1.467158      0.225763
  C      -1.967928     -3.543860     -1.272492
  O      -2.189835     -0.405961      0.582043
  O      -0.950739     -2.139626      1.053502
  H      -1.405433     -3.842788     -2.160825
  H      -2.987628     -3.884951     -1.417731
  C      -1.408831     -4.234285     -0.029930
  C      -0.352925     -3.395723      0.655785
  H      -0.991130     -5.206051     -0.297079
  H      -2.215551     -4.403813      0.686440
  H       0.475530     -3.157032     -0.017734
  C      -4.765627      1.144546      2.042917
  H      -3.687935      0.973608      1.979231
  H      -5.101455      0.708246      2.987635
  C       0.211713     -4.000132      1.926533
  H      -0.615107     -4.282101      2.586336
  H       0.775729     -3.217997      2.441757
  H      -6.393892     -2.762716     -1.548461
  C      -5.071529      2.638543      2.032305
  H      -6.156060      2.794480      2.043754
  H      -4.705113      3.086952      1.104218
  C       1.122226     -5.195486      1.669168
  H       0.564080     -5.994016      1.171690
  H       1.917296     -4.897424      0.977828
  C       0.704505      4.460257      0.722063
  H      -0.145048      4.192280      1.360313
  H       0.282321      4.883079     -0.193998
  C       6.386040      1.375272      2.193973
  H       6.150632      0.322643      2.373540
  H       7.380988      1.395766      1.736282
  C       6.422362      2.115267      3.525058
  H       7.154455      1.678174      4.205776
  H       6.684184      3.166047      3.381965
  H       5.448039      2.081679      4.017848
  C       1.550475      5.519395      1.417282
  H       2.396306      5.814126      0.792393
  H       0.967389      6.414959      1.637700
  H       1.951415      5.140976      2.360468
  C      -4.439488      3.361084      3.215554
  H      -4.665080      4.428635      3.197228
  H      -4.804896      2.958412      4.162796
  H      -3.352959      3.248629      3.205713
  C       1.737043     -5.740420      2.951856
  H       0.962996     -6.067642      3.649655
  H       2.386826     -6.593518      2.750162
  H       2.334097     -4.977039      3.455770
101
Coordinates from ORCA-job orca E -2008.245479529647
  C      -0.118620     -0.171281     -1.568806
  C       1.100475     -0.211717     -0.770389
  O       1.762686     -1.222906     -0.626659
  O       1.534783      0.919140     -0.195952
  C      -0.750956      1.127154     -1.930877
  H      -1.710111      1.194111     -1.401900
  H      -0.991522      1.132242     -2.999564
  C       0.675234      2.080467     -0.156810
  H      -0.138964      1.847853      0.542226
  C       0.107013      2.321581     -1.539412
  H      -0.497598      3.229568     -1.537324
  H       0.932917      2.475428     -2.238255
  C      -0.694280     -1.480161     -1.992447
  H       0.098552     -2.221687     -1.920442
  H      -1.002244     -1.430981     -3.041817
  C       3.335804     -0.009569     -3.544757
  C       4.015177      0.366971     -2.469970
  H       2.767988      0.711388     -4.118233
  H       3.331254     -1.044225     -3.866837
  C       3.920251      1.809169     -2.068846
  C       4.830700     -0.571533     -1.623114
  O       3.268887      2.620248     -2.678010
  O       4.565822      2.213975     -0.972319
  H       5.845622     -0.637771     -2.031539
  H       4.390479     -1.567630     -1.670359
  C       4.894820     -0.078473     -0.187662
  C       5.388577      1.351111     -0.156766
  H       5.575578     -0.699868      0.396949
  H       3.906443     -0.141043      0.273756
  H       6.400611      1.400386     -0.579756
  C       1.517458      3.210273      0.402037
  H       2.317128      3.449671     -0.304548
  H       1.999470      2.840533      1.312118
  C       5.389655      1.985910      1.222122
  H       4.381326      1.906122      1.640961
  H       5.594688      3.053142      1.098582
  C      -4.636228     -1.525320     -1.234819
  C      -4.645011     -1.865330      0.258329
  O      -4.267915     -2.940388      0.652039
  O      -5.151123     -1.011421      1.143018
  C      -5.406177     -0.223561     -1.498642
  H      -6.482128     -0.418075     -1.439934
  H      -5.204716      0.110231     -2.519834
  C      -5.448139      0.381765      0.902014
  H      -6.538855      0.453487      0.988284
  C      -5.032583      0.836650     -0.482484
  H      -5.534505      1.780041     -0.702973
  H      -3.956038      1.023021     -0.491234
  C      -5.375018     -2.670885     -1.943411
  H      -4.879987     -3.629083     -1.808675
  H      -5.440692     -2.455324     -3.012389
  C      -3.194922     -1.350858     -1.809463
  C      -1.947264     -2.000384     -1.180264
  H      -3.001730     -0.282403     -1.865985
  H      -3.234363     -1.702504     -2.845562
  C      -1.735679     -1.474392      0.239031
  C      -1.970914     -3.544485     -1.268271
  O      -2.183658     -0.410272      0.597345
  O      -0.951618     -2.150252      1.062961
  H      -1.410852     -3.840068     -2.159273
  H      -2.991443     -3.884016     -1.412164
  C      -1.408882     -4.240383     -0.029927
  C      -0.352741     -3.403781      0.658254
  H      -0.990685     -5.210541     -0.302327
  H      -2.214103     -4.413802      0.687171
  H       0.474652     -3.161388     -0.015335
  C      -4.792281      1.153978      2.034543
  H      -3.714318      0.982807      1.976386
  H      -5.132543      0.721487      2.979510
  C       0.214001     -4.013655      1.925514
  H      -0.611918     -4.300257      2.584594
  H       0.777314     -3.233309      2.444303
  H      -6.390746     -2.769827     -1.555453
  C      -5.097108      2.648036      2.017026
  H      -6.181523      2.805382      2.026221
  H      -4.728351      3.092338      1.087803
  C       1.125831     -5.206757      1.661929
  H       0.568665     -6.003316      1.160032
  H       1.920777     -4.904121      0.972455
  C       0.709925      4.460304      0.732745
  H      -0.138771      4.192168      1.372035
  H       0.286622      4.882996     -0.182937
  C       6.405652      1.380256      2.183955
  H       6.169822      0.328091      2.366113
  H       7.399165      1.399165      1.722965
  C       6.446796      2.122431      3.513820
  H       7.180755      1.685960      4.193023
  H       6.708905      3.172823      3.367911
  H       5.473885      2.090387      4.009638
  C       1.556552      5.519890      1.426665
  H       2.401758      5.814311      0.800662
  H       0.973551      6.415575      1.647100
  H       1.958482      5.141950      2.369699
  C      -4.465281      3.373759      3.198342
  H      -4.687369      4.442023      3.175116
  H      -4.833851      2.976144      4.146579
  H      -3.379108      3.256974      3.190879
  C       1.741008     -5.757788      2.941941
  H       0.967176     -6.090892      3.637314
  H       2.393045     -6.608149      2.735704
  H       2.335774     -4.995785      3.450775
101
Coordinates from ORCA-job orca E -2008.245525157095
  C      -0.118417     -0.171400     -1.554776
  C       1.099062     -0.210845     -0.753497
  O       1.758352     -1.223042     -0.603516
  O       1.535218      0.922125     -0.183936
  C      -0.749541      1.126406     -1.921258
  H      -1.708612      1.195839     -1.392311
  H      -0.990137      1.128202     -2.990009
  C       0.676990      2.084602     -0.149818
  H      -0.137951      1.856014      0.549765
  C       0.109914      2.320994     -1.533805
  H      -0.493196      3.230027     -1.536030
  H       0.936676      2.470938     -2.232645
  C      -0.692339     -1.480850     -1.979892
  H       0.100564     -2.222106     -1.905309
  H      -0.995503     -1.431335     -3.030725
  C       3.317932     -0.024065     -3.522614
  C       4.013944      0.361264     -2.461525
  H       2.744673      0.692722     -4.096032
  H       3.305158     -1.062168     -3.833404
  C       3.929519      1.807682     -2.073563
  C       4.837962     -0.571182     -1.616471
  O       3.282434      2.617527     -2.688785
  O       4.579611      2.217732     -0.981262
  H       5.851083     -0.635007     -2.029859
  H       4.401464     -1.569213     -1.657098
  C       4.907238     -0.071217     -0.183614
  C       5.401597      1.358290     -0.161156
  H       5.589783     -0.689385      0.402448
  H       3.920123     -0.131618      0.280915
  H       6.413393      1.404128     -0.585274
  C       1.519919      3.216552      0.403568
  H       2.317475      3.453024     -0.306378
  H       2.003086      2.852181      1.315149
  C       5.404202      2.000284      1.214274
  H       4.396110      1.922590      1.634214
  H       5.609508      3.066851      1.085260
  C      -4.637583     -1.522003     -1.236626
  C      -4.654882     -1.863942      0.256181
  O      -4.279443     -2.939019      0.651322
  O      -5.161350     -1.008912      1.139514
  C      -5.405976     -0.219697     -1.502843
  H      -6.482326     -0.413817     -1.448829
  H      -5.200155      0.114503     -2.523087
  C      -5.456546      0.384680      0.897980
  H      -6.547513      0.457391      0.980989
  C      -5.036091      0.840041     -0.484882
  H      -5.537034      1.783753     -0.706637
  H      -3.959479      1.026052     -0.489624
  C      -5.372560     -2.666379     -1.951034
  H      -4.877808     -3.624727     -1.815717
  H      -5.432804     -2.448846     -3.019988
  C      -3.193115     -1.347391     -1.803969
  C      -1.948919     -2.002793     -1.173449
  H      -2.997407     -0.278926     -1.854214
  H      -3.228814     -1.693141     -2.842194
  C      -1.741625     -1.486502      0.250494
  C      -1.974999     -3.546438     -1.271062
  O      -2.187702     -0.423517      0.614705
  O      -0.958660     -2.167882      1.070834
  H      -1.415702     -3.836914     -2.164242
  H      -2.996101     -3.883672     -1.416459
  C      -1.413402     -4.250761     -0.037107
  C      -0.358360     -3.418374      0.658051
  H      -0.994340     -5.218810     -0.315715
  H      -2.219178     -4.429090      0.678232
  H       0.469751     -3.171216     -0.012841
  C      -4.802964      1.154932      2.032910
  H      -3.724915      0.982967      1.976388
  H      -5.145376      0.721013      2.976511
  C       0.206981     -4.036120      1.922083
  H      -0.619609     -4.325860      2.579097
  H       0.770326     -3.258929      2.445691
  H      -6.390336     -2.766328     -1.568515
  C      -5.106175      2.649228      2.017675
  H      -6.190452      2.808032      2.025101
  H      -4.735130      3.095223      1.090062
  C       1.117999     -5.228654      1.653282
  H       0.560594     -6.022287      1.146854
  H       1.913794     -4.923398      0.965890
  C       0.712882      4.468480      0.728800
  H      -0.135645      4.203741      1.369708
  H       0.289122      4.886818     -0.188746
  C       6.420523      1.398946      2.178592
  H       6.183467      0.348031      2.366853
  H       7.413727      1.413715      1.716648
  C       6.463681      2.148299      3.504384
  H       7.197155      1.714205      4.185727
  H       6.727590      3.197482      3.352568
  H       5.490823      2.120846      4.000740
  C       1.560132      5.531415      1.416764
  H       2.405416      5.822104      0.788973
  H       0.977510      6.428620      1.632262
  H       1.962287      5.158721      2.361871
  C      -4.475356      3.370933      3.201956
  H      -4.693008      4.440190      3.179895
  H      -4.848312      2.973249      4.148555
  H      -3.389678      3.249037      3.197635
  C       1.731908     -5.786303      2.931028
  H       0.957554     -6.123848      3.623810
  H       2.385080     -6.634947      2.721019
  H       2.325309     -5.026486      3.444872
101
Coordinates from ORCA-job orca E -2008.245581512877
  C      -0.116286     -0.168527     -1.542582
  C       1.098387     -0.212961     -0.736959
  O       1.751888     -1.228120     -0.583317
  O       1.538602      0.919284     -0.167966
  C      -0.745050      1.131153     -1.906305
  H      -1.703353      1.201309     -1.375939
  H      -0.987382      1.135587     -2.974655
  C       0.683565      2.083988     -0.133489
  H      -0.132024      1.857686      0.566104
  C       0.117584      2.322639     -1.517661
  H      -0.482298      3.233800     -1.520452
  H       0.945525      2.470375     -2.215725
  C      -0.691418     -1.475963     -1.973077
  H       0.100447     -2.218518     -1.900360
  H      -0.993013     -1.422016     -3.024158
  C       3.281960     -0.033203     -3.497624
  C       4.007078      0.358627     -2.458492
  H       2.699340      0.681278     -4.064544
  H       3.254482     -1.074592     -3.796278
  C       3.941779      1.809201     -2.083034
  C       4.845941     -0.569883     -1.624490
  O       3.301485      2.621783     -2.701340
  O       4.601773      2.220098     -0.996310
  H       5.854966     -0.626998     -2.048930
  H       4.416180     -1.571059     -1.659801
  C       4.927206     -0.068318     -0.192790
  C       5.423114      1.360680     -0.175553
  H       5.613368     -0.685779      0.389802
  H       3.943092     -0.127739      0.278118
  H       6.434012      1.403262     -0.602229
  C       1.529726      3.214454      0.417638
  H       2.322733      3.450352     -0.297593
  H       2.016429      2.851597      1.327813
  C       5.429945      2.005543      1.198363
  H       4.422683      1.929146      1.620547
  H       5.635733      3.071706      1.066744
  C      -4.640485     -1.523601     -1.243116
  C      -4.666213     -1.866857      0.249575
  O      -4.288529     -2.940125      0.647193
  O      -5.177368     -1.012220      1.130564
  C      -5.412179     -0.223965     -1.512847
  H      -6.488086     -0.422363     -1.464805
  H      -5.202560      0.111243     -2.532043
  C      -5.477090      0.380221      0.887655
  H      -6.568733      0.448767      0.965645
  C      -5.052056      0.837389     -0.493152
  H      -5.555777      1.779122     -0.717248
  H      -3.976218      1.027619     -0.492731
  C      -5.367213     -2.669636     -1.963099
  H      -4.869652     -3.626222     -1.825773
  H      -5.421572     -2.451439     -3.032266
  C      -3.193143     -1.344324     -1.803021
  C      -1.949762     -2.000112     -1.170322
  H      -2.998824     -0.275432     -1.848428
  H      -3.223908     -1.685431     -2.842930
  C      -1.744696     -1.486181      0.255036
  C      -1.973742     -3.543689     -1.271426
  O      -2.195952     -0.426615      0.622751
  O      -0.962532     -2.168947      1.074861
  H      -1.414321     -3.830938     -2.165611
  H      -2.994381     -3.881962     -1.417204
  C      -1.411908     -4.250425     -0.038828
  C      -0.359814     -3.418186      0.660840
  H      -0.989914     -5.216613     -0.319465
  H      -2.218582     -4.432220      0.674677
  H       0.469658     -3.168518     -0.007208
  C      -4.831107      1.152444      2.025295
  H      -3.752248      0.984513      1.971851
  H      -5.174567      0.715906      2.967354
  C       0.203300     -4.036636      1.925334
  H      -0.624116     -4.323075      2.582855
  H       0.768404     -3.259943      2.447919
  H      -6.387065     -2.773739     -1.587221
  C      -5.139556      2.645417      2.010125
  H      -6.224406      2.800843      2.014288
  H      -4.767754      3.093494      1.083713
  C       1.110966     -5.232086      1.659142
  H       0.550832     -6.025958      1.155959
  H       1.906530     -4.931422      0.969261
  C       0.725351      4.467582      0.745526
  H      -0.120956      4.204128      1.389914
  H       0.297831      4.885909     -0.170328
  C       6.447645      1.404749      2.161511
  H       6.209730      0.354271      2.351623
  H       7.439959      1.417022      1.697487
  C       6.494492      2.155592      3.486201
  H       7.227887      1.720581      4.167073
  H       6.760537      3.204088      3.333014
  H       5.522274      2.131154      3.984044
  C       1.576410      5.530061      1.429136
  H       2.419618      5.819532      0.797904
  H       0.995601      6.428160      1.645999
  H       1.982316      5.158272      2.373053
  C      -4.513825      3.367849      3.196478
  H      -4.730338      4.437309      3.173018
  H      -4.890910      2.971098      4.141891
  H      -3.428240      3.244315      3.197092
  C       1.725795     -5.786644      2.937634
  H       0.952335     -6.121421      3.632848
  H       2.378093     -6.636448      2.729477
  H       2.320617     -5.025869      3.448539
101
Coordinates from ORCA-job orca E -2008.245635748576
  C      -0.112193     -0.169469     -1.525329
  C       1.097701     -0.215031     -0.712277
  O       1.745904     -1.231791     -0.549572
  O       1.540002      0.919038     -0.147522
  C      -0.739152      1.129941     -1.892184
  H      -1.698184      1.201328     -1.363018
  H      -0.980863      1.132968     -2.960668
  C       0.687669      2.085844     -0.118904
  H      -0.129068      1.864679      0.580840
  C       0.124627      2.320595     -1.505090
  H      -0.472546      3.233499     -1.513342
  H       0.954891      2.463719     -2.201525
  C      -0.684462     -1.476200     -1.962099
  H       0.106432     -2.219450     -1.886130
  H      -0.979147     -1.418939     -3.014895
  C       3.238917     -0.050885     -3.462664
  C       3.994684      0.352177     -2.449944
  H       2.646690      0.658977     -4.025546
  H       3.195983     -1.096790     -3.743022
  C       3.949611      1.808541     -2.095130
  C       4.849603     -0.567937     -1.623945
  O       3.316101      2.621042     -2.720022
  O       4.620579      2.225503     -1.016747
  H       5.853758     -0.618943     -2.060814
  H       4.428694     -1.573228     -1.648674
  C       4.944431     -0.058269     -0.195890
  C       5.441019      1.370573     -0.190801
  H       5.634985     -0.672355      0.385015
  H       3.963809     -0.115335      0.282341
  H       6.451262      1.408408     -0.619435
  C       1.536853      3.217198      0.425366
  H       2.324689      3.450090     -0.296460
  H       2.028185      2.859157      1.334825
  C       5.450629      2.025100      1.178543
  H       4.443913      1.951385      1.602553
  H       5.655900      3.090328      1.038846
  C      -4.637102     -1.519368     -1.257384
  C      -4.668779     -1.869955      0.233597
  O      -4.296612     -2.946419      0.627399
  O      -5.182206     -1.018642      1.116566
  C      -5.403576     -0.216129     -1.523593
  H      -6.480192     -0.412347     -1.482446
  H      -5.188317      0.124309     -2.539936
  C      -5.480250      0.374992      0.879551
  H      -6.572367      0.443463      0.950911
  C      -5.046617      0.838986     -0.496299
  H      -5.546894      1.783073     -0.718099
  H      -3.970201      1.026389     -0.489284
  C      -5.364386     -2.659457     -1.986283
  H      -4.870638     -3.618212     -1.850825
  H      -5.412544     -2.436524     -3.054785
  C      -3.186916     -1.342115     -1.809447
  C      -1.949832     -2.002900     -1.170464
  H      -2.989090     -0.273480     -1.849312
  H      -3.212744     -1.679029     -2.850840
  C      -1.757588     -1.495855      0.258944
  C      -1.974093     -3.545924     -1.278547
  O      -2.212309     -0.438305      0.628079
  O      -0.977838     -2.180278      1.079408
  H      -1.409791     -3.829145     -2.170964
  H      -2.993860     -3.883527     -1.431266
  C      -1.419780     -4.257869     -0.045581
  C      -0.372725     -3.428426      0.664585
  H      -0.994785     -5.222283     -0.327766
  H      -2.231422     -4.443452      0.661351
  H       0.460940     -3.175552      0.003211
  C      -4.841100      1.140803      2.025352
  H      -3.761885      0.973580      1.976579
  H      -5.188855      0.697515      2.962679
  C       0.183039     -4.050574      1.930290
  H      -0.647640     -4.335430      2.584407
  H       0.747748     -3.275460      2.455770
  H      -6.386585     -2.761995     -1.616390
  C      -5.150449      2.633430      2.017527
  H      -6.235435      2.788221      2.014186
  H      -4.772697      3.087740      1.096526
  C       1.089269     -5.247332      1.666393
  H       0.528622     -6.040455      1.162552
  H       1.886459     -4.948705      0.977215
  C       0.735016      4.472318      0.752421
  H      -0.107140      4.212135      1.403527
  H       0.300982      4.886547     -0.162258
  C       6.469647      1.430657      2.144016
  H       6.232854      0.380928      2.339841
  H       7.461471      1.440534      1.678814
  C       6.517628      2.188337      3.464539
  H       7.251164      1.756383      4.147228
  H       6.784069      3.236007      3.306316
  H       5.545774      2.167061      3.963287
  C       1.590754      5.537616      1.425306
  H       2.430002      5.824224      0.787478
  H       1.011626      6.436935      1.641715
  H       2.003098      5.170698      2.368368
  C      -4.533947      3.348728      3.212832
  H      -4.747261      4.418887      3.192846
  H      -4.920166      2.948505      4.153106
  H      -3.448730      3.222149      3.222793
  C       1.701278     -5.802039      2.945946
  H       0.926692     -6.135605      3.640510
  H       2.352999     -6.652720      2.739437
  H       2.296388     -5.041847      3.457442
101
Coordinates from ORCA-job orca E -2008.245660030164
  C      -0.106665     -0.169898     -1.522603
  C       1.101154     -0.217750     -0.706814
  O       1.747857     -1.235267     -0.544002
  O       1.543548      0.915128     -0.139802
  C      -0.733995      1.130202     -1.885884
  H      -1.693248      1.199196     -1.356691
  H      -0.975975      1.136399     -2.954287
  C       0.692049      2.082510     -0.109328
  H      -0.124437      1.861006      0.590507
  C       0.129254      2.319934     -1.495312
  H      -0.467333      3.233218     -1.502470
  H       0.960132      2.463763     -2.190868
  C      -0.679499     -1.475275     -1.961782
  H       0.110112     -2.219853     -1.886014
  H      -0.974476     -1.416032     -3.014328
  C       3.214378     -0.048577     -3.456844
  C       3.982984      0.354936     -2.454047
  H       2.618571      0.662082     -4.014968
  H       3.164628     -1.095109     -3.733442
  C       3.946543      1.812256     -2.102604
  C       4.845167     -0.564552     -1.635502
  O       3.313899      2.626654     -2.725703
  O       4.624989      2.228086     -1.028133
  H       5.846164     -0.611778     -2.080188
  H       4.428390     -1.571671     -1.658018
  C       4.949291     -0.056225     -0.207499
  C       5.446044      1.372588     -0.203745
  H       5.642903     -0.671371      0.368515
  H       3.971252     -0.113937      0.275802
  H       6.455560      1.410057     -0.633995
  C       1.543560      3.211949      0.435216
  H       2.327849      3.446399     -0.289871
  H       2.039283      2.850994      1.341089
  C       5.458061      2.026985      1.165867
  H       4.451904      1.953101      1.591121
  H       5.662685      3.092241      1.025539
  C      -4.633512     -1.519677     -1.266432
  C      -4.669041     -1.873385      0.223566
  O      -4.298842     -2.951069      0.615866
  O      -5.186662     -1.024560      1.106601
  C      -5.399319     -0.216137     -1.532029
  H      -6.475995     -0.412802     -1.494736
  H      -5.181204      0.126768     -2.546914
  C      -5.484492      0.369352      0.871886
  H      -6.576959      0.437067      0.938633
  C      -5.045707      0.836643     -0.501220
  H      -5.544933      1.781252     -0.722900
  H      -3.969236      1.023688     -0.490147
  C      -5.358387     -2.658729     -1.999334
  H      -4.864686     -3.617524     -1.863522
  H      -5.403153     -2.434460     -3.067670
  C      -3.182009     -1.340891     -1.813996
  C      -1.946426     -2.000722     -1.171526
  H      -2.984886     -0.272070     -1.852510
  H      -3.204810     -1.677204     -2.855642
  C      -1.755177     -1.489518      0.256298
  C      -1.970773     -3.543802     -1.276147
  O      -2.213648     -0.432795      0.623140
  O      -0.977683     -2.172465      1.079974
  H      -1.403199     -3.829450     -2.165708
  H      -2.990078     -3.881590     -1.432190
  C      -1.421826     -4.253024     -0.039341
  C      -0.375164     -3.423858      0.671187
  H      -0.997526     -5.218919     -0.317474
  H      -2.236266     -4.435508      0.665162
  H       0.460902     -3.174587      0.011442
  C      -4.851000      1.133550      2.022133
  H      -3.771403      0.967445      1.978133
  H      -5.202274      0.687742      2.956920
  C       0.176438     -4.042896      1.940185
  H      -0.656018     -4.323408      2.593828
  H       0.741865     -3.266952      2.463679
  H      -6.381737     -2.762211     -1.632967
  C      -5.162345      2.625739      2.015191
  H      -6.247535      2.778720      2.004946
  H      -4.779881      3.082017      1.097148
  C       1.081252     -5.241727      1.681368
  H       0.519587     -6.036139      1.180755
  H       1.878699     -4.946971      0.990761
  C       0.743912      4.466304      0.770382
  H      -0.093523      4.204425      1.426923
  H       0.303069      4.882641     -0.140048
  C       6.478622      1.432564      2.129495
  H       6.243949      0.382029      2.323413
  H       7.469989      1.444922      1.663379
  C       6.526757      2.187825      3.451252
  H       7.261501      1.755486      4.132397
  H       6.791691      3.236171      3.295165
  H       5.555525      2.164287      3.951099
  C       1.604329      5.529882      1.439848
  H       2.438983      5.818554      0.796978
  H       1.026719      6.428498      1.663046
  H       2.023480      5.160548      2.378934
  C      -4.554866      3.340832      3.215199
  H      -4.770568      4.410500      3.195216
  H      -4.945628      2.938661      4.152732
  H      -3.469337      3.217584      3.231688
  C       1.692522     -5.792175      2.963000
  H       0.917538     -6.120752      3.659440
  H       2.341940     -6.645477      2.760093
  H       2.289945     -5.031376      3.470816
101
Coordinates from ORCA-job orca E -2008.245715575851
  C      -0.098719     -0.166413     -1.520325
  C       1.104619     -0.215282     -0.698540
  O       1.749080     -1.233558     -0.532155
  O       1.546243      0.916920     -0.130384
  C      -0.723784      1.134453     -1.885144
  H      -1.685212      1.203404     -1.360118
  H      -0.961840      1.141767     -2.954370
  C       0.697550      2.086470     -0.103351
  H      -0.120254      1.868144      0.595843
  C       0.138412      2.323647     -1.490972
  H      -0.456862      3.237727     -1.500474
  H       0.971690      2.465909     -2.183849
  C      -0.669726     -1.470905     -1.963185
  H       0.119654     -2.215579     -1.886946
  H      -0.964642     -1.409722     -3.015565
  C       3.183939     -0.045873     -3.452178
  C       3.962098      0.357547     -2.456824
  H       2.588031      0.666588     -4.007891
  H       3.126548     -1.093043     -3.724460
  C       3.935724      1.816199     -2.110723
  C       4.828303     -0.561163     -1.642557
  O       3.304001      2.631964     -2.732693
  O       4.623329      2.231924     -1.041901
  H       5.825888     -0.607573     -2.095320
  H       4.414316     -1.569500     -1.660758
  C       4.943171     -0.051628     -0.215581
  C       5.442288      1.376433     -0.215892
  H       5.639065     -0.668602      0.355494
  H       3.967954     -0.107505      0.273759
  H       6.451863      1.411290     -0.645986
  C       1.553706      3.213021      0.440003
  H       2.335109      3.446639     -0.288544
  H       2.054070      2.847196      1.341357
  C       5.455340      2.033980      1.152630
  H       4.448658      1.962910      1.577008
  H       5.661345      3.098524      1.009119
  C      -4.624712     -1.521776     -1.273287
  C      -4.659186     -1.878424      0.215787
  O      -4.290233     -2.957598      0.605166
  O      -5.181049     -1.033419      1.100139
  C      -5.390637     -0.217929     -1.536086
  H      -6.467229     -0.415078     -1.500048
  H      -5.172171      0.127874     -2.549859
  C      -5.478982      0.360745      0.869033
  H      -6.571633      0.427812      0.933348
  C      -5.037841      0.831977     -0.501978
  H      -5.536237      1.777266     -0.722182
  H      -3.961308      1.018550     -0.489018
  C      -5.349589     -2.660091     -2.007405
  H      -4.856225     -3.619018     -1.871485
  H      -5.393585     -2.435385     -3.075628
  C      -3.173419     -1.341006     -1.819995
  C      -1.937974     -1.998675     -1.175699
  H      -2.978017     -0.272073     -1.857862
  H      -3.195289     -1.677412     -2.861619
  C      -1.749129     -1.486183      0.251671
  C      -1.959500     -3.541448     -1.280287
  O      -2.210087     -0.430008      0.616968
  O      -0.973159     -2.167886      1.077705
  H      -1.383040     -3.827362     -2.164034
  H      -2.976682     -3.880580     -1.446748
  C      -1.422402     -4.249627     -0.038014
  C      -0.375927     -3.424053      0.676020
  H      -1.000543     -5.218062     -0.311063
  H      -2.242483     -4.427426      0.661047
  H       0.465221     -3.180531      0.020302
  C      -4.849325      1.123209      2.022862
  H      -3.769255      0.959448      1.981970
  H      -5.202055      0.674069      2.955474
  C       0.165677     -4.042739      1.949692
  H      -0.671640     -4.315284      2.600265
  H       0.734143     -3.269004      2.473118
  H      -6.373148     -2.763631     -1.641824
  C      -5.165063      2.614528      2.017821
  H      -6.250683      2.763563      2.000140
  H      -4.778272      3.073871      1.103212
  C       1.063597     -5.248109      1.697184
  H       0.497919     -6.040654      1.198199
  H       1.864021     -4.960809      1.007153
  C       0.759638      4.468234      0.784145
  H      -0.070668      4.206819      1.449838
  H       0.309187      4.886107     -0.120824
  C       6.474539      1.440238      2.117738
  H       6.241353      0.389171      2.310204
  H       7.466608      1.454743      1.653230
  C       6.519695      2.194677      3.439905
  H       7.254228      1.762905      4.121599
  H       6.783338      3.243510      3.285365
  H       5.548090      2.169214      3.938842
  C       1.629229      5.529378      1.445500
  H       2.457065      5.818131      0.794029
  H       1.055653      6.428385      1.677188
  H       2.058012      5.157527      2.379185
  C      -4.569133      3.330322      3.223088
  H      -4.792219      4.398483      3.204289
  H      -4.962061      2.923349      4.157550
  H      -3.482750      3.216146      3.245456
  C       1.668430     -5.798564      2.981788
  H       0.889584     -6.116728      3.678652
  H       2.309582     -6.659112      2.783382
  H       2.272856     -5.041618      3.486925
101
Coordinates from ORCA-job orca E -2008.245737620355
  C      -0.089999     -0.168215     -1.512048
  C       1.109132     -0.215309     -0.684304
  O       1.752682     -1.233251     -0.512035
  O       1.548851      0.918083     -0.117488
  C      -0.714531      1.131859     -1.880647
  H      -1.677561      1.201624     -1.358455
  H      -0.949471      1.137284     -2.950541
  C       0.702193      2.089273     -0.097473
  H      -0.116852      1.875859      0.601739
  C       0.146309      2.322180     -1.486822
  H      -0.448724      3.236390     -1.500296
  H       0.981605      2.462284     -2.177678
  C      -0.657783     -1.473125     -1.956571
  H       0.131208     -2.217612     -1.874740
  H      -0.947710     -1.413214     -3.010409
  C       3.154942     -0.048872     -3.442385
  C       3.944296      0.358155     -2.457431
  H       2.556861      0.662573     -3.997066
  H       3.090433     -1.097599     -3.706883
  C       3.927537      1.819208     -2.120599
  C       4.816075     -0.556794     -1.645511
  O       3.296176      2.634087     -2.744161
  O       4.623833      2.238627     -1.059230
  H       5.810396     -0.602983     -2.105649
  H       4.404473     -1.566186     -1.657318
  C       4.940347     -0.042228     -0.221107
  C       5.440907      1.385383     -0.228993
  H       5.639291     -0.658543      0.346880
  H       3.968370     -0.096082      0.274914
  H       6.450507      1.417173     -0.659111
  C       1.561486      3.215715      0.441308
  H       2.339686      3.447656     -0.291346
  H       2.066548      2.848160      1.339343
  C       5.454337      2.049622      1.136546
  H       4.447103      1.981445      1.560146
  H       5.661378      3.113215      0.987656
  C      -4.615393     -1.517111     -1.283549
  C      -4.657300     -1.881015      0.203383
  O      -4.290374     -2.962352      0.588805
  O      -5.180831     -1.039516      1.090097
  C      -5.375575     -0.209191     -1.543172
  H      -6.452995     -0.402608     -1.513156
  H      -5.150988      0.141191     -2.553999
  C      -5.473437      0.356573      0.864744
  H      -6.566181      0.426538      0.923939
  C      -5.023932      0.833744     -0.501510
  H      -5.517919      1.781938     -0.719089
  H      -3.946846      1.016649     -0.482104
  C      -5.341615     -2.649416     -2.025599
  H      -4.853190     -3.611042     -1.891221
  H      -5.379876     -2.420027     -3.093046
  C      -3.161206     -1.338247     -1.823209
  C      -1.929867     -1.999957     -1.175302
  H      -2.963596     -0.269542     -1.857172
  H      -3.179246     -1.672148     -2.865720
  C      -1.744365     -1.489564      0.253031
  C      -1.953578     -3.542525     -1.282286
  O      -2.202968     -0.431868      0.617036
  O      -0.973406     -2.174018      1.081500
  H      -1.370462     -3.829004     -2.161468
  H      -2.970025     -3.879481     -1.457833
  C      -1.427494     -4.253269     -0.036929
  C      -0.380634     -3.432977      0.682494
  H      -1.009197     -5.223889     -0.307838
  H      -2.252297     -4.427425      0.657260
  H       0.465239     -3.193507      0.031146
  C      -4.848255      1.111856      2.025822
  H      -3.768084      0.947575      1.989956
  H      -5.206376      0.658123      2.954161
  C       0.151103     -4.055347      1.958800
  H      -0.691353     -4.323929      2.604279
  H       0.721208     -3.285513      2.486088
  H      -6.367176     -2.749889     -1.664865
  C      -5.163839      2.603349      2.027230
  H      -6.249329      2.752002      2.000679
  H      -4.768787      3.068107      1.118960
  C       1.043350     -5.265741      1.709289
  H       0.475338     -6.054775      1.207472
  H       1.848304     -4.982222      1.023064
  C       0.771349      4.471993      0.789756
  H      -0.052310      4.212302      1.464175
  H       0.312628      4.888183     -0.111828
  C       6.472337      1.459677      2.105143
  H       6.239503      0.409232      2.301102
  H       7.465009      1.473669      1.641932
  C       6.515180      2.219334      3.424469
  H       7.249775      1.791336      4.108475
  H       6.777503      3.267874      3.265936
  H       5.543225      2.194268      3.922695
  C       1.648290      5.533812      1.440566
  H       2.469751      5.820792      0.780402
  H       1.077640      6.433539      1.676619
  H       2.085544      5.162745      2.370614
  C      -4.579912      3.312573      3.242195
  H      -4.806837      4.380035      3.228592
  H      -4.979014      2.897941      4.170601
  H      -3.493305      3.202915      3.272727
  C       1.639379     -5.820885      2.996089
  H       0.855275     -6.132848      3.689833
  H       2.274093     -6.686671      2.799818
  H       2.248098     -5.068926      3.503447
101
Coordinates from ORCA-job orca E -2008.245778136259
  C      -0.078485     -0.165474     -1.494788
  C       1.116736     -0.212961     -0.661556
  O       1.758667     -1.231239     -0.484466
  O       1.556017      0.920693     -0.095032
  C      -0.700898      1.134989     -1.865875
  H      -1.664610      1.207402     -1.345382
  H      -0.933461      1.139328     -2.936278
  C       0.714190      2.095380     -0.082279
  H      -0.105908      1.889406      0.617912
  C       0.160777      2.325048     -1.472715
  H      -0.433209      3.239946     -1.488746
  H       0.997575      2.463041     -2.162163
  C      -0.642802     -1.470266     -1.943640
  H       0.146412     -2.213961     -1.856019
  H      -0.925173     -1.410672     -2.999613
  C       3.118004     -0.044512     -3.433122
  C       3.923470      0.364165     -2.462056
  H       2.517020      0.666965     -3.984659
  H       3.042887     -1.094611     -3.689336
  C       3.921173      1.827565     -2.134239
  C       4.801508     -0.549071     -1.655507
  O       3.289809      2.642938     -2.757532
  O       4.630961      2.249115     -1.083455
  H       5.791135     -0.596890     -2.125631
  H       4.389511     -1.558368     -1.660667
  C       4.939934     -0.030377     -0.233956
  C       5.444944      1.395650     -0.249786
  H       5.643005     -0.647492      0.328121
  H       3.973272     -0.081088      0.272914
  H       6.454028      1.422363     -0.681269
  C       1.579904      3.219949      0.450617
  H       2.353097      3.450168     -0.288180
  H       2.091800      2.847797      1.342889
  C       5.461565      2.066268      1.112754
  H       4.453975      2.002803      1.536298
  H       5.672168      3.128443      0.958887
  C      -4.603638     -1.516764     -1.288706
  C      -4.651092     -1.882002      0.197609
  O      -4.283688     -2.963354      0.582790
  O      -5.184600     -1.045097      1.082578
  C      -5.366274     -0.210493     -1.551248
  H      -6.443303     -0.406874     -1.528239
  H      -5.135892      0.142149     -2.559942
  C      -5.481512      0.350095      0.857211
  H      -6.574849      0.415989      0.909848
  C      -5.024649      0.831347     -0.505150
  H      -5.520402      1.778405     -0.723926
  H      -3.948428      1.017944     -0.477712
  C      -5.323048     -2.651000     -2.034354
  H      -4.832712     -3.611491     -1.897751
  H      -5.357004     -2.421134     -3.101860
  C      -3.147328     -1.334499     -1.821312
  C      -1.918912     -1.999282     -1.171259
  H      -2.950574     -0.265623     -1.849838
  H      -3.160574     -1.664426     -2.865174
  C      -1.739501     -1.495911      0.260376
  C      -1.943363     -3.541346     -1.285721
  O      -2.194729     -0.436905      0.625125
  O      -0.975363     -2.185765      1.090774
  H      -1.351711     -3.825194     -2.160065
  H      -2.958711     -3.875923     -1.473339
  C      -1.429747     -4.258445     -0.038946
  C      -0.384372     -3.444794      0.690515
  H      -1.014440     -5.230219     -0.310395
  H      -2.259921     -4.431325      0.648943
  H       0.467154     -3.206472      0.045894
  C      -4.867031      1.106156      2.023304
  H      -3.786068      0.946008      1.995484
  H      -5.230766      0.651186      2.948878
  C       0.134945     -4.075356      1.968265
  H      -0.714326     -4.341083      2.605953
  H       0.706745     -3.312237      2.503268
  H      -6.349903     -2.754011     -1.678010
  C      -5.188122      2.596612      2.023445
  H      -6.273907      2.741054      1.987267
  H      -4.785778      3.063739      1.119629
  C       1.019284     -5.292152      1.720266
  H       0.448299     -6.075179      1.212569
  H       1.830965     -5.012457      1.040539
  C       0.797125      4.478179      0.807339
  H      -0.017474      4.221080      1.493490
  H       0.327706      4.894050     -0.088895
  C       6.477704      1.477514      2.084074
  H       6.241770      0.428725      2.284865
  H       7.470556      1.487590      1.621198
  C       6.521681      2.243730      3.399819
  H       7.256195      1.818698      4.085775
  H       6.784906      3.291113      3.235246
  H       5.549792      2.221882      3.898294
  C       1.685894      5.538826      1.444567
  H       2.498283      5.822925      0.772143
  H       1.120667      6.440009      1.688002
  H       2.134882      5.166776      2.368605
  C      -4.618389      3.306483      3.244710
  H      -4.852705      4.372396      3.231544
  H      -5.022375      2.886850      4.168725
  H      -3.531323      3.204223      3.283743
  C       1.602628     -5.856271      3.009210
  H       0.811051     -6.161762      3.697361
  H       2.229207     -6.728205      2.814080
  H       2.216146     -5.111862      3.521834
101
Coordinates from ORCA-job orca E -2008.245824725510
  C      -0.069571     -0.165885     -1.473948
  C       1.121676     -0.211179     -0.634751
  O       1.762407     -1.228894     -0.449743
  O       1.559723      0.924619     -0.070946
  C      -0.690895      1.133527     -1.850395
  H      -1.654664      1.209555     -1.330627
  H      -0.922176      1.133558     -2.921075
  C       0.723044      2.102988     -0.069849
  H      -0.098224      1.907194      0.631836
  C       0.171743      2.324623     -1.462203
  H      -0.421691      3.239847     -1.483259
  H       1.009638      2.459105     -2.150954
  C      -0.628335     -1.472144     -1.926216
  H       0.161664     -2.214112     -1.829808
  H      -0.899298     -1.414777     -2.985396
  C       3.088804     -0.045522     -3.423807
  C       3.906270      0.367251     -2.464553
  H       2.486007      0.663969     -3.975984
  H       3.005515     -1.097445     -3.670052
  C       3.915630      1.833383     -2.148980
  C       4.787659     -0.542926     -1.658348
  O       3.283851      2.646958     -2.774727
  O       4.637052      2.259962     -1.108857
  H       5.773999     -0.595782     -2.134766
  H       4.372482     -1.550963     -1.655291
  C       4.936836     -0.015617     -0.241131
  C       5.446881      1.408446     -0.268011
  H       5.643055     -0.631371      0.318722
  H       3.975000     -0.061423      0.275373
  H       6.455868      1.428467     -0.699939
  C       1.594636      3.227790      0.453852
  H       2.363560      3.454047     -0.290922
  H       2.111999      2.854531      1.342560
  C       5.465252      2.089368      1.089332
  H       4.456793      2.032587      1.511760
  H       5.680702      3.149452      0.928101
  C      -4.594235     -1.512490     -1.299313
  C      -4.655309     -1.885996      0.184736
  O      -4.289083     -2.968698      0.567375
  O      -5.189872     -1.051473      1.071221
  C      -5.348780     -0.201145     -1.560389
  H      -6.426923     -0.392212     -1.547149
  H      -5.107963      0.156139     -2.564988
  C      -5.480981      0.345870      0.850407
  H      -6.574541      0.414433      0.894189
  C      -5.010686      0.832782     -0.505288
  H      -5.500267      1.783545     -0.722123
  H      -3.933810      1.014040     -0.467227
  C      -5.313610     -2.638832     -2.057077
  H      -4.830035     -3.602825     -1.922093
  H      -5.337833     -2.402354     -3.123423
  C      -3.133166     -1.332438     -1.820554
  C      -1.910231     -2.003493     -1.166158
  H      -2.933584     -0.263959     -1.842122
  H      -3.139592     -1.656937     -2.866209
  C      -1.740885     -1.509294      0.269968
  C      -1.934525     -3.545054     -1.290538
  O      -2.195313     -0.450417      0.636191
  O      -0.984882     -2.205352      1.102655
  H      -1.334237     -3.824037     -2.160585
  H      -2.948075     -3.877652     -1.490346
  C      -1.432225     -4.270149     -0.043815
  C      -0.391348     -3.461765      0.698715
  H      -1.017308     -5.241385     -0.317689
  H      -2.267763     -4.444569      0.637122
  H       0.465597     -3.220951      0.062164
  C      -4.875560      1.094314      2.026032
  H      -3.794597      0.932715      2.007582
  H      -5.249192      0.635679      2.945837
  C       0.115597     -4.101416      1.977055
  H      -0.740452     -4.364685      2.606781
  H       0.688613     -3.345161      2.520312
  H      -6.343845     -2.737752     -1.709303
  C      -5.194643      2.585505      2.031961
  H      -6.279695      2.731324      1.982295
  H      -4.779059      3.058455      1.137198
  C       0.991983     -5.324556      1.731290
  H       0.418088     -6.102013      1.218487
  H       1.810446     -5.049665      1.057759
  C       0.818566      4.489377      0.812306
  H       0.012089      4.238090      1.510010
  H       0.339629      4.900614     -0.081093
  C       6.477545      1.503596      2.066634
  H       6.235920      0.457784      2.276007
  H       7.471119      1.505486      1.605263
  C       6.522652      2.281039      3.376029
  H       7.255260      1.860017      4.066464
  H       6.789125      3.326057      3.201760
  H       5.550028      2.266406      3.873323
  C       1.717860      5.552139      1.431627
  H       2.521340      5.830401      0.746234
  H       1.157444      6.455704      1.677317
  H       2.178227      5.183920      2.351595
  C      -4.641686      3.286160      3.266454
  H      -4.877434      4.351812      3.258651
  H      -5.057886      2.858526      4.181383
  H      -3.555210      3.184428      3.319580
  C       1.563038     -5.895774      3.022815
  H       0.764506     -6.195258      3.705629
  H       2.182850     -6.772945      2.829561
  H       2.179981     -5.157582      3.540266
101
Coordinates from ORCA-job orca E -2008.245847383360
  C      -0.063849     -0.165355     -1.458612
  C       1.125728     -0.210514     -0.616903
  O       1.764962     -1.228322     -0.427700
  O       1.563894      0.926066     -0.054039
  C      -0.685893      1.133602     -1.834897
  H      -1.648165      1.210533     -1.312387
  H      -0.919884      1.132328     -2.904977
  C       0.730680      2.106803     -0.057962
  H      -0.090502      1.916835      0.645490
  C       0.178456      2.324597     -1.450606
  H      -0.414253      3.240329     -1.473157
  H       1.015695      2.456969     -2.140474
  C      -0.619971     -1.472044     -1.913688
  H       0.170161     -2.213422     -1.813471
  H      -0.884259     -1.414635     -2.974623
  C       3.073714     -0.045756     -3.417921
  C       3.899569      0.369555     -2.466886
  H       2.468907      0.662202     -3.969914
  H       2.985599     -1.098776     -3.657943
  C       3.916254      1.837134     -2.159139
  C       4.783129     -0.539637     -1.661772
  O       3.284357      2.649897     -2.785972
  O       4.645321      2.266161     -1.125444
  H       5.767653     -0.596673     -2.141313
  H       4.364332     -1.546120     -1.654069
  C       4.939159     -0.007032     -0.247339
  C       5.453114      1.415450     -0.280988
  H       5.646994     -0.621652      0.311926
  H       3.980362     -0.049124      0.274749
  H       6.461593      1.430710     -0.714264
  C       1.606135      3.231623      0.459727
  H       2.371786      3.455323     -0.289241
  H       2.126676      2.858921      1.346847
  C       5.474193      2.102422      1.073079
  H       4.465599      2.050619      1.495835
  H       5.693443      3.161053      0.907551
  C      -4.587993     -1.509823     -1.304337
  C      -4.655997     -1.886325      0.178828
  O      -4.292068     -2.969912      0.561042
  O      -5.194947     -1.053754      1.064359
  C      -5.341522     -0.198085     -1.566768
  H      -6.419688     -0.389517     -1.560282
  H      -5.094911      0.161503     -2.569168
  C      -5.488082      0.343407      0.844242
  H      -6.582089      0.409358      0.881469
  C      -5.010196      0.833723     -0.507497
  H      -5.499093      1.784807     -0.724621
  H      -3.933640      1.015162     -0.462467
  C      -5.303148     -2.634971     -2.067863
  H      -4.819625     -3.598980     -1.932440
  H      -5.322161     -2.396343     -3.133846
  C      -3.124416     -1.328974     -1.818184
  C      -1.905408     -2.004503     -1.161208
  H      -2.923313     -0.260607     -1.834144
  H      -3.126168     -1.648686     -2.865345
  C      -1.742432     -1.516844      0.278221
  C      -1.931395     -3.545617     -1.292945
  O      -2.196720     -0.458742      0.646905
  O      -0.992822     -2.218638      1.111801
  H      -1.327866     -3.820980     -2.161901
  H      -2.944622     -3.875743     -1.498474
  C      -1.434898     -4.277447     -0.047762
  C      -0.397235     -3.472827      0.703845
  H      -1.019405     -5.247490     -0.324774
  H      -2.273496     -4.454068      0.628969
  H       0.462419     -3.228964      0.072276
  C      -4.891465      1.090081      2.025271
  H      -3.810110      0.930192      2.013075
  H      -5.270170      0.628778      2.941683
  C       0.103536     -4.118661      1.981333
  H      -0.755537     -4.380423      2.607701
  H       0.677725     -3.366233      2.528730
  H      -6.335128     -2.735033     -1.725501
  C      -5.212506      2.580838      2.033332
  H      -6.297351      2.725696      1.976296
  H      -4.790924      3.057406      1.143276
  C       0.975755     -5.344755      1.736119
  H       0.399752     -6.119771      1.222031
  H       1.796750     -5.073051      1.064166
  C       0.834024      4.495638      0.817950
  H       0.031878      4.248733      1.522129
  H       0.349626      4.903263     -0.074232
  C       6.484354      1.517196      2.053064
  H       6.237794      0.473585      2.267861
  H       7.477908      1.511879      1.591671
  C       6.532725      2.301008      3.358611
  H       7.263723      1.880693      4.051163
  H       6.803149      3.344099      3.178771
  H       5.559937      2.292765      3.855763
  C       1.739072      5.560219      1.425679
  H       2.537213      5.834527      0.732463
  H       1.181288      6.465373      1.671512
  H       2.206594      5.195725      2.343537
  C      -4.669142      3.277502      3.274388
  H      -4.904599      4.343212      3.268506
  H      -5.092731      2.846751      4.184520
  H      -3.583220      3.174361      3.335866
  C       1.542803     -5.918158      3.028458
  H       0.742249     -6.215656      3.709832
  H       2.160622     -6.796907      2.835923
  H       2.160733     -5.181799      3.547378
101
Coordinates from ORCA-job orca E -2008.245857493263
  C      -0.056458     -0.160044     -1.432917
  C       1.132154     -0.208284     -0.590004
  O       1.767829     -1.227632     -0.398168
  O       1.572794      0.927246     -0.026040
  C      -0.679947      1.139941     -1.802701
  H      -1.637884      1.216771     -1.272349
  H      -0.922254      1.140589     -2.870871
  C       0.746250      2.112279     -0.032027
  H      -0.073234      1.929888      0.675514
  C       0.189073      2.328698     -1.423191
  H      -0.401391      3.245978     -1.443942
  H       1.023116      2.458618     -2.117246
  C      -0.609243     -1.465835     -1.895958
  H       0.181246     -2.206535     -1.793823
  H      -0.864757     -1.404540     -2.958922
  C       3.049413     -0.039296     -3.415727
  C       3.888799      0.376643     -2.476755
  H       2.441624      0.668182     -3.965018
  H       2.953136     -1.093211     -3.648854
  C       3.917182      1.845305     -2.176957
  C       4.774130     -0.535005     -1.675971
  O       3.284281      2.658920     -2.801548
  O       4.660102      2.274286     -1.152999
  H       5.755516     -0.600823     -2.160425
  H       4.346214     -1.537459     -1.662856
  C       4.943058      0.002674     -0.265035
  C       5.465587      1.421789     -0.307124
  H       5.652629     -0.612049      0.292155
  H       3.989176     -0.032503      0.266109
  H       6.472149      1.428831     -0.744941
  C       1.629789      3.234631      0.477661
  H       2.389310      3.455046     -0.278511
  H       2.155694      2.861302      1.361290
  C       5.495354      2.114929      1.043261
  H       4.487522      2.072303      1.468730
  H       5.722202      3.171136      0.872904
  C      -4.581502     -1.511670     -1.316441
  C      -4.659923     -1.893119      0.165299
  O      -4.298375     -2.977528      0.547128
  O      -5.205473     -1.063472      1.049427
  C      -5.335256     -0.200564     -1.580775
  H      -6.413077     -0.394179     -1.584891
  H      -5.080461      0.163002     -2.579714
  C      -5.504970      0.332549      0.829901
  H      -6.599740      0.391724      0.855492
  C      -5.015686      0.828622     -0.515421
  H      -5.504430      1.779604     -0.733270
  H      -3.939840      1.011305     -0.459763
  C      -5.288443     -2.635686     -2.089206
  H      -4.803829     -3.598984     -1.952911
  H      -5.299145     -2.393928     -3.154607
  C      -3.114460     -1.326346     -1.818485
  C      -1.899211     -2.003093     -1.155499
  H      -2.914444     -0.257728     -1.827426
  H      -3.107690     -1.640154     -2.867429
  C      -1.749771     -1.522234      0.288218
  C      -1.921301     -3.543627     -1.295807
  O      -2.208021     -0.466328      0.658058
  O      -1.009043     -2.228849      1.125516
  H      -1.311087     -3.812063     -2.162261
  H      -2.932260     -3.874445     -1.510517
  C      -1.432611     -4.282232     -0.051376
  C      -0.405165     -3.478522      0.715536
  H      -1.010649     -5.248525     -0.331302
  H      -2.276559     -4.465682      0.616954
  H       0.459550     -3.228011      0.093653
  C      -4.925157      1.078396      2.019536
  H      -3.842990      0.922884      2.018643
  H      -5.311752      0.612397      2.930232
  C       0.084889     -4.129223      1.994244
  H      -0.779054     -4.386415      2.615843
  H       0.659848     -3.380152      2.545597
  H      -6.323123     -2.738994     -1.756088
  C      -5.251999      2.567744      2.029215
  H      -6.336500      2.709105      1.958254
  H      -4.820828      3.050146      1.146892
  C       0.951813     -5.359915      1.755135
  H       0.373113     -6.133943      1.242561
  H       1.776089     -5.095837      1.083993
  C       0.865509      4.502541      0.838816
  H       0.070248      4.261911      1.552889
  H       0.372097      4.907017     -0.049911
  C       6.503170      1.526229      2.023699
  H       6.247598      0.485967      2.244481
  H       7.495526      1.508582      1.560075
  C       6.561192      2.315860      3.325266
  H       7.290024      1.892707      4.018316
  H       6.839840      3.355837      3.139862
  H       5.589276      2.318426      3.824188
  C       1.780764      5.567489      1.430057
  H       2.569918      5.836893      0.724687
  H       1.228164      6.474957      1.678972
  H       2.260570      5.206541      2.342954
  C      -4.727461      3.260295      3.280686
  H      -4.963171      4.325880      3.275962
  H      -5.164151      2.825598      4.182781
  H      -3.642641      3.156055      3.357874
  C       1.513531     -5.930327      3.051025
  H       0.710715     -6.223495      3.731646
  H       2.130080     -6.811036      2.863493
  H       2.131640     -5.193471      3.569061
101
Coordinates from ORCA-job orca E -2008.245897202567
  C      -0.052806     -0.157869     -1.419863
  C       1.134474     -0.204559     -0.575150
  O       1.768005     -1.224345     -0.378499
  O       1.575737      0.931949     -0.013836
  C      -0.678545      1.141377     -1.788567
  H      -1.634262      1.217847     -1.253835
  H      -0.925969      1.140734     -2.855526
  C       0.752236      2.118889     -0.023746
  H      -0.066314      1.941862      0.686218
  C       0.192270      2.330466     -1.414701
  H      -0.396895      3.248548     -1.437524
  H       1.024430      2.456244     -2.111729
  C      -0.602174     -1.463933     -1.885932
  H       0.188391     -2.204224     -1.781778
  H      -0.853385     -1.401128     -2.949871
  C       3.045170     -0.044445     -3.414255
  C       3.885869      0.374197     -2.477530
  H       2.438460      0.661622     -3.966594
  H       2.946956     -1.099235     -3.642634
  C       3.916958      1.843948     -2.184526
  C       4.768167     -0.536965     -1.672522
  O       3.283310      2.655737     -2.810467
  O       4.664523      2.275816     -1.164997
  H       5.749272     -0.611281     -2.156150
  H       4.333578     -1.536375     -1.653869
  C       4.940619      0.008325     -0.264905
  C       5.468514      1.425260     -0.315791
  H       5.648705     -0.604899      0.295852
  H       3.987326     -0.019817      0.267612
  H       6.474282      1.426114     -0.755458
  C       1.639378      3.241413      0.479258
  H       2.397566      3.456677     -0.279664
  H       2.165785      2.871813      1.364141
  C       5.502956      2.125872      1.030484
  H       4.495305      2.090766      1.456823
  H       5.734625      3.180040      0.853951
  C      -4.576149     -1.508498     -1.323558
  C      -4.660644     -1.896318      0.156136
  O      -4.303598     -2.983379      0.534508
  O      -5.207487     -1.069165      1.041812
  C      -5.328253     -0.196068     -1.585620
  H      -6.406093     -0.389426     -1.595445
  H      -5.069257      0.171605     -2.581996
  C      -5.507883      0.327181      0.826207
  H      -6.602882      0.384926      0.846473
  C      -5.012988      0.828867     -0.514895
  H      -5.500483      1.780904     -0.730833
  H      -3.937295      1.010846     -0.454265
  C      -5.279993     -2.629078     -2.103964
  H      -4.796087     -3.592985     -1.969017
  H      -5.285494     -2.383521     -3.168538
  C      -3.106879     -1.322041     -1.818140
  C      -1.895195     -2.002421     -1.152229
  H      -2.905466     -0.253501     -1.821527
  H      -3.095808     -1.631155     -2.868439
  C      -1.751077     -1.526305      0.293674
  C      -1.918536     -3.542366     -1.297898
  O      -2.211846     -0.472504      0.666143
  O      -1.014985     -2.237016      1.131512
  H      -1.306715     -3.807896     -2.164070
  H      -2.929250     -3.871651     -1.516336
  C      -1.434039     -4.286277     -0.054958
  C      -0.410126     -3.485719      0.719760
  H      -1.009621     -5.250701     -0.337589
  H      -2.280736     -4.473569      0.608840
  H       0.457416     -3.233052      0.102609
  C      -4.934359      1.068584      2.021587
  H      -3.851864      0.914639      2.024118
  H      -5.323427      0.596914      2.928293
  C       0.073912     -4.140633      1.998441
  H      -0.792392     -4.392658      2.618818
  H       0.652356     -3.395008      2.550984
  H      -6.316347     -2.733545     -1.776496
  C      -5.263886      2.557113      2.037474
  H      -6.348151      2.697106      1.960059
  H      -4.828344      3.045437      1.160568
  C       0.934166     -5.375972      1.760241
  H       0.350727     -6.147519      1.249214
  H       1.759188     -5.117972      1.087661
  C       0.878697      4.513032      0.835136
  H       0.085087      4.278487      1.553091
  H       0.382802      4.912896     -0.054297
  C       6.508590      1.537803      2.013489
  H       6.248392      0.499801      2.239602
  H       7.500588      1.512484      1.549404
  C       6.571089      2.333346      3.311057
  H       7.298071      1.909797      4.005806
  H       6.854692      3.371171      3.121105
  H       5.599415      2.343096      3.810387
  C       1.797794      5.579852      1.416536
  H       2.584228      5.844445      0.706270
  H       1.247519      6.489467      1.662767
  H       2.281662      5.223888      2.329245
  C      -4.748699      3.243341      3.296238
  H      -4.983844      4.309045      3.295411
  H      -5.191998      2.804156      4.192925
  H      -3.664521      3.138152      3.380877
  C       1.494133     -5.947472      3.056300
  H       0.690890     -6.236536      3.738160
  H       2.106959     -6.830948      2.869532
  H       2.115883     -5.212686      3.572981
101
Coordinates from ORCA-job orca E -2008.245926959293
  C      -0.045806     -0.151450     -1.394216
  C       1.140284     -0.199216     -0.548174
  O       1.769877     -1.220686     -0.347168
  O       1.585018      0.937518      0.009952
  C      -0.675046      1.148136     -1.756295
  H      -1.625879      1.223268     -1.212371
  H      -0.932926      1.148856     -2.820649
  C       0.766825      2.127975     -0.001549
  H      -0.048666      1.958076      0.713586
  C       0.199897      2.336224     -1.390041
  H      -0.386356      3.256103     -1.413017
  H       1.027784      2.456114     -2.093343
  C      -0.590450     -1.456140     -1.868668
  H       0.199520     -2.196620     -1.761970
  H      -0.834455     -1.388403     -2.934034
  C       3.026551     -0.048044     -3.411022
  C       3.875595      0.372633     -2.482643
  H       2.419840      0.657522     -3.964018
  H       2.921816     -1.103780     -3.631922
  C       3.915420      1.843933     -2.199141
  C       4.756660     -0.539073     -1.676742
  O       3.280218      2.654894     -2.824138
  O       4.674248      2.278179     -1.188804
  H       5.734833     -0.625348     -2.164139
  H       4.312868     -1.534127     -1.648756
  C       4.940546      0.015534     -0.274134
  C       5.478026      1.428470     -0.339085
  H       5.647013     -0.597301      0.288907
  H       3.989444     -0.001052      0.262690
  H       6.480930      1.419081     -0.785105
  C       1.661444      3.248943      0.490985
  H       2.415725      3.456786     -0.273721
  H       2.190540      2.883682      1.376024
  C       5.525644      2.138610      1.001860
  H       4.519613      2.115681      1.432726
  H       5.765043      3.189496      0.816097
  C      -4.568899     -1.507659     -1.340844
  C      -4.664187     -1.906290      0.135241
  O      -4.310426     -2.996271      0.508233
  O      -5.215926     -1.085022      1.023360
  C      -5.320344     -0.194371     -1.599704
  H      -6.397713     -0.389369     -1.620665
  H      -5.053551      0.180957     -2.591170
  C      -5.520894      0.310953      0.814060
  H      -6.616311      0.363977      0.823813
  C      -5.015986      0.823497     -0.519094
  H      -5.503310      1.776191     -0.732433
  H      -3.941161      1.007059     -0.448633
  C      -5.265052     -2.623319     -2.134991
  H      -4.781617     -3.587703     -2.002076
  H      -5.261110     -2.371095     -3.198021
  C      -3.095769     -1.316094     -1.821325
  C      -1.888999     -1.997979     -1.147851
  H      -2.895519     -0.247352     -1.816837
  H      -3.075328     -1.619366     -2.873166
  C      -1.757198     -1.526723      0.300649
  C      -1.909858     -3.537089     -1.298920
  O      -2.223460     -0.475660      0.673704
  O      -1.026776     -2.239506      1.141633
  H      -1.293156     -3.798659     -2.162835
  H      -2.918838     -3.866742     -1.524322
  C      -1.432946     -4.285655     -0.055815
  C      -0.417863     -3.486757      0.731643
  H      -1.001747     -5.246664     -0.339907
  H      -2.284976     -4.480407      0.598935
  H       0.455515     -3.231101      0.123832
  C      -4.961577      1.046849      2.019527
  H      -3.878331      0.898158      2.030019
  H      -5.355210      0.565513      2.919144
  C       0.054166     -4.145235      2.013035
  H      -0.817286     -4.389078      2.629273
  H       0.635849     -3.403766      2.567886
  H      -6.304278     -2.730949     -1.817955
  C      -5.299492      2.533144      2.043609
  H      -6.383477      2.667897      1.953513
  H      -4.856386      3.031137      1.175981
  C       0.905544     -5.387457      1.779567
  H       0.316555     -6.156122      1.270530
  H       1.732767     -5.138549      1.106349
  C       0.908193      4.526139      0.843229
  H       0.118182      4.299493      1.567665
  H       0.407731      4.922355     -0.045235
  C       6.530885      1.549410      1.984360
  H       6.264832      0.514350      2.217041
  H       7.520842      1.514240      1.516487
  C       6.603978      2.351171      3.277255
  H       7.330580      1.925855      3.971331
  H       6.894078      3.386154      3.081787
  H       5.634439      2.370219      3.780469
  C       1.835265      5.592713      1.411737
  H       2.617337      5.850868      0.694311
  H       1.290226      6.505688      1.657160
  H       2.325245      5.240744      2.322737
  C      -4.803875      3.211825      3.314137
  H      -5.041989      4.276854      3.318011
  H      -5.257543      2.764758      4.201632
  H      -3.720547      3.109731      3.412413
  C       1.460219     -5.959242      3.077618
  H       0.654798     -6.241109      3.759845
  H       2.067338     -6.847360      2.894190
  H       2.086792     -5.227388      3.592647
101
Coordinates from ORCA-job orca E -2008.245951525327
  C      -0.036333     -0.145721     -1.363077
  C       1.148104     -0.193833     -0.514942
  O       1.774001     -1.216561     -0.308413
  O       1.596881      0.944119      0.037837
  C      -0.668729      1.153699     -1.720691
  H      -1.615126      1.228580     -1.168587
  H      -0.935886      1.154414     -2.782642
  C       0.783735      2.137968      0.022987
  H      -0.028464      1.975935      0.743666
  C       0.210068      2.341440     -1.363148
  H      -0.373389      3.262969     -1.387853
  H       1.033994      2.454683     -2.072430
  C      -0.575837     -1.449268     -1.845377
  H       0.212540     -2.190420     -1.732542
  H      -0.810019     -1.378073     -2.912785
  C       2.998123     -0.053714     -3.400552
  C       3.860538      0.369691     -2.485818
  H       2.390198      0.651327     -3.952919
  H       2.883769     -1.110626     -3.610625
  C       3.912834      1.843219     -2.215731
  C       4.743706     -0.540559     -1.680797
  O       3.276099      2.652899     -2.840600
  O       4.684917      2.281299     -1.217032
  H       5.716926     -0.637235     -2.176083
  H       4.293903     -1.532483     -1.640174
  C       4.942623      0.025029     -0.284547
  C       5.489744      1.433444     -0.367140
  H       5.647939     -0.587703      0.279769
  H       3.994403      0.021141      0.257640
  H       6.488997      1.412781     -0.820941
  C       1.686337      3.257806      0.503043
  H       2.436362      3.457041     -0.268146
  H       2.218963      2.897644      1.388034
  C       5.553076      2.154943      0.967429
  H       4.549333      2.144599      1.404099
  H       5.799555      3.202129      0.770264
  C      -4.559717     -1.504739     -1.360960
  C      -4.669893     -1.916380      0.110378
  O      -4.319886     -3.009816      0.476975
  O      -5.228864     -1.102678      1.000875
  C      -5.309344     -0.189852     -1.616681
  H      -6.386172     -0.385735     -1.651962
  H      -5.031620      0.194477     -2.601678
  C      -5.536774      0.293455      0.799250
  H      -6.632411      0.342909      0.796208
  C      -5.018483      0.818763     -0.523747
  H      -5.505061      1.772447     -0.734323
  H      -3.944836      1.003893     -0.440269
  C      -5.246182     -2.613828     -2.172455
  H      -4.763917     -3.579161     -2.042346
  H      -5.230361     -2.352706     -3.233232
  C      -3.081474     -1.307786     -1.822996
  C      -1.882013     -1.993176     -1.140294
  H      -2.882262     -0.238884     -1.808391
  H      -3.049021     -1.603927     -2.876587
  C      -1.764176     -1.528686      0.311383
  C      -1.902048     -3.531283     -1.297969
  O      -2.237052     -0.481198      0.686082
  O      -1.039403     -2.244007      1.155144
  H      -1.280003     -3.789642     -2.159055
  H      -2.909673     -3.859706     -1.531146
  C      -1.434438     -4.285610     -0.054767
  C      -0.427709     -3.490075      0.746324
  H      -0.997710     -5.243667     -0.340524
  H      -2.292278     -4.487476      0.590123
  H       0.452221     -3.232354      0.148711
  C      -4.994318      1.022330      2.016758
  H      -3.910332      0.879824      2.037148
  H      -5.393958      0.530278      2.907917
  C       0.030595     -4.154240      2.030128
  H      -0.847132     -4.391988      2.639652
  H       0.614123     -3.418189      2.590210
  H      -6.288840     -2.724772     -1.868176
  C      -5.342056      2.506071      2.049888
  H      -6.425490      2.634741      1.945401
  H      -4.890043      3.014566      1.193039
  C       0.873955     -5.402559      1.799632
  H       0.280559     -6.167434      1.290062
  H       1.704027     -5.160008      1.127661
  C       0.941384      4.541086      0.851460
  H       0.154845      4.322452      1.582083
  H       0.437341      4.934693     -0.036068
  C       6.559685      1.566467      1.948624
  H       6.289945      0.534041      2.188462
  H       7.547188      1.523858      1.476155
  C       6.642970      2.375176      3.236434
  H       7.370878      1.950058      3.929304
  H       6.937194      3.407701      3.034377
  H       5.676167      2.401588      3.744558
  C       1.877155      5.606088      1.408405
  H       2.656145      5.856845      0.685046
  H       1.338310      6.523060      1.652630
  H       2.371021      5.256728      2.318330
  C      -4.869101      3.176471      3.333275
  H      -5.112561      4.240289      3.342348
  H      -5.333378      2.719712      4.210200
  H      -3.786750      3.079890      3.446550
  C       1.421949     -5.977621      3.099029
  H       0.613247     -6.252892      3.780027
  H       2.022357     -6.870682      2.917431
  H       2.053675     -5.250539      3.614531
101
Coordinates from ORCA-job orca E -2008.245976705317
  C      -0.033122     -0.142516     -1.346576
  C       1.152231     -0.189850     -0.499993
  O       1.776899     -1.213516     -0.293749
  O       1.604472      0.948310      0.048749
  C      -0.667960      1.156870     -1.700566
  H      -1.611161      1.231654     -1.142829
  H      -0.941148      1.157795     -2.760917
  C       0.793029      2.143219      0.035329
  H      -0.016077      1.983680      0.760070
  C       0.213434      2.344796     -1.348481
  H      -0.368889      3.266971     -1.373020
  H       1.034128      2.454288     -2.062123
  C      -0.570568     -1.445629     -1.831621
  H       0.216215     -2.187601     -1.713674
  H      -0.798880     -1.374055     -2.900307
  C       2.989507     -0.055891     -3.399136
  C       3.856269      0.366887     -2.488297
  H       2.382303      0.650373     -3.950743
  H       2.870975     -1.112840     -3.606610
  C       3.913517      1.841106     -2.221779
  C       4.739572     -0.543284     -1.683472
  O       3.274725      2.650210     -2.845424
  O       4.690329      2.280233     -1.227305
  H       5.710020     -0.644936     -2.183237
  H       4.287409     -1.533862     -1.636379
  C       4.945265      0.026889     -0.289949
  C       5.498391      1.432468     -0.381073
  H       5.647610     -0.587765      0.275672
  H       3.996928      0.031266      0.252280
  H       6.494625      1.406071     -0.841273
  C       1.699246      3.262740      0.509174
  H       2.449509      3.456462     -0.263398
  H       2.231450      2.906681      1.396154
  C       5.574016      2.157889      0.951064
  H       4.572672      2.154346      1.393181
  H       5.824218      3.203206      0.748660
  C      -4.558233     -1.503679     -1.372231
  C      -4.678322     -1.922052      0.096404
  O      -4.329241     -3.016773      0.460373
  O      -5.243041     -1.112934      0.987389
  C      -5.307044     -0.188080     -1.627216
  H      -6.383469     -0.384399     -1.671295
  H      -5.022074      0.200982     -2.608256
  C      -5.551584      0.283316      0.789618
  H      -6.647226      0.331640      0.778994
  C      -5.024760      0.815396     -0.527347
  H      -5.511074      1.769401     -0.737107
  H      -3.951973      1.001833     -0.435717
  C      -5.237964     -2.609174     -2.194168
  H      -4.755892     -3.574896     -2.066416
  H      -5.215641     -2.342155     -3.253334
  C      -3.076828     -1.302957     -1.823061
  C      -1.881361     -1.989396     -1.134912
  H      -2.879314     -0.233847     -1.803125
  H      -3.036935     -1.595753     -2.877337
  C      -1.771092     -1.527326      0.317860
  C      -1.900440     -3.527142     -1.294284
  O      -2.248690     -0.482100      0.692868
  O      -1.046167     -2.241350      1.162835
  H      -1.277343     -3.785021     -2.154786
  H      -2.907881     -3.855402     -1.528199
  C      -1.434653     -4.282397     -0.050822
  C      -0.432259     -3.486518      0.755295
  H      -0.994402     -5.238729     -0.337000
  H      -2.294251     -4.488829      0.590318
  H       0.450310     -3.227902      0.161955
  C      -5.018970      1.008153      2.013949
  H      -3.934551      0.869786      2.040027
  H      -5.421985      0.510115      2.900264
  C       0.020892     -4.152452      2.040394
  H      -0.859653     -4.391660      2.645181
  H       0.601789     -3.417487      2.604485
  H      -6.282376     -2.722816     -1.896980
  C      -5.372980      2.490329      2.052093
  H      -6.456138      2.615105      1.940628
  H      -4.916494      3.004473      1.201017
  C       0.865853     -5.400037      1.810438
  H       0.274103     -6.165043      1.299270
  H       1.696677     -5.155313      1.140181
  C       0.958242      4.549848      0.852462
  H       0.168940      4.335385      1.581249
  H       0.458693      4.944085     -0.037255
  C       6.583622      1.568010      1.928035
  H       6.313700      0.536037      2.169304
  H       7.569033      1.524721      1.451313
  C       6.673509      2.377064      3.215237
  H       7.403929      1.951209      3.905032
  H       6.968265      3.409115      3.011659
  H       5.709084      2.404665      3.727770
  C       1.896475      5.611952      1.410985
  H       2.679942      5.857592      0.690737
  H       1.360908      6.531945      1.651025
  H       2.384232      5.262107      2.324023
  C      -4.912036      3.156305      3.342089
  H      -5.159139      4.219291      3.353846
  H      -5.381428      2.693995      4.213307
  H      -3.830235      3.063460      3.462903
  C       1.412087     -5.976118      3.110165
  H       0.602082     -6.251557      3.789526
  H       2.012052     -6.869496      2.928633
  H       2.043638     -5.249930      3.627069
101
Coordinates from ORCA-job orca E -2008.245999994533
  C      -0.028664     -0.138501     -1.327525
  C       1.157576     -0.187149     -0.481921
  O       1.781466     -1.211498     -0.276234
  O       1.613397      0.951301      0.063798
  C      -0.664703      1.161045     -1.678226
  H      -1.605177      1.236604     -1.115971
  H      -0.942260      1.162452     -2.737422
  C       0.804034      2.147861      0.050811
  H      -0.002419      1.991423      0.779183
  C       0.219673      2.348328     -1.330932
  H      -0.361502      3.271196     -1.355242
  H       1.038106      2.454775     -2.047684
  C      -0.564274     -1.440563     -1.816839
  H       0.221189     -2.183031     -1.694263
  H      -0.785795     -1.368029     -2.886938
  C       2.970424     -0.056316     -3.391969
  C       3.846287      0.365383     -2.489417
  H       2.362367      0.651555     -3.940558
  H       2.845306     -1.113293     -3.595332
  C       3.911708      1.840569     -2.227695
  C       4.733361     -0.544156     -1.688510
  O       3.271310      2.650058     -2.849474
  O       4.695553      2.280276     -1.239028
  H       5.699432     -0.647580     -2.196504
  H       4.282237     -1.534972     -1.634348
  C       4.948864      0.029754     -0.298007
  C       5.507997      1.432107     -0.397567
  H       5.648752     -0.588423      0.266574
  H       4.001525      0.042300      0.245747
  H       6.500498      1.400253     -0.865468
  C       1.714524      3.266543      0.518588
  H       2.465093      3.454571     -0.255093
  H       2.246647      2.912937      1.406655
  C       5.597197      2.161022      0.932132
  H       4.598800      2.163459      1.381089
  H       5.850513      3.204608      0.724613
  C      -4.555790     -1.503362     -1.381531
  C      -4.686599     -1.926013      0.085123
  O      -4.336622     -3.020485      0.449206
  O      -5.261146     -1.121463      0.973936
  C      -5.304664     -0.187935     -1.638416
  H      -6.380426     -0.385431     -1.692230
  H      -5.011382      0.204689     -2.615540
  C      -5.570679      0.274640      0.777889
  H      -6.666285      0.321198      0.757971
  C      -5.033281      0.812074     -0.532635
  H      -5.519647      1.765878     -0.743418
  H      -3.961703      1.000199     -0.431019
  C      -5.227805     -2.607073     -2.212149
  H      -4.744826     -3.572523     -2.085876
  H      -5.199762     -2.335198     -3.269925
  C      -3.071355     -1.298578     -1.821780
  C      -1.879334     -1.985991     -1.129310
  H      -2.876145     -0.229157     -1.796113
  H      -3.024316     -1.587353     -2.876886
  C      -1.777616     -1.528019      0.325268
  C      -1.894682     -3.523394     -1.292970
  O      -2.260340     -0.485513      0.701304
  O      -1.052242     -2.241043      1.171075
  H      -1.267502     -3.778498     -2.151294
  H      -2.900684     -3.852756     -1.530928
  C      -1.432619     -4.280422     -0.048986
  C      -0.435512     -3.484812      0.764185
  H      -0.989474     -5.235345     -0.335418
  H      -2.294687     -4.490598      0.587687
  H       0.450530     -3.225176      0.176640
  C      -5.051080      0.996724      2.009400
  H      -3.966400      0.862337      2.044746
  H      -5.460434      0.494455      2.890400
  C       0.010552     -4.154128      2.050221
  H      -0.873959     -4.398237      2.647254
  H       0.585726     -3.420352      2.621528
  H      -6.273705     -2.724034     -1.921396
  C      -5.410754      2.477642      2.049571
  H      -6.493143      2.598956      1.927756
  H      -4.946668      2.996256      1.205352
  C       0.860227     -5.398882      1.821007
  H       0.273412     -6.164207      1.304778
  H       1.693752     -5.148739      1.156062
  C       0.979054      4.558045      0.857354
  H       0.187706      4.348995      1.585376
  H       0.483760      4.953000     -0.034395
  C       6.611356      1.569860      1.903388
  H       6.342370      0.537939      2.145628
  H       7.594315      1.527528      1.421622
  C       6.708053      2.378626      3.190484
  H       7.442399      1.952893      3.876180
  H       7.001510      3.410690      2.985114
  H       5.746459      2.405694      3.708301
  C       1.921892      5.616468      1.415562
  H       2.709684      5.854425      0.697497
  H       1.391224      6.540646      1.650269
  H       2.403118      5.266208      2.331912
  C      -4.965750      3.140053      3.347022
  H      -5.216447      4.202215      3.359808
  H      -5.443332      2.672914      4.211182
  H      -3.885099      3.050111      3.479278
  C       1.401383     -5.977317      3.121904
  H       0.588026     -6.254563      3.796566
  H       2.002176     -6.870217      2.940757
  H       2.030251     -5.252155      3.643392
101
Coordinates from ORCA-job orca E -2008.246024660474
  C      -0.029052     -0.135312     -1.320508
  C       1.159235     -0.184637     -0.477673
  O       1.783404     -1.209447     -0.275230
  O       1.617348      0.953092      0.067560
  C      -0.664937      1.164699     -1.669401
  H      -1.603817      1.241562     -1.104774
  H      -0.944371      1.166322     -2.728127
  C       0.809183      2.150420      0.056154
  H       0.004052      1.995028      0.786254
  C       0.222082      2.351111     -1.324493
  H      -0.358539      3.274344     -1.347615
  H       1.039385      2.456339     -2.042605
  C      -0.564950     -1.437100     -1.810569
  H       0.220157     -2.179636     -1.686261
  H      -0.783300     -1.365064     -2.881414
  C       2.969965     -0.054444     -3.393545
  C       3.846315      0.364480     -2.490219
  H       2.362945      0.655398     -3.940736
  H       2.843406     -1.110896     -3.598911
  C       3.913283      1.839535     -2.226088
  C       4.732956     -0.546380     -1.690435
  O       3.271713      2.649981     -2.845651
  O       4.698018      2.277666     -1.237448
  H       5.697779     -0.650125     -2.200856
  H       4.282217     -1.537327     -1.634760
  C       4.950397      0.027517     -0.300271
  C       5.514197      1.427557     -0.401106
  H       5.645964     -0.595009      0.264774
  H       4.001839      0.045751      0.241234
  H       6.504034      1.393525     -0.874469
  C       1.721420      3.268233      0.522843
  H       2.476233      3.452089     -0.247898
  H       2.249558      2.915779      1.413885
  C       5.612430      2.155545      0.928395
  H       4.616559      2.160520      1.382968
  H       5.867630      3.198544      0.720247
  C      -4.557659     -1.504046     -1.383336
  C      -4.692030     -1.927220      0.082796
  O      -4.338405     -3.020024      0.448334
  O      -5.274186     -1.125468      0.969219
  C      -5.308989     -0.190286     -1.642476
  H      -6.384116     -0.390047     -1.700424
  H      -5.012349      0.203425     -2.618140
  C      -5.586043      0.270218      0.772761
  H      -6.681688      0.314141      0.748409
  C      -5.044288      0.809718     -0.535103
  H      -5.532297      1.762451     -0.747104
  H      -3.973576      1.000075     -0.428854
  C      -5.224826     -2.609045     -2.216213
  H      -4.739106     -3.573211     -2.090951
  H      -5.196329     -2.335307     -3.273507
  C      -3.072403     -1.295749     -1.819509
  C      -1.881187     -1.983118     -1.125872
  H      -2.879284     -0.225955     -1.790697
  H      -3.022333     -1.581928     -2.875212
  C      -1.782850     -1.526885      0.329654
  C      -1.894115     -3.520661     -1.290888
  O      -2.269244     -0.486522      0.706792
  O      -1.055004     -2.238241      1.175057
  H      -1.266293     -3.774046     -2.149157
  H      -2.899697     -3.851523     -1.528422
  C      -1.430103     -4.277390     -0.047259
  C      -0.435174     -3.480047      0.767361
  H      -0.985473     -5.231486     -0.334153
  H      -2.291523     -4.489409      0.589662
  H       0.451035     -3.218729      0.180894
  C      -5.074433      0.992745      2.007259
  H      -3.989509      0.861903      2.048231
  H      -5.487218      0.489278      2.885962
  C       0.010840     -4.150509      2.052785
  H      -0.874203     -4.402456      2.645900
  H       0.579713     -3.415396      2.628622
  H      -6.270735     -2.729619     -1.926856
  C      -5.438418      2.472832      2.046581
  H      -6.520520      2.591243      1.919634
  H      -4.970894      2.993303      1.205409
  C       0.868924     -5.389465      1.822748
  H       0.289047     -6.156710      1.301579
  H       1.703841     -5.131349      1.162573
  C       0.989028      4.563329      0.854367
  H       0.191934      4.359338      1.577490
  H       0.502195      4.958602     -0.041879
  C       6.630442      1.561249      1.893766
  H       6.361692      0.529076      2.135130
  H       7.611310      1.519845      1.407761
  C       6.733300      2.367501      3.182200
  H       7.470842      1.940505      3.863656
  H       7.025923      3.399808      2.976755
  H       5.774033      2.393682      3.704339
  C       1.932991      5.618839      1.416684
  H       2.728178      5.849174      0.704309
  H       1.405438      6.546918      1.642820
  H       2.403853      5.269063      2.338586
  C      -5.002234      3.135088      3.347253
  H      -5.255860      4.196546      3.359600
  H      -5.483879      2.665722      4.207995
  H      -3.922240      3.047062      3.485788
  C       1.407994     -5.968880      3.124194
  H       0.592939     -6.251522      3.794631
  H       2.013352     -6.858607      2.942667
  H       2.031213     -5.242221      3.650306
101
Coordinates from ORCA-job orca E -2008.246034078701
  C      -0.026129     -0.132435     -1.306320
  C       1.161719     -0.183016     -0.462548
  O       1.785145     -1.207693     -0.257895
  O       1.621070      0.955448      0.081903
  C      -0.660614      1.167563     -1.656795
  H      -1.598556      1.247307     -1.091079
  H      -0.940912      1.167366     -2.715290
  C       0.816241      2.155080      0.065075
  H       0.010753      2.005383      0.796005
  C       0.229241      2.352754     -1.316031
  H      -0.349921      3.276877     -1.341119
  H       1.046815      2.455202     -2.034262
  C      -0.560350     -1.434036     -1.799202
  H       0.224712     -2.176184     -1.672335
  H      -0.772577     -1.361542     -2.871311
  C       2.956561     -0.057604     -3.383483
  C       3.840039      0.361949     -2.487397
  H       2.348465      0.651948     -3.929883
  H       2.825100     -1.114481     -3.583627
  C       3.913397      1.838023     -2.229332
  C       4.728747     -0.547936     -1.688975
  O       3.272440      2.648626     -2.849240
  O       4.703241      2.277281     -1.245050
  H       5.691395     -0.653230     -2.203246
  H       4.278469     -1.538828     -1.628210
  C       4.951581      0.030570     -0.301710
  C       5.521305      1.427215     -0.409414
  H       5.643763     -0.594536      0.264666
  H       4.003508      0.056805      0.240077
  H       6.508353      1.388047     -0.888074
  C       1.731980      3.271909      0.527426
  H       2.490229      3.448616     -0.241676
  H       2.256356      2.921458      1.421505
  C       5.628436      2.159699      0.916674
  H       4.635117      2.169209      1.376778
  H       5.886256      3.201095      0.703912
  C      -4.554166     -1.500731     -1.388873
  C      -4.695535     -1.928539      0.075288
  O      -4.340764     -3.021147      0.440020
  O      -5.286150     -1.131168      0.960122
  C      -5.304917     -0.186632     -1.648093
  H      -6.379553     -0.386650     -1.713574
  H      -5.002014      0.210710     -2.620349
  C      -5.598866      0.264895      0.766246
  H      -6.694413      0.306730      0.733711
  C      -5.047869      0.809579     -0.535489
  H      -5.534703      1.763069     -0.746840
  H      -3.977846      0.998992     -0.420891
  C      -5.216778     -2.603650     -2.228229
  H      -4.730221     -3.567651     -2.104939
  H      -5.184529     -2.325740     -3.284344
  C      -3.067091     -1.290344     -1.817214
  C      -1.879285     -1.981161     -1.121401
  H      -2.873987     -0.220708     -1.781533
  H      -3.012103     -1.570524     -2.874281
  C      -1.787718     -1.530087      0.336452
  C      -1.891514     -3.518385     -1.291704
  O      -2.277341     -0.492087      0.715733
  O      -1.062235     -2.243799      1.182065
  H      -1.260384     -3.768244     -2.148539
  H      -2.896159     -3.848942     -1.533501
  C      -1.430832     -4.278764     -0.048997
  C      -0.439347     -3.483190      0.771988
  H      -0.985350     -5.231991     -0.337285
  H      -2.294002     -4.492185      0.585126
  H       0.448672     -3.219246      0.189560
  C      -5.099182      0.983520      2.007654
  H      -4.014272      0.855451      2.057764
  H      -5.518686      0.476009      2.880815
  C       0.002676     -4.158125      2.056243
  H      -0.884154     -4.415657      2.644364
  H       0.566743     -3.423926      2.637988
  H      -6.263724     -2.726512     -1.943553
  C      -5.467192      2.462665      2.049853
  H      -6.548110      2.579011      1.911314
  H      -4.991379      2.988647      1.216800
  C       0.865455     -5.393718      1.825801
  H       0.290704     -6.160601      1.298439
  H       1.703600     -5.130779      1.171628
  C       1.005349      4.572774      0.848428
  H       0.204993      4.378508      1.570561
  H       0.523730      4.964238     -0.052318
  C       6.649560      1.565360      1.878939
  H       6.379070      0.534584      2.124385
  H       7.628159      1.520031      1.388784
  C       6.760306      2.374924      3.164795
  H       7.500365      1.948497      3.843827
  H       7.053786      3.406026      2.954481
  H       5.803478      2.404484      3.691190
  C       1.953900      5.627111      1.405550
  H       2.753003      5.845734      0.693852
  H       1.431358      6.560524      1.621028
  H       2.418977      5.282147      2.332159
  C      -5.048229      3.119263      3.359174
  H      -5.304463      4.180012      3.373999
  H      -5.539657      2.644267      4.211326
  H      -3.969993      3.031841      3.510934
  C       1.398780     -5.976387      3.128255
  H       0.580573     -6.262576      3.793386
  H       2.006776     -6.864326      2.946943
  H       2.017409     -5.250079      3.660218
101
Coordinates from ORCA-job orca E -2008.246050057010
  C      -0.028805     -0.129858     -1.309092
  C       1.158963     -0.181096     -0.465530
  O       1.781922     -1.206111     -0.261774
  O       1.618155      0.956268      0.081220
  C      -0.659971      1.171071     -1.662321
  H      -1.599119      1.253476     -1.099088
  H      -0.937787      1.169916     -2.721473
  C       0.815891      2.157258      0.061814
  H       0.008437      2.009886      0.791056
  C       0.231618      2.354854     -1.320743
  H      -0.346280      3.279786     -1.346493
  H       1.050665      2.456637     -2.037250
  C      -0.563845     -1.431547     -1.801539
  H       0.222143     -2.173164     -1.676963
  H      -0.776821     -1.358749     -2.873488
  C       2.962613     -0.057238     -3.384723
  C       3.843695      0.360573     -2.485429
  H       2.356077      0.652979     -3.932015
  H       2.831723     -1.113778     -3.586984
  C       3.916761      1.836145     -2.224867
  C       4.729425     -0.551237     -1.685712
  O       3.277224      2.647936     -2.844543
  O       4.705064      2.273454     -1.238210
  H       5.693505     -0.656990     -2.197188
  H       4.278046     -1.541677     -1.626890
  C       4.949544      0.026396     -0.297623
  C       5.523157      1.421374     -0.403681
  H       5.637201     -0.601535      0.271182
  H       3.999785      0.056883      0.240875
  H       6.509292      1.380879     -0.884059
  C       1.732570      3.272330      0.526608
  H       2.497588      3.444421     -0.236909
  H       2.249395      2.921835      1.425122
  C       5.633483      2.152545      0.922536
  H       4.641794      2.162634      1.386186
  H       5.892376      3.193858      0.710747
  C      -4.556491     -1.500964     -1.387448
  C      -4.696394     -1.929391      0.076750
  O      -4.338971     -3.020983      0.441614
  O      -5.290311     -1.133764      0.961049
  C      -5.309006     -0.187844     -1.646146
  H      -6.383335     -0.389259     -1.712085
  H      -5.006459      0.210448     -2.618149
  C      -5.605143      0.262146      0.767864
  H      -6.700738      0.301688      0.734077
  C      -5.053639      0.808278     -0.532986
  H      -5.541148      1.761548     -0.743677
  H      -3.983788      0.998002     -0.417527
  C      -5.218560     -2.604717     -2.226296
  H      -4.729888     -3.567801     -2.104117
  H      -5.188089     -2.326385     -3.282382
  C      -3.070205     -1.289161     -1.816923
  C      -1.881290     -1.979149     -1.121971
  H      -2.877537     -0.219403     -1.780328
  H      -3.015795     -1.568024     -2.874356
  C      -1.789898     -1.527190      0.335905
  C      -1.892530     -3.516652     -1.291273
  O      -2.281468     -0.490238      0.715368
  O      -1.063659     -2.240159      1.181484
  H      -1.261676     -3.765778     -2.148536
  H      -2.896892     -3.848590     -1.532132
  C      -1.429619     -4.275661     -0.048627
  C      -0.438207     -3.478064      0.770688
  H      -0.983822     -5.228846     -0.336439
  H      -2.291730     -4.488382      0.587232
  H       0.448105     -3.212109      0.186661
  C      -5.108784      0.980478      2.010647
  H      -4.023677      0.854771      2.062748
  H      -5.528939      0.471413      2.882584
  C       0.007721     -4.151670      2.054001
  H      -0.876957     -4.413114      2.643673
  H       0.569468     -3.415106      2.635096
  H      -6.265000     -2.729491     -1.940645
  C      -5.480272      2.458740      2.053544
  H      -6.561010      2.572747      1.911393
  H      -5.003250      2.987281      1.222819
  C       0.875265     -5.383638      1.822884
  H       0.304049     -6.151858      1.293551
  H       1.713579     -5.117339      1.170283
  C       1.008851      4.577210      0.837402
  H       0.202081      4.389737      1.554207
  H       0.535634      4.966536     -0.068701
  C       6.656340      1.555402      1.881512
  H       6.383790      0.525197      2.127255
  H       7.633346      1.507135      1.388469
  C       6.773169      2.363795      3.167539
  H       7.514243      1.935033      3.843930
  H       7.068467      3.394307      2.956845
  H       5.817946      2.395548      3.696706
  C       1.957632      5.630169      1.396683
  H       2.763056      5.841126      0.689758
  H       1.437652      6.567169      1.602506
  H       2.414311      5.288298      2.328554
  C      -5.067853      3.114687      3.365347
  H      -5.326839      4.174717      3.380837
  H      -5.561453      2.637256      4.214922
  H      -3.990100      3.029157      3.521462
  C       1.408876     -5.965894      3.125424
  H       0.591014     -6.256182      3.789208
  H       2.021028     -6.850933      2.944017
  H       2.023396     -5.237430      3.659246
101
Coordinates from ORCA-job orca E -2008.246066126719
  C      -0.029610     -0.128654     -1.310486
  C       1.155960     -0.180633     -0.464048
  O       1.777954     -1.205666     -0.257776
  O       1.613591      0.956509      0.084772
  C      -0.656524      1.172921     -1.668991
  H      -1.598193      1.258409     -1.110336
  H      -0.930273      1.169812     -2.729193
  C       0.814827      2.159546      0.058792
  H       0.004012      2.016502      0.785206
  C       0.235797      2.355530     -1.326247
  H      -0.340425      3.281428     -1.354808
  H       1.057343      2.456006     -2.040069
  C      -0.565003     -1.430206     -1.803236
  H       0.221578     -2.171622     -1.680958
  H      -0.779019     -1.356155     -2.874879
  C       2.962871     -0.060557     -3.379033
  C       3.844572      0.357825     -2.480566
  H       2.356699      0.648855     -3.927751
  H       2.830929     -1.117368     -3.579216
  C       3.919514      1.833482     -2.222252
  C       4.728360     -0.554415     -1.679129
  O       3.282478      2.645730     -2.843602
  O       4.707906      2.270671     -1.235325
  H       5.693709     -0.661553     -2.187906
  H       4.275721     -1.544286     -1.620721
  C       4.947207      0.024726     -0.291411
  C       5.524294      1.418128     -0.399049
  H       5.631831     -0.603776      0.280404
  H       3.996723      0.059629      0.245476
  H       6.510024      1.375093     -0.879983
  C       1.733049      3.272817      0.525007
  H       2.504559      3.438734     -0.233325
  H       2.241870      2.923044      1.428298
  C       5.636836      2.150833      0.925877
  H       4.646720      2.161761      1.392832
  H       5.896045      3.191798      0.712895
  C      -4.556644     -1.498969     -1.388043
  C      -4.696545     -1.930495      0.075319
  O      -4.338793     -3.022513      0.438337
  O      -5.292180     -1.137091      0.960530
  C      -5.308799     -0.185269     -1.644264
  H      -6.383057     -0.386556     -1.711832
  H      -5.005674      0.215389     -2.615130
  C      -5.608030      0.259010      0.770042
  H      -6.703594      0.297302      0.733828
  C      -5.054365      0.808268     -0.528516
  H      -5.540812      1.762460     -0.737281
  H      -3.984435      0.996615     -0.411207
  C      -5.219143     -2.601243     -2.228632
  H      -4.730264     -3.564406     -2.107810
  H      -5.188417     -2.321556     -3.284369
  C      -3.070607     -1.287099     -1.817333
  C      -1.881604     -1.977743     -1.122809
  H      -2.877075     -0.217470     -1.779081
  H      -3.016393     -1.564195     -2.875216
  C      -1.790327     -1.525098      0.335035
  C      -1.893668     -3.515354     -1.291591
  O      -2.282028     -0.488127      0.714238
  O      -1.065826     -2.239078      1.181082
  H      -1.262489     -3.764481     -2.148656
  H      -2.897831     -3.847235     -1.533281
  C      -1.431583     -4.274236     -0.048729
  C      -0.439519     -3.476446      0.769550
  H      -0.986369     -5.227871     -0.335921
  H      -2.293883     -4.485413      0.587392
  H       0.445465     -3.209079      0.184216
  C      -5.115306      0.974735      2.015692
  H      -4.030173      0.850027      2.070302
  H      -5.536942      0.462758      2.885214
  C       0.009550     -4.149023      2.052068
  H      -0.873062     -4.410796      2.644653
  H       0.571986     -3.411191      2.630986
  H      -6.265683     -2.726364     -1.943651
  C      -5.489285      2.452167      2.061161
  H      -6.569380      2.564876      1.912838
  H      -5.009011      2.984305      1.234604
  C       0.877667     -5.380153      1.819793
  H       0.306557     -6.148290      1.290130
  H       1.715584     -5.113863      1.166706
  C       1.013340      4.582458      0.824300
  H       0.201416      4.403051      1.537351
  H       0.546821      4.968262     -0.086752
  C       6.661449      1.553413      1.883059
  H       6.386993      0.524303      2.131441
  H       7.636788      1.500844      1.387113
  C       6.784383      2.363425      3.167317
  H       7.526268      1.933493      3.842038
  H       7.081796      3.392897      2.954521
  H       5.830836      2.398693      3.699295
  C       1.963434      5.634577      1.382634
  H       2.773334      5.837980      0.678546
  H       1.446473      6.575084      1.579816
  H       2.414364      5.296725      2.318728
  C      -5.086043      3.105136      3.377216
  H      -5.346936      4.164647      3.394296
  H      -5.583867      2.624478      4.222499
  H      -4.009178      3.021014      3.539920
  C       1.412466     -5.962696      3.121656
  H       0.595716     -6.254798      3.785972
  H       2.026303     -6.846416      2.939585
  H       2.025979     -5.233415      3.655588
101
Coordinates from ORCA-job orca E -2008.246078326788
  C      -0.029718     -0.127470     -1.311010
  C       1.153393     -0.179814     -0.461498
  O       1.774395     -1.205075     -0.253231
  O       1.609407      0.956819      0.089131
  C      -0.653252      1.174669     -1.673410
  H      -1.597226      1.262184     -1.118768
  H      -0.923644      1.170359     -2.734483
  C       0.814057      2.161824      0.057801
  H       0.000565      2.022599      0.781971
  C       0.239233      2.356626     -1.329116
  H      -0.335642      3.283290     -1.359907
  H       1.062511      2.456043     -2.041124
  C      -0.565044     -1.428597     -1.804733
  H       0.221777     -2.170078     -1.684116
  H      -0.780405     -1.352915     -2.875950
  C       2.961219     -0.062127     -3.374638
  C       3.843564      0.356324     -2.476847
  H       2.355969      0.647034     -3.924718
  H       2.827864     -1.119065     -3.573149
  C       3.920867      1.831974     -2.220542
  C       4.725158     -0.556726     -1.673900
  O       3.285465      2.644562     -2.843038
  O       4.710121      2.268951     -1.234126
  H       5.691246     -0.666432     -2.180661
  H       4.270180     -1.545518     -1.615570
  C       4.944323      0.023702     -0.286692
  C       5.524538      1.415851     -0.396631
  H       5.627394     -0.604614      0.287109
  H       3.993931      0.062216      0.250121
  H       6.509950      1.369943     -0.877955
  C       1.734289      3.273063      0.524981
  H       2.511188      3.432907     -0.229125
  H       2.236035      2.923993      1.432463
  C       5.640118      2.150018      0.927229
  H       4.651700      2.161935      1.397704
  H       5.899281      3.190659      0.712676
  C      -4.556481     -1.498014     -1.389540
  C      -4.696547     -1.932542      0.072996
  O      -4.338838     -3.025250      0.433972
  O      -5.292718     -1.141177      0.959685
  C      -5.308160     -0.183574     -1.643185
  H      -6.382357     -0.384699     -1.712428
  H      -5.004381      0.219462     -2.612852
  C      -5.610230      0.254733      0.771610
  H      -6.705754      0.291713      0.732846
  C      -5.054643      0.807188     -0.524746
  H      -5.540234      1.762164     -0.731874
  H      -3.984755      0.994776     -0.405730
  C      -5.219238     -2.598654     -2.232106
  H      -4.730531     -3.562056     -2.112398
  H      -5.187975     -2.317673     -3.287476
  C      -3.070525     -1.285970     -1.818670
  C      -1.881227     -1.976481     -1.124112
  H      -2.876729     -0.216384     -1.779925
  H      -3.016362     -1.562719     -2.876637
  C      -1.790383     -1.522910      0.333465
  C      -1.893316     -3.514089     -1.292486
  O      -2.281141     -0.484996      0.711405
  O      -1.068569     -2.237900      1.180775
  H      -1.260826     -3.763498     -2.148548
  H      -2.896953     -3.845990     -1.536358
  C      -1.433754     -4.272990     -0.048819
  C      -0.441807     -3.475285      0.769454
  H      -0.988630     -5.226948     -0.335106
  H      -2.297190     -4.483364      0.586004
  H       0.442801     -3.207094      0.183945
  C      -5.121206      0.968513      2.019898
  H      -4.036170      0.844160      2.077210
  H      -5.544544      0.454240      2.887237
  C       0.008564     -4.146669      2.052108
  H      -0.873093     -4.408446      2.646045
  H       0.570960     -3.407674      2.629599
  H      -6.265924     -2.723954     -1.947791
  C      -5.496896      2.445343      2.066800
  H      -6.576306      2.557185      1.912750
  H      -5.013306      2.979685      1.243592
  C       0.877702     -5.376914      1.819414
  H       0.307066     -6.145396      1.289713
  H       1.715029     -5.110082      1.165763
  C       1.018895      4.587075      0.815012
  H       0.202802      4.414300      1.524969
  H       0.558035      4.970804     -0.099772
  C       6.666999      1.552643      1.882125
  H       6.391678      0.524301      2.132803
  H       7.640539      1.497202      1.382943
  C       6.795633      2.363867      3.164863
  H       7.538751      1.932987      3.837642
  H       7.094472      3.392592      2.950541
  H       5.843952      2.401633      3.700019
  C       1.970713      5.637496      1.373269
  H       2.784090      5.835556      0.671632
  H       1.456766      6.580759      1.565130
  H       2.417119      5.301602      2.312235
  C      -5.101555      3.096594      3.385975
  H      -5.363794      4.155790      3.403400
  H      -5.603035      2.614018      4.227982
  H      -4.025428      3.014148      3.554280
  C       1.413909     -5.959192      3.120735
  H       0.598279     -6.253573      3.785369
  H       2.029843     -6.841361      2.938155
  H       2.026184     -5.228861      3.654712
101
Coordinates from ORCA-job orca E -2008.246089539992
  C      -0.028753     -0.125774     -1.307584
  C       1.151311     -0.179031     -0.454194
  O       1.770871     -1.204816     -0.243690
  O       1.606100      0.957078      0.097700
  C      -0.649363      1.176886     -1.672883
  H      -1.595222      1.265958     -1.121536
  H      -0.917078      1.171942     -2.734632
  C       0.814650      2.164479      0.061092
  H      -0.001068      2.029619      0.783571
  C       0.243381      2.358226     -1.327322
  H      -0.330104      3.285654     -1.360354
  H       1.067854      2.456137     -2.038222
  C      -0.563797     -1.426067     -1.803029
  H       0.222544     -2.168058     -1.682452
  H      -0.779422     -1.348711     -2.874045
  C       2.954359     -0.063898     -3.367117
  C       3.840020      0.354647     -2.472651
  H       2.349779      0.645268     -3.917903
  H       2.817607     -1.121026     -3.562270
  C       3.922125      1.830626     -2.220308
  C       4.720225     -0.559092     -1.669082
  O       3.288166      2.643495     -2.843911
  O       4.714075      2.267745     -1.236178
  H       5.685829     -0.672630     -2.175916
  H       4.262318     -1.546438     -1.609003
  C       4.942818      0.023702     -0.283370
  C       5.526889      1.414171     -0.398263
  H       5.625501     -0.603885      0.291591
  H       3.993561      0.066442      0.255192
  H       6.511376      1.363767     -0.881088
  C       1.737884      3.273259      0.528036
  H       2.519985      3.425140     -0.222276
  H       2.232175      2.926017      1.440270
  C       5.648709      2.150754      0.923868
  H       4.662839      2.164670      1.399617
  H       5.907758      3.190761      0.706126
  C      -4.555883     -1.497229     -1.393231
  C      -4.697917     -1.935595      0.067966
  O      -4.340406     -3.029206      0.426530
  O      -5.294685     -1.146705      0.956405
  C      -5.307287     -0.182184     -1.644583
  H      -6.381253     -0.383515     -1.717006
  H      -5.001610      0.223777     -2.612409
  C      -5.615321      0.248522      0.770546
  H      -6.710791      0.283185      0.727607
  C      -5.056588      0.805243     -0.522628
  H      -5.541831      1.760674     -0.728475
  H      -3.987043      0.993059     -0.400572
  C      -5.217138     -2.595883     -2.239542
  H      -4.728500     -3.559491     -2.121030
  H      -5.184119     -2.312680     -3.294253
  C      -3.069283     -1.283985     -1.819755
  C      -1.880608     -1.974479     -1.124017
  H      -2.875984     -0.214345     -1.779721
  H      -3.013427     -1.560102     -2.877773
  C      -1.791777     -1.520831      0.333543
  C      -1.892073     -3.511917     -1.292914
  O      -2.281764     -0.481927      0.709955
  O      -1.073281     -2.236863      1.182588
  H      -1.257468     -3.761291     -2.147435
  H      -2.894939     -3.843838     -1.539987
  C      -1.435933     -4.271462     -0.048360
  C      -0.445434     -3.473974      0.771460
  H      -0.989904     -5.225255     -0.334000
  H      -2.301092     -4.482468      0.583782
  H       0.439513     -3.204607      0.186964
  C      -5.132702      0.960751      2.022351
  H      -4.047666      0.838178      2.083738
  H      -5.558107      0.443290      2.886814
  C       0.004856     -4.145022      2.054432
  H      -0.876786     -4.407287      2.648101
  H       0.566518     -3.405427      2.631829
  H      -6.264228     -2.722045     -1.957162
  C      -5.512227      2.436451      2.070744
  H      -6.590993      2.545954      1.910557
  H      -5.025411      2.973546      1.251242
  C       0.875304     -5.374212      1.820944
  H       0.305408     -6.142862      1.290652
  H       1.712009     -5.105788      1.167146
  C       1.028268      4.592600      0.807925
  H       0.207336      4.427203      1.514075
  H       0.574512      4.975018     -0.110906
  C       6.679540      1.553954      1.874890
  H       6.404479      0.526212      2.128319
  H       7.650562      1.496717      1.371000
  C       6.815196      2.366530      3.155891
  H       7.560613      1.935061      3.825789
  H       7.114789      3.394625      2.939646
  H       5.866157      2.406317      3.695599
  C       1.982562      5.639994      1.367361
  H       2.800363      5.832291      0.669266
  H       1.472592      6.586444      1.554157
  H       2.422836      5.304969      2.309550
  C      -5.126125      3.086253      3.393215
  H      -5.391006      4.144829      3.410878
  H      -5.630851      2.601045      4.231707
  H      -4.050677      3.007085      3.567296
  C       1.412671     -5.957038      3.121461
  H       0.597876     -6.254285      3.785803
  H       2.030674     -6.837563      2.937802
  H       2.023664     -5.226174      3.656209
101
Coordinates from ORCA-job orca E -2008.246099525562
  C      -0.027487     -0.124694     -1.303145
  C       1.150120     -0.178833     -0.446564
  O       1.768821     -1.205150     -0.235555
  O       1.603813      0.956311      0.107022
  C      -0.646804      1.178407     -1.668685
  H      -1.593808      1.267442     -1.119273
  H      -0.912788      1.174265     -2.730906
  C       0.815246      2.165524      0.067910
  H      -0.001533      2.033372      0.789661
  C       0.245790      2.359466     -1.321188
  H      -0.327288      3.287093     -1.354839
  H       1.070614      2.457115     -2.031750
  C      -0.562158     -1.424137     -1.800484
  H       0.223577     -2.166622     -1.679168
  H      -0.777615     -1.345616     -2.871407
  C       2.945228     -0.061892     -3.362017
  C       3.833995      0.355483     -2.470092
  H       2.341575      0.648333     -3.912456
  H       2.805119     -1.118879     -3.555535
  C       3.920671      1.831603     -2.219994
  C       4.713424     -0.559625     -1.667284
  O       3.286770      2.644998     -2.843099
  O       4.716048      2.268137     -1.238531
  H       5.677510     -0.676865     -2.176155
  H       4.252536     -1.545501     -1.605236
  C       4.941515      0.024350     -0.282999
  C       5.528471      1.413554     -0.402063
  H       5.625658     -0.602785      0.290671
  H       3.994486      0.069450      0.259321
  H       6.511732      1.359417     -0.887109
  C       1.741494      3.271796      0.534732
  H       2.527549      3.416599     -0.212771
  H       2.229884      2.925814      1.450612
  C       5.657400      2.151085      0.919119
  H       4.674180      2.166555      1.400334
  H       5.916179      3.190683      0.699039
  C      -4.555432     -1.497818     -1.396189
  C      -4.699562     -1.937783      0.064325
  O      -4.342132     -3.031761      0.422037
  O      -5.296669     -1.150042      0.953530
  C      -5.306749     -0.182575     -1.647300
  H      -6.380455     -0.384251     -1.722623
  H      -4.998910      0.224836     -2.613824
  C      -5.621194      0.244003      0.767458
  H      -6.716605      0.275867      0.720132
  C      -5.059294      0.803241     -0.523219
  H      -5.544688      1.758587     -0.729312
  H      -3.990249      0.991900     -0.398134
  C      -5.214772     -2.595682     -2.244964
  H      -4.726204     -3.559343     -2.126440
  H      -5.179969     -2.311390     -3.299305
  C      -3.068050     -1.283518     -1.820295
  C      -1.879960     -1.973626     -1.123235
  H      -2.875686     -0.213721     -1.779766
  H      -3.010474     -1.559743     -2.878211
  C      -1.793369     -1.520238      0.334441
  C      -1.890000     -3.510968     -1.292837
  O      -2.283362     -0.480776      0.709516
  O      -1.076941     -2.236404      1.184953
  H      -1.253089     -3.760094     -2.145705
  H      -2.892000     -3.843445     -1.542881
  C      -1.436301     -4.270786     -0.047389
  C      -0.447566     -3.472931      0.773966
  H      -0.989037     -5.224181     -0.332581
  H      -2.302763     -4.483029      0.582489
  H       0.437746     -3.202393      0.190535
  C      -5.145732      0.956863      2.021757
  H      -4.060851      0.835781      2.088384
  H      -5.574235      0.438292      2.884047
  C       0.002399     -4.143862      2.057278
  H      -0.879665     -4.407566      2.649653
  H       0.562487     -3.403778      2.635510
  H      -6.262270     -2.722495     -1.964322
  C      -5.527927      2.431856      2.068433
  H      -6.606035      2.539480      1.902750
  H      -5.037651      2.969389      1.251268
  C       0.875040     -5.371469      1.823167
  H       0.306408     -6.140957      1.292770
  H       1.710747     -5.100527      1.169102
  C       1.037505      4.595701      0.807310
  H       0.212730      4.436195      1.510337
  H       0.589917      4.978148     -0.114508
  C       6.692665      1.554070      1.865107
  H       6.419019      0.526228      2.119600
  H       7.661218      1.497454      1.356430
  C       6.834496      2.366154      3.145716
  H       7.582826      1.934039      3.811988
  H       7.133605      3.394243      2.928829
  H       5.888138      2.405934      3.690124
  C       1.994656      5.639487      1.368497
  H       2.816071      5.827256      0.673454
  H       1.488538      6.588607      1.552341
  H       2.429534      5.303751      2.312966
  C      -5.149576      3.082576      3.392590
  H      -5.416228      4.140761      3.408393
  H      -5.657452      2.596881      4.228859
  H      -4.074779      3.005921      3.571830
  C       1.414151     -5.954040      3.123035
  H       0.600190     -6.253867      3.787240
  H       2.034080     -6.833028      2.938386
  H       2.023880     -5.222409      3.658144
101
Coordinates from ORCA-job orca E -2008.246110725662
  C      -0.024901     -0.122866     -1.291647
  C       1.150118     -0.179142     -0.431518
  O       1.767757     -1.206276     -0.220793
  O       1.603186      0.954528      0.124578
  C      -0.643611      1.180968     -1.655029
  H      -1.590913      1.269289     -1.106009
  H      -0.908934      1.179089     -2.717427
  C       0.818351      2.166249      0.083526
  H       0.001204      2.037604      0.805436
  C       0.249460      2.361307     -1.305583
  H      -0.323456      3.289038     -1.338700
  H       1.073872      2.459114     -2.016661
  C      -0.558835     -1.420962     -1.792524
  H       0.225884     -2.164174     -1.669490
  H      -0.772222     -1.340895     -2.863707
  C       2.928277     -0.056418     -3.354315
  C       3.823397      0.358354     -2.467515
  H       2.325641      0.656022     -3.903020
  H       2.782095     -1.113027     -3.545381
  C       3.918052      1.834767     -2.220749
  C       4.702816     -0.559305     -1.667516
  O       3.283693      2.649384     -2.841950
  O       4.719967      2.269977     -1.244228
  H       5.663162     -0.682376     -2.182072
  H       4.237432     -1.542860     -1.600891
  C       4.942072      0.026502     -0.285995
  C       5.533532      1.413441     -0.411782
  H       5.629117     -0.600840      0.283991
  H       3.999355      0.074896      0.263536
  H       6.513847      1.353611     -0.902233
  C       1.749388      3.268925      0.549000
  H       2.540304      3.402790     -0.195337
  H       2.230079      2.925346      1.469868
  C       5.675332      2.152142      0.907673
  H       4.696451      2.170911      1.397597
  H       5.934742      3.190823      0.683938
  C      -4.553964     -1.498791     -1.400771
  C      -4.702606     -1.940179      0.058786
  O      -4.344490     -3.034025      0.416418
  O      -5.302046     -1.153895      0.947722
  C      -5.305958     -0.184202     -1.653888
  H      -6.378992     -0.387289     -1.735045
  H      -4.993491      0.224812     -2.618245
  C      -5.634155      0.237840      0.759327
  H      -6.729396      0.263703      0.703818
  C      -5.066219      0.800440     -0.527137
  H      -5.552806      1.754833     -0.734919
  H      -3.998333      0.991541     -0.395906
  C      -5.208296     -2.596633     -2.253360
  H      -4.718974     -3.559798     -2.134114
  H      -5.170089     -2.310894     -3.307161
  C      -3.065048     -1.281832     -1.818985
  C      -1.878727     -1.972132     -1.119400
  H      -2.874587     -0.211783     -1.775988
  H      -3.003440     -1.556486     -2.877089
  C      -1.796615     -1.520935      0.339221
  C      -1.886792     -3.509230     -1.291420
  O      -2.288249     -0.482048      0.713927
  O      -1.082478     -2.237668      1.191133
  H      -1.247223     -3.756962     -2.142683
  H      -2.887812     -3.842259     -1.544620
  C      -1.435137     -4.270531     -0.045855
  C      -0.449908     -3.472334      0.779249
  H      -0.985437     -5.222608     -0.331718
  H      -2.302915     -4.485960      0.581061
  H       0.436283     -3.199324      0.198353
  C      -5.172640      0.953464      2.017317
  H      -4.087825      0.837465      2.093292
  H      -5.605841      0.433128      2.876219
  C      -0.001512     -4.144953      2.062346
  H      -0.884772     -4.412693      2.651149
  H       0.554887     -3.404827      2.643976
  H      -6.256582     -2.725428     -1.976444
  C      -5.561928      2.426710      2.060372
  H      -6.639372      2.529220      1.887453
  H      -5.068113      2.965528      1.246223
  C       0.875655     -5.369252      1.826975
  H       0.310163     -6.139920      1.294990
  H       1.710646     -5.093233      1.174058
  C       1.054176      4.599725      0.810453
  H       0.223713      4.449696      1.508856
  H       0.616058      4.981640     -0.116087
  C       6.717404      1.553718      1.845192
  H       6.445483      0.525767      2.100996
  H       7.681957      1.497966      1.328933
  C       6.869653      2.364603      3.125450
  H       7.622874      1.931341      3.785474
  H       7.167870      3.392664      2.907222
  H       5.927722      2.404301      3.677490
  C       2.015993      5.638347      1.373357
  H       2.843128      5.817452      0.682866
  H       1.516064      6.591974      1.550822
  H       2.441973      5.302690      2.321944
  C      -5.195373      3.079990      3.386548
  H      -5.466697      4.137043      3.399510
  H      -5.706572      2.592735      4.219874
  H      -4.121382      3.008463      3.572737
  C       1.415826     -5.952312      3.126184
  H       0.602122     -6.256092      3.788915
  H       2.038571     -6.829047      2.940156
  H       2.022943     -5.219920      3.663158
101
Coordinates from ORCA-job orca E -2008.246126196515
  C      -0.025015     -0.123607     -1.290041
  C       1.149236     -0.180621     -0.428725
  O       1.767123     -1.207957     -0.219656
  O       1.601280      0.951824      0.129725
  C      -0.644383      1.180583     -1.650943
  H      -1.591782      1.267254     -1.102084
  H      -0.908757      1.181010     -2.713580
  C       0.816616      2.163767      0.090342
  H      -0.000528      2.034396      0.812096
  C       0.248031      2.360847     -1.298695
  H      -0.326051      3.287912     -1.330256
  H       1.072416      2.460501     -2.009451
  C      -0.559097     -1.421343     -1.791645
  H       0.225305     -2.164779     -1.668322
  H      -0.772178     -1.341431     -2.862876
  C       2.922935     -0.050717     -3.353073
  C       3.818953      0.361654     -2.466019
  H       2.321448      0.663601     -3.900597
  H       2.775000     -1.106856     -3.545469
  C       3.915800      1.837931     -2.218153
  C       4.698000     -0.558094     -1.667863
  O       3.280984      2.653461     -2.837681
  O       4.719404      2.271622     -1.242400
  H       5.656208     -0.683590     -2.185822
  H       4.230322     -1.540433     -1.599659
  C       4.942796      0.026811     -0.287056
  C       5.534628      1.413577     -0.413396
  H       5.632776     -0.601059      0.278876
  H       4.002776      0.073691      0.267303
  H       6.513532      1.353013     -0.906630
  C       1.748516      3.265056      0.557189
  H       2.542551      3.394145     -0.184566
  H       2.224857      2.922521      1.480758
  C       5.681497      2.150568      0.906515
  H       4.704228      2.169799      1.399910
  H       5.941126      3.189252      0.683029
  C      -4.554753     -1.500359     -1.400448
  C      -4.703397     -1.939569      0.059748
  O      -4.345025     -3.032870      0.418785
  O      -5.301442     -1.151650      0.948191
  C      -5.307254     -0.186508     -1.656095
  H      -6.380159     -0.390079     -1.737626
  H      -4.994037      0.221099     -2.620803
  C      -5.637497      0.238621      0.756075
  H      -6.732769      0.261431      0.698956
  C      -5.069103      0.800009     -0.530633
  H      -5.556812      1.753446     -0.740179
  H      -4.001552      0.992496     -0.398706
  C      -5.207921     -2.599637     -2.251991
  H      -4.718152     -3.562431     -2.131641
  H      -5.169646     -2.314784     -3.306026
  C      -3.065577     -1.282896     -1.818162
  C      -1.879315     -1.972890     -1.118426
  H      -2.875854     -0.212715     -1.775224
  H      -3.003555     -1.557550     -2.876256
  C      -1.797570     -1.521988      0.340361
  C      -1.886801     -3.510051     -1.290511
  O      -2.289942     -0.483537      0.715279
  O      -1.082354     -2.238014      1.192061
  H      -1.247681     -3.757544     -2.142161
  H      -2.887971     -3.843527     -1.542502
  C      -1.433170     -4.270994     -0.045287
  C      -0.448500     -3.471759      0.779617
  H      -0.982739     -5.222551     -0.331693
  H      -2.300066     -4.487551      0.582515
  H       0.437228     -3.197927      0.198506
  C      -5.180049      0.958097      2.013300
  H      -4.095025      0.845395      2.091435
  H      -5.613385      0.438523      2.872598
  C       0.000869     -4.144614      2.062231
  H      -0.882203     -4.415667      2.649856
  H       0.554856     -3.403818      2.645295
  H      -6.256201     -2.728814     -1.975162
  C      -5.573109      2.430534      2.053088
  H      -6.650931      2.529759      1.880771
  H      -5.080877      2.968836      1.237672
  C       0.881748     -5.366205      1.826139
  H       0.318596     -6.138357      1.293854
  H       1.715854     -5.086788      1.173532
  C       1.056112      4.598442      0.812872
  H       0.221546      4.452126      1.507183
  H       0.624339      4.980222     -0.116690
  C       6.726529      1.550132      1.839396
  H       6.455606      0.521675      2.094133
  H       7.689379      1.495999      1.319808
  C       6.883381      2.358631      3.120734
  H       7.639143      1.924224      3.777086
  H       7.180744      3.387043      2.902963
  H       5.943509      2.397175      3.676350
  C       2.018361      5.635018      1.378968
  H       2.849498      5.810323      0.692361
  H       1.520380      6.590429      1.552287
  H       2.438213      5.299421      2.330307
  C      -5.207610      3.087484      3.377856
  H      -5.482150      4.143722      3.388902
  H      -5.716902      2.600314      4.212402
  H      -4.133285      3.019231      3.563425
  C       1.423349     -5.948422      3.125183
  H       0.610047     -6.253926      3.787645
  H       2.047679     -6.823929      2.938712
  H       2.028903     -5.214982      3.662457
101
Coordinates from ORCA-job orca E -2008.246136197864
  C      -0.026069     -0.125029     -1.286883
  C       1.148346     -0.183113     -0.425466
  O       1.767154     -1.210366     -0.218846
  O       1.599389      0.948289      0.135820
  C      -0.646952      1.179503     -1.643918
  H      -1.593762      1.263845     -1.093929
  H      -0.911188      1.182913     -2.706576
  C       0.813629      2.159788      0.099740
  H      -0.003053      2.028363      0.821617
  C       0.244621      2.359657     -1.288835
  H      -0.331351      3.285639     -1.317891
  H       1.068804      2.462206     -1.999324
  C      -0.560099     -1.422461     -1.789743
  H       0.224256     -2.165991     -1.666621
  H      -0.771875     -1.342551     -2.861254
  C       2.916527     -0.042956     -3.351811
  C       3.813265      0.366613     -2.464112
  H       2.316158      0.673495     -3.897778
  H       2.766894     -1.098533     -3.545972
  C       3.911950      1.842727     -2.214595
  C       4.692185     -0.555699     -1.668526
  O       3.276623      2.659507     -2.831868
  O       4.717382      2.274513     -1.239383
  H       5.647237     -0.684481     -2.191479
  H       4.221403     -1.536329     -1.597355
  C       4.944649      0.028042     -0.288816
  C       5.535981      1.414799     -0.415286
  H       5.638689     -0.600939      0.271064
  H       4.008399      0.071855      0.272255
  H       6.512631      1.354560     -0.912955
  C       1.745722      3.260173      0.568318
  H       2.543172      3.383770     -0.170588
  H       2.217435      2.919351      1.494946
  C       5.688424      2.149596      0.905070
  H       4.712542      2.170068      1.401180
  H       5.949583      3.188055      0.682306
  C      -4.556040     -1.502627     -1.400951
  C      -4.704976     -1.939259      0.059988
  O      -4.347856     -3.032424      0.420555
  O      -5.299954     -1.148418      0.947870
  C      -5.308806     -0.189613     -1.659788
  H      -6.381715     -0.393250     -1.740926
  H      -4.995151      0.215834     -2.625284
  C      -5.638961      0.240651      0.751384
  H      -6.734305      0.261084      0.694064
  C      -5.071143      0.799591     -0.536531
  H      -5.559874      1.752129     -0.747776
  H      -4.003753      0.992973     -0.404778
  C      -5.207827     -2.603533     -2.251284
  H      -4.717602     -3.565934     -2.129700
  H      -5.169159     -2.319683     -3.305585
  C      -3.066521     -1.284584     -1.817535
  C      -1.880709     -1.974264     -1.117075
  H      -2.877334     -0.214319     -1.774214
  H      -3.003690     -1.558637     -2.875759
  C      -1.800130     -1.523891      0.342136
  C      -1.887939     -3.511494     -1.289086
  O      -2.294790     -0.487015      0.718157
  O      -1.082680     -2.238824      1.193139
  H      -1.250705     -3.758443     -2.142292
  H      -2.889771     -3.845337     -1.537738
  C      -1.430449     -4.271898     -0.044875
  C      -0.446780     -3.471040      0.780023
  H      -0.978678     -5.222479     -0.332274
  H      -2.295680     -4.490206      0.584754
  H       0.438417     -3.195837      0.198870
  C      -5.183237      0.964192      2.006716
  H      -4.097791      0.854733      2.085036
  H      -5.615440      0.445876      2.867322
  C       0.003600     -4.144514      2.061813
  H      -0.879069     -4.419476      2.648300
  H       0.554934     -3.403138      2.646703
  H      -6.256226     -2.732961     -1.975020
  C      -5.579804      2.435949      2.043554
  H      -6.658182      2.531885      1.872849
  H      -5.090072      2.974101      1.226557
  C       0.888357     -5.363248      1.825228
  H       0.327749     -6.136965      1.292490
  H       1.721973     -5.080876      1.173302
  C       1.055785      4.596265      0.816142
  H       0.216146      4.454697      1.505322
  H       0.631500      4.976533     -0.117468
  C       6.735500      1.545827      1.833482
  H       6.464073      0.517293      2.087229
  H       7.696611      1.491667      1.310685
  C       6.898226      2.351890      3.115804
  H       7.656403      1.915690      3.768127
  H       7.195558      3.380291      2.897947
  H       5.960591      2.390342      3.675161
  C       2.017777      5.631743      1.384969
  H       2.853825      5.801263      0.702890
  H       1.521658      6.589405      1.550995
  H       2.430273      5.298269      2.340248
  C      -5.214756      3.096462      3.366937
  H      -5.493407      4.151599      3.376747
  H      -5.721463      2.608683      4.202739
  H      -4.140041      3.031839      3.551449
  C       1.430683     -5.944427      3.124537
  H       0.617384     -6.250542      3.786770
  H       2.055978     -6.819252      2.938255
  H       2.034847     -5.209964      3.661953
101
Coordinates from ORCA-job orca E -2008.246145647230
  C      -0.026713     -0.125612     -1.280514
  C       1.148661     -0.184288     -0.420410
  O       1.768531     -1.211311     -0.216004
  O       1.599352      0.946628      0.142835
  C      -0.649392      1.179061     -1.633910
  H      -1.595021      1.261634     -1.081592
  H      -0.915399      1.184367     -2.696080
  C       0.812678      2.157672      0.109387
  H      -0.003118      2.025029      0.832022
  C       0.242029      2.359130     -1.278329
  H      -0.335011      3.284495     -1.305297
  H       1.065507      2.463581     -1.989379
  C      -0.559734     -1.422712     -1.785708
  H       0.224992     -2.166009     -1.663435
  H      -0.769650     -1.341512     -2.857520
  C       2.909819     -0.037235     -3.351134
  C       3.807227      0.370600     -2.463249
  H       2.310075      0.680398     -3.896223
  H       2.759165     -1.092497     -3.546290
  C       3.907199      1.846529     -2.212799
  C       4.685884     -0.553694     -1.669470
  O       3.271069      2.664379     -2.827897
  O       4.714981      2.276869     -1.238648
  H       5.638213     -0.686347     -2.196354
  H       4.211679     -1.532400     -1.594786
  C       4.945472      0.029769     -0.291024
  C       5.537124      1.416000     -0.418771
  H       5.641845     -0.600675      0.264460
  H       4.012269      0.072630      0.275236
  H       6.511264      1.355754     -0.921274
  C       1.745383      3.257591      0.578091
  H       2.545308      3.375951     -0.159000
  H       2.213675      2.918485      1.507118
  C       5.695121      2.150139      0.901116
  H       4.720287      2.173381      1.399025
  H       5.959061      3.187812      0.678014
  C      -4.555772     -1.503799     -1.403429
  C      -4.706882     -1.939936      0.057546
  O      -4.351587     -3.033433      0.418820
  O      -5.301159     -1.147753      0.944699
  C      -5.308505     -0.191216     -1.664297
  H      -6.381277     -0.395024     -1.746739
  H      -4.993561      0.213617     -2.629641
  C      -5.641091      0.240957      0.746389
  H      -6.736406      0.260306      0.688265
  C      -5.072598      0.799044     -0.541540
  H      -5.561728      1.751182     -0.753574
  H      -4.005452      0.992934     -0.408778
  C      -5.205569     -2.605063     -2.254765
  H      -4.715134     -3.567234     -2.132588
  H      -5.165168     -2.321125     -3.309012
  C      -3.065639     -1.285179     -1.817257
  C      -1.880825     -1.975107     -1.115368
  H      -2.876430     -0.214939     -1.772572
  H      -3.001185     -1.557892     -2.875716
  C      -1.802539     -1.525511      0.344273
  C      -1.887645     -3.512295     -1.287838
  O      -2.299880     -0.490418      0.721294
  O      -1.083929     -2.239954      1.194962
  H      -1.251818     -3.758173     -2.142386
  H      -2.889821     -3.846484     -1.534350
  C      -1.427919     -4.272824     -0.044577
  C      -0.446055     -3.470871      0.781715
  H      -0.974252     -5.222227     -0.332757
  H      -2.292390     -4.493272      0.585432
  H       0.439362     -3.194177      0.201664
  C      -5.186685      0.966033      2.001211
  H      -4.101055      0.858546      2.079592
  H      -5.618236      0.447796      2.862151
  C       0.003856     -4.144984      2.063158
  H      -0.878759     -4.421805      2.648860
  H       0.553722     -3.403469      2.649312
  H      -6.254457     -2.734897     -1.980606
  C      -5.585659      2.437205      2.037155
  H      -6.664123      2.531272      1.865812
  H      -5.096570      2.976232      1.220379
  C       0.890311     -5.362461      1.826780
  H       0.331059     -6.136733      1.293406
  H       1.724322     -5.079379      1.175659
  C       1.058107      4.596313      0.818414
  H       0.214771      4.459885      1.504141
  H       0.639156      4.974181     -0.118538
  C       6.742644      1.543089      1.826896
  H       6.468490      0.515473      2.081492
  H       7.702176      1.485422      1.301551
  C       6.911906      2.348782      3.108642
  H       7.671245      1.910546      3.758178
  H       7.211152      3.376330      2.889343
  H       5.976240      2.389884      3.671079
  C       2.020544      5.631330      1.387419
  H       2.860164      5.794741      0.708214
  H       1.526585      6.591295      1.546246
  H       2.427832      5.301079      2.346003
  C      -5.222967      3.098829      3.360726
  H      -5.504355      4.153214      3.370319
  H      -5.729363      2.609848      4.196040
  H      -4.148327      3.036420      3.546370
  C       1.432018     -5.943200      3.126578
  H       0.618348     -6.248778      3.788608
  H       2.057327     -6.818143      2.941034
  H       2.035685     -5.208363      3.664054
101
Coordinates from ORCA-job orca E -2008.246154032983
  C      -0.026882     -0.126011     -1.274618
  C       1.150249     -0.185756     -0.417304
  O       1.771855     -1.212483     -0.217047
  O       1.600671      0.944162      0.148870
  C      -0.651298      1.179079     -1.623532
  H      -1.595944      1.259357     -1.069026
  H      -0.919457      1.186829     -2.685139
  C       0.812693      2.154453      0.119816
  H      -0.001936      2.019416      0.843306
  C       0.239667      2.358957     -1.266493
  H      -0.338268      3.283843     -1.290116
  H       1.062147      2.466445     -1.978244
  C      -0.559357     -1.422414     -1.782547
  H       0.225890     -2.165534     -1.662400
  H      -0.768508     -1.338711     -2.854358
  C       2.900374     -0.028209     -3.352027
  C       3.799445      0.377227     -2.464681
  H       2.300109      0.690821     -3.894711
  H       2.748879     -1.083001     -3.549104
  C       3.900607      1.852468     -2.211467
  C       4.678979     -0.549755     -1.674915
  O       3.263416      2.672193     -2.822943
  O       4.711318      2.280191     -1.238407
  H       5.628582     -0.684787     -2.206023
  H       4.202060     -1.526953     -1.598168
  C       4.946216      0.031079     -0.296804
  C       5.537454      1.417322     -0.424097
  H       5.645007     -0.601547      0.253178
  H       4.016256      0.072303      0.274913
  H       6.509021      1.358597     -0.931674
  C       1.746095      3.253463      0.589744
  H       2.547653      3.368458     -0.146085
  H       2.212093      2.913908      1.519767
  C       5.700628      2.148988      0.896395
  H       4.726657      2.174120      1.395852
  H       5.967194      3.186235      0.674446
  C      -4.555327     -1.506259     -1.406384
  C      -4.708386     -1.941201      0.054811
  O      -4.353822     -3.034447      0.417490
  O      -5.304069     -1.148211      0.940300
  C      -5.308858     -0.194738     -1.669788
  H      -6.381295     -0.399718     -1.753535
  H      -4.993143      0.209375     -2.635185
  C      -5.644278      0.240245      0.740277
  H      -6.739556      0.258895      0.681691
  C      -5.075408      0.797156     -0.548020
  H      -5.565232      1.748609     -0.761447
  H      -4.008567      0.992278     -0.414453
  C      -5.202834     -2.608796     -2.257850
  H      -4.711743     -3.570429     -2.134221
  H      -5.160868     -2.325805     -3.312311
  C      -3.064905     -1.286699     -1.817901
  C      -1.880531     -1.975646     -1.114121
  H      -2.875952     -0.216395     -1.772838
  H      -2.998920     -1.559095     -2.876339
  C      -1.804707     -1.525414      0.345410
  C      -1.886230     -3.512919     -1.285558
  O      -2.304779     -0.491685      0.722190
  O      -1.085021     -2.238369      1.196559
  H      -1.251327     -3.758337     -2.140922
  H      -2.888362     -3.848146     -1.530668
  C      -1.425029     -4.272346     -0.042257
  C      -0.445090     -3.468498      0.784600
  H      -0.969187     -5.220818     -0.329986
  H      -2.289176     -4.494490      0.587632
  H       0.440506     -3.190631      0.205352
  C      -5.190386      0.967271      1.994147
  H      -4.104666      0.860802      2.072356
  H      -5.621343      0.449844      2.855845
  C       0.004763     -4.141245      2.066695
  H      -0.877485     -4.418459      2.652741
  H       0.553743     -3.398664      2.652373
  H      -6.252115     -2.739245     -1.985593
  C      -5.590786      2.438054      2.027916
  H      -6.669107      2.531051      1.854910
  H      -5.101473      2.976778      1.211054
  C       0.892381     -5.358054      1.831791
  H       0.334108     -6.133221      1.298649
  H       1.726722     -5.075479      1.180853
  C       1.061449      4.594006      0.826373
  H       0.215721      4.460920      1.509861
  H       0.645838      4.971307     -0.112252
  C       6.748222      1.537305      1.819045
  H       6.470353      0.510749      2.073932
  H       7.705967      1.475173      1.290898
  C       6.924908      2.341580      3.100616
  H       7.684915      1.899997      3.747080
  H       7.227132      3.368179      2.880956
  H       5.991324      2.385900      3.666236
  C       2.024843      5.627602      1.396251
  H       2.866764      5.787126      0.718928
  H       1.533048      6.589271      1.551303
  H       2.428928      5.298507      2.356556
  C      -5.230589      3.101898      3.350998
  H      -5.513731      4.155821      3.358990
  H      -5.737327      2.613158      4.186263
  H      -4.156131      3.041405      3.538279
  C       1.433840     -5.937089      3.132456
  H       0.620209     -6.241772      3.794949
  H       2.059397     -6.812155      2.948420
  H       2.037174     -5.201278      3.669001
101
Coordinates from ORCA-job orca E -2008.246162622860
  C      -0.024444     -0.126513     -1.260108
  C       1.155410     -0.188797     -0.407073
  O       1.779365     -1.215315     -0.213206
  O       1.606320      0.939554      0.162889
  C      -0.651494      1.179264     -1.601462
  H      -1.594275      1.255880     -1.043057
  H      -0.923975      1.190880     -2.661909
  C       0.817339      2.149345      0.140432
  H       0.005195      2.011691      0.866210
  C       0.239259      2.358627     -1.242966
  H      -0.339462      3.283113     -1.261016
  H       1.059241      2.470350     -1.957047
  C      -0.556316     -1.421192     -1.773256
  H       0.228668     -2.164799     -1.654551
  H      -0.762761     -1.333112     -2.845311
  C       2.878972     -0.014684     -3.350118
  C       3.785024      0.387587     -2.468419
  H       2.276098      0.706156     -3.887485
  H       2.724393     -1.068902     -3.547928
  C       3.890714      1.861973     -2.213138
  C       4.668492     -0.542963     -1.687271
  O       3.251483      2.684605     -2.818562
  O       4.708484      2.285988     -1.244267
  H       5.613241     -0.680307     -2.226309
  H       4.188889     -1.518608     -1.607180
  C       4.949231      0.034181     -0.310173
  C       5.540598      1.420140     -0.438852
  H       5.651761     -0.601303      0.231661
  H       4.024507      0.074614      0.270027
  H       6.507791      1.362479     -0.954757
  C       1.753141      3.246474      0.610391
  H       2.555189      3.357195     -0.125643
  H       2.217653      2.905706      1.540782
  C       5.714074      2.148933      0.881871
  H       4.742482      2.176821      1.385582
  H       5.983539      3.185487      0.660274
  C      -4.553448     -1.509130     -1.415015
  C      -4.712928     -1.944210      0.045480
  O      -4.358937     -3.037051      0.409940
  O      -5.314235     -1.151937      0.927824
  C      -5.307685     -0.198782     -1.682106
  H      -6.379352     -0.405604     -1.771068
  H      -4.988275      0.205852     -2.646074
  C      -5.654516      0.236259      0.726500
  H      -6.749530      0.253845      0.663418
  C      -5.081001      0.793658     -0.559561
  H      -5.571109      1.744414     -0.775333
  H      -4.015033      0.990532     -0.421436
  C      -5.195455     -2.612580     -2.269522
  H      -4.703518     -3.573479     -2.143729
  H      -5.148934     -2.329712     -3.323832
  C      -3.061588     -1.287586     -1.819423
  C      -1.879435     -1.975282     -1.110372
  H      -2.873497     -0.217115     -1.772950
  H      -2.990580     -1.559410     -2.877683
  C      -1.810245     -1.524413      0.349233
  C      -1.883130     -3.512573     -1.280570
  O      -2.315160     -0.492603      0.724585
  O      -1.090673     -2.235053      1.202448
  H      -1.247588     -3.757505     -2.135603
  H      -2.884599     -3.849294     -1.526249
  C      -1.422447     -4.270568     -0.036215
  C      -0.446778     -3.463915      0.792927
  H      -0.962714     -5.217583     -0.322581
  H      -2.287534     -4.495604      0.591415
  H       0.439731     -3.184060      0.215998
  C      -5.206147      0.964415      1.981787
  H      -4.120543      0.859458      2.063708
  H      -5.639180      0.446596      2.842200
  C       0.001690     -4.134419      2.076677
  H      -0.880863     -4.411613      2.662204
  H       0.548973     -3.390197      2.661881
  H      -6.245836     -2.744594     -2.002322
  C      -5.609201      2.434425      2.013045
  H      -6.686621      2.525763      1.833538
  H      -5.116402      2.973756      1.198644
  C       0.891042     -5.350464      1.844833
  H       0.334376     -6.127142      1.312172
  H       1.725900     -5.068492      1.194291
  C       1.073437      4.589711      0.844760
  H       0.226276      4.460794      1.527328
  H       0.660193      4.967532     -0.094662
  C       6.763846      1.531443      1.798082
  H       6.481653      0.506426      2.054455
  H       7.717875      1.463299      1.263931
  C       6.953298      2.334157      3.078654
  H       7.715399      1.888134      3.719565
  H       7.259247      3.359401      2.857855
  H       6.023818      2.382940      3.650639
  C       2.040146      5.620134      1.414585
  H       2.883558      5.775287      0.738038
  H       1.552211      6.584098      1.567567
  H       2.442069      5.290962      2.375762
  C      -5.257746      3.099697      3.337631
  H      -5.542995      4.153077      3.343436
  H      -5.768134      2.610447      4.170366
  H      -4.184251      3.041787      3.531107
  C       1.431996     -5.926563      3.146992
  H       0.618429     -6.231025      3.809656
  H       2.058925     -6.801139      2.965357
  H       2.034009     -5.188889      3.682497
101
Coordinates from ORCA-job orca E -2008.246165234527
  C      -0.023369     -0.126624     -1.250176
  C       1.159929     -0.191386     -0.402446
  O       1.786367     -1.217952     -0.216665
  O       1.611696      0.934636      0.171138
  C      -0.652881      1.180017     -1.583432
  H      -1.594105      1.252416     -1.021744
  H      -0.929056      1.196018     -2.642892
  C       0.821387      2.143649      0.157678
  H       0.012149      2.001868      0.885901
  C       0.237554      2.358873     -1.222376
  H      -0.342158      3.282827     -1.233732
  H       1.054564      2.475355     -1.939086
  C      -0.555583     -1.419380     -1.767721
  H       0.229032     -2.163586     -1.650953
  H      -0.761126     -1.327241     -2.839662
  C       2.863606      0.000610     -3.352501
  C       3.774520      0.398824     -2.473966
  H       2.258420      0.723775     -3.884127
  H       2.707341     -1.052751     -3.553564
  C       3.882881      1.871949     -2.213459
  C       4.661580     -0.535802     -1.701761
  O       3.241168      2.697505     -2.812266
  O       4.705773      2.291339     -1.246906
  H       5.602709     -0.672883     -2.247089
  H       4.180763     -1.510833     -1.621678
  C       4.952426      0.035261     -0.324084
  C       5.543211      1.421732     -0.451089
  H       5.658261     -0.602981      0.210071
  H       4.031641      0.073694      0.262661
  H       6.506814      1.366418     -0.973898
  C       1.758794      3.238880      0.629272
  H       2.560747      3.348708     -0.106998
  H       2.222935      2.895547      1.558985
  C       5.725729      2.144927      0.871557
  H       4.756565      2.173081      1.379981
  H       5.996322      3.181718      0.652464
  C      -4.553558     -1.513945     -1.421315
  C      -4.717314     -1.946925      0.039351
  O      -4.361887     -3.038207      0.407126
  O      -5.324717     -1.154890      0.917745
  C      -5.309788     -0.205691     -1.693005
  H      -6.380665     -0.415221     -1.785246
  H      -4.988284      0.198127     -2.656622
  C      -5.665302      0.232735      0.713792
  H      -6.760141      0.249313      0.647707
  C      -5.088899      0.789084     -0.571503
  H      -5.580150      1.738457     -0.790685
  H      -4.023814      0.988716     -0.430528
  C      -5.190538     -2.619988     -2.276250
  H      -4.696861     -3.579622     -2.147722
  H      -5.141504     -2.338566     -3.330825
  C      -3.061011     -1.289868     -1.821346
  C      -1.879682     -1.974599     -1.107930
  H      -2.874754     -0.218970     -1.775586
  H      -2.986260     -1.562942     -2.879013
  C      -1.815561     -1.521531      0.351152
  C      -1.880350     -3.512132     -1.275418
  O      -2.324918     -0.491020      0.724062
  O      -1.095383     -2.228619      1.206834
  H      -1.243776     -3.757406     -2.129592
  H      -2.880855     -3.851206     -1.521659
  C      -1.419726     -4.267134     -0.029123
  C      -0.447675     -3.456727      0.800506
  H      -0.956495     -5.213163     -0.313168
  H      -2.285485     -4.494124      0.596887
  H       0.439226     -3.175702      0.224741
  C      -5.220917      0.963481      1.969069
  H      -4.135444      0.859752      2.053785
  H      -5.655303      0.446489      2.829318
  C       0.000605     -4.123414      2.086394
  H      -0.882014     -4.401477      2.671385
  H       0.545147     -3.376398      2.670606
  H      -6.241366     -2.754034     -2.011901
  C      -5.625921      2.432945      1.996495
  H      -6.702891      2.522670      1.813501
  H      -5.131501      2.971151      1.182301
  C       0.893604     -5.337407      1.858038
  H       0.339941     -6.116419      1.325641
  H       1.728676     -5.054196      1.208276
  C       1.081836      4.583005      0.865944
  H       0.233853      4.454417      1.547593
  H       0.670049      4.963795     -0.072886
  C       6.778870      1.521192      1.779547
  H       6.493940      0.496869      2.035695
  H       7.728902      1.449751      1.238715
  C       6.980729      2.320168      3.060478
  H       7.745443      1.869262      3.694861
  H       7.289495      3.344698      2.840323
  H       6.055587      2.371448      3.639264
  C       2.050207      5.610065      1.438870
  H       2.894734      5.764944      0.763632
  H       1.564388      6.574831      1.593556
  H       2.450480      5.278067      2.399780
  C      -5.278879      3.101519      3.320475
  H      -5.565570      4.154539      3.323240
  H      -5.790435      2.613371      4.153126
  H      -4.205729      3.046056      3.516640
  C       1.434347     -5.909931      3.161827
  H       0.620958     -6.216449      3.823750
  H       2.064715     -6.782512      2.982484
  H       2.033072     -5.169429      3.697137
101
Coordinates from ORCA-job orca E -2008.246171792410
  C      -0.023704     -0.126802     -1.250170
  C       1.160741     -0.191993     -0.404085
  O       1.788258     -1.218495     -0.221055
  O       1.612525      0.933299      0.170138
  C      -0.653317      1.180089     -1.582133
  H      -1.594817      1.251358     -1.020885
  H      -0.929248      1.196903     -2.641682
  C       0.821756      2.142025      0.159354
  H       0.013095      1.998689      0.887924
  C       0.236684      2.358953     -1.219898
  H      -0.343406      3.282683     -1.229471
  H       1.052918      2.476887     -1.937221
  C      -0.556872     -1.418939     -1.768208
  H       0.227284     -2.163628     -1.651852
  H      -0.762985     -1.325907     -2.839955
  C       2.864052      0.005051     -3.354483
  C       3.775210      0.402124     -2.475724
  H       2.258231      0.728771     -3.884616
  H       2.708063     -1.048028     -3.557198
  C       3.883198      1.874762     -2.212505
  C       4.662916     -0.533508     -1.705659
  O       3.240923      2.700894     -2.809825
  O       4.705876      2.292708     -1.245217
  H       5.604326     -0.668584     -2.251014
  H       4.183165     -1.509231     -1.627957
  C       4.953552      0.034873     -0.326755
  C       5.544049      1.421818     -0.451923
  H       5.659589     -0.603799      0.206511
  H       4.032547      0.072858      0.259874
  H       6.507319      1.367514     -0.975506
  C       1.758912      3.236779      0.632535
  H       2.561550      3.347947     -0.102782
  H       2.222361      2.892379      1.562226
  C       5.728477      2.142203      0.872126
  H       4.760257      2.168936      1.382611
  H       5.998102      3.179602      0.654707
  C      -4.555252     -1.515719     -1.422621
  C      -4.719565     -1.947572      0.038244
  O      -4.362671     -3.037914      0.407425
  O      -5.329863     -1.155942      0.915035
  C      -5.312566     -0.208258     -1.695507
  H      -6.383242     -0.418846     -1.787695
  H      -4.991324      0.194973     -2.659463
  C      -5.669023      0.231929      0.710843
  H      -6.763865      0.249510      0.644990
  C      -5.092564      0.787591     -0.574795
  H      -5.584342      1.736431     -0.795176
  H      -4.027677      0.988287     -0.433941
  C      -5.191207     -2.622995     -2.276755
  H      -4.696712     -3.582113     -2.147419
  H      -5.142427     -2.342329     -3.331524
  C      -3.062724     -1.290963     -1.822520
  C      -1.881137     -1.974187     -1.107996
  H      -2.877262     -0.219861     -1.778156
  H      -2.987340     -1.565563     -2.879755
  C      -1.817588     -1.519630      0.350647
  C      -1.880922     -3.511943     -1.273626
  O      -2.328078     -0.489180      0.722345
  O      -1.096713     -2.224895      1.207198
  H      -1.243803     -3.758248     -2.127096
  H      -2.881076     -3.851880     -1.520173
  C      -1.420471     -4.265127     -0.026057
  C      -0.448404     -3.453366      0.802009
  H      -0.957068     -5.211527     -0.308650
  H      -2.286387     -4.491385      0.599966
  H       0.438017     -3.172867      0.225260
  C      -5.223975      0.962776      1.965904
  H      -4.138534      0.858698      2.050373
  H      -5.658171      0.445917      2.826352
  C       0.001079     -4.117727      2.088790
  H      -0.881223     -4.395802      2.674260
  H       0.544895     -3.369152      2.671655
  H      -6.241856     -2.757825     -2.012091
  C      -5.628650      2.432321      1.993211
  H      -6.705655      2.522130      1.810558
  H      -5.134295      2.970078      1.178674
  C       0.895454     -5.330989      1.861761
  H       0.342880     -6.110932      1.329596
  H       1.730372     -5.046941      1.212223
  C       1.081380      4.580337      0.871043
  H       0.233043      4.450125      1.551943
  H       0.670188      4.962764     -0.067384
  C       6.783800      1.516599      1.776241
  H       6.498582      0.492400      2.032503
  H       7.731932      1.444693      1.232145
  C       6.990937      2.314151      3.057197
  H       7.756958      1.861423      3.688732
  H       7.300668      3.338419      2.837226
  H       6.067802      2.366228      3.639126
  C       2.048921      5.606680      1.446615
  H       2.894018      5.763551      0.772576
  H       1.562602      6.570915      1.603151
  H       2.448346      5.272855      2.407273
  C      -5.280822      3.101075      3.316853
  H      -5.566940      4.154265      3.319418
  H      -5.791950      2.613428      4.150041
  H      -4.207521      3.045504      3.512259
  C       1.436339     -5.902139      3.166049
  H       0.623150     -6.210661      3.827275
  H       2.068948     -6.773224      2.987219
  H       2.033049     -5.160281      3.701732
101
Coordinates from ORCA-job orca E -2008.246171844636
  C      -0.022063     -0.126742     -1.244925
  C       1.163097     -0.192953     -0.399787
  O       1.791615     -1.219277     -0.218888
  O       1.614979      0.931820      0.175175
  C      -0.652079      1.180336     -1.575089
  H      -1.593687      1.250141     -1.013924
  H      -0.927848      1.198176     -2.634703
  C       0.824386      2.140815      0.166112
  H       0.016558      1.996984      0.895518
  C       0.237611      2.359201     -1.212142
  H      -0.343110      3.282572     -1.219764
  H       1.052642      2.478896     -1.930640
  C      -0.555498     -1.418054     -1.764635
  H       0.228007     -2.163302     -1.647515
  H      -0.760409     -1.323958     -2.836479
  C       2.857410      0.011896     -3.353919
  C       3.772062      0.407845     -2.478301
  H       2.250328      0.736288     -3.881707
  H       2.699625     -1.040976     -3.556353
  C       3.882134      1.880342     -2.214547
  C       4.661598     -0.528711     -1.711805
  O       3.239238      2.707169     -2.810090
  O       4.707101      2.297031     -1.248768
  H       5.602346     -0.661736     -2.258897
  H       4.183226     -1.505261     -1.635659
  C       4.954532      0.037796     -0.332644
  C       5.545612      1.424658     -0.457893
  H       5.661789     -0.600973      0.198826
  H       4.034607      0.076140      0.255612
  H       6.508096      1.369823     -0.982912
  C       1.762412      3.234666      0.639619
  H       2.564751      3.347193     -0.095840
  H       2.226222      2.888850      1.568586
  C       5.733869      2.143182      0.866782
  H       4.767356      2.168975      1.380532
  H       6.002524      3.180951      0.649816
  C      -4.554727     -1.517390     -1.425931
  C      -4.722103     -1.948456      0.034719
  O      -4.363769     -3.037645      0.405882
  O      -5.337749     -1.157845      0.908711
  C      -5.312651     -0.210677     -1.701048
  H      -6.382961     -0.422220     -1.795112
  H      -4.989810      0.192211     -2.664614
  C      -5.674825      0.230435      0.704165
  H      -6.769536      0.249282      0.636412
  C      -5.095631      0.785883     -0.580377
  H      -5.587526      1.734257     -0.802590
  H      -4.031214      0.987454     -0.437428
  C      -5.188272     -2.625660     -2.280606
  H      -4.693296     -3.584351     -2.149904
  H      -5.137984     -2.345345     -3.335388
  C      -3.061591     -1.291650     -1.823089
  C      -1.880887     -1.974026     -1.106329
  H      -2.877140     -0.220342     -1.778910
  H      -2.983810     -1.566818     -2.880010
  C      -1.820072     -1.519676      0.352503
  C      -1.879124     -3.511808     -1.271944
  O      -2.332570     -0.489894      0.723479
  O      -1.099441     -2.223793      1.210182
  H      -1.239368     -3.758134     -2.123440
  H      -2.878327     -3.852507     -1.521349
  C      -1.421267     -4.264455     -0.022998
  C      -0.450278     -3.452446      0.805967
  H      -0.957718     -5.211170     -0.304340
  H      -2.288458     -4.490106      0.601449
  H       0.436805     -3.172451      0.229948
  C      -5.231731      0.960643      1.960265
  H      -4.146423      0.856466      2.046660
  H      -5.667446      0.443321      2.819679
  C      -0.002592     -4.115933      2.093918
  H      -0.886165     -4.392715      2.678117
  H       0.540866     -3.367096      2.676747
  H      -6.239197     -2.761235     -2.017389
  C      -5.636331      2.430248      1.987764
  H      -6.713042      2.520060      1.803463
  H      -5.140347      2.968365      1.174457
  C       0.891133     -5.330179      1.869336
  H       0.338714     -6.110029      1.336887
  H       1.727232     -5.046838      1.221076
  C       1.085363      4.577983      0.881126
  H       0.238579      4.446722      1.563668
  H       0.672424      4.961618     -0.056043
  C       6.792705      1.516129      1.765705
  H       6.507337      0.492373      2.023449
  H       7.737952      1.443252      1.216743
  C       7.007658      2.313145      3.045736
  H       7.775891      1.858731      3.673387
  H       7.318443      3.336797      2.824437
  H       6.087583      2.366850      3.632357
  C       2.054112      5.603605      1.455995
  H       2.897642      5.762101      0.780439
  H       1.567872      6.567382      1.615657
  H       2.455527      5.268072      2.415246
  C      -5.290533      3.097804      3.312520
  H      -5.575799      4.151230      3.315347
  H      -5.803276      2.609907      4.144536
  H      -4.217567      3.041318      3.509526
  C       1.429375     -5.900897      3.174886
  H       0.614854     -6.209984      3.834192
  H       2.062874     -6.771617      2.997306
  H       2.024653     -5.158803      3.711804
101
Coordinates from ORCA-job orca E -2008.246173274222
  C      -0.021392     -0.127526     -1.240012
  C       1.164800     -0.194507     -0.396394
  O       1.794543     -1.220662     -0.218673
  O       1.616451      0.929288      0.180244
  C      -0.652504      1.179877     -1.567065
  H      -1.593853      1.247616     -1.005292
  H      -0.928517      1.199688     -2.626603
  C       0.825487      2.138104      0.174498
  H       0.018684      1.992740      0.904723
  C       0.236670      2.358790     -1.202588
  H      -0.345236      3.281435     -1.207360
  H       1.050241      2.481037     -1.922296
  C      -0.554887     -1.418183     -1.761198
  H       0.228092     -2.163894     -1.643580
  H      -0.758463     -1.323350     -2.833233
  C       2.852037      0.020372     -3.355295
  C       3.768551      0.414287     -2.480674
  H       2.244446      0.746065     -3.880704
  H       2.693386     -1.032054     -3.559415
  C       3.879755      1.886417     -2.214596
  C       4.659149     -0.524021     -1.717592
  O       3.235824      2.714356     -2.807530
  O       4.706648      2.301094     -1.249613
  H       5.598781     -0.656141     -2.266881
  H       4.180879     -1.500704     -1.642634
  C       4.955315      0.040141     -0.338194
  C       5.546987      1.426868     -0.462959
  H       5.664006     -0.599347      0.190509
  H       4.036996      0.078221      0.252530
  H       6.507830      1.371920     -0.991018
  C       1.763871      3.231015      0.649290
  H       2.567208      3.343329     -0.085042
  H       2.226351      2.884662      1.578776
  C       5.740847      2.142797      0.862360
  H       4.776664      2.167977      1.380459
  H       6.008927      3.180885      0.646176
  C      -4.554675     -1.518987     -1.429745
  C      -4.724844     -1.949351      0.030725
  O      -4.365522     -3.037626      0.403560
  O      -5.344640     -1.159303      0.902347
  C      -5.313180     -0.213060     -1.707171
  H      -6.383137     -0.425533     -1.803089
  H      -4.988729      0.189466     -2.670344
  C      -5.680567      0.229187      0.697080
  H      -6.775162      0.248538      0.627718
  C      -5.099238      0.784359     -0.586621
  H      -5.591661      1.732113     -0.810397
  H      -4.035299      0.987027     -0.441759
  C      -5.185807     -2.628136     -2.285131
  H      -4.690550     -3.586500     -2.153131
  H      -5.133711     -2.348091     -3.339890
  C      -3.060885     -1.292530     -1.823945
  C      -1.881373     -1.974234     -1.104681
  H      -2.877135     -0.221078     -1.779733
  H      -2.980733     -1.567952     -2.880636
  C      -1.823330     -1.519498      0.354125
  C      -1.878702     -3.512173     -1.269239
  O      -2.338550     -0.490846      0.724487
  O      -1.101715     -2.221678      1.212625
  H      -1.238034     -3.758901     -2.119922
  H      -2.877603     -3.853603     -1.518881
  C      -1.421083     -4.263486     -0.019319
  C      -0.451230     -3.450150      0.809726
  H      -0.956813     -5.210149     -0.299650
  H      -2.288494     -4.489191      0.604813
  H       0.436067     -3.170174      0.234038
  C      -5.239352      0.959469      1.953737
  H      -4.154113      0.855801      2.041636
  H      -5.676147      0.442032      2.812531
  C      -0.004468     -4.112238      2.098706
  H      -0.888705     -4.388613      2.682128
  H       0.538139     -3.362628      2.681315
  H      -6.237144     -2.764247     -2.023808
  C      -5.644366      2.429025      1.980711
  H      -6.720960      2.518401      1.795531
  H      -5.147660      2.967288      1.167941
  C       0.889746     -5.326598      1.876611
  H       0.338028     -6.107210      1.344570
  H       1.726525     -5.043676      1.229072
  C       1.087526      4.574774      0.890683
  H       0.240204      4.443890      1.572619
  H       0.675671      4.958859     -0.046783
  C       6.803816      1.513294      1.754667
  H       6.518436      0.489699      2.012995
  H       7.745736      1.439832      1.200076
  C       7.027790      2.308378      3.034416
  H       7.798940      1.851633      3.656780
  H       7.339242      3.331675      2.812412
  H       6.111371      2.363021      3.626645
  C       2.056559      5.599667      1.466416
  H       2.900458      5.758042      0.791315
  H       1.570633      6.563577      1.626272
  H       2.457225      5.263490      2.425772
  C      -5.299966      3.096446      3.305948
  H      -5.585016      4.149927      3.308601
  H      -5.813727      2.608517      4.137321
  H      -4.227226      3.039504      3.504082
  C       1.426433     -5.895597      3.183572
  H       0.611036     -6.204654      3.841811
  H       2.060828     -6.766011      3.007680
  H       2.020352     -5.152562      3.720694
101
Coordinates from ORCA-job orca E -2008.246175100539
  C      -0.020361     -0.128172     -1.234204
  C       1.166261     -0.195200     -0.391174
  O       1.796737     -1.221095     -0.214693
  O       1.617481      0.928234      0.186426
  C      -0.652641      1.179317     -1.559158
  H      -1.593673      1.245593     -0.996722
  H      -0.928746      1.200439     -2.618641
  C       0.826196      2.136855      0.182409
  H       0.020098      1.990692      0.913224
  C       0.235975      2.358551     -1.193936
  H      -0.347297      3.280348     -1.196908
  H       1.048276      2.482665     -1.914678
  C      -0.552841     -1.418675     -1.756854
  H       0.229947     -2.164407     -1.638232
  H      -0.754279     -1.323697     -2.829286
  C       2.846119      0.027160     -3.355099
  C       3.764677      0.420000     -2.482103
  H       2.238015      0.753700     -3.878749
  H       2.686465     -1.025038     -3.559637
  C       3.877080      1.892105     -2.215592
  C       4.656378     -0.519064     -1.721208
  O       3.232471      2.720547     -2.806994
  O       4.706037      2.305926     -1.251940
  H       5.594909     -0.650705     -2.272523
  H       4.178323     -1.495845     -1.646601
  C       4.955403      0.044494     -0.342271
  C       5.547965      1.430757     -0.468027
  H       5.665299     -0.595248      0.184588
  H       4.038611      0.082881      0.250756
  H       6.507146      1.374825     -0.999036
  C       1.764537      3.229452      0.657741
  H       2.568533      3.341713     -0.075753
  H       2.226319      2.883429      1.587718
  C       5.747207      2.145860      0.856945
  H       4.785466      2.170745      1.379689
  H       6.014448      3.184049      0.640259
  C      -4.553070     -1.519691     -1.433677
  C      -4.726542     -1.950450      0.026293
  O      -4.367560     -3.038533      0.399934
  O      -5.349823     -1.161039      0.896071
  C      -5.311283     -0.213960     -1.712607
  H      -6.381015     -0.426547     -1.810593
  H      -4.984811      0.188709     -2.675030
  C      -5.683727      0.228073      0.690973
  H      -6.778196      0.248549      0.620031
  C      -5.099842      0.783394     -0.591497
  H      -5.592135      1.731027     -0.816022
  H      -4.036226      0.986126     -0.444446
  C      -5.182131     -2.628707     -2.290859
  H      -4.686916     -3.587022     -2.158411
  H      -5.127951     -2.347985     -3.345343
  C      -3.058495     -1.292847     -1.824430
  C      -1.880619     -1.974997     -1.103117
  H      -2.875007     -0.221384     -1.779018
  H      -2.975986     -1.567265     -2.881208
  C      -1.825489     -1.521226      0.356052
  C      -1.877724     -3.512926     -1.268255
  O      -2.342791     -0.493759      0.726717
  O      -1.103885     -2.223023      1.215006
  H      -1.235577     -3.759351     -2.117888
  H      -2.876341     -3.854190     -1.519113
  C      -1.422032     -4.264559     -0.017799
  C      -0.453344     -3.451787      0.813353
  H      -0.957802     -5.211339     -0.297711
  H      -2.290363     -4.489983      0.605208
  H       0.435322     -3.172416      0.239547
  C      -5.243764      0.957373      1.948563
  H      -4.158656      0.853509      2.037791
  H      -5.682028      0.439823      2.806517
  C      -0.010334     -4.114417      2.103291
  H      -0.896383     -4.389933      2.684382
  H       0.531501     -3.365390      2.687373
  H      -6.234001     -2.765184     -2.031834
  C      -5.648035      2.427198      1.975742
  H      -6.724563      2.517079      1.790449
  H      -5.150823      2.965589      1.163384
  C       0.883239     -5.329739      1.884042
  H       0.331951     -6.110206      1.351384
  H       1.721925     -5.048132      1.238383
  C       1.088157      4.573453      0.898153
  H       0.240742      4.443134      1.580072
  H       0.676549      4.956738     -0.039755
  C       6.814685      1.515475      1.743305
  H       6.530165      0.491973      2.002956
  H       7.753398      1.441784      1.183340
  C       7.046836      2.309900      3.022088
  H       7.821421      1.852141      3.639400
  H       7.357787      3.332974      2.798370
  H       6.134037      2.365002      3.619826
  C       2.057154      5.598829      1.473158
  H       2.900751      5.756815      0.797594
  H       1.570922      6.562681      1.632380
  H       2.458124      5.263327      2.432628
  C      -5.303705      3.093772      3.301523
  H      -5.587968      4.147449      3.304658
  H      -5.818388      2.605743      4.132289
  H      -4.231144      3.035442      3.500189
  C       1.415973     -5.898254      3.192872
  H       0.598379     -6.205924      3.849044
  H       2.049881     -6.769448      3.019213
  H       2.009116     -5.155395      3.731092
101
Coordinates from ORCA-job orca E -2008.246177555468
  C      -0.018489     -0.128881     -1.227314
  C       1.168631     -0.196494     -0.385039
  O       1.799863     -1.222168     -0.210355
  O       1.619315      0.926302      0.194458
  C      -0.652187      1.178787     -1.549137
  H      -1.592808      1.243057     -0.985809
  H      -0.928622      1.202136     -2.608467
  C       0.827375      2.134474      0.193176
  H       0.022003      1.986676      0.924452
  C       0.235581      2.358236     -1.182169
  H      -0.349398      3.278955     -1.182490
  H       1.046477      2.485312     -1.903909
  C      -0.549761     -1.419113     -1.751830
  H       0.232957     -2.164779     -1.632202
  H      -0.748624     -1.323863     -2.824755
  C       2.836582      0.037326     -3.355896
  C       3.758026      0.428562     -2.485182
  H       2.227554      0.765083     -3.876766
  H       2.675790     -1.014510     -3.561359
  C       3.871995      1.900441     -2.217583
  C       4.651688     -0.511721     -1.728006
  O       3.226365      2.729887     -2.806324
  O       4.704176      2.312756     -1.255889
  H       5.588393     -0.642696     -2.282622
  H       4.173771     -1.488566     -1.653737
  C       4.955387      0.050303     -0.349566
  C       5.548577      1.436170     -0.476045
  H       5.667038     -0.590262      0.174019
  H       4.041009      0.088336      0.247211
  H       6.505399      1.379761     -1.011240
  C       1.765474      3.226626      0.669895
  H       2.569679      3.339847     -0.063137
  H       2.227410      2.879997      1.599522
  C       5.754468      2.149595      0.848729
  H       4.795822      2.173848      1.377193
  H       6.020807      3.188024      0.632069
  C      -4.550647     -1.521547     -1.438809
  C      -4.727689     -1.952377      0.020746
  O      -4.369168     -3.040188      0.395507
  O      -5.354462     -1.163349      0.888410
  C      -5.309106     -0.216444     -1.719816
  H      -6.378506     -0.429650     -1.819946
  H      -4.980782      0.186259     -2.681598
  C      -5.686646      0.226255      0.683097
  H      -6.780987      0.247461      0.610874
  C      -5.100630      0.781377     -0.598530
  H      -5.593164      1.728626     -0.824034
  H      -4.037395      0.984666     -0.449413
  C      -5.176770     -2.631059     -2.297555
  H      -4.681078     -3.588981     -2.164079
  H      -5.120233     -2.350172     -3.351878
  C      -3.055271     -1.293860     -1.825717
  C      -1.878947     -1.975691     -1.101629
  H      -2.872360     -0.222289     -1.779389
  H      -2.970102     -1.567533     -2.882464
  C      -1.827510     -1.522171      0.357674
  C      -1.874948     -3.513634     -1.266680
  O      -2.347459     -0.496015      0.728080
  O      -1.105669     -2.222792      1.217505
  H      -1.230550     -3.759610     -2.114703
  H      -2.872900     -3.855341     -1.519439
  C      -1.422031     -4.264849     -0.015066
  C      -0.455148     -3.452263      0.818577
  H      -0.957533     -5.211888     -0.293624
  H      -2.291724     -4.489677      0.606301
  H       0.435584     -3.173975      0.247384
  C      -5.247585      0.955194      1.941191
  H      -4.162592      0.851204      2.031432
  H      -5.686991      0.437984      2.798737
  C      -0.017356     -4.115047      2.110179
  H      -0.905723     -4.387711      2.689046
  H       0.524823     -3.367056      2.695317
  H      -6.229192     -2.768363     -2.041275
  C      -5.651256      2.425241      1.967967
  H      -6.727860      2.515557      1.783299
  H      -5.154347      2.963304      1.155234
  C       0.873349     -5.333194      1.895088
  H       0.321023     -6.113104      1.362667
  H       1.714471     -5.055553      1.250902
  C       1.088783      4.570366      0.911062
  H       0.241589      4.439656      1.593183
  H       0.676753      4.953738     -0.026594
  C       6.827099      1.517594      1.727783
  H       6.543960      0.493702      1.987449
  H       7.762347      1.444605      1.161946
  C       7.067626      2.309784      3.006443
  H       7.846296      1.850667      3.617538
  H       7.377217      3.333158      2.782234
  H       6.158780      2.363957      3.610230
  C       2.057661      5.595885      1.486057
  H       2.900529      5.754457      0.809699
  H       1.570900      6.559347      1.645881
  H       2.459694      5.260215      2.444989
  C      -5.305970      3.092021      3.293458
  H      -5.590008      4.145740      3.296636
  H      -5.820550      2.604204      4.124440
  H      -4.233388      3.033024      3.491698
  C       1.401211     -5.900746      3.206379
  H       0.580927     -6.203817      3.861337
  H       2.032233     -6.774672      3.036101
  H       1.995732     -5.158814      3.744343
101
Coordinates from ORCA-job orca E -2008.246181998151
  C      -0.016595     -0.129797     -1.222218
  C       1.170362     -0.197090     -0.379670
  O       1.801903     -1.222532     -0.204994
  O       1.620282      0.925714      0.200648
  C      -0.651246      1.177653     -1.542972
  H      -1.591737      1.240917     -0.979319
  H      -0.927838      1.201863     -2.602217
  C       0.827700      2.133384      0.200000
  H       0.022354      1.984728      0.931158
  C       0.235535      2.357645     -1.175066
  H      -0.350734      3.277549     -1.174463
  H       1.045851      2.486500     -1.897121
  C      -0.546659     -1.420240     -1.747555
  H       0.236037     -2.165698     -1.626459
  H      -0.743221     -1.325343     -2.820999
  C       2.830545      0.043320     -3.356622
  C       3.753257      0.434191     -2.487066
  H       2.221025      0.771485     -3.876339
  H       2.669462     -1.008428     -3.562316
  C       3.867816      1.906004     -2.219386
  C       4.648062     -0.506325     -1.731430
  O       3.221329      2.735683     -2.806831
  O       4.701951      2.318033     -1.259184
  H       5.583569     -0.637526     -2.288008
  H       4.169962     -1.483031     -1.656540
  C       4.954833      0.055689     -0.353705
  C       5.548442      1.441198     -0.481735
  H       5.667174     -0.585356      0.168364
  H       4.041977      0.094015      0.245412
  H       6.503408      1.384265     -1.020170
  C       1.764958      3.225971      0.677508
  H       2.569577      3.339925     -0.055000
  H       2.226960      2.879564      1.607152
  C       5.759299      2.154642      0.842144
  H       4.803276      2.178682      1.375347
  H       6.024612      3.193135      0.624589
  C      -4.548148     -1.522250     -1.442764
  C      -4.728233     -1.953997      0.016167
  O      -4.371439     -3.042405      0.390818
  O      -5.356026     -1.165020      0.883148
  C      -5.305950     -0.217000     -1.724440
  H      -6.375225     -0.429979     -1.826344
  H      -4.976092      0.186122     -2.685518
  C      -5.686544      0.225112      0.678357
  H      -6.780796      0.247261      0.605371
  C      -5.098944      0.780406     -0.602544
  H      -5.591047      1.727827     -0.828207
  H      -4.035864      0.983419     -0.452015
  C      -5.172516     -2.631161     -2.303597
  H      -4.676966     -3.589115     -2.169923
  H      -5.113827     -2.349549     -3.357625
  C      -3.052014     -1.294351     -1.826464
  C      -1.877162     -1.976612     -1.100408
  H      -2.868981     -0.222854     -1.779012
  H      -2.964939     -1.567155     -2.883274
  C      -1.828069     -1.523559      0.359065
  C      -1.873098     -3.514518     -1.265854
  O      -2.348942     -0.497900      0.729395
  O      -1.106773     -2.224170      1.219443
  H      -1.226998     -3.760141     -2.112660
  H      -2.870652     -3.855987     -1.520546
  C      -1.423160     -4.266137     -0.013537
  C      -0.457342     -3.454657      0.822537
  H      -0.958881     -5.213523     -0.291216
  H      -2.294280     -4.490287      0.606105
  H       0.435479     -3.177777      0.253837
  C      -5.247367      0.953009      1.937039
  H      -4.162538      0.847923      2.027706
  H      -5.687765      0.436043      2.794205
  C      -0.024553     -4.118277      2.115364
  H      -0.914999     -4.387679      2.692548
  H       0.518913     -3.371960      2.701491
  H      -6.225476     -2.768728     -2.049721
  C      -5.649484      2.423456      1.964132
  H      -6.726162      2.515057      1.780530
  H      -5.152958      2.961042      1.150847
  C       0.862248     -5.339719      1.903021
  H       0.307928     -6.118468      1.370981
  H       1.705269     -5.066355      1.259479
  C       1.087365      4.569338      0.918291
  H       0.239534      4.438140      1.599564
  H       0.675921      4.952652     -0.019625
  C       6.836003      1.522662      1.716354
  H       6.554992      0.498080      1.975620
  H       7.769134      1.451299      1.146831
  C       7.080693      2.313384      2.995131
  H       7.862652      1.854394      3.602094
  H       7.387846      3.337514      2.771036
  H       6.174293      2.365433      3.602756
  C       2.055113      5.595262      1.494470
  H       2.898410      5.754354      0.818730
  H       1.567616      6.558407      1.653874
  H       2.456667      5.259738      2.453630
  C      -5.302143      3.090033      3.289186
  H      -5.585638      4.143884      3.292714
  H      -5.816133      2.602491      4.120704
  H      -4.229383      3.030320      3.486222
  C       1.386458     -5.907244      3.215828
  H       0.564198     -6.205135      3.870703
  H       2.013468     -6.784490      3.047874
  H       1.983899     -5.167034      3.752916
101
Coordinates from ORCA-job orca E -2008.246182764081
  C      -0.012887     -0.130944     -1.213244
  C       1.173560     -0.198450     -0.370021
  O       1.805545     -1.223645     -0.195717
  O       1.622422      0.924183      0.211895
  C      -0.648405      1.176306     -1.532637
  H      -1.589114      1.238056     -0.969132
  H      -0.924974      1.201843     -2.591844
  C       0.829101      2.131220      0.212046
  H       0.023611      1.981450      0.942841
  C       0.236802      2.356822     -1.162655
  H      -0.350854      3.275842     -1.160559
  H       1.046669      2.488540     -1.884753
  C      -0.541473     -1.421271     -1.740477
  H       0.240880     -2.166709     -1.617057
  H      -0.734335     -1.326109     -2.814632
  C       2.817721      0.052645     -3.355492
  C       3.744159      0.442961     -2.489635
  H       2.206604      0.781295     -3.872655
  H       2.655253     -0.999006     -3.560596
  C       3.860714      1.914631     -2.222213
  C       4.641505     -0.498145     -1.737699
  O       3.212865      2.745054     -2.807197
  O       4.698566      2.325893     -1.264897
  H       5.574553     -0.629937     -2.298216
  H       4.163017     -1.474505     -1.660957
  C       4.954666      0.063468     -0.361268
  C       5.548820      1.448403     -0.492116
  H       5.668125     -0.578724      0.157812
  H       4.044570      0.102591      0.241951
  H       6.500552      1.390900     -1.036180
  C       1.765606      3.224013      0.690691
  H       2.570931      3.338231     -0.041131
  H       2.227178      2.877472      1.620464
  C       5.768314      2.161653      0.830298
  H       4.816567      2.185637      1.371041
  H       6.032194      3.200194      0.611293
  C      -4.544113     -1.523584     -1.449264
  C      -4.728841     -1.956708      0.008687
  O      -4.374038     -3.045824      0.383225
  O      -5.358131     -1.168022      0.874795
  C      -5.301300     -0.218284     -1.732023
  H      -6.370239     -0.431404     -1.837180
  H      -4.968970      0.185715     -2.691890
  C      -5.687795      0.222361      0.670336
  H      -6.781868      0.244806      0.595233
  C      -5.097403      0.778400     -0.609018
  H      -5.589023      1.725908     -0.835263
  H      -4.034744      0.981577     -0.455822
  C      -5.165189     -2.631751     -2.313393
  H      -4.669483     -3.589574     -2.179367
  H      -5.103268     -2.349010     -3.366944
  C      -3.046841     -1.294846     -1.827792
  C      -1.874211     -1.977425     -1.098370
  H      -2.863985     -0.223415     -1.778790
  H      -2.956446     -1.566666     -2.884555
  C      -1.829305     -1.524857      0.361365
  C      -1.869766     -3.515277     -1.264310
  O      -2.351424     -0.499567      0.730818
  O      -1.109837     -2.225534      1.223261
  H      -1.220648     -3.760480     -2.108926
  H      -2.866405     -3.856554     -1.522869
  C      -1.424954     -4.267424     -0.010621
  C      -0.461315     -3.457289      0.829310
  H      -0.960456     -5.215173     -0.286662
  H      -2.298599     -4.490935      0.605682
  H       0.434564     -3.182155      0.264450
  C      -5.250322      0.949280      1.930189
  H      -4.165787      0.842936      2.022665
  H      -5.692696      0.432441      2.786417
  C      -0.035488     -4.121709      2.124080
  H      -0.928838     -4.386596      2.698816
  H       0.509492     -3.377488      2.711467
  H      -6.218893     -2.770237     -2.063128
  C      -5.651060      2.420025      1.957009
  H      -6.727653      2.512820      1.773461
  H      -5.154325      2.956894      1.143364
  C       0.846208     -5.347455      1.915565
  H       0.289499     -6.124602      1.383677
  H       1.691870     -5.079540      1.273181
  C       1.087736      4.567278      0.930917
  H       0.238595      4.435848      1.610576
  H       0.677860      4.951089     -0.007447
  C       6.851227      1.529487      1.696829
  H       6.573274      0.503926      1.955556
  H       7.780981      1.460401      1.121543
  C       7.102500      2.318022      2.975613
  H       7.889377      1.859302      3.576383
  H       7.406043      3.343304      2.751848
  H       6.199923      2.366947      3.589163
  C       2.054496      5.592880      1.509284
  H       2.899184      5.751943      0.835251
  H       1.566953      6.556153      1.667775
  H       2.454179      5.257215      2.469148
  C      -5.302672      3.086964      3.281546
  H      -5.586083      4.140846      3.284839
  H      -5.816128      2.599822      4.113615
  H      -4.229756      3.027418      3.477857
  C       1.365310     -5.915063      3.230337
  H       0.540458     -6.206518      3.884857
  H       1.987260     -6.796483      3.065495
  H       1.966362     -5.177154      3.766563
101
Coordinates from ORCA-job orca E -2008.246188684675
  C      -0.012446     -0.132254     -1.214345
  C       1.173468     -0.198979     -0.370359
  O       1.805616     -1.223996     -0.195621
  O       1.621402      0.923823      0.211526
  C      -0.647688      1.174708     -1.535316
  H      -1.589444      1.236356     -0.973574
  H      -0.922789      1.199812     -2.594928
  C       0.826867      2.129914      0.211631
  H       0.020571      1.978765      0.941280
  C       0.236078      2.355781     -1.163662
  H      -0.352092      3.274469     -1.161861
  H       1.046864      2.488574     -1.884409
  C      -0.540840     -1.423028     -1.740745
  H       0.241486     -2.168333     -1.616190
  H      -0.733306     -1.328636     -2.815042
  C       2.817309      0.054531     -3.356218
  C       3.743323      0.445317     -2.490145
  H       2.205432      0.782773     -3.873050
  H       2.655952     -0.997183     -3.561885
  C       3.858558      1.916775     -2.221623
  C       4.641523     -0.495434     -1.738862
  O       3.210086      2.746834     -2.806291
  O       4.695492      2.328193     -1.263688
  H       5.574588     -0.626565     -2.299494
  H       4.163563     -1.472010     -1.662194
  C       4.954609      0.065560     -0.362079
  C       5.547570      1.451039     -0.492496
  H       5.667941     -0.576948      0.156729
  H       4.044395      0.104111      0.241093
  H       6.498693      1.394938     -1.037784
  C       1.761225      3.223714      0.692200
  H       2.567176      3.340361     -0.038554
  H       2.222760      2.876754      1.621831
  C       5.768299      2.163473      0.830120
  H       4.817734      2.186164      1.373186
  H       6.030737      3.202490      0.611667
  C      -4.543603     -1.524101     -1.449420
  C      -4.728089     -1.956636      0.008696
  O      -4.374665     -3.046278      0.383112
  O      -5.355026     -1.166771      0.875349
  C      -5.300281     -0.218502     -1.732133
  H      -6.369396     -0.431223     -1.836466
  H      -4.968605      0.184878     -2.692502
  C      -5.684256      0.223637      0.670486
  H      -6.778391      0.246705      0.596574
  C      -5.094933      0.778631     -0.609857
  H      -5.586185      1.726277     -0.836311
  H      -4.032054      0.981551     -0.457820
  C      -5.165440     -2.632083     -2.313083
  H      -4.670174     -3.590104     -2.178885
  H      -5.103637     -2.349759     -3.366745
  C      -3.046276     -1.296174     -1.828452
  C      -1.873758     -1.978676     -1.098726
  H      -2.862956     -0.224816     -1.780405
  H      -2.956183     -1.569036     -2.884981
  C      -1.828554     -1.525562      0.360822
  C      -1.869576     -3.516539     -1.264358
  O      -2.349618     -0.499481      0.729612
  O      -1.109942     -2.226486      1.223159
  H      -1.219829     -3.762080     -2.108412
  H      -2.865978     -3.857647     -1.524114
  C      -1.426219     -4.268627     -0.010187
  C      -0.462392     -3.459010      0.829927
  H      -0.962126     -5.216740     -0.285616
  H      -2.300497     -4.491439      0.605445
  H       0.434069     -3.184881      0.265449
  C      -5.244525      0.950867      1.929430
  H      -4.160151      0.842245      2.020966
  H      -5.686991      0.435493      2.786507
  C      -0.037758     -4.123239      2.125286
  H      -0.931589     -4.386425      2.700029
  H       0.508161     -3.379475      2.712369
  H      -6.219113     -2.770006     -2.062440
  C      -5.642284      2.422369      1.955441
  H      -6.719085      2.517209      1.774215
  H      -5.146388      2.957182      1.139908
  C       0.842184     -5.350406      1.917650
  H       0.284533     -6.127084      1.386086
  H       1.688257     -5.084127      1.275143
  C       1.080550      4.565306      0.933559
  H       0.230266      4.431100      1.611268
  H       0.671767      4.950168     -0.004865
  C       6.853258      1.531768      1.694498
  H       6.577607      0.505116      1.951366
  H       7.782729      1.465647      1.118412
  C       7.103561      2.318472      2.974540
  H       7.891968      1.860651      3.573996
  H       7.404419      3.344959      2.752659
  H       6.201282      2.364084      3.588792
  C       2.044316      5.591552      1.515671
  H       2.890543      5.752924      0.844116
  H       1.555079      6.553929      1.674372
  H       2.442073      5.255138      2.476081
  C      -5.289200      3.090370      3.278121
  H      -5.571054      4.144688      3.280833
  H      -5.800868      2.605082      4.112366
  H      -4.215762      3.029826      3.471324
  C       1.360596     -5.917980      3.232677
  H       0.535501     -6.207734      3.887656
  H       1.981054     -6.800560      3.068420
  H       1.963004     -5.180740      3.768307
101
Coordinates from ORCA-job orca E -2008.246187968803
  C      -0.009668     -0.134193     -1.206393
  C       1.175909     -0.201435     -0.361903
  O       1.808870     -1.226219     -0.188252
  O       1.622914      0.921261      0.221093
  C      -0.645297      1.172558     -1.526931
  H      -1.588066      1.232576     -0.966692
  H      -0.919317      1.198415     -2.586842
  C       0.826788      2.126273      0.222646
  H       0.020212      1.972959      0.951548
  C       0.236481      2.354056     -1.152510
  H      -0.352574      3.272174     -1.149232
  H       1.047684      2.489861     -1.872280
  C      -0.537363     -1.424584     -1.734577
  H       0.244203     -2.170256     -1.607601
  H      -0.726617     -1.329468     -2.809394
  C       2.805518      0.062878     -3.353468
  C       3.735459      0.453241     -2.491433
  H       2.191203      0.791174     -3.867326
  H       2.643255     -0.988761     -3.558852
  C       3.851849      1.924422     -2.222116
  C       4.636677     -0.488297     -1.744885
  O       3.201477      2.754990     -2.804096
  O       4.691042      2.334887     -1.265822
  H       5.567298     -0.619759     -2.309441
  H       4.158486     -1.464614     -1.665952
  C       4.956003      0.071539     -0.368930
  C       5.548374      1.457018     -0.501327
  H       5.670440     -0.572175      0.146708
  H       4.047817      0.110626      0.237294
  H       6.496054      1.401844     -1.052714
  C       1.759486      3.220636      0.705297
  H       2.566676      3.338220     -0.024051
  H       2.219679      2.873315      1.635511
  C       5.778082      2.167946      0.820508
  H       4.831536      2.190363      1.370486
  H       6.039251      3.207166      0.601467
  C      -4.541205     -1.525424     -1.455253
  C      -4.729622     -1.958088      0.002225
  O      -4.378463     -3.048437      0.376905
  O      -5.356274     -1.167444      0.868234
  C      -5.297247     -0.219736     -1.739626
  H      -6.366064     -0.432704     -1.846555
  H      -4.963509      0.183531     -2.699350
  C      -5.685673      0.222716      0.662403
  H      -6.779707      0.245621      0.586747
  C      -5.094548      0.777638     -0.617162
  H      -5.585735      1.724991     -0.845063
  H      -4.032121      0.981581     -0.463375
  C      -5.160648     -2.633002     -2.320973
  H      -4.665944     -3.591143     -2.185629
  H      -5.095794     -2.350455     -3.374365
  C      -3.042690     -1.297455     -1.829942
  C      -1.872382     -1.980031     -1.096623
  H      -2.859460     -0.226097     -1.781769
  H      -2.949359     -1.570941     -2.886060
  C      -1.831229     -1.527071      0.363123
  C      -1.867881     -3.517860     -1.262335
  O      -2.352939     -0.500689      0.730269
  O      -1.115339     -2.228098      1.227573
  H      -1.215909     -3.763598     -2.104636
  H      -2.863478     -3.858855     -1.525363
  C      -1.428331     -4.270209     -0.006944
  C      -0.466890     -3.460818      0.835893
  H      -0.963122     -5.218149     -0.281128
  H      -2.304585     -4.493491      0.605670
  H       0.431239     -3.187057      0.273826
  C      -5.247489      0.950159      1.921854
  H      -4.163393      0.839770      2.015064
  H      -5.691711      0.435392      2.778420
  C      -0.045936     -4.124809      2.132725
  H      -0.941514     -4.385980      2.705650
  H       0.499858     -3.381414      2.720389
  H      -6.214989     -2.770959     -2.073210
  C      -5.643387      2.422107      1.946992
  H      -6.720092      2.518229      1.765955
  H      -5.147015      2.955572      1.130838
  C       0.832547     -5.353512      1.927917
  H       0.274798     -6.129893      1.396042
  H       1.680031     -5.088893      1.286592
  C       1.077416      4.561505      0.946513
  H       0.225055      4.425866      1.621321
  H       0.671349      4.947465      0.007349
  C       6.868919      1.535232      1.676804
  H       6.595485      0.507959      1.933505
  H       7.794740      1.470683      1.094702
  C       7.126814      2.319833      2.956562
  H       7.919457      1.861760      3.550235
  H       7.425342      3.347049      2.734891
  H       6.228473      2.363540      3.576722
  C       2.038828      5.587524      1.532793
  H       2.887815      5.749515      0.864893
  H       1.549159      6.549894      1.690278
  H       2.432762      5.250609      2.494635
  C      -5.288684      3.090730      3.268858
  H      -5.569862      4.145250      3.271074
  H      -5.799459      2.606375      4.104177
  H      -4.214980      3.030165      3.460689
  C       1.348211     -5.920575      3.244187
  H       0.521937     -6.209178      3.898218
  H       1.968029     -6.803946      3.081675
  H       1.950654     -5.183631      3.780193
101
Coordinates from ORCA-job orca E -2008.246191687289
  C      -0.010744     -0.134161     -1.209501
  C       1.174504     -0.201506     -0.364544
  O       1.807322     -1.226401     -0.190974
  O       1.621393      0.920987      0.218585
  C      -0.645730      1.172773     -1.530873
  H      -1.589346      1.232820     -0.972121
  H      -0.918076      1.198563     -2.591236
  C       0.824879      2.125770      0.220444
  H       0.017881      1.971671      0.948672
  C       0.235703      2.354111     -1.155193
  H      -0.353213      3.272312     -1.152046
  H       1.047772      2.490054     -1.873903
  C      -0.538983     -1.424532     -1.737196
  H       0.242638     -2.170246     -1.610853
  H      -0.729427     -1.329487     -2.811772
  C       2.808245      0.063076     -3.354184
  C       3.737200      0.453031     -2.490900
  H       2.194119      0.791472     -3.868133
  H       2.646538     -0.988451     -3.560571
  C       3.852751      1.924086     -2.220284
  C       4.637824     -0.488975     -1.744281
  O       3.202519      2.754682     -2.802313
  O       4.690453      2.334130     -1.262542
  H       5.568899     -0.620181     -2.308126
  H       4.159570     -1.465295     -1.666026
  C       4.955944      0.070117     -0.367721
  C       5.547980      1.455869     -0.498803
  H       5.670219     -0.573658      0.148043
  H       4.047069      0.108848      0.237488
  H       6.495887      1.401434     -1.049900
  C       1.756802      3.220096      0.704602
  H       2.564629      3.338824     -0.023857
  H       2.216271      2.872174      1.634947
  C       5.777128      2.165580      0.823848
  H       4.830152      2.187546      1.373172
  H       6.038423      3.204987      0.605818
  C      -4.542551     -1.526242     -1.453431
  C      -4.729189     -1.957472      0.004705
  O      -4.377495     -3.047441      0.380001
  O      -5.354364     -1.165846      0.870860
  C      -5.299227     -0.220981     -1.738251
  H      -6.368155     -0.434255     -1.843470
  H      -4.966789      0.181237     -2.698859
  C      -5.684585      0.223927      0.663762
  H      -6.778719      0.246401      0.589388
  C      -5.095253      0.777654     -0.617109
  H      -5.587077      1.724577     -0.845469
  H      -4.032673      0.982125     -0.464957
  C      -5.162572     -2.634860     -2.317454
  H      -4.667595     -3.592794     -2.181535
  H      -5.098784     -2.353311     -3.371187
  C      -3.044434     -1.298255     -1.829878
  C      -1.873244     -1.980160     -1.097378
  H      -2.861524     -0.226787     -1.782827
  H      -2.952007     -1.572620     -2.885835
  C      -1.830817     -1.526541      0.362144
  C      -1.868678     -3.518062     -1.262442
  O      -2.351976     -0.499739      0.729000
  O      -1.114742     -2.227327      1.226606
  H      -1.217357     -3.764244     -2.105123
  H      -2.864483     -3.859236     -1.524516
  C      -1.427757     -4.269860     -0.007115
  C      -0.465791     -3.459729      0.834384
  H      -0.962528     -5.217764     -0.281474
  H      -2.303341     -4.493185      0.606437
  H       0.431403     -3.185591      0.271050
  C      -5.245192      0.952823      1.921943
  H      -4.160949      0.842802      2.013949
  H      -5.688227      0.438686      2.779507
  C      -0.042863     -4.122906      2.130957
  H      -0.937762     -4.384625      2.704723
  H       0.502815     -3.378739      2.717725
  H      -6.216639     -2.772787     -2.068467
  C      -5.641402      2.424709      1.946306
  H      -6.718440      2.520287      1.766989
  H      -5.146367      2.957560      1.128958
  C       0.836530     -5.350907      1.925799
  H       0.279101     -6.127785      1.394305
  H       1.683434     -5.085347      1.284089
  C       1.073610      4.560298      0.946593
  H       0.221116      4.423460      1.620975
  H       0.667669      4.946603      0.007502
  C       6.867609      1.532051      1.679953
  H       6.593631      0.504871      1.936425
  H       7.793431      1.467333      1.097869
  C       7.125873      2.316146      2.959976
  H       7.917897      1.857282      3.553875
  H       7.425445      3.343116      2.738562
  H       6.227390      2.360547      3.579892
  C       2.034026      5.586660      1.533923
  H       2.883194      5.749760      0.866543
  H       1.543563      6.548549      1.691922
  H       2.427765      5.249372      2.495727
  C      -5.284608      3.094430      3.267076
  H      -5.565874      4.148926      3.268974
  H      -5.793858      2.610658      4.103653
  H      -4.210551      3.034030      3.457055
  C       1.353234     -5.917416      3.241876
  H       0.527503     -6.207568      3.895891
  H       1.974498     -6.799706      3.078951
  H       1.954588     -5.179654      3.777971
101
Coordinates from ORCA-job orca E -2008.246186623090
  C      -0.011055     -0.134843     -1.209867
  C       1.173655     -0.202317     -0.364188
  O       1.806568     -1.227205     -0.190796
  O       1.620168      0.919987      0.219511
  C      -0.645901      1.172183     -1.531562
  H      -1.590439      1.231628     -0.974391
  H      -0.916194      1.198242     -2.592452
  C       0.822980      2.124450      0.221856
  H       0.015662      1.969334      0.949489
  C       0.234793      2.353516     -1.154205
  H      -0.354377      3.271540     -1.150790
  H       1.047644      2.490193     -1.871836
  C      -0.539256     -1.425126     -1.737806
  H       0.242338     -2.170917     -1.611735
  H      -0.730035     -1.329956     -2.812274
  C       2.807585      0.065322     -3.354973
  C       3.736188      0.454471     -2.490903
  H       2.193596      0.794041     -3.868646
  H       2.646070     -0.986022     -3.562470
  C       3.851351      1.925425     -2.218911
  C       4.636488     -0.488410     -1.744965
  O       3.200767      2.756220     -2.800234
  O       4.688491      2.334825     -1.260370
  H       5.567287     -0.620023     -2.309163
  H       4.157646     -1.464417     -1.666596
  C       4.955208      0.070091     -0.368269
  C       5.547257      1.455889     -0.498850
  H       5.669894     -0.573817      0.146783
  H       4.046307      0.108899      0.236865
  H       6.494480      1.401877     -1.051165
  C       1.754184      3.218618      0.707727
  H       2.562617      3.338557     -0.019884
  H       2.212843      2.869785      1.638135
  C       5.777927      2.164467      0.824262
  H       4.831031      2.186555      1.373710
  H       6.039708      3.203849      0.606674
  C      -4.542675     -1.526782     -1.453290
  C      -4.729037     -1.956802      0.005253
  O      -4.377444     -3.046544      0.381291
  O      -5.353284     -1.164114      0.871105
  C      -5.299140     -0.221578     -1.739149
  H      -6.368163     -0.434645     -1.843757
  H      -4.966757      0.179635     -2.700191
  C      -5.683761      0.225414      0.662565
  H      -6.777921      0.247744      0.588345
  C      -5.094716      0.778020     -0.618873
  H      -5.586764      1.724669     -0.847939
  H      -4.032092      0.982629     -0.467213
  C      -5.162869     -2.636001     -2.316462
  H      -4.668303     -3.594008     -2.179564
  H      -5.098830     -2.355249     -3.370399
  C      -3.044533     -1.299361     -1.830008
  C      -1.873270     -1.980962     -1.097327
  H      -2.861674     -0.227865     -1.783797
  H      -2.952075     -1.574462     -2.885760
  C      -1.830821     -1.526923      0.362078
  C      -1.868746     -3.518930     -1.261876
  O      -2.351774     -0.499789      0.728365
  O      -1.115429     -2.227687      1.227116
  H      -1.217568     -3.765584     -2.104519
  H      -2.864691     -3.860063     -1.523450
  C      -1.427234     -4.270400     -0.006438
  C      -0.465427     -3.459547      0.834597
  H      -0.961745     -5.218140     -0.280914
  H      -2.302489     -4.493945      0.607538
  H       0.431091     -3.184743      0.270616
  C      -5.244379      0.955507      1.920010
  H      -4.160095      0.845820      2.011957
  H      -5.687266      0.442030      2.778043
  C      -0.041356     -4.122192      2.131023
  H      -0.936001     -4.384564      2.704923
  H       0.503806     -3.377356      2.717408
  H      -6.217018     -2.773368     -2.067473
  C      -5.640685      2.427405      1.943298
  H      -6.717844      2.522599      1.764538
  H      -5.145920      2.959746      1.125474
  C       0.839074     -5.349482      1.926040
  H       0.282290     -6.126744      1.394449
  H       1.685954     -5.082978      1.284701
  C       1.070057      4.558211      0.950768
  H       0.218105      4.420300      1.625586
  H       0.663371      4.944564      0.012018
  C       6.868793      1.529714      1.678868
  H       6.593595      0.503180      1.936575
  H       7.793523      1.463353      1.095221
  C       7.130615      2.314177      2.958010
  H       7.922461      1.854006      3.551132
  H       7.432189      3.340276      2.735271
  H       6.233118      2.361001      3.579169
  C       2.029994      5.585085      1.537996
  H       2.878402      5.749404      0.869967
  H       1.538670      6.546354      1.697106
  H       2.424885      5.247473      2.499218
  C      -5.283216      3.097831      3.263586
  H      -5.564228      4.152389      3.265135
  H      -5.792217      2.614554      4.100604
  H      -4.209096      3.036970      3.453072
  C       1.355602     -5.915622      3.242345
  H       0.529747     -6.207610      3.895361
  H       1.978663     -6.796643      3.079384
  H       1.955147     -5.177029      3.779323
101
Coordinates from ORCA-job orca E -2008.246192567249
  C      -0.011246     -0.134683     -1.211304
  C       1.172546     -0.202478     -0.364359
  O       1.804940     -1.227515     -0.190009
  O       1.618848      0.919854      0.219641
  C      -0.645469      1.172490     -1.533785
  H      -1.590638      1.232177     -0.977743
  H      -0.914249      1.198524     -2.595066
  C       0.821796      2.124521      0.221094
  H       0.013763      1.969500      0.947933
  C       0.235129      2.353603     -1.155602
  H      -0.353853      3.271763     -1.152849
  H       1.048853      2.489924     -1.872309
  C      -0.539599     -1.424929     -1.739181
  H       0.242087     -2.170760     -1.613799
  H      -0.731121     -1.329723     -2.813492
  C       2.808096      0.064640     -3.354609
  C       3.736426      0.453567     -2.490126
  H       2.194593      0.793466     -3.868686
  H       2.646291     -0.986694     -3.561982
  C       3.851775      1.924602     -2.218326
  C       4.636062     -0.489549     -1.743660
  O       3.201781      2.755501     -2.800108
  O       4.688334      2.333941     -1.259178
  H       5.566971     -0.621608     -2.307569
  H       4.156863     -1.465384     -1.665224
  C       4.954370      0.069295     -0.367014
  C       5.546987      1.454830     -0.497734
  H       5.668722     -0.574551      0.148570
  H       4.045086      0.108734      0.237418
  H       6.494139      1.400353     -1.050114
  C       1.752754      3.218467      0.707931
  H       2.561655      3.338721     -0.019120
  H       2.210649      2.869287      1.638589
  C       5.777736      2.163542      0.825324
  H       4.830483      2.186210      1.374066
  H       6.040129      3.202723      0.607507
  C      -4.542807     -1.526764     -1.452578
  C      -4.728276     -1.956522      0.006160
  O      -4.376485     -3.046187      0.382170
  O      -5.352024     -1.163652      0.872220
  C      -5.299470     -0.221718     -1.738365
  H      -6.368562     -0.434793     -1.842245
  H      -4.967586      0.179317     -2.699652
  C      -5.682990      0.225717      0.663356
  H      -6.777182      0.247715      0.589488
  C      -5.094501      0.778118     -0.618376
  H      -5.586785      1.724683     -0.847275
  H      -4.031808      0.982663     -0.467202
  C      -5.163375     -2.636227     -2.315204
  H      -4.668812     -3.594217     -2.178190
  H      -5.099702     -2.355731     -3.369225
  C      -3.044851     -1.299332     -1.830022
  C      -1.873223     -1.980832     -1.097838
  H      -2.862022     -0.227809     -1.784000
  H      -2.952873     -1.574457     -2.885812
  C      -1.830214     -1.526610      0.361504
  C      -1.868949     -3.518805     -1.262194
  O      -2.350720     -0.499243      0.727774
  O      -1.115052     -2.227609      1.226523
  H      -1.218082     -3.765646     -2.105011
  H      -2.865097     -3.859772     -1.523161
  C      -1.426950     -4.270232     -0.006894
  C      -0.464860     -3.459250      0.833728
  H      -0.961640     -5.217988     -0.281586
  H      -2.301883     -4.493664      0.607568
  H       0.431244     -3.184099      0.269281
  C      -5.243456      0.956366      1.920383
  H      -4.159044      0.847493      2.011895
  H      -5.685726      0.442911      2.778729
  C      -0.040022     -4.121734      2.129905
  H      -0.934333     -4.384553      2.704128
  H       0.504982     -3.376595      2.716044
  H      -6.217462     -2.773447     -2.065858
  C      -5.640649      2.428064      1.943357
  H      -6.717913      2.522511      1.764835
  H      -5.146376      2.960566      1.125343
  C       0.840987     -5.348564      1.924683
  H       0.284446     -6.126049      1.393154
  H       1.687687     -5.081615      1.283297
  C       1.068504      4.558033      0.950978
  H       0.216958      4.420073      1.626303
  H       0.661248      4.944065      0.012340
  C       6.868006      1.528376      1.680330
  H       6.591707      0.502408      1.939124
  H       7.792525      1.460451      1.096536
  C       7.131085      2.313731      2.958706
  H       7.922251      1.852874      3.552201
  H       7.434242      3.339116      2.734836
  H       6.233687      2.362526      3.579847
  C       2.028555      5.585188      1.537555
  H       2.876256      5.749867      0.868704
  H       1.536912      6.546204      1.697177
  H       2.424466      5.247612      2.498366
  C      -5.283396      3.098958      3.263508
  H      -5.564882      4.153377      3.264925
  H      -5.792233      2.615570      4.100573
  H      -4.209267      3.038388      3.453010
  C       1.357816     -5.914532      3.240980
  H       0.532054     -6.207319      3.893746
  H       1.981679     -6.794951      3.077859
  H       1.956634     -5.175520      3.778192
101
Coordinates from ORCA-job orca E -2008.246188528969
  C      -0.011153     -0.134865     -1.210480
  C       1.172099     -0.203315     -0.362888
  O       1.804420     -1.228465     -0.188931
  O       1.617980      0.918535      0.222417
  C      -0.645077      1.172605     -1.532413
  H      -1.590778      1.231778     -0.977249
  H      -0.912627      1.199601     -2.593983
  C       0.820801      2.123149      0.224497
  H       0.012256      1.967328      0.950587
  C       0.235122      2.353447     -1.152383
  H      -0.354092      3.271457     -1.149132
  H       1.049233      2.490549     -1.868493
  C      -0.539581     -1.424789     -1.739111
  H       0.242168     -2.170713     -1.614588
  H      -0.731427     -1.328963     -2.813309
  C       2.805643      0.067635     -3.355146
  C       3.734266      0.455484     -2.490479
  H       2.192377      0.797130     -3.868536
  H       2.643346     -0.983481     -3.563264
  C       3.850046      1.926299     -2.217594
  C       4.633605     -0.488651     -1.744865
  O       3.200098      2.757874     -2.798473
  O       4.686892      2.334643     -1.258164
  H       5.563929     -0.621303     -2.309582
  H       4.153609     -1.464099     -1.666485
  C       4.953379      0.069424     -0.368271
  C       5.546722      1.454619     -0.499078
  H       5.667747     -0.574987      0.146567
  H       4.044535      0.109362      0.236769
  H       6.492713      1.399923     -1.053424
  C       1.751476      3.216543      0.713202
  H       2.561225      3.337022     -0.012871
  H       2.208098      2.866609      1.644221
  C       5.780375      2.162370      0.823943
  H       4.833948      2.185627      1.374019
  H       6.043345      3.201409      0.606149
  C      -4.542810     -1.527836     -1.453536
  C      -4.728594     -1.956854      0.005400
  O      -4.376721     -3.046229      0.382129
  O      -5.352978     -1.163671      0.870753
  C      -5.299722     -0.223217     -1.740277
  H      -6.368745     -0.436574     -1.844220
  H      -4.967735      0.177407     -2.701691
  C      -5.684026      0.225554      0.661051
  H      -6.778191      0.247301      0.586848
  C      -5.095221      0.777306     -0.620817
  H      -5.587610      1.723664     -0.850277
  H      -4.032595      0.981963     -0.469420
  C      -5.162834     -2.637942     -2.315751
  H      -4.668081     -3.595731     -2.178053
  H      -5.098838     -2.358014     -3.369901
  C      -3.044828     -1.300139     -1.830651
  C      -1.873148     -1.980900     -1.097848
  H      -2.862220     -0.228536     -1.785141
  H      -2.952575     -1.575690     -2.886306
  C      -1.830718     -1.525868      0.361247
  C      -1.868464     -3.518973     -1.261366
  O      -2.351698     -0.498553      0.726947
  O      -1.115551     -2.226277      1.226726
  H      -1.217526     -3.765989     -2.104063
  H      -2.864567     -3.860339     -1.521958
  C      -1.426196     -4.269621     -0.005707
  C      -0.464611     -3.457704      0.834640
  H      -0.960444     -5.217300     -0.279915
  H      -2.301029     -4.493122      0.608873
  H       0.431352     -3.182147      0.270139
  C      -5.244963      0.957104      1.917718
  H      -4.160506      0.848972      2.009426
  H      -5.687108      0.444004      2.776332
  C      -0.039474     -4.119303      2.131115
  H      -0.933579     -4.382604      2.705432
  H       0.504897     -3.373467      2.716988
  H      -6.217000     -2.775247     -2.066789
  C      -5.642965      2.428631      1.939668
  H      -6.720283      2.522399      1.761071
  H      -5.149040      2.960858      1.121276
  C       0.842555     -5.345474      1.926474
  H       0.286757     -6.123516      1.394965
  H       1.689311     -5.078185      1.285305
  C       1.067410      4.556195      0.956313
  H       0.215672      4.418207      1.631408
  H       0.660415      4.942486      0.017676
  C       6.871523      1.525596      1.676594
  H       6.594081      0.500185      1.936375
  H       7.794466      1.455827      1.090531
  C       7.139288      2.310786      2.954115
  H       7.931052      1.848396      3.545609
  H       7.443888      3.335511      2.729230
  H       6.243554      2.361411      3.577496
  C       2.027460      5.583025      1.543477
  H       2.875050      5.748065      0.874567
  H       1.535717      6.543895      1.703614
  H       2.423489      5.244960      2.504052
  C      -5.286140      3.100737      3.259341
  H      -5.568278      4.154968      3.259988
  H      -5.794826      2.617630      4.096665
  H      -4.211999      3.040863      3.449001
  C       1.359274     -5.910729      3.243154
  H       0.533415     -6.203984      3.895583
  H       1.983961     -6.790644      3.080518
  H       1.957212     -5.171057      3.780432
