61
Coordinates from ORCA-job orca E -1382.071828935164
  C           1.84589100750497      0.68592693106574     -1.09912575928603
  H           1.94607253137567      1.65384990236777     -0.59108344401659
  H           2.79676983921638      0.43468390989958     -1.58625540059847
  C           1.42831377767475     -0.39563410685387     -0.09686698074696
  C           2.43358454661233     -0.53876089826494      1.08154830767297
  H           2.07645702582183     -1.35632638560491      1.72690497626041
  H           2.36144175171949      0.38399872938338      1.67583501241121
  C           3.93845657461108     -0.79706406463590      0.81133942295748
  C           1.28749869973365     -1.72381458531591     -0.84344252516055
  O           1.46166745969575     -1.88601471041993     -2.02696789354244
  O           0.92068655778379     -2.72804777787037     -0.02222983265963
  C           4.61351422345674      0.40837547768186      0.15278540928033
  O           5.35643446885819      0.36328678394451     -0.79695651200820
  O           4.32297212701963      1.55931986358649      0.79405559625827
  C           4.20233061843428     -2.04200462640570     -0.04540013091317
  H           5.28064236101588     -2.25163923140057     -0.09265076285457
  H           3.69612712052608     -2.91445058108559      0.39459224448066
  H           3.85547342238987     -1.91795478222977     -1.07886968166408
  C           4.61985554595310     -0.97691578892964      2.19015468833620
  H           4.22628038823689     -1.87883423118334      2.68535955788480
  H           5.70875196092334     -1.09909931298952      2.07691819174421
  H           4.43473544477975     -0.11189176017249      2.84355299703026
  C           0.74702648214919     -4.00592488184989     -0.63241179925917
  H           0.44755796474041     -4.69115697574191      0.17055873158879
  H          -0.03047085320873     -3.96259859717833     -1.41028000654503
  H           1.68502256349088     -4.34596031663769     -1.09719152285158
  C           4.91779787783216      2.74147293073695      0.26291317768180
  H           4.56141802815386      2.92689255432628     -0.76248628663218
  H           4.61432823368048      3.56238009342670      0.92493497770137
  H           6.01434433844400      2.65274255836670      0.23800103493274
  H           1.10795478130356      0.78678280595203     -1.90715842741293
  C           0.05874326895209     -0.04972481149096      0.58520263898870
  C          -1.10950709231905      0.27554480764800     -0.32161905445133
  H           0.24264361285341      0.80801318140096      1.24642857753347
  H          -0.21391054830236     -0.90352946760300      1.22289944448449
  C          -2.61189249581378      0.55091213490372      1.11702948232022
  C          -1.16306937099824      1.63614861239388     -0.92149308050922
  C          -1.62159801028978     -0.80260336919300     -1.23954893860064
  C          -3.85523948284857      0.76954134687632      0.48736368211402
  H          -2.46251129271892     -0.41433072187196      1.60413455426484
  H          -2.14189781836695      1.40587524959587      1.61076854311478
  O          -1.70354023423525      1.90539147422912     -1.97269206634883
  O          -0.58921088317546      2.58224219460077     -0.14014031831222
  H          -0.92009142132255     -0.96513685734282     -2.07394286757441
  H          -1.74503044185446     -1.75074618659805     -0.69882556417932
  H          -2.58155112179963     -0.51449537614618     -1.68747855031290
  C          -4.29988504053041      2.12386661354419      0.03507353078530
  C          -4.73159160808959     -0.35541417923746      0.12862404746939
  C          -0.62973281094058      3.91390025445376     -0.64459747779774
  H          -3.73267736557959      2.91941013743028      0.54039998254497
  H          -4.14365384536404      2.23811760735658     -1.05289740236375
  H          -5.37691532241927      2.26536448977029      0.21476997807620
  O          -5.78532058373785     -0.24227329035803     -0.46611388741371
  O          -4.25479495436880     -1.55914672291341      0.53898851576418
  H          -1.66820133864650      4.24575653797429     -0.79735448824204
  H          -0.13577118128993      4.54222921194451      0.10758831847318
  H          -0.10026055766051      3.98359856340919     -1.60745189131892
  C          -5.05554803685351     -2.68682865311736      0.20682983058308
  H          -4.54125359251528     -3.56336385430265      0.62197325747985
  H          -6.06446587418126     -2.59703133710362      0.63909051549068
  H          -5.15955142551261     -2.78856651622095     -0.88518667213222
