61
Coordinates from ORCA-job orca E -1382.071916144897
  C           1.97457940511773      0.69943865299964     -1.13460077911611
  H           2.06134092763480      1.66370458632957     -0.61691881173703
  H           2.94305930147579      0.44173993185202     -1.58258320609687
  C           1.50242033957091     -0.38311730347160     -0.15861434343565
  C           2.44762983780542     -0.55484015014957      1.06078771802571
  H           2.05407591171220     -1.37895549408502      1.67544529635536
  H           2.36099294306822      0.35862839079819      1.66743262842216
  C           3.95803668520371     -0.82698353847813      0.84325091760366
  C           1.34589533209036     -1.69879100039527     -0.92244941381202
  O           1.49812653831171     -1.84202973682337     -2.11143892592658
  O           0.97274113305149     -2.71096385136734     -0.11348047164926
  C           4.67694510618264      0.38765412296982      0.25077592356514
  O           5.46860805503232      0.35763909864361     -0.65944963984812
  O           4.36502134989942      1.52504228118357      0.90532083650516
  C           4.23509437408137     -2.04762491389194     -0.04371903175550
  H           5.31258770179048     -2.26435588393852     -0.07044917026970
  H           3.71044832367252     -2.92859142305238      0.35529122375628
  H           3.91608832353176     -1.88861606207788     -1.08190503712193
  C           4.58535228212572     -1.06054542734621      2.23934157991949
  H           4.16180335413814     -1.97139358267987      2.69183303641568
  H           5.67584775316951     -1.19538691826624      2.16144241961643
  H           4.38855653353302     -0.21349689336226      2.91272608903363
  C           0.77262996671428     -3.97614621258045     -0.74154583110940
  H           0.48620208999999     -4.67280996667041      0.05633306673917
  H          -0.02342708342181     -3.91288212400111     -1.49905595087998
  H           1.69583951550817     -4.31616915074963     -1.23492368577606
  C           5.00499535935147      2.71233895787636      0.44219406338624
  H           4.72073187474548      2.92483069651993     -0.60020670504160
  H           4.66573871947810      3.52133608687066      1.10145967713876
  H           6.09991139364992      2.61205915019301      0.48912061703715
  H           1.26735031112379      0.81076308590050     -1.96799622180211
  C           0.10099610107442     -0.00935687027547      0.45340118019466
  C          -0.99666523951464      0.26221914014515     -0.52809884116892
  H           0.26089352149868      0.87802637947517      1.08036224736034
  H          -0.19694107902710     -0.84021241237804      1.11148854391329
  C          -2.74249107206841      0.66765931000971      1.24460927031183
  C          -1.22030711699036      1.60835032212112     -1.05441111309492
  C          -1.64299779172551     -0.85498572121987     -1.27853953659443
  C          -3.91483239466050      0.83222664739939      0.59246359216325
  H          -2.44650425782581     -0.31216902936088      1.61590115180079
  H          -2.14916064089685      1.53165879702817      1.54887759109031
  O          -1.93692284197693      1.87145645620809     -2.00260574648797
  O          -0.56906919763464      2.57465377314007     -0.35245871479865
  H          -1.01026586953510     -1.16583164218957     -2.13083280391491
  H          -1.79199280693418     -1.73349686729351     -0.63458355224116
  H          -2.60487806180422     -0.53766640282604     -1.70294191470502
  C          -4.42250673586102      2.15693733849595      0.10476950031599
  C          -4.75949101691009     -0.34128506259027      0.23856183914724
  C          -0.75209326993445      3.90675537088232     -0.81806936630469
  H          -3.83001129790651      2.98380811309377      0.52224761390655
  H          -4.36107792621392      2.20891446158108     -0.99480691087024
  H          -5.48088368083084      2.29627505895611      0.37522036632482
  O          -5.79903902146029     -0.26523141755877     -0.37767498420886
  O          -4.25574003047308     -1.51929148563980      0.67288655113181
  H          -1.81409899735179      4.19568437892127     -0.78204433063636
  H          -0.16114185206512      4.54935423540981     -0.15256067855892
  H          -0.40426884045362      4.01217157777605     -1.85752476859970
  C          -5.01462992738387     -2.67794871181944      0.34290737412360
  H          -4.47754533258460     -3.53128967113685      0.77664540643324
  H          -6.03156558763696     -2.61549845404352      0.76035039797616
  H          -5.09834139426144     -2.79502302106085     -0.74905723215127
