61
Coordinates from ORCA-job orca E -1382.070224381337
  C           1.94644430086039      0.69577301666986     -1.12500766296591
  H           2.03383857174552      1.66110556520964     -0.60954075854907
  H           2.91239587648447      0.44097388195242     -1.57999460978218
  C           1.48618554439209     -0.38703481319293     -0.14352534109035
  C           2.44435694233234     -0.55312717796961      1.06719037427999
  H           2.06062743701480     -1.37829035058824      1.68671017630875
  H           2.35898543986544      0.36063772338493      1.67348798601950
  C           3.95415828175833     -0.81802837383184      0.83695556780468
  C           1.33196344338724     -1.70507175430803     -0.90403034998124
  O           1.48612480577910     -1.85168521856892     -2.09234206959212
  O           0.96268639747090     -2.71619663578567     -0.09205369134034
  C           4.66094768723997      0.39832842971509      0.23359384756770
  O           5.44612837397639      0.36906375762625     -0.68224164150227
  O           4.34726592749923      1.53674119360887      0.88562181448922
  C           4.23052461052914     -2.04067540751713     -0.04746249838482
  H           5.30881486561801     -2.25244576150821     -0.08118070041080
  H           3.71306832584765     -2.92264957250879      0.35878865460963
  H           3.90305962716280     -1.88734921419408     -1.08377557745807
  C           4.59474973855698     -1.04237381049348      2.22859077250940
  H           4.18021084368604     -1.95382688221685      2.68811406292660
  H           5.68531004804587     -1.17123457886998      2.14204156649509
  H           4.39871049866050     -0.19382299714063      2.90032067142083
  C           0.76698901500420     -3.98390065516276     -0.71652527391999
  H           0.48062497446167     -4.67874199001295      0.08296080570539
  H          -0.02752054284263     -3.92486911975399     -1.47598924556401
  H           1.69211427044087     -4.32317979058944     -1.20684349386425
  C           4.97543910762758      2.72592508724359      0.41129764318100
  H           4.68799726440235      2.92654690080854     -0.63253762213092
  H           4.62948563061484      3.53737606166857      1.06404973760550
  H           6.07133951459622      2.63637558146936      0.45776232028964
  H           1.23332129270501      0.80342240160828     -1.95394733575901
  C           0.09107816598546     -0.01907368894411      0.48429901768355
  C          -1.02105096232119      0.26080278820234     -0.48222940366543
  H           0.25606645031382      0.86405163057840      1.11594635946858
  H          -0.19931047482528     -0.85445506576405      1.13960932171349
  C          -2.70444411853569      0.63131652180290      1.20956901606364
  C          -1.21025792484911      1.60716280316508     -1.03032406192271
  C          -1.64299471413474     -0.85178890274035     -1.26241981182627
  C          -3.88968533392245      0.81799957329520      0.57352676194861
  H          -2.43339221779536     -0.35241669367743      1.58920713818975
  H          -2.11793773856674      1.48801995080674      1.54523064539242
  O          -1.89141419089350      1.86889489840784     -2.00350736805894
  O          -0.57455045664698      2.57190439167349     -0.31324095457407
  H          -0.99942030795633     -1.13213415451943     -2.11654693007795
  H          -1.78269534341180     -1.74597819777076     -0.63874082248335
  H          -2.60726430569292     -0.54308898511322     -1.68756310661498
  C          -4.38203458685026      2.15484118955250      0.10530782911576
  C          -4.75075221722147     -0.33893741776812      0.21569458701375
  C          -0.72520784008218      3.90227249791431     -0.79593881112496
  H          -3.78052181952471      2.96925358570837      0.53429422688741
  H          -4.32048961113019      2.22285127201255     -0.99371831887363
  H          -5.43913108556241      2.30172501166699      0.37690304781873
  O          -5.79493919952618     -0.24477944985516     -0.39130341298920
  O          -4.25996203078041     -1.52735804271514      0.63865942194959
  H          -1.78405683943306      4.20448650191782     -0.79741591649499
  H          -0.14836919272860      4.54323909805796     -0.11665108065329
  H          -0.34178863470329      3.99368112674174     -1.82408715389566
  C          -5.03577317065301     -2.67321432851077      0.30437294969185
  H          -4.50763317655038     -3.53693000654421      0.72851518732356
  H          -6.04954637799530     -2.60076540357811      0.72793736513001
  H          -5.12721885892916     -2.78100800075520     -0.78797385105284
