61
Coordinates from ORCA-job orca E -1382.090559181216
  C           1.80696387823026      0.70787475248995     -1.07515245666136
  H           1.89913092257155      1.66988033243996     -0.55401928592386
  H           2.76069796821071      0.47370500078276     -1.56503919363294
  C           1.40198285014046     -0.39130181904594     -0.08650150038531
  C           2.42425672481086     -0.54418061102097      1.07921671564202
  H           2.08301849842846     -1.37748877036337      1.71293016558888
  H           2.34669403742773      0.36632310790732      1.69147564221265
  C           3.93015908803852     -0.77855022346739      0.79357469976465
  C           1.27928893902046     -1.71163633243430     -0.85104860873951
  O           1.47451210549695     -1.86008061111053     -2.03299912335404
  O           0.91256509503188     -2.72840156909347     -0.04540058617833
  C           4.58651162272401      0.44679601703228      0.15343772575830
  O           5.32637091064600      0.42832845134272     -0.79954025027139
  O           4.28394293775000      1.58289145758311      0.81598285889707
  C           4.20545875560547     -2.00485164950169     -0.08618717923283
  H           5.28592482423848     -2.20174011641139     -0.13945019295219
  H           3.71034594478002     -2.89068492431319      0.33971515180672
  H           3.85373438646619     -1.86664530387488     -1.11596280489410
  C           4.62228250839505     -0.97417698195011      2.16511306408648
  H           4.24367468634859     -1.89025212355038      2.64575563564886
  H           5.71201607502322     -1.07971434241869      2.04342372434274
  H           4.42965762486579     -0.12395251651095      2.83558429497953
  C           0.75871555552619     -4.00078494825614     -0.67189452229565
  H           0.46178962658033     -4.69914036188913      0.12067694930965
  H          -0.01421697282506     -3.95721089021725     -1.45434567747506
  H           1.70369706759877     -4.32408868999944     -1.13440163421620
  C           4.86331979991149      2.78097525751857      0.30410168993300
  H           4.50218628070598      2.98004940699680     -0.71709145193329
  H           4.55219150522672      3.58665961571068      0.98115810301860
  H           5.96077459159726      2.70573041878612      0.27475908292055
  H           1.07091873431984      0.81127417770992     -1.88354269523833
  C           0.04716281214647     -0.07152234907344      0.62192983829461
  C          -1.19071110176389      0.25659260024765     -0.22552983228157
  H           0.23344586281694      0.77914941380021      1.29286055268306
  H          -0.20246931155240     -0.93195489486265      1.25999932081741
  C          -2.47670062605862      0.46236007877079      0.98976267180773
  C          -1.12624941218767      1.60356602773429     -0.91345240516251
  C          -1.62027346041362     -0.82674421733595     -1.20316621943257
  C          -3.79901408293334      0.73470300858639      0.40661585442918
  H          -2.45250984964553     -0.48244229119147      1.54384457187656
  H          -2.11884213074894      1.29336022047664      1.61275267354068
  O          -1.49511860912809      1.82575569532106     -2.04280215812766
  O          -0.65593166909213      2.57371185026814     -0.10117067623444
  H          -0.89041517497160     -0.94224308079408     -2.01600858527109
  H          -1.73037327703725     -1.78830633949743     -0.68336928472686
  H          -2.57887807190038     -0.57118019287568     -1.67380186262103
  C          -4.18628511143052      2.10485241335408     -0.03824648342981
  C          -4.74921109074846     -0.34315450987787      0.14112467933593
  C          -0.59023091790992      3.88330359820896     -0.66120099516253
  H          -3.69892926560291      2.87824642725892      0.57585617778163
  H          -3.87042104219284      2.27466593320657     -1.08568390281403
  H          -5.27790206608984      2.23308591377896     -0.01235128418402
  O          -5.84090349293417     -0.19252077546816     -0.37767989675076
  O          -4.29975922505454     -1.56281982985646      0.54161869115510
  H          -1.58968351043334      4.22965025790397     -0.96556840381665
  H          -0.18517105606091      4.53292734659822      0.12501635024583
  H           0.06566953386642      3.89693741127918     -1.54524551189218
  C          -5.17924172588130     -2.65403461526537      0.30067336328282
  H          -4.67562114482390     -3.54821637566676      0.69053655335728
  H          -6.14303354676385     -2.50578372125938      0.81275223149228
  H          -5.37931480836206     -2.76921021464033     -0.77649436871772
