61
Coordinates from ORCA-job orca E -1382.079395489608
  C           2.03178362371033      0.66639529251584     -1.24055235972857
  H           2.18230740865208      1.61083513809230     -0.69936448540066
  H           3.00214600512853      0.30015306472736     -1.60048662281274
  C           1.33796917159094     -0.35289340643429     -0.33126224695322
  C           2.10812193679739     -0.61230521529650      0.99118263867091
  H           1.55112603292172     -1.37360743519408      1.55871152307498
  H           2.05803973517488      0.31613967406461      1.57912711120506
  C           3.59138880649954     -1.06172921044117      0.95583518922439
  C           1.12830104457033     -1.65237721499668     -1.10763505612792
  O           1.40255232032612     -1.82946419946779     -2.26920417776990
  O           0.55375355238443     -2.61096499197864     -0.34708990625945
  C           4.50772700334251      0.04595175919124      0.43040876640298
  O           5.37227939809032     -0.09465867916228     -0.39961263692256
  O           4.27598821883224      1.22324028168303      1.04627920254698
  C           3.82388354648265     -2.33078023539578      0.12566787874833
  H           4.86605296583316     -2.66664414338429      0.22493662438745
  H           3.16197997328412     -3.13604308716249      0.47790990537193
  H           3.64275267204834     -2.16801063603274     -0.94454246941380
  C           4.02160432369992     -1.32639644431129      2.41916918380780
  H           3.44371189990094     -2.16911393226671      2.83097838924539
  H           5.09026779112304     -1.58810785809596      2.47386483930413
  H           3.84875001133854     -0.44384940359432      3.05219792622121
  C           0.30646871363617     -3.85738705798807     -0.99520979046621
  H          -0.16543572811627     -4.50562938786449     -0.24606476131612
  H          -0.36009575515800     -3.72234919096421     -1.86063714815900
  H           1.24758632176339     -4.30538810839646     -1.34902117420390
  C           5.09579282242445      2.31723323305226      0.64003169377496
  H           4.93496300530891      2.54824601378703     -0.42453995620599
  H           4.79989750027652      3.17080896830306      1.26292834268840
  H           6.16137739658730      2.08491018134806      0.78715219066361
  H           1.42117910624444      0.87187916676637     -2.13106892450804
  C          -0.06928572964834      0.18918435077691      0.10184865576408
  C          -1.00131615005087      0.55432919610875     -1.00646993643455
  H           0.10780251547289      1.06720213689706      0.73492161931103
  H          -0.55463443259225     -0.58070891573898      0.72184504042042
  C          -2.96894954475564      1.48014923419023      1.56293032454519
  C          -1.34205513551389      1.94027911616488     -1.29357192780963
  C          -1.60945359653201     -0.48534417206203     -1.88659726718315
  C          -3.80896241824338      0.92920460534342      0.67322425268232
  H          -2.29453856307252      0.86991263319512      2.16431998484631
  H          -2.93667000492601      2.56352436659791      1.70598161298899
  O          -2.14518815842937      2.29685905438049     -2.14022931376677
  O          -0.68419013678408      2.83314226378061     -0.50567144536254
  H          -0.99440350844291     -0.64414704838527     -2.79239723404762
  H          -1.67661635632903     -1.45239147853869     -1.37137505723194
  H          -2.60809764063508     -0.18214626112879     -2.23058788503403
  C          -4.75477631359544      1.71335450145065     -0.19082016022168
  C          -3.86047271946764     -0.55269167402775      0.48091025940256
  C          -1.00481205851535      4.20074277697417     -0.72240404766115
  H          -4.75310218742809      2.77598047301334      0.09062281592023
  H          -4.45803202495737      1.64128341442425     -1.24937588410025
  H          -5.77830872956660      1.31597030489930     -0.11044914224843
  O          -4.66871657075875     -1.11277241826807     -0.22324838371666
  O          -2.90508196177140     -1.22154878031393      1.16468873472602
  H          -2.06749504039604      4.39571314518123     -0.50525003850887
  H          -0.36809885721819      4.77915829537149     -0.04024143108071
  H          -0.81140992984641      4.49327985124390     -1.76618159562139
  C          -2.91528196492863     -2.64018932287168      1.03607359824666
  H          -2.01543516351698     -2.99994772509892      1.55046665171424
  H          -3.81904060947412     -3.06817514733916      1.49777247533059
  H          -2.89594783277580     -2.93895971132328     -0.02292496495973
