61
Coordinates from ORCA-job orca E -1382.076616795423
  C           2.03316555123080      0.73090774071069     -1.15251999358100
  H           2.13606659160688      1.67348067834639     -0.59863582776366
  H           3.00935844596751      0.44772666460469     -1.56747919451618
  C           1.47219318931976     -0.36052658349023     -0.23502193230081
  C           2.34574463881431     -0.61041442839723      1.02205956342226
  H           1.89083916083315     -1.43926092119649      1.58531123737660
  H           2.26390661250099      0.28392052350745      1.65751301374028
  C           3.85342253791043     -0.93374776751162      0.86409447582424
  C           1.28791630874277     -1.64259918557255     -1.04786510055840
  O           1.45043786958928     -1.74743528259035     -2.23933310734198
  O           0.86794960261110     -2.67032880235035     -0.28156739990421
  C           4.64421101694567      0.27401717318167      0.35449769531861
  O           5.47706617132314      0.24835605827439     -0.51838164393734
  O           4.34359959072336      1.39656380462341      1.03899071872751
  C           4.12479020424238     -2.12768371542930     -0.06011308623048
  H           5.19558685009380     -2.37665119033137     -0.05916184416081
  H           3.56043196210277     -3.00645511639968      0.28575225126461
  H           3.84740031781127     -1.91800046848746     -1.10143633482157
  C           4.40619929180576     -1.24630946092840      2.27587403824118
  H           3.92506122492720     -2.15401047772252      2.67387459205929
  H           5.49261230106294     -1.42512643734398      2.24088726697152
  H           4.21431450974326     -0.41711410281635      2.97256587276047
  C           0.64020782983180     -3.90575589709281     -0.95705511961875
  H           0.32958923166435     -4.62354231051224     -0.18734848826689
  H          -0.14801471981545     -3.79528701663117     -1.71748001385259
  H           1.55826213091354     -4.25172907400997     -1.45586159150340
  C           5.04910661007197      2.57492778069326      0.65520168655799
  H           4.82526581362002      2.83855937765676     -0.39026122372545
  H           4.70759297261148      3.37063494821665      1.32931492850074
  H           6.13594122493450      2.43058613721711      0.75089134833288
  H           1.36536590729906      0.89880670255777     -2.00827579020274
  C           0.05636031073228      0.06011369004525      0.31003264730133
  C          -0.97650068590533      0.35791074549188     -0.72727463316801
  H           0.21298980019089      0.94467099438013      0.94158723957238
  H          -0.30474775832328     -0.75971547726945      0.95167280717358
  C          -2.87569610502262      1.09667675516548      1.39671833095296
  C          -1.24737123482095      1.71833136402882     -1.17152631519206
  C          -1.68418969066924     -0.73984176355696     -1.44589182099159
  C          -3.95590970361139      0.92040386941525      0.61883275125071
  H          -2.40302247394263      0.25672369054353      1.90509956583581
  H          -2.45030548662830      2.09106478774195      1.55259452684029
  O          -2.02864829967652      2.01599781294206     -2.05898960540470
  O          -0.55014835087313      2.66120234909294     -0.48026985572140
  H          -1.11046292113691     -1.05211062640720     -2.33924553692946
  H          -1.79965141461170     -1.62289684248516     -0.80183027671490
  H          -2.66804393337375     -0.40830180321645     -1.80655003124494
  C          -4.65574308896471      2.02514613392801     -0.11799815895012
  C          -4.50638155336572     -0.44783581949827      0.38370152621631
  C          -0.77683084234374      4.00829485585926     -0.87586824563016
  H          -4.28565977613952      3.00874252235238      0.20497387242852
  H          -4.48004889884452      1.93317933235590     -1.20198054045264
  H          -5.74411218613641      1.97564513099616      0.04122845602696
  O          -5.46305024388228     -0.67816236465252     -0.32049944041427
  O          -3.82373030520773     -1.42111522549697      1.02601586856596
  H          -1.83260222326505      4.28956942506884     -0.73410568236115
  H          -0.13102018550705      4.62908146041415     -0.24127786623003
  H          -0.52461614673597      4.15637156246429     -1.93748255589158
  C          -4.29411040229667     -2.74934178980076      0.82003415767012
  H          -3.65934347216775     -3.39904650014802      1.43617360012660
  H          -5.34816745047196     -2.84612436103964      1.12237229717265
  H          -4.21317622803836     -3.03280325949095     -0.24137807864906
