61
Coordinates from ORCA-job orca E -1382.079678331069
  C           1.98507992675671      0.65974062261606     -1.17652745126525
  H           2.04284845272866      1.57349182362854     -0.56979798072788
  H           2.98923357281868      0.40296621696777     -1.53866705274451
  C           1.37184594581719     -0.47884099999818     -0.35518977813270
  C           2.15095869224277     -0.77186129096445      0.95322450442524
  H           1.66239129372861     -1.62343919757781      1.45088075069371
  H           2.01405453199200      0.09824641145461      1.61232407128362
  C           3.66918517222062     -1.08166338190940      0.89885394413934
  C           1.26932321792354     -1.72465548231445     -1.23563587317380
  O           1.51705659175537     -1.77171952989248     -2.41573881780593
  O           0.81679401459330     -2.79518998649053     -0.54829908310574
  C           4.48530441770612      0.14811118198361      0.49198656940673
  O           5.36854792040256      0.16196451714393     -0.33019385110952
  O           4.13856362771381      1.23961280566376      1.20418520751408
  C           4.01907808189415     -2.23963928043308     -0.04435550114477
  H           5.08859689803025     -2.48343889871114      0.02887877766060
  H           3.43647473034659     -3.13293752566097      0.22539761166607
  H           3.82032861949272     -1.99275225348419     -1.09545514623829
  C           4.11361337261007     -1.44319986961282      2.33682187428161
  H           3.60924907788718     -2.36721228904339      2.66150634811952
  H           5.20077063242297     -1.61539718176166      2.38111855760060
  H           3.86109447267230     -0.64132286018663      3.04595652334112
  C           0.67167391901274     -4.00255410708879     -1.29437957607120
  H           0.30848716720170     -4.75881306854405     -0.58703989490368
  H          -0.04778665281108     -3.86968560849854     -2.11677351852851
  H           1.63653049876976     -4.31237330474664     -1.72395535695864
  C           4.85336785556868      2.43715659731891      0.90661454316426
  H           4.68223685281936      2.74119047600766     -0.13782574892072
  H           4.46976682622227      3.20260031616689      1.59303562756187
  H           5.93485272819724      2.29617255885278      1.05384561703577
  H           1.37487524624642      0.87206362968786     -2.06503890110512
  C          -0.08660052073889     -0.09899727634832      0.09463021998567
  C          -1.03630497228205      0.23659846326962     -1.00704610868427
  H           0.00114047780336      0.75605541599101      0.77695615879374
  H          -0.49253239581665     -0.94741473583882      0.66630153991950
  C          -3.02981585149319      1.84492792922947      1.63946097335322
  C          -1.36554894339240      1.61741857873705     -1.33368004679215
  C          -1.65017376562535     -0.82187519727815     -1.85905173706332
  C          -3.86314845640416      1.30163222026472      0.73875817067108
  H          -2.39001166016922      1.22440453051088      2.26838661749422
  H          -2.96800930139257      2.92965076968976      1.76301172857892
  O          -2.16208694311208      1.95442618319234     -2.19416677924818
  O          -0.69900441820817      2.52621606122217     -0.57304396909404
  H          -1.07876844646641     -0.94570261471636     -2.79862971485877
  H          -1.64857763987639     -1.79529822339528     -1.34917118005301
  H          -2.67792479431794     -0.55463422500155     -2.14543725650742
  C          -4.76058743328604      2.09180540649441     -0.17058244510831
  C          -3.96043183079402     -0.18211379510012      0.58228434878303
  C          -1.00636195394136      3.88962633349072     -0.83005167623904
  H          -4.73092548634402      3.16208781760777      0.08039468424332
  H          -4.44200406174363      1.97130456026765     -1.21816985255577
  H          -5.79944919798221      1.73342602347874     -0.10266501862571
  O          -4.74473512994808     -0.72995521689470     -0.15863838696813
  O          -3.08838043083144     -0.86841327891623      1.35334491677130
  H          -2.06878118203628      4.09823609004529     -0.62699065719152
  H          -0.37008264140684      4.48128285721034     -0.15897799795593
  H          -0.80136995521977      4.15136352303626     -1.87981191963025
  C          -3.18860366744658     -2.28840975937387      1.29770522729833
  H          -2.34130079163742     -2.68034046417415      1.87479727370631
  H          -4.13857935869633     -2.62916118706896      1.73940634939252
  H          -3.14378695217751     -2.64642783020469      0.25881954162680
