61
Coordinates from ORCA-job orca E -1382.078453006288
  C           2.02450792348004      0.69771653428540     -1.21383308565620
  H           2.19002290901898      1.63500276610276     -0.66480571959987
  H           2.98703204244914      0.32675111481894     -1.58960984128063
  C           1.33355602988333     -0.32535077534743     -0.30682567335496
  C           2.11711394192777     -0.60477769081180      1.00326111110980
  H           1.56267656162324     -1.36972993411001      1.56837375640837
  H           2.07961384528371      0.31671380001445      1.60313882871468
  C           3.59714347826552     -1.06236462071043      0.94471102977687
  C           1.10305848114687     -1.61434803121432     -1.09502298922289
  O           1.35618777601713     -1.77869520283899     -2.26320421742155
  O           0.53607857264895     -2.57886670509429     -0.33625037863625
  C           4.51431322111995      0.04670142594826      0.42351006506814
  O           5.36859152864070     -0.08811779448264     -0.41803206552627
  O           4.29653051853094      1.21722925788619      1.05710275679254
  C           3.81201757995418     -2.32141240301936      0.09487204106193
  H           4.85367388769915     -2.66371809132116      0.17575199661999
  H           3.15059068996075     -3.12795273052820      0.44500284781209
  H           3.61774217325300     -2.14332976695654     -0.97064673533852
  C           4.04307451469622     -1.34931098172161      2.39913947143638
  H           3.46440086282217     -2.19350116178265      2.80680128813798
  H           5.11048216903391     -1.61894768722211      2.43728144665293
  H           3.88408359449086     -0.47408649440195      3.04584160614365
  C           0.27201174082627     -3.81658595939449     -0.99428390069115
  H          -0.18907904246244     -4.47157428415764     -0.24430025369795
  H          -0.40975984031192     -3.66904114547586     -1.84574259353998
  H           1.20471841086356     -4.26393991066558     -1.37042215664227
  C           5.11806478358167      2.31166490789650      0.65558087010250
  H           4.94558323331212      2.55810492986358     -0.40371352258947
  H           4.83507157856208      3.15849913787846      1.29349340066830
  H           6.18391379505765      2.07096430663120      0.78632736521370
  H           1.40492735135899      0.91776371518291     -2.09453065860426
  C          -0.06591699690255      0.22119828416042      0.14826330173162
  C          -1.00857726872868      0.60123688655852     -0.94556882138823
  H           0.12583831558989      1.09280047441644      0.78645374851171
  H          -0.54674678942404     -0.55350708210679      0.76572693895118
  C          -2.94151433587632      1.44421174387418      1.40087555662640
  C          -1.31063734639311      1.99069178768467     -1.25488044015274
  C          -1.64897150439572     -0.43327227735080     -1.80854757424103
  C          -3.84022483884149      0.85459923621590      0.59794071287278
  H          -2.24902393553079      0.86112520172797      2.00752377576154
  H          -2.88451929278877      2.53342337220249      1.47139727865816
  O          -2.10761510847147      2.35618873437716     -2.10290734624889
  O          -0.62326219195998      2.87705593077904     -0.48357862658532
  H          -1.06306365875866     -0.58974694811951     -2.73386216248813
  H          -1.70422230032969     -1.40176822222217     -1.29546993656513
  H          -2.65586488539315     -0.12616519472663     -2.12451822564466
  C          -4.81027316136705      1.60265044925652     -0.27030434723325
  C          -3.91284820543640     -0.63474898663201      0.49524571082895
  C          -0.89878108571207      4.24981820191051     -0.72758494217565
  H          -4.80122432170299      2.67600818712798     -0.03426490487063
  H          -4.54064878801334      1.49052986087994     -1.33309326089576
  H          -5.83068385120251      1.20825678036236     -0.14877030692805
  O          -4.75642835939080     -1.22841912923462     -0.13599924520325
  O          -2.92542228075807     -1.26960033772196      1.16634716803876
  H          -1.95869286405231      4.48082483455339     -0.53338754629610
  H          -0.25601979404656      4.82030841922429     -0.04443806553667
  H          -0.67870963350493      4.51903183298473     -1.77251388898379
  C          -2.92883770213236     -2.69201055948239      1.09108222558273
  H          -2.01989861195880     -3.02722957464055      1.60612668020138
  H          -3.82403419278440     -3.10843981024706      1.57876882645957
  H          -2.91946932246763     -3.02817262106348      0.04287162729485
