61
Coordinates from ORCA-job orca E -1382.069006819604
  C           1.90952536010919      0.68913211372793     -1.11783469548827
  H           2.00149197826271      1.65713689763438     -0.60827958142044
  H           2.86977711192027      0.43421961002783     -1.58452170147592
  C           1.46609763391348     -0.39017549606496     -0.12475985650368
  C           2.44160572781452     -0.54251677085265      1.07487080530356
  H           2.06635910668779     -1.36055211914429      1.70907264238198
  H           2.36282672756327      0.37842580006714      1.67112786667441
  C           3.94918216435302     -0.80921721245479      0.83111831591517
  C           1.31678112012005     -1.71468656553646     -0.87529494823694
  O           1.47832003211803     -1.87136044732425     -2.06135818103051
  O           0.94789214362578     -2.72019652447216     -0.05634438624093
  C           4.64597799151991      0.39775850181104      0.19824398300172
  O           5.41270271230902      0.35539399819519     -0.73255852962173
  O           4.34571419888478      1.54526561729199      0.84072833989485
  C           4.21796049016874     -2.04668353565073     -0.03484199144325
  H           5.29577256508981     -2.26058624095791     -0.07193761579074
  H           3.70239822322485     -2.92111625074002      0.38981154527777
  H           3.88382780189989     -1.91033309665158     -1.07126964420716
  C           4.60488274387680     -1.00898400319830      2.21953453254766
  H           4.19650903640470     -1.91323901631907      2.69829733191221
  H           5.69468106877381     -1.13779594916394      2.12374012168942
  H           4.41452045027959     -0.14958041185570      2.87888856909900
  C           0.76022122408603     -3.99392671245465     -0.67100211488588
  H           0.46989217055507     -4.68247637545927      0.13248149248924
  H          -0.02877509280166     -3.94353215694691     -1.43680885241935
  H           1.68983404159005     -4.33492227657825     -1.15155855232557
  C           4.96264550234299      2.72773673207998      0.33589645857162
  H           4.64646074843631      2.91695933521569     -0.70178486733690
  H           4.63620468972191      3.54723106578932      0.98864709256251
  H           6.05922071409837      2.63653960379117      0.35284918036794
  H           1.18626775533614      0.79155411121374     -1.93877825820580
  C           0.07903984038562     -0.02899011708762      0.52166915162847
  C          -1.04838252315021      0.26790345084932     -0.42723251931770
  H           0.25133831335590      0.84454761930548      1.16478070538970
  H          -0.20536954969209     -0.87113113815171      1.17061672642832
  C          -2.67626435492773      0.59487803864586      1.17812715145807
  C          -1.19888923695149      1.62065416776530     -0.98594020261669
  C          -1.63372370985593     -0.83200113116989     -1.25790448926131
  C          -3.87474155996052      0.79864479741477      0.54845666996006
  H          -2.43650881796879     -0.39004045132758      1.57636116098780
  H          -2.11397539515838      1.44651931266304      1.56467238748858
  O          -1.84252746925090      1.88922146574384     -1.98120605210567
  O          -0.57869985787016      2.57688320619663     -0.24687132980267
  H          -0.96903093440132     -1.07145486734679     -2.10700148576812
  H          -1.77034120220977     -1.74670222405564     -0.66440888298999
  H          -2.59607915835366     -0.52768924678901     -1.69016254430164
  C          -4.35357936998912      2.14626185103852      0.10065937293551
  C          -4.74099015657136     -0.34442986142665      0.17635106217338
  C          -0.70045787010991      3.91010794980999     -0.73106222834953
  H          -3.75019070208963      2.94922499705547      0.54831954457336
  H          -4.28315973132915      2.23468851055125     -0.99679960934843
  H          -5.41228477561646      2.29560732180418      0.36503901327978
  O          -5.78661291821119     -0.23696342074687     -0.42778264458738
  O          -4.25704524079106     -1.54245077248330      0.58443712169378
  H          -1.75617935363860      4.22000827937431     -0.77262627942493
  H          -0.14548672702448      4.54443224427430     -0.02784714295558
  H          -0.27643187650064      4.00073337052265     -1.74316123970189
  C          -5.04109278256317     -2.67823293171880      0.23686023996863
  H          -4.51823508746013     -3.55108096215248      0.64881295015983
  H          -6.05377109262926     -2.60460551348725      0.66298260304606
  H          -5.13545484175170     -2.77167617009077     -0.85661371169579
