61
Coordinates from ORCA-job orca E -1382.079032325562
  C           2.02825523302931      0.68191558589118     -1.22875363314625
  H           2.18689240873344      1.62309108132235     -0.68428439576857
  H           2.99460500700875      0.31207568744865     -1.59575632511850
  C           1.33434343303658     -0.33791179442850     -0.32025726376309
  C           2.10946399785211     -0.60639487825819      0.99706144822317
  H           1.55239412130917     -1.36810835555371      1.56395903473971
  H           2.06633052094170      0.31947403641361      1.58969134868596
  C           3.59055932689909     -1.06193792497865      0.95159300335580
  C           1.11389480864075     -1.63271175033711     -1.10158711315586
  O           1.37712203126323     -1.80450581440712     -2.26643860317562
  O           0.54186662514887     -2.59306697948297     -0.34116037868305
  C           4.50924624988333      0.04469613961227      0.42795801114096
  O           5.36885921514407     -0.09495194727056     -0.40734237187718
  O           4.28577109522027      1.21950003505041      1.05157148271694
  C           3.81295840842357     -2.32701766610464      0.11269258100899
  H           4.85432080821895     -2.66764462335380      0.20381437621757
  H           3.14976169675939     -3.13160105474570      0.46397288269731
  H           3.62632084443631     -2.15714791301145     -0.95551745219190
  C           4.02734885884232     -1.33725135151674      2.41102809689384
  H           3.44784999339388     -2.17979773490987      2.82092799955569
  H           5.09509043681382     -1.60410152713329      2.45841601816787
  H           3.86191968996305     -0.45771115421578      3.05019991749329
  C           0.28433026537690     -3.83523377687024     -0.99331072857845
  H          -0.18224076927408     -4.48577473359497     -0.24282294938592
  H          -0.39087998775316     -3.69369898810412     -1.85101925358573
  H           1.22032381736356     -4.28410466047368     -1.35929694772624
  C           5.10821563852207      2.31220900848482      0.64720407722890
  H           4.94233960604149      2.55038314186052     -0.41502199570067
  H           4.81974486792598      3.16335441922100      1.27687236998175
  H           6.17355069640777      2.07419595838208      0.78678195315075
  H           1.41389343025228      0.89459548851489     -2.11494046503649
  C          -0.06943279018551      0.20757001382819      0.12143363170716
  C          -1.00573329844228      0.58044212732424     -0.98046938948386
  H           0.11472599791953      1.08259880757096      0.75681042062004
  H          -0.55383304537092     -0.56412261671829      0.73990508689135
  C          -2.94999389197822      1.46095501314206      1.48427858566323
  C          -1.32577951640434      1.96889485607010     -1.27797995269392
  C          -1.62898658328298     -0.45495503226896     -1.85477078300173
  C          -3.81932212185750      0.88820633607966      0.63785730637571
  H          -2.26554456751219      0.86555694449640      2.08858867481738
  H          -2.90716749646049      2.54803602289492      1.59086685931937
  O          -2.12385753061572      2.33090529678907     -2.12679760399316
  O          -0.65492682655855      2.85783906640496     -0.49594235945783
  H          -1.03271935867566     -0.60435190681642     -2.77461104900964
  H          -1.68300131479577     -1.42612721196375     -1.34628782819834
  H          -2.63489666335914     -0.15287977801069     -2.17855255643940
  C          -4.77903996244714      1.65266653299786     -0.22805863087128
  C          -3.87990948385288     -0.59831539765368      0.49089728295732
  C          -0.95285046121567      4.22843063260691     -0.72507781278792
  H          -4.78199873725848      2.71949340689830      0.03663374363453
  H          -4.49165485487910      1.56905202969461     -1.28861479042447
  H          -5.79869301765396      1.24905814538483     -0.13288212696696
  O          -4.70618912328914     -1.17716191956389     -0.17610330932346
  O          -2.90719392713413     -1.24835274968420      1.16830474109901
  H          -2.01595231209333      4.44003901157446     -0.52643400804034
  H          -0.31829628073563      4.80192927817370     -0.03679233836613
  H          -0.73913686481974      4.51228589296718     -1.76740765739891
  C          -2.91292168136291     -2.66927982148158      1.06677105681196
  H          -2.01133703969140     -3.01643813213706      1.58677350242165
  H          -3.81524173931870     -3.09147925067063      1.53615478565986
  H          -2.89191788249311     -2.98697155137978      0.01317179411380
