61
Coordinates from ORCA-job orca E -1382.074852969288
  C           2.01576506674439      0.70112237403495     -1.15079516329464
  H           2.10496891341334      1.66333280738227     -0.62935064664600
  H           2.98694096730278      0.43633887450672     -1.58876916808474
  C           1.52175064917431     -0.37933655109613     -0.18323233048042
  C           2.44606773102925     -0.56123397371273      1.04965598632592
  H           2.03508249651417     -1.38155174246026      1.65779128500008
  H           2.36019121607020      0.35282497991923      1.65559139225755
  C           3.95636580338018     -0.84906607859189      0.85222880091243
  C           1.35849466543208     -1.69144994257277     -0.95120905963158
  O           1.50940960033270     -1.83160737337408     -2.14072537818428
  O           0.97581165370361     -2.70318630558661     -0.14593643357846
  C           4.69483953375966      0.35780822076627      0.26795928503363
  O           5.49690578389431      0.31927650923809     -0.63281924014464
  O           4.38731064559927      1.49848562974812      0.91869040499963
  C           4.23152705106452     -2.07265404809946     -0.03128300537260
  H           5.30737170797292     -2.29840259237677     -0.04790940602813
  H           3.69573348351804     -2.94887214664841      0.36319215388736
  H           3.92381329079414     -1.91138086992196     -1.07263828150378
  C           4.56374365264055     -1.08848445193794      2.25594237086731
  H           4.12487531392330     -1.99432950928395      2.70390626641138
  H           5.65359463898083     -1.23524621526246      2.19157423037987
  H           4.36800122672481     -0.23878179490085      2.92628583469997
  C           0.76638197097170     -3.96477653862520     -0.77794908029601
  H           0.47512968265586     -4.66192087987188      0.01778727875320
  H          -0.02946462269950     -3.89364960424222     -1.53501498874947
  H           1.68700456002410     -4.30996030123621     -1.27258518016597
  C           5.04514593095406      2.67892297217899      0.46306189245748
  H           4.77677358759146      2.89340059503391     -0.58313003045345
  H           4.70540114916922      3.49184814085676      1.11721394686475
  H           6.13830567460304      2.56775872023351      0.52446529802545
  H           1.31735456551155      0.82093391375001     -1.99035478808147
  C           0.11299245267728      0.00939915440846      0.40333264716321
  C          -0.96128271458086      0.27636754961511     -0.60141430398552
  H           0.26821005064220      0.90253491199806      1.02293228684828
  H          -0.20286740977096     -0.81427091242776      1.06274618414351
  C          -2.82498051273375      0.75637653651535      1.33791442136051
  C          -1.23489001144317      1.62610054477119     -1.08207244769006
  C          -1.64190883862928     -0.84184343824511     -1.31552898518763
  C          -3.96127534106243      0.86114881028793      0.62568119772767
  H          -2.48464953721533     -0.20723578472834      1.71519247715385
  H          -2.24719962072440      1.64340401978934      1.60669702730952
  O          -1.99913623876612      1.89799076991974     -1.99126264386321
  O          -0.56488462544202      2.58912536021734     -0.39192460024533
  H          -1.02450385132585     -1.19096246710711     -2.16498520670644
  H          -1.80315425504069     -1.70045135506430     -0.64743147475586
  H          -2.60053439192824     -0.51202280270467     -1.73841415404137
  C          -4.49961446161885      2.15293836777436      0.08362999249482
  C          -4.74579107641919     -0.35447379555442      0.26118178380773
  C          -0.79039964712184      3.92655830436888     -0.82111029734309
  H          -3.95600086781318      3.01196313251167      0.50273384182077
  H          -4.39344222736275      2.17874613603227     -1.01311291499580
  H          -5.57234601599302      2.25749775951823      0.30888773925612
  O          -5.75673675796798     -0.33038956355119     -0.40365281274620
  O          -4.21703542006130     -1.50224316890145      0.74070426183854
  H          -1.85232326271843      4.20073209612720     -0.72016975235675
  H          -0.17134364724399      4.56510326544162     -0.17756662412677
  H          -0.50333803729255      4.05610144805917     -1.87628279905780
  C          -4.91795571633639     -2.69588263773975      0.40562018696615
  H          -4.36917856837002     -3.51866689189216      0.88159689414685
  H          -5.95342865480678     -2.66226363098197      0.77823789259861
  H          -4.94994838428108     -2.83920453630469     -0.68590406371468
