61
Coordinates from ORCA-job orca E -1382.082835405474
  C           1.81770769827010      0.70193046812090     -1.08229572631264
  H           1.91475987818493      1.66514635583837     -0.56452276434673
  H           2.76937279926261      0.46138401034772     -1.57322341261422
  C           1.40847154840582     -0.39208965995879     -0.08979611734024
  C           2.42620100087863     -0.54429724594134      1.07896875516157
  H           2.07971083777938     -1.37336776295638      1.71537699645620
  H           2.35143239349914      0.36921408310126      1.68707854770015
  C           3.93140245576938     -0.78702845270768      0.79683111653129
  C           1.27825669182422     -1.71422814880890     -0.84969454701324
  O           1.46649377284485     -1.86639471080409     -2.03234756055144
  O           0.91040175917904     -2.72723244146024     -0.03984388052782
  C           4.59493851858058      0.43311512799312      0.15405699404045
  O           5.33644438566790      0.40787691810513     -0.79749947409625
  O           4.29706938284679      1.57262743382319      0.81264733240885
  C           4.20162043856625     -2.01719932423812     -0.07906982561834
  H           5.28120568204062     -2.21904835120715     -0.13132049061117
  H           3.70226647529639     -2.89950845928724      0.34910331919111
  H           3.85119712381007     -1.88035724944642     -1.10954819482218
  C           4.62051110944304     -0.98209907782583      2.16991425628343
  H           4.23678781162524     -1.89493697186314      2.65266738494770
  H           5.70990541234284     -1.09322316287784      2.05017940112364
  H           4.43095838584134     -0.12898676933310      2.83758616636780
  C           0.74863049685396     -4.00072107528806     -0.66217989284168
  H           0.45170196874580     -4.69554062783336      0.13348210925824
  H          -0.02697780351396     -3.95607475085133     -1.44191378267270
  H           1.69049589082369     -4.32938659942993     -1.12725863060422
  C           4.88505136159790      2.76599635552752      0.29946188249549
  H           4.53143405268519      2.96255952191768     -0.72478891695463
  H           4.57346007061295      3.57579008346602      0.97136270192159
  H           5.98233443707644      2.68555880251575      0.27744348034210
  H           1.07990634454067      0.80645386337158     -1.88945928910390
  C           0.05016155179080     -0.06280933435350      0.61183424110780
  C          -1.16546830924366      0.26647132749987     -0.25418870121634
  H           0.23720585055784      0.78970131925706      1.27975532760906
  H          -0.20754737750208     -0.92081349213743      1.24981382378359
  C          -2.52189459475972      0.50351775960572      1.03597471111621
  C          -1.13504799118987      1.61790086480611     -0.91767343144700
  C          -1.62414166353681     -0.81507217096339     -1.21223966273759
  C          -3.82334931289249      0.74804287324136      0.43349158846088
  H          -2.45779934264404     -0.44079781373602      1.58526988594256
  H          -2.13247816651294      1.35193812278044      1.61161542948029
  O          -1.56260114811799      1.85579927714075     -2.02400518512140
  O          -0.62746767759198      2.57925673003205     -0.11567836503980
  H          -0.90280373622430     -0.94659656598313     -2.03173065124537
  H          -1.74033170052816     -1.77178353520720     -0.68519984509167
  H          -2.58268548509022     -0.54772445586672     -1.67603381105857
  C          -4.23065557432223      2.10857328306228     -0.02558922510921
  C          -4.74147357171493     -0.35205033965482      0.13843157392951
  C          -0.59956696630605      3.89689094033178     -0.65897561008883
  H          -3.73942482883981      2.89545375012443      0.56744389602972
  H          -3.93716378653403      2.26306129359165     -1.08154192560314
  H          -5.32287566888841      2.22888841320278      0.01932008780083
  O          -5.81912729657671     -0.22488411327308     -0.41363707736493
  O          -4.27790233853901     -1.56129598075955      0.55345509643274
  H          -1.61606846664319      4.24197009093509     -0.90254615773095
  H          -0.15510253765702      4.53751136531601      0.11326269535461
  H           0.00603874269380      3.92809212625905     -1.57777068481022
  C          -5.12223766682898     -2.67256997510588      0.28075603082333
  H          -4.61111203667545     -3.55539531225761      0.68645448790629
  H          -6.10648365840787     -2.54886865094132      0.75933731692346
  H          -5.28209762265632     -2.78999997895605     -0.80290379723407
