61
Coordinates from ORCA-job orca E -1382.079537806185
  C           2.04893665624918      0.65776312400694     -1.25266038486086
  H           2.19852731878592      1.60402768849175     -0.71430453298645
  H           3.02038335575499      0.28908143256029     -1.60713832746014
  C           1.34937458133627     -0.35689354722694     -0.34251727478317
  C           2.11167108184335     -0.61113995326510      0.98515464222816
  H           1.55003950999346     -1.36809894350567      1.55391438610117
  H           2.06086705428358      0.32053111129748      1.56786306629866
  C           3.59390945617262     -1.06462591472185      0.95927280309616
  C           1.14186801468395     -1.65937250319875     -1.11436090726089
  O           1.42031182315794     -1.84153132037535     -2.27411783170657
  O           0.56146518796545     -2.61358122665676     -0.35263344530227
  C           4.51563433123905      0.03782073276026      0.43222625963441
  O           5.38332597456764     -0.10945712607951     -0.39335867524952
  O           4.28494491956557      1.21875762718315      1.04147305599550
  C           3.82661474506114     -2.33854544161235      0.13666478088966
  H           4.86718464833127     -2.67722800363151      0.24293269062469
  H           3.16021896213069     -3.13986056159923      0.48937592631503
  H           3.65152979266927     -2.18037402385127     -0.93526561646823
  C           4.01661035099291     -1.32282146405485      2.42593464452301
  H           3.43497648261324     -2.16221052863608      2.83928018927438
  H           5.08444063050219     -1.58651445697591      2.48711296552918
  H           3.84267818324572     -0.43669209221567      3.05363775411283
  C           0.31291630568930     -3.86151897892864     -0.99738827379118
  H          -0.15905232695103     -4.50736354881186     -0.24623444746298
  H          -0.35475225868907     -3.72800940181681     -1.86226023836006
  H           1.25327087675135     -4.31095612016797     -1.35124627587902
  C           5.10987836629290      2.30826826522984      0.63350469368705
  H           4.95446237980611      2.53453437679968     -0.43288777302645
  H           4.81385537783869      3.16577353141486      1.25091637358672
  H           6.17408899969063      2.07343094337675      0.78648743944581
  H           1.44197035269032      0.86090351863057     -2.14624167461735
  C          -0.05890925632860      0.19027012838460      0.07949258290304
  C          -0.98660425132658      0.55077479675668     -1.03421583499692
  H           0.11627241322590      1.07143692730037      0.70851896374523
  H          -0.55037429222629     -0.57398643170588      0.70200933997948
  C          -3.01901300278125      1.49100787425484      1.61875396197213
  C          -1.34727613322639      1.93497876733824     -1.30694421517422
  C          -1.59054103855012     -0.49179411930333     -1.91255539170695
  C          -3.82614906131777      0.94312260317675      0.69695524474013
  H          -2.35093525414272      0.88076125311282      2.22774864222984
  H          -3.01159616047507      2.57205743723439      1.78221804859826
  O          -2.15963102336117      2.28838087342702     -2.14614516589915
  O          -0.69638987921374      2.82923740050470     -0.51501518540676
  H          -0.97355878578132     -0.65643328075922     -2.81601559845486
  H          -1.65563985424888     -1.45500530735556     -1.38984093281842
  H          -2.58853673558373     -0.18953925393121     -2.25908552596863
  C          -4.76558829621572      1.72742879648627     -0.17410251262563
  C          -3.85729518842821     -0.53663772101917      0.48208993997510
  C          -1.03456884573677      4.19455225020788     -0.71852808614159
  H          -4.77297914743443      2.78840876107999      0.11358100316031
  H          -4.45829148579925      1.66181490028969     -1.22993191513609
  H          -5.78801484410254      1.32448754779228     -0.10661145441413
  O          -4.65499318981238     -1.09576901958666     -0.23467344657284
  O          -2.89970673290886     -1.20468321004915      1.16369213705759
  H          -2.09697008219865      4.37670311684029     -0.48943501706728
  H          -0.39747845193017      4.77542267544995     -0.03879479064106
  H          -0.85478326015482      4.49632087733594     -1.76212809710767
  C          -2.90687463756835     -2.62327862661911      1.02982141682277
  H          -2.00730616470561     -2.98359675505088      1.54437978045928
  H          -3.81069405701264     -3.05330973822950      1.48953255926427
  H          -2.88607443491877     -2.91889071778241     -0.03000644290252
