61
Coordinates from ORCA-job orca E -1382.099867055888
  C           1.80022749177412      0.73163444451084     -1.06419008170864
  H           1.87671262562760      1.68836085384981     -0.53041153709747
  H           2.76492404642462      0.51150538120816     -1.53889342561534
  C           1.38846878566729     -0.38193350014443     -0.09440709293134
  C           2.40871639984744     -0.55224408619936      1.07241747414440
  H           2.07074620891517     -1.40069923600696      1.68734998988442
  H           2.32327701475263      0.34447987116969      1.70363907002930
  C           3.91714516212332     -0.77069309108247      0.78847298610966
  C           1.27544302003998     -1.69196893309776     -0.87828711172017
  O           1.48227414927644     -1.82393078741807     -2.06012676744135
  O           0.90692874581959     -2.72104403992954     -0.08920043408043
  C           4.57249465083996      0.47432416046891      0.18636449846429
  O           5.32785779318888      0.48324910845013     -0.75454228368043
  O           4.25246631139327      1.59260940891784      0.87080323881345
  C           4.20466640803014     -1.97180408054267     -0.12160059394823
  H           5.28659991896598     -2.16034226063253     -0.17463240797693
  H           3.71330411405574     -2.87158798832355      0.27868335403527
  H           3.85618232891922     -1.80903672216107     -1.14881128991889
  C           4.60328051452034     -0.99826329570922      2.15827135420763
  H           4.22859049054036     -1.92937880826254      2.61238002754235
  H           5.69434510297463     -1.09306754488375      2.03967915415899
  H           4.40129373932354     -0.16754353870387      2.85019481102440
  C           0.76339415248295     -3.98535321454002     -0.73408518056849
  H           0.46939986338233     -4.69695033098795      0.04775040683854
  H          -0.00834320359629     -3.93590207417050     -1.51740855169182
  H           1.71150633150477     -4.29550427203393     -1.19911496270143
  C           4.83791921062596      2.80469598951744      0.40047302622889
  H           4.50751376796552      3.02184577824859     -0.62731140544936
  H           4.50067229350309      3.59443784423694      1.08379958075453
  H           5.93637156656631      2.73752225406809      0.40364505317012
  H           1.07869388941854      0.83651317141658     -1.88420480533187
  C           0.03724594840708     -0.07585515000091      0.62045867012457
  C          -1.24664565581224      0.24446043404436     -0.18957353350393
  H           0.22143202970280      0.77511691575773      1.29262348730165
  H          -0.19786718277934     -0.93788105017181      1.26253328174735
  C          -2.38045051495601      0.41206781390181      0.88341030009903
  C          -1.12041427595498      1.57417265186596     -0.93408016908576
  C          -1.62624291894588     -0.85116556091117     -1.19109626836717
  C          -3.74394215306531      0.71351205805597      0.35052389503765
  H          -2.41257565950809     -0.52229934607478      1.45964348333276
  H          -2.07319494472998      1.22286620559066      1.56423987539093
  O          -1.38407243310377      1.75380887498479     -2.09826430648870
  O          -0.71507826785631      2.57087763034828     -0.12085728937863
  H          -0.88658697099393     -0.94027809505898     -1.99573199946313
  H          -1.71823461840655     -1.81713652997274     -0.67554915782137
  H          -2.58810826099820     -0.62317337399107     -1.67033292355560
  C          -4.11434410516003      2.08589812504857     -0.09908047749565
  C          -4.74626033042225     -0.33463955175482      0.18490619048624
  C          -0.58288454923977      3.85781409740398     -0.72174773983691
  H          -3.61422978006959      2.85493190841552      0.51082343853083
  H          -3.79810070467801      2.25147845258157     -1.14730112387832
  H          -5.20389455277050      2.22703864174091     -0.06972845614480
  O          -5.86861787567014     -0.15823202739943     -0.25600045448419
  O          -4.30867076860282     -1.56060981084594      0.57914167412666
  H          -1.54596563992370      4.19905653223748     -1.13086169414058
  H          -0.24475338513028      4.53421682931157      0.07336599427559
  H           0.15236769510733      3.82995858485561     -1.54041492639964
  C          -5.24030094726165     -2.62520888979007      0.43315393053905
  H          -4.73529709199919     -3.52912739600467      0.79790694919769
  H          -6.15270948161463     -2.43544631180953      1.02029301259531
  H          -5.53302549843752     -2.75181312359170     -0.62119975628497
