61
Coordinates from ORCA-job orca E -1382.075836307901
  C           2.02498467792578      0.69881101462323     -1.15870350229279
  H           2.11341512185533      1.66010028906596     -0.63532184956077
  H           2.99809040846431      0.43245157812806     -1.59148100858612
  C           1.52246244465399     -0.38157791817184     -0.19543731508911
  C           2.43762396478253     -0.56688454102387      1.04344274935378
  H           2.01962083653618     -1.38571081920740      1.64876417368861
  H           2.35118605247989      0.34748909201914      1.64883324079519
  C           3.94799237008981     -0.86034419523027      0.85516613284691
  C           1.35899734410576     -1.69216399095620     -0.96578327746008
  O           1.51141116659214     -1.83048651690979     -2.15533970666220
  O           0.97188160607142     -2.70436380250233     -0.16313846145355
  C           4.69454194939461      0.34378105459399      0.27548208276181
  O           5.50131796832328      0.30237054148653     -0.62097427168041
  O           4.38775144130586      1.48550626247862      0.92466856789236
  C           4.22366385448568     -2.08468936032708     -0.02712533502924
  H           5.29887331038264     -2.31371922516289     -0.03856348462546
  H           3.68316541111355     -2.95923851110357      0.36455921004080
  H           3.92170654227035     -1.92228841739907     -1.07004827962028
  C           4.54628712911508     -1.10245431703062      2.26230293642437
  H           4.10116803908584     -2.00654017914291      2.70766929608334
  H           5.63588104111765     -1.25366044831898      2.20416822864377
  H           4.35015872094578     -0.25203357515279      2.93162058344349
  C           0.76078758372116     -3.96433329821818     -0.79774261259875
  H           0.46711263343456     -4.66235097879083     -0.00365921724730
  H          -0.03393474213909     -3.89034864462418     -1.55574038875570
  H           1.68135313644154     -4.31048593815375     -1.29180904898017
  C           5.05237948357047      2.66352342149627      0.47268462229842
  H           4.79065166841722      2.87894049976547     -0.57499496762166
  H           4.71190349686389      3.47769663433057      1.12489326099084
  H           6.14478402688172      2.54844503829578      0.54021708415336
  H           1.33124717267076      0.82149964226039     -2.00167841604285
  C           0.10995323395496      0.01073089366260      0.37973690871153
  C          -0.95340221751680      0.27927293237844     -0.63495865599629
  H           0.26178747828393      0.90410259199032      0.99971831764721
  H          -0.21463502692494     -0.81183739175228      1.03660088247987
  C          -2.86110755821911      0.81552838414852      1.39638254647820
  C          -1.24340943346627      1.63149478134229     -1.09515565145572
  C          -1.64367673100538     -0.83711316003650     -1.34165914497702
  C          -3.97274678352552      0.88434047848794      0.64463113868298
  H          -2.50465894442239     -0.13646654222432      1.78886421290497
  H          -2.30414892625409      1.71759926721327      1.66052916801638
  O          -2.02055294529499      1.90845089913086     -1.99239273630914
  O          -0.57047717068522      2.59179717850222     -0.40376416385878
  H          -1.03113039295191     -1.19569242641688     -2.19093078324995
  H          -1.80762471374808     -1.69168946334048     -0.66882884213081
  H          -2.60143201559793     -0.50309013555803     -1.76362332881902
  C          -4.52555859686434      2.15546236959182      0.06907249581411
  C          -4.71568132977296     -0.35529146928835      0.27014104257926
  C          -0.80937956288447      3.93181192917822     -0.81687295816139
  H          -4.01156878862378      3.03251287590863      0.48825648857078
  H          -4.39199726716023      2.16654772127637     -1.02475625012360
  H          -5.60560857073473      2.23942063876785      0.26631434045836
  O          -5.70300286207016     -0.36380684182295     -0.42935473486636
  O          -4.17594741035660     -1.48369030067280      0.78150122110528
  H          -1.87082595517070      4.19994058733589     -0.69600459312032
  H          -0.18300481664352      4.56761001573833     -0.17767766530546
  H          -0.54044088674964      4.07250288035151     -1.87538697736832
  C          -4.83714274914632     -2.69795468375504      0.43949253796170
  H          -4.28749916307553     -3.50088089528968      0.94730463449929
  H          -5.88592329712923     -2.68276525499943      0.77400891749762
  H          -4.82597245720388     -2.85744825096575     -0.65021939377599
