61
Coordinates from ORCA-job orca E -1382.076401270201
  C           1.83133928857705      0.69642668517272     -1.08943673696727
  H           1.93210468899774      1.66105649249037     -0.57517414708444
  H           2.78186637643670      0.44938986106684     -1.57939332211153
  C           1.41641543506150     -0.39206121904951     -0.09342015253962
  C           2.42801072489571     -0.54284749142353      1.07973153886030
  H           2.07526665912544     -1.36672390326986      1.71944028079332
  H           2.35579695336367      0.37446283591916      1.68241620452255
  C           3.93270429400116     -0.79480689419652      0.80295198419075
  C           1.27898902099808     -1.71607290940493     -0.84841977476576
  O           1.46013376337962     -1.87200290430256     -2.03171670973253
  O           0.91059125431702     -2.72535279404240     -0.03416124579040
  C           4.60343711159570      0.41838761240226      0.15442515316098
  O           5.34604947832807      0.38397999709707     -0.79598777341657
  O           4.31120731939491      1.56274681999254      0.80687654088987
  C           4.19828485350297     -2.03114663693936     -0.06565223351433
  H           5.27697408817873     -2.23829003628685     -0.11553088899846
  H           3.69422394954818     -2.90868296120120      0.36669346530071
  H           3.85004182475606     -1.89827102458709     -1.09746780422003
  C           4.61777591126906     -0.98559664982249      2.17858084316028
  H           4.22835351787426     -1.89367218264475      2.66575294629742
  H           5.70684350958169     -1.10297928528721      2.06187190545751
  H           4.43115630746294     -0.12767798609474      2.84089041312634
  C           0.74130376284501     -4.00002248175649     -0.65212769753284
  H           0.44456911000436     -4.69127704752630      0.14669594688852
  H          -0.03694107872209     -3.95459254778764     -1.42917954949267
  H           1.68014739711174     -4.33382571095050     -1.11965637754668
  C           4.90631296114013      2.75036432942489      0.28846743608299
  H           4.55510601271379      2.94366735116732     -0.73721698333495
  H           4.59816664730036      3.56517452138872      0.95585714866303
  H           6.00317014245839      2.66385815888161      0.26837872490316
  H           1.09323237988352      0.80172388791531     -1.89658179289219
  C           0.05335222031477     -0.05341188080092      0.59943073155613
  C          -1.13914014587200      0.27532534933024     -0.28643801620066
  H           0.23983366971816      0.80136950550207      1.26415840737790
  H          -0.21239714726768     -0.90913986628641      1.23718372771243
  C          -2.56740158577370      0.53723575567337      1.07809912838910
  C          -1.14795541627490      1.63181307021693     -0.92038409628656
  C          -1.62497550482260     -0.80407001680977     -1.22537845222965
  C          -3.84297523969808      0.75902165969292      0.45951543310927
  H          -2.45988012168789     -0.41206780633556      1.60921051478871
  H          -2.14258997235214      1.39619175997666      1.60831492230061
  O          -1.63421627881130      1.88610429837986     -1.99979809073270
  O          -0.60369735596576      2.58455473498438     -0.12956037646285
  H          -0.91309861858386     -0.95001530338899     -2.05232073744653
  H          -1.74481176675005     -1.75676460271439     -0.69206074696203
  H          -2.58425669194334     -0.52608463993470     -1.68111153503964
  C          -4.27237860615556      2.11173631206945     -0.00676656899446
  C          -4.73322488782782     -0.35967257289322      0.13588740639875
  C          -0.61139140248487      3.90962387287426     -0.65405265879935
  H          -3.74720085874816      2.90913389811819      0.54037783940974
  H          -4.04242735920494      2.24023527494461     -1.08105289226534
  H          -5.36027231668175      2.23840245533476      0.09950042640756
  O          -5.79842891962026     -0.24887984709205     -0.44131333008580
  O          -4.25729845376940     -1.56156934795183      0.55634320116780
  H          -1.64031286211529      4.24881806091157     -0.84912945439331
  H          -0.13937960442774      4.54357661090605      0.10734238002166
  H          -0.04628092621717      3.95998808048486     -1.59754147409066
  C          -5.07206769187658     -2.68768260499778      0.25555404525160
  H          -4.55403589433004     -3.56269876049237      0.66933187343892
  H          -6.07057120645293     -2.58660335346424      0.70920657602441
  H          -5.20150271969863     -2.80146598258276     -0.83255552572252
