61
Coordinates from ORCA-job orca E -1382.079641730066
  C           1.98446842868760      0.64229832038838     -1.18045535849346
  H           2.03336228857586      1.55676316856533     -0.57399713125951
  H           2.99116197985118      0.39450127051257     -1.54176539330330
  C           1.38106717673683     -0.50178148670459     -0.35929254814887
  C           2.16200545629682     -0.78760081467554      0.94977970310232
  H           1.68058725011157     -1.64343911976925      1.44709568183550
  H           2.01721008117898      0.08134710896234      1.60867623350390
  C           3.68288462568583     -1.08446783160407      0.89650593663071
  C           1.29140033552177     -1.74867262450841     -1.23950140372981
  O           1.54155360372751     -1.79368714998726     -2.41916396787391
  O           0.84845715020119     -2.82338182148432     -0.55246768750268
  C           4.48875849810280      0.15155891667472      0.48822257852469
  O           5.37228020910289      0.17165439312447     -0.33353180590176
  O           4.13238829263263      1.24112260931967      1.19863375369424
  C           4.04304550968171     -2.24086237994804     -0.04478707440148
  H           5.11471288760114     -2.47491959060908      0.02877860694438
  H           3.46846442528525     -3.13885275602632      0.22661762659676
  H           3.84209147447082     -1.99765873291069     -1.09632570783294
  C           4.12966705004504     -1.44013789899803      2.33517509614781
  H           3.63277205796938     -2.36771506178154      2.66121410379290
  H           5.21817909922527     -1.60343286891970      2.38018380389362
  H           3.87056367254654     -0.63918571694480      3.04297885010894
  C           0.71671335166655     -4.03240746471202     -1.29836306095588
  H           0.36040914798170     -4.79213042339580     -0.59122850008565
  H          -0.00308673554219     -3.90711534879710     -2.12165483580031
  H           1.68520072765582     -4.33237491890982     -1.72672499058110
  C           4.83706638368977      2.44430850693588      0.89961731079970
  H           4.66338271047102      2.74562338974841     -0.14519734473321
  H           4.44696745197319      3.20732382399416      1.58507697004728
  H           5.91969781565278      2.31264419671427      1.04701017041690
  H           1.37297858610758      0.84870209908406     -2.06948116831278
  C          -0.08064299889361     -0.13332954504636      0.08875182371170
  C          -1.02985041720081      0.19695610126491     -1.01489143746802
  H          -0.00059540746185      0.72188425122718      0.77183780180186
  H          -0.48156365979686     -0.98364836078817      0.66169692207030
  C          -3.07182347768627      1.89283966258618      1.68853959985052
  C          -1.37806551796564      1.57585192122151     -1.33051759705275
  C          -1.62885806892420     -0.86276937057465     -1.87568270707866
  C          -3.88547956598910      1.36126540835483      0.76297929628408
  H          -2.43927710156460      1.26298954337438      2.31566794840512
  H          -3.02069824358131      2.97540589051234      1.83406084359594
  O          -2.18191986110585      1.90816541436169     -2.18605704602490
  O          -0.71973115023042      2.48746269026498     -0.56639356751408
  H          -1.06044257792437     -0.96556411048216     -2.81956206567142
  H          -1.60653824368838     -1.84166260542953     -1.37671180439384
  H          -2.66324564638689     -0.61241356944953     -2.15415938466769
  C          -4.77333545347805      2.16254873582239     -0.14617825752095
  C          -3.96889299327904     -0.11945688945452      0.57443195107121
  C          -1.04541293178702      3.84876855114032     -0.81097995954263
  H          -4.73828739333861      3.23103307397501      0.11179400654770
  H          -4.45153006036501      2.04410765759903     -1.19291434830560
  H          -5.81517784336878      1.81106322467483     -0.08522110902087
  O          -4.73049810486552     -0.65604659146185     -0.19791404372143
  O          -3.11427743667587     -0.81706342844203      1.35448495475173
  H          -2.10649310123346      4.04451204536954     -0.58926701807514
  H          -0.40514684983919      4.44351812533493     -0.14648499022906
  H          -0.86047960633015      4.11837861930126     -1.86243041644548
  C          -3.20790455065311     -2.23614991790289      1.26767313031682
  H          -2.38282701245615     -2.63736900540972      1.86992418720391
  H          -4.17341808386599     -2.58746957150731      1.66516090055843
  H          -3.12234763295914     -2.57349174377432      0.22463393944026
