61
Coordinates from ORCA-job orca E -1382.077679098102
  C           2.02204977747417      0.71828092865399     -1.19645731377658
  H           2.19432955072377      1.65198056788757     -0.64359766856747
  H           2.98053553719607      0.34607530353159     -1.58125727635267
  C           1.33491039808596     -0.30825202739799     -0.29048331994666
  C           2.12850075391552     -0.59995067399745      1.01071998644122
  H           1.57715752675960     -1.36857924113215      1.57382916706616
  H           2.09760240625509      0.31661984990335      1.61854028766213
  C           3.60704394737009     -1.05940324407645      0.93561942080021
  C           1.09225840310418     -1.59057500530344     -1.08627632453021
  O           1.33050430588263     -1.74560900115075     -2.25882326402370
  O           0.53197303024736     -2.55989126551511     -0.32870521079322
  C           4.52208954865498      0.05306344091672      0.41794781985439
  O           5.37092080151139     -0.07565919875360     -0.43003346901151
  O           4.31001921691266      1.21830425608678      1.06306989783207
  C           3.81254794806815     -2.31043750069573      0.07172970081452
  H           4.85432652671700     -2.65508311360393      0.14010172523512
  H           3.15296744690801     -3.11933097118172      0.41988349470586
  H           3.60900831060484     -2.12182467933800     -0.99025217196590
  C           4.06472626530929     -1.36148226495519      2.38338734200448
  H           3.48741693833659     -2.20810497993222      2.78789867489907
  H           5.13170474993284     -1.63419961028014      2.40943735497457
  H           3.91359417888642     -0.49219552879826      3.03994174091580
  C           0.25818613100876     -3.79204943436933     -0.99309118893246
  H          -0.19306016532126     -4.45278590525291     -0.24215503137193
  H          -0.43520151068573     -3.63747885740195     -1.83389607348150
  H           1.18535023948334     -4.23672004695858     -1.38572598668752
  C           5.13056165719136      2.31508757378106      0.66599701674715
  H           4.95166901513856      2.57122344476388     -0.38993217388584
  H           4.85292555359207      3.15662092087366      1.31321739827948
  H           6.19687311098956      2.07171607612496      0.78774858794639
  H           1.39729197880052      0.94472539763359     -2.07178309052598
  C          -0.05951427986573      0.23905386647892      0.18029056257389
  C          -1.01054444860144      0.62569646722026     -0.90418604096624
  H           0.13982367716349      1.10688387549306      0.82161834296858
  H          -0.53521399545155     -0.53966844662463      0.79691176936519
  C          -2.94273626498000      1.40852297133299      1.32090141017569
  C          -1.28510735443841      2.01651347832095     -1.23296517223064
  C          -1.66962601269915     -0.40558098767653     -1.75682830454365
  C          -3.87164879425824      0.80833788547405      0.56123059887644
  H          -2.25010049724407      0.83455945640421      1.93529857482523
  H          -2.86713093689038      2.49821598840341      1.35499391014106
  O          -2.07770275416283      2.38536721613756     -2.08335381237028
  O          -0.57671711397710      2.90000999367942     -0.47697938442959
  H          -1.10372229229326     -0.55827838379173     -2.69494035704057
  H          -1.71727294934831     -1.37511330307573     -1.24561977702497
  H          -2.68179034531840     -0.09531081523107     -2.05231528881687
  C          -4.84555014311485      1.54440886730201     -0.31249157610484
  C          -3.96195648957576     -0.68199303043050      0.50431446329485
  C          -0.81912151263647      4.27437067290769     -0.74645988322500
  H          -4.82748211837612      2.62243597206571     -0.10010400603842
  H          -4.58713746251526      1.40889733021795     -1.37565450131285
  H          -5.86693263709307      1.15837513390138     -0.17404475464011
  O          -4.82719760926217     -1.28629040029707     -0.08634010213750
  O          -2.95986967275364     -1.30554598317294      1.16444858114561
  H          -1.87376290357195      4.53434385935464     -0.56044785552605
  H          -0.16499776503516      4.84179670072772     -0.07159903397187
  H          -0.58955709411372      4.51921904106358     -1.79535278364264
  C          -2.96910765060300     -2.72895463329416      1.11895225583913
  H          -2.05930125773468     -3.05711005906038      1.63707796740027
  H          -3.86400433230901     -3.13267046695521      1.61750920193157
  H          -2.96415056799384     -3.08623747693762      0.07743494315909
