61
Coordinates from ORCA-job orca E -1382.079607087191
  C           2.04344517418610      0.63599260960596     -1.26841068905367
  H           2.17711317802602      1.58679881461217     -0.73388220617990
  H           3.02239735141556      0.27606731255062     -1.61098204140739
  C           1.34555486580274     -0.38088976112828     -0.35940031711104
  C           2.09824376479664     -0.62142723274397      0.97629878869622
  H           1.53882641879119     -1.38099015089985      1.54378385707842
  H           2.03312551519306      0.31254577306647      1.55371866580568
  C           3.58507690578147     -1.06068225283684      0.96564031899430
  C           1.15598168434068     -1.68894150783709     -1.12648493329820
  O           1.44828820664966     -1.87534277638785     -2.28215085918898
  O           0.57631349586440     -2.64370404159524     -0.36500792166845
  C           4.50098734362737      0.04911911759125      0.44388192738715
  O           5.37815175740846     -0.09219985533803     -0.37268795194852
  O           4.25171149645339      1.22998122474036      1.04589482566209
  C           3.83752757378680     -2.33461878622790      0.14893512110887
  H           4.87996995553838     -2.66370658448044      0.26642256503803
  H           3.17486901964506     -3.14099193720662      0.49715692165325
  H           3.67153470912411     -2.18068880340087     -0.92502975611591
  C           3.99662729969705     -1.31036842090091      2.43685026263424
  H           3.41930038626282     -2.15404794611780      2.84749685228352
  H           5.06632695895281     -1.56361580445399      2.50864637274282
  H           3.80857432364181     -0.42399718767384      3.06013602821093
  C           0.34247973099476     -3.89681064118158     -1.00530688202876
  H          -0.12375701964292     -4.54480391688327     -0.25235278055317
  H          -0.32558211415388     -3.77357932671334     -1.87147614576025
  H           1.28804717560231     -4.33723996661106     -1.35643214623244
  C           5.06895804939197      2.32659778588830      0.64154130730715
  H           4.92275977976946      2.54595482045891     -0.42758672533830
  H           4.75676146491570      3.18373033482381      1.25146474870885
  H           6.13396746864276      2.10436562759414      0.80730709821265
  H           1.44344307066730      0.82742072682217     -2.16925379234215
  C          -0.07128660451014      0.15503660095498      0.04760515016922
  C          -0.99033583508064      0.50988798252469     -1.07479433752803
  H           0.08917455410909      1.03781944115863      0.67814955067966
  H          -0.56174836259554     -0.61171598177871      0.66755505341888
  C          -2.99872768663033      1.51063907309391      1.71134785238183
  C          -1.36024203894788      1.89256693476043     -1.34508497192717
  C          -1.56804871067650     -0.53129996722960     -1.97227376741865
  C          -3.79123167827987      0.99801445762537      0.75688653025252
  H          -2.34211210146847      0.87464721177575      2.30649995625903
  H          -2.98931264714720      2.58505092672667      1.91409731801761
  O          -2.16163200084010      2.24241492960173     -2.19645883276283
  O          -0.73324794127853      2.78871443826155     -0.53693072728495
  H          -0.92976477055743     -0.68310512927376     -2.86322779043807
  H          -1.63702545140123     -1.50101018882516     -1.46148677109392
  H          -2.56166735303556     -0.23506983281236     -2.33619956792649
  C          -4.71517370408597      1.81406608127989     -0.10185787657209
  C          -3.82061505288833     -0.47328769310299      0.48927002410347
  C          -1.09064552092482      4.15035638685768     -0.73147531467707
  H          -4.72491820089839      2.86480368414891      0.22201185748114
  H          -4.39345635507427      1.78143704105386     -1.15481660382078
  H          -5.74002514185854      1.41342121784221     -0.06247025124995
  O          -4.58799160872625     -1.00032198950778     -0.28301610180284
  O          -2.90120093915632     -1.17214346321528      1.19207217233375
  H          -2.16324510727785      4.30832034929805     -0.53483565841988
  H          -0.48654273152681      4.73248182964145     -0.02330953664778
  H          -0.88303917261916      4.47191114331169     -1.76406111707957
  C          -2.90897466920138     -2.58557196394866      1.01121173743625
  H          -2.00554874100980     -2.96336019058250      1.50623885027211
  H          -3.80880199129397     -3.02978257221868      1.46580409795471
  H          -2.89798742629117     -2.84650800455721     -0.05728143740721
