61
Coordinates from ORCA-job orca E -1382.097179620784
  C           1.80315305118692      0.71820957037382     -1.06987103483749
  H           1.88512790491670      1.67797394928276     -0.54266561742175
  H           2.76347709267484      0.49290841567081     -1.55096859532220
  C           1.39560292240968     -0.38859875483904     -0.09068596644844
  C           2.41684523573250     -0.54959078045133      1.07565188679358
  H           2.07856137219730     -1.39179430000498      1.69900930799449
  H           2.33383907654938      0.35321561915900      1.69848352077711
  C           3.92424240751020     -0.77315959520706      0.79017560111386
  C           1.27933043177207     -1.70394367976419     -0.86505702203199
  O           1.48118605683533     -1.84401870242075     -2.04686378565329
  O           0.91165123744275     -2.72710977560664     -0.06795678235492
  C           4.57807763373502      0.46404747173470      0.17056197918457
  O           5.32689594393283      0.46157395643213     -0.77558285419039
  O           4.26456496505854      1.59006386889261      0.84524013037164
  C           4.20712036077897     -1.98525638410926     -0.10669592875660
  H           5.28862623080119     -2.17586172234711     -0.16116810008274
  H           3.71585378527209     -2.87962290518999      0.30566203845010
  H           3.85568399019542     -1.83410234253945     -1.13473001154776
  C           4.61425272752154     -0.98556763225720      2.16038997032704
  H           4.23903590267275     -1.91034726982205      2.62682280207872
  H           5.70474706558037     -1.08402001363937      2.03960971557020
  H           4.41601071187354     -0.14614522080352      2.84280254812229
  C           0.76380210903034     -3.99550400636960     -0.70380404798837
  H           0.46785641023283     -4.70060265140488      0.08315670113197
  H          -0.00786396574155     -3.94920743109171     -1.48736720683789
  H           1.71081513077889     -4.31202085567912     -1.16682535889771
  C           4.84371913655183      2.79702049218816      0.35443752347574
  H           4.49715149358257      3.00436143449621     -0.67011276513198
  H           4.51738255735240      3.59364574694350      1.03505634209367
  H           5.94200841833574      2.72908602811791      0.34115690746826
  H           1.07525695783502      0.82036438777983     -1.88511282122598
  C           0.04225603119647     -0.07669509260705      0.62060255832730
  C          -1.21804897121381      0.24910856983282     -0.20869258651395
  H           0.22706367451785      0.77337210639774      1.29324017606436
  H          -0.20065300902129     -0.93859903614726      1.25958707930479
  C          -2.42835071982295      0.43506783090332      0.93516012719640
  C          -1.11863547857233      1.58771090623281     -0.92502659849916
  C          -1.62357195840513     -0.83921330039535     -1.19933792507148
  C          -3.77201382266591      0.72369020442993      0.37643261582629
  H          -2.43442317808684     -0.50486486349883      1.50037109729874
  H          -2.09673987482930      1.25559517869190      1.58906702582299
  O          -1.42794856165934      1.78898182129943     -2.07510493775634
  O          -0.68648025015514      2.57095223766530     -0.10844951899621
  H          -0.88931241177460     -0.94101562843110     -2.00858643646777
  H          -1.72516225826087     -1.80354093748439     -0.68273775750870
  H          -2.58412198808024     -0.59656101037790     -1.67339412293061
  C          -4.14763986713479      2.09563253644700     -0.07094908823785
  C          -4.75197405107133     -0.33787369434801      0.16406525579347
  C          -0.57912149304271      3.86862991976290     -0.69021218705294
  H          -3.66231125471355      2.86577550338751      0.54933125227609
  H          -3.81864145308940      2.26741094931003     -1.11414791955300
  H          -5.23861923633833      2.22844063470931     -0.05601579517750
  O          -5.86126767168547     -0.17316260877346     -0.31227408934679
  O          -4.30928176160916     -1.56126697622885      0.56087135214821
  H          -1.55613341844148      4.21338159513113     -1.06157431732024
  H          -0.21763827667314      4.53230224098268      0.10540378948878
  H           0.12929233996469      3.85911841373565     -1.53277617412002
  C          -5.21970574890935     -2.63760026733521      0.37355960240402
  H          -4.71510915410986     -3.53737841362163      0.74897826734527
  H          -6.15498158101212     -2.46544727250206      0.92926006511650
  H          -5.47308894990864     -2.75960846469255     -0.69149988608441
