61
Coordinates from ORCA-job orca E -1382.079576983111
  C           1.96942262428242      0.63424425225498     -1.15775340520690
  H           2.00254198734975      1.53713701486646     -0.53339900397129
  H           2.98004123570994      0.41157690313299     -1.52442541938825
  C           1.38897054505659     -0.53788837462808     -0.36006084413302
  C           2.17714421456320     -0.83606218919149      0.94136933958899
  H           1.71691441885750     -1.71471356663013      1.41850524685269
  H           2.01284515607662      0.01347069926434      1.62067952361232
  C           3.70442982768182     -1.09573487982486      0.87892529970946
  C           1.32029696229511     -1.76612897704246     -1.26862526885809
  O           1.55512831999633     -1.77605014123143     -2.45221508000681
  O           0.91330737561895     -2.86781968891507     -0.60258445665412
  C           4.48114398042125      0.16907632739763      0.50332826459830
  O           5.36503206608777      0.23056902840055     -0.31597408134370
  O           4.09893588192287      1.23159054412928      1.24079949652411
  C           4.08996527714045     -2.21778783962717     -0.09333665727427
  H           5.16760242220040     -2.42580751832136     -0.02988892102746
  H           3.53954232185879     -3.13684450418028      0.15645557222846
  H           3.87837916421805     -1.95267451037842     -1.13757101866234
  C           4.16194770340765     -1.47928082021732      2.30706950473398
  H           3.68836608872917     -2.42727209018008      2.60807073994185
  H           5.25418206938878     -1.61704504896181      2.34669776761426
  H           3.88434533500817     -0.70443744766023      3.03660361546857
  C           0.80276793460187     -4.06178005838185     -1.37587888895596
  H           0.47032036857694     -4.84591616252420     -0.68397178257622
  H           0.07318953434040     -3.93395345754198     -2.19005991624356
  H           1.77423453910623     -4.32891724905173     -1.81901119588532
  C           4.77570412623858      2.45802715398692      0.97339108000114
  H           4.59574184961285      2.78149667928204     -0.06369052598881
  H           4.36754669296872      3.19413369799949      1.67751239272925
  H           5.86098673942259      2.34774309297531      1.11873884667428
  H           1.35356932949028      0.84693477705369     -2.04202673289481
  C          -0.08097648381332     -0.21198560254514      0.09643713202842
  C          -1.04077231324373      0.11281042903745     -0.99949285141682
  H          -0.02162929027940      0.63319888613951      0.79439886424221
  H          -0.45641516931961     -1.08382682785528      0.65417254523155
  C          -3.12136223124253      2.01749812052026      1.68551276870105
  C          -1.39269512769374      1.49015459006469     -1.31855948479836
  C          -1.64333841018448     -0.94976105364720     -1.85436040316820
  C          -3.92119767997185      1.46654615416483      0.75946352715011
  H          -2.49000883413552      1.40205006906219      2.32792987612573
  H          -3.08016935628945      3.10228680220536      1.81784391110570
  O          -2.20202983442264      1.81640478749633     -2.17123208938828
  O          -0.72938662205545      2.40602802940939     -0.56445386963644
  H          -1.10609219290586     -1.02595476292984     -2.81869053237413
  H          -1.58410539735984     -1.93405654329406     -1.36926248387776
  H          -2.69199814018129     -0.71762088677211     -2.09429835275350
  C          -4.80592266646569      2.24529124255163     -0.17190355440301
  C          -3.98864467396641     -0.01776817976341      0.59327980222674
  C          -1.04664770346683      3.76655149987936     -0.82464320070322
  H          -4.79693861277329      3.31580898742035      0.08008405905752
  H          -4.45953951734348      2.12567738951668     -1.21076704352690
  H          -5.84154881532064      1.87369650831116     -0.12990803577335
  O          -4.73978434268236     -0.57532054132904     -0.17432388662373
  O          -3.13141459233741     -0.69279345014037      1.39048745158510
  H          -2.10663220204624      3.97140207294827     -0.60761693800092
  H          -0.40416839391739      4.36468213203451     -0.16527386673517
  H          -0.85605985829330      4.02341657168348     -1.87830428372859
  C          -3.21426073823547     -2.11381478096236      1.33337131567149
  H          -2.38982786872355     -2.49591999836976      1.94877878953304
  H          -4.17917267048906     -2.46418754143696      1.73325543208391
  H          -3.12015635307064     -2.47203974965345      0.29830191095913
