61
Coordinates from ORCA-job orca E -1382.073531756612
  C           1.99956784543569      0.70028219062014     -1.14255032259374
  H           2.08580712047349      1.66346991381924     -0.62258921962912
  H           2.97040008826851      0.44006179443194     -1.58400476767896
  C           1.51600389142255     -0.38204010720561     -0.17189053808349
  C           2.44927523015877     -0.55897290692605      1.05535733255828
  H           2.04739065588584     -1.38252392011317      1.66526471399442
  H           2.36087589320465      0.35397742997255      1.66256221793088
  C           3.96031384863852     -0.83625654468840      0.84912766335149
  C           1.35695690891290     -1.69542885049610     -0.93891235623190
  O           1.50773358662353     -1.83572250863411     -2.12843708444918
  O           0.98097943401415     -2.70869101250919     -0.13253026086344
  C           4.68772088644076      0.37642165787143      0.26298656727059
  O           5.48677407885310      0.34427993291337     -0.64070134181991
  O           4.37491297874607      1.51428352992143      0.91618986782344
  C           4.23946012974425     -2.05686956689611     -0.03726765502945
  H           5.31657528343116     -2.27605998998495     -0.05829324443743
  H           3.71049638182072     -2.93687722546198      0.35803188296989
  H           3.92667596910267     -1.89614866520357     -1.07714458789876
  C           4.57684313342288     -1.07329583935549      2.24937346032661
  H           4.14672387993810     -1.98284064774007      2.69830933262441
  H           5.66733670981983     -1.21222906936475      2.17899236733538
  H           4.37856348099466     -0.22595762009925      2.92197366441338
  C           0.77708714043942     -3.97164690876717     -0.76375442079303
  H           0.48981047007328     -4.66974675115161      0.03257216081263
  H          -0.01965114858718     -3.90458284044454     -1.52023237267965
  H           1.69894973636013     -4.31262489487649     -1.25899082865572
  C           5.02321979387175      2.69961305770919      0.45962978001256
  H           4.74950997462401      2.91363867108172     -0.58526965773756
  H           4.68062872330887      3.50944169068306      1.11613910032147
  H           6.11731142347231      2.59557215198863      0.51677461963479
  H           1.29793562432691      0.81530141457202     -1.98011085976478
  C           0.10952206092945     -0.00215971505623      0.42539740400143
  C          -0.97522133526143      0.26436366213172     -0.56954565791320
  H           0.26515297376472      0.88862406148128      1.04846271973170
  H          -0.19685826517741     -0.82923440591437      1.08471811447089
  C          -2.78159150005391      0.70508092090219      1.28555860567825
  C          -1.22729590058999      1.61157761182524     -1.07358084630409
  C          -1.64034061682346     -0.85498915353243     -1.29796186662691
  C          -3.94016929439111      0.84712194603895      0.61209741025030
  H          -2.46441857887386     -0.26969396732114      1.65334718165457
  H          -2.18801109791898      1.57693033222806      1.56742222823226
  O          -1.97169507155434      1.87774413962342     -2.00010005004338
  O          -0.56455229092101      2.57746116323306     -0.38107389768129
  H          -1.01669735220692     -1.18723152962423     -2.14934705253220
  H          -1.79464237862933     -1.72226790432468     -0.63976278841828
  H          -2.60115828093940     -0.53172173404941     -1.72053342518109
  C          -4.46092508141030      2.15938566244270      0.10371732017481
  C          -4.76470159827183     -0.34273925377560      0.25690299942745
  C          -0.77090278815407      3.91168141714098     -0.82990315901346
  H          -3.88613619823330      2.99898429366448      0.52054641801767
  H          -4.38460343117750      2.20013523195303     -0.99521812195411
  H          -5.52458014898207      2.28591635683015      0.35893827751923
  O          -5.79810607514280     -0.28521557143778     -0.37077386883319
  O          -4.24826337399905     -1.51000483162625      0.70314486006269
  H          -1.83303628081649      4.19359233364137     -0.75752581296754
  H          -0.16309884593263      4.55309628588806     -0.17855809422145
  H          -0.45756536061234      4.02773707931959     -1.87915467009776
  C          -4.98802911780349     -2.68165994116106      0.37476974876083
  H          -4.44302486336669     -3.52421327504341      0.81951909614349
  H          -6.00936944662409     -2.63027434255352      0.78279633064264
  H          -5.06021961406881     -2.80751443859020     -0.71700461601433
