104
Coordinates from ORCA-job orca E -2047.534046428576
  C           0.02364971954621     -0.08364074180791     -2.22937335805070
  C           1.04677366618389     -0.19124057287169     -1.07022061079227
  O           1.73357376360709     -1.17497371303226     -0.93752420825833
  O           1.27291831795837      0.84795789759903     -0.27381485061759
  C          -0.87457366226403      1.15794106114023     -2.12144055644273
  H          -1.68743223896440      0.96559413060681     -1.42597189869168
  H          -1.30838745882229      1.36157232496897     -3.10325512630995
  C           0.40365688672482      2.00658545291895     -0.20535506073169
  H          -0.43627124543469      1.71389061294648      0.43454560314301
  C          -0.10748309557171      2.35400551356011     -1.58476412489139
  H          -0.77200342107246      3.21682816793662     -1.51072692286321
  H           0.73445407435941      2.63992606068176     -2.22118665457425
  C          -0.71004973997361     -1.44031860018442     -2.39608072069157
  H           0.07949597186977     -2.19125083837731     -2.40982928756175
  H          -1.14896836928177     -1.44460945779977     -3.39811390537000
  C           0.91558436566638      0.06658955762278     -3.42884682599941
  C           4.41651057626769      0.48445428805809     -2.25573651137009
  H           1.27620307769097      1.04327300080262     -3.72249547418126
  H           1.39792815639531     -0.80885250843276     -3.84295761333363
  C           3.95437956567395      1.86135885821220     -1.88500883316793
  C           4.92977518675020     -0.44142599225795     -1.17961128984557
  C           4.35661642472392      0.15288756545568     -3.53864238478251
  O           3.26010415769188      2.54291541892639     -2.59681181390540
  O           4.34159246134472      2.35768851462537     -0.70581788131114
  H           5.99747726563480     -0.61982933519287     -1.34251855276321
  H           4.41940077105273     -1.40138756914998     -1.26440118876063
  C           4.71678064929445      0.14713083788162      0.20557728310624
  H           3.98734621327283      0.85604464397937     -4.27340695216968
  H           4.67648537222486     -0.82529899894833     -3.87943640156634
  C           5.15197652812335      1.59639145184802      0.21506688083068
  H           5.28712472287729     -0.41452113243731      0.94679284194429
  H           3.66046362885308      0.09055444051616      0.48160853154309
  H           6.19236347289892      1.67642257084319     -0.12798722643798
  C           1.21553081485036      3.08984544302269      0.47481755657093
  H           2.04912119410565      3.37216560879902     -0.17385467352437
  H           1.65053548316238      2.65650188459401      1.38059366525127
  C           5.01085098023105      2.29686146850857      1.55384670822180
  H           3.97828181601465      2.18359801748355      1.89864417717397
  H           5.17052454415387      3.36651521702212      1.38985743063933
  C          -4.52539040232448     -1.46808399797699     -1.13186992353953
  C          -4.35043536495804     -1.83157884233886      0.34570846495218
  O          -3.94401503467030     -2.91720818554208      0.67474577433822
  O          -4.72758944090677     -0.98408866611374      1.29956181439754
  C          -5.30901722495083     -0.15534005761918     -1.27346406768947
  H          -6.36960764788369     -0.34117122413298     -1.07336798318239
  H          -5.24382763318498      0.19239439005781     -2.30768890638638
  C          -5.03104251701389      0.41580162086171      1.11753091164171
  H          -6.10128086068870      0.50055918408899      1.34143836614633
  C          -4.79127681078803      0.88656321407192     -0.30254318023206
  H          -5.30400319457648      1.83953890397414     -0.44303623777804
  H          -3.72325169482967      1.06085797351700     -0.45127481678729
  C          -5.36314990478644     -2.59605793009778     -1.75396223882566
  H          -4.86871039092436     -3.56168753862591     -1.68503465702843
  H          -5.55429666098785     -2.37135723399323     -2.80583792172589
  C          -3.16791817466070     -1.29745675573503     -1.88812219696735
  C          -1.84096369334085     -1.94334252298325     -1.42830559406729
  H          -2.99522628374686     -0.23145503559481     -1.99265679282456
  H          -3.33844654920642     -1.66431904930493     -2.90534507042519
  C          -1.47205021331008     -1.48555721369302     -0.02020832446134
  C          -1.90324554571929     -3.48919697027175     -1.56342367716150
  O          -1.85783071603169     -0.42946072169880      0.42814182232011
  O          -0.64666625572892     -2.21821157916717      0.70617931712972
  H          -1.43965252997016     -3.75980676970502     -2.51548278978103
  H          -2.94039240439259     -3.80276868143128     -1.62329144299657
  C          -1.24439062589272     -4.25293003485784     -0.41685076988539
  C          -0.11436548453185     -3.46481055368690      0.20442149206077
  H          -0.86894676939689     -5.21283447578072     -0.77464979906559
  H          -1.98406708036156     -4.45038121041691      0.36166291090271
  H           0.65168900746691     -3.21083649566295     -0.53358172072615
  C          -4.22913056641754      1.16360190085979      2.16966056622239
  H          -3.16993349427233      0.96369788706920      1.98741681080159
  H          -4.46856623013425      0.73231629161713      3.14573371617270
  C           0.54999804504690     -4.12832316249406      1.39452534897365
  H          -0.21637128182682     -4.37556680431558      2.13626511541065
  H           1.21068242585199     -3.38889019665521      1.85575913072658
  H          -6.32618680888428     -2.68406780572886     -1.24693369492388
  C          -4.49305835274842      2.66495306184074      2.19009666099716
  H          -5.56933335104327      2.85197557956087      2.27936408698010
  H          -4.18157980983702      3.10940479465081      1.23998845444968
  C           1.35433072146610     -5.36967099446533      1.02651139061778
  H           0.69399358849621     -6.13175278000848      0.60236605983764
  H           2.07430970540127     -5.11412426796030      0.24179158225397
  C           0.39448734199175      4.31797937731311      0.84930168619461
  H          -0.47410609707341      4.01333573680220      1.44398357766267
  H          -0.00201162303444      4.79087367306570     -0.05380552227496
  C           5.98053564622170      1.79213284223955      2.61594507596888
  H           5.78351088232203      0.73850802543770      2.83265713910682
  H           7.00308514077825      1.83961596226373      2.22582096944710
  C           5.89178370300347      2.59558500813060      3.90692656352264
  H           6.59650443263135      2.22711914772453      4.65405604211976
  H           6.11490648597141      3.65008863416025      3.72882424012748
  H           4.88942252731006      2.53834663373594      4.33762405191794
  C           1.21611034691558      5.33709442449196      1.62786466868327
  H           2.07863588607769      5.66804859486101      1.04489073746040
  H           0.62437745886557      6.21823521679416      1.88156761105779
  H           1.59329058492811      4.90834824266182      2.55952487314098
  C          -3.75939452390308      3.36134960747005      3.32919615267733
  H          -3.93365778929563      4.43868835196406      3.31679756293686
  H          -4.08701681640074      2.98056505857442      4.29912318497498
  H          -2.68171727500188      3.19624481640609      3.25749469437130
  C           2.09083631227103     -5.95660342913987      2.22365826043846
  H           1.39127192789242     -6.23979480157786      3.01351961190357
  H           2.65857052119605     -6.84634565738377      1.94599103920429
  H           2.79088783971239     -5.23251306017463      2.64697001902698
