104
Coordinates from ORCA-job orca E -2047.527409395549
  C      -0.050816     -0.059505     -2.433003
  C       1.024340     -0.194549     -1.310890
  O       1.729372     -1.178452     -1.240444
  O       1.254649      0.817953     -0.473666
  C      -0.936522      1.196728     -2.276565
  H      -1.754256      0.992879     -1.578989
  H      -1.381746      1.437542     -3.255057
  C       0.387435      1.981206     -0.345738
  H      -0.448276      1.656955      0.296865
  C      -0.148139      2.373872     -1.710933
  H      -0.809623      3.247439     -1.600873
  H       0.693624      2.675268     -2.355786
  C      -0.807846     -1.414316     -2.561219
  H      -0.017770     -2.174066     -2.621405
  H      -1.307449     -1.418250     -3.543635
  C       0.778124      0.090769     -3.683749
  C       4.449967      0.251102     -2.105184
  H       1.176127      1.069458     -3.958771
  H       1.239913     -0.794167     -4.128171
  C       3.913946      1.625065     -1.816911
  C       4.918481     -0.621170     -0.958707
  C       4.455748     -0.142059     -3.385842
  O       3.226479      2.253248     -2.591627
  O       4.222234      2.179635     -0.629553
  H       6.009111     -0.779124     -1.043091
  H       4.436118     -1.606423     -1.042396
  C       4.596752      0.014110      0.390857
  H       4.095434      0.525219     -4.171364
  H       4.817081     -1.134427     -3.671305
  C       4.997931      1.480499      0.372170
  H       5.126480     -0.510804      1.200331
  H       3.515409     -0.053159      0.590892
  H       6.064272      1.570821      0.084381
  C       1.199838      3.043726      0.376755
  H       2.039076      3.361704     -0.261500
  H       1.647361      2.567803      1.265418
  C       4.774255      2.232047      1.678362
  H       3.730361      2.077525      2.000315
  H       4.877006      3.309774      1.465204
  C      -4.548391     -1.459594     -1.051302
  C      -4.251770     -1.805095      0.418505
  O      -3.790133     -2.879899      0.727241
  O      -4.585964     -0.947191      1.387849
  C      -5.369789     -0.156240     -1.144155
  H      -6.416992     -0.360383     -0.858685
  H      -5.395589      0.184651     -2.192367
  C      -4.903456      0.456760      1.223378
  H      -5.958282      0.544880      1.544060
  C      -4.796601      0.913646     -0.225560
  H      -5.344728      1.861843     -0.337046
  H      -3.742739      1.108949     -0.472648
  C      -5.409039     -2.619192     -1.596843
  H      -4.882716     -3.580122     -1.548422
  H      -5.685358     -2.417307     -2.644442
  C      -3.246515     -1.278628     -1.910307
  C      -1.884421     -1.906948     -1.517426
  H      -3.086958     -0.204094     -2.035511
  H      -3.480181     -1.658486     -2.918653
  C      -1.448029     -1.401508     -0.139687
  C      -1.929518     -3.465753     -1.604590
  O      -1.843090     -0.341042      0.306472
  O      -0.550403     -2.094229      0.547905
  H      -1.502384     -3.761637     -2.576418
  H      -2.970347     -3.801732     -1.609342
  C      -1.201955     -4.183585     -0.461572
  C      -0.038196     -3.367376      0.072328
  H      -0.838584     -5.165776     -0.800870
  H      -1.905307     -4.350471      0.367874
  H       0.694098     -3.138815     -0.717812
  C      -4.008135      1.212409      2.201788
  H      -2.962926      0.993812      1.932233
  H      -4.170400      0.782953      3.205169
  C       0.695905     -3.976721      1.257658
  H      -0.035958     -4.208886      2.051611
  H       1.363645     -3.197396      1.662017
  H      -6.338455     -2.722223     -1.014581
  C      -4.249849      2.722621      2.239585
  H      -5.315189      2.927073      2.456565
  H      -4.053557      3.158793      1.244359
  C       1.515611     -5.219680      0.905028
  H       0.849941     -6.019472      0.535419
  H       2.196201     -4.979590      0.067611
  C       0.369880      4.250501      0.820546
  H      -0.505304      3.904537      1.401626
  H      -0.039489      4.773012     -0.061941
  C       5.735807      1.835697      2.800550
  H       5.626251      0.761060      3.029128
  H       6.777404      1.966823      2.453694
  C       5.514634      2.646755      4.077442
  H       6.214716      2.347576      4.873719
  H       5.655474      3.725417      3.895140
  H       4.490607      2.509284      4.463400
  C       1.182646      5.239649      1.656215
  H       2.051200      5.615474      1.089995
  H       0.577779      6.108999      1.960491
  H       1.569390      4.763162      2.572914
  C      -3.370984      3.427334      3.273505
  H      -3.547626      4.514912      3.284313
  H      -3.563500      3.045359      4.290040
  H      -2.301617      3.262850      3.058729
  C       2.326058     -5.747125      2.089126
  H       1.668949     -6.021701      2.931405
  H       2.909272     -6.640991      1.815416
  H       3.032885     -4.985401      2.458985
104
Coordinates from ORCA-job orca E -2047.532441446488
  C      -0.052997     -0.069418     -2.356745
  C       1.023432     -0.184397     -1.244970
  O       1.731445     -1.159434     -1.170324
  O       1.257571      0.832988     -0.423548
  C      -0.936222      1.182708     -2.214819
  H      -1.744559      0.990526     -1.514714
  H      -1.380777      1.407199     -3.187615
  C       0.387836      1.989349     -0.308802
  H      -0.438540      1.674914      0.338062
  C      -0.150048      2.364436     -1.671695
  H      -0.807865      3.230343     -1.569906
  H       0.681574      2.657678     -2.319852
  C      -0.803651     -1.425412     -2.480202
  H      -0.015988     -2.176216     -2.546634
  H      -1.300743     -1.425440     -3.455161
  C       0.774267      0.066918     -3.604695
  C       4.437542      0.255763     -2.074215
  H       1.163888      1.034033     -3.895603
  H       1.230312     -0.815657     -4.035446
  C       3.906103      1.628555     -1.797464
  C       4.914792     -0.600032     -0.925567
  C       4.441406     -0.144372     -3.340995
  O       3.216258      2.244538     -2.570803
  O       4.220336      2.197727     -0.625961
  H       5.995446     -0.754445     -1.016639
  H       4.437210     -1.578845     -0.992331
  C       4.604365      0.049849      0.413952
  H       4.081700      0.510181     -4.123945
  H       4.800904     -1.129282     -3.616413
  C       5.003214      1.510646      0.371930
  H       5.138816     -0.458746      1.218353
  H       3.532680     -0.015786      0.625003
  H       6.058539      1.599980      0.077289
  C       1.201667      3.058146      0.390639
  H       2.030449      3.369830     -0.251707
  H       1.653285      2.597279      1.274529
  C       4.782919      2.273949      1.665407
  H       3.749157      2.121404      1.993474
  H       4.882898      3.341152      1.443710
  C      -4.553994     -1.446591     -1.014368
  C      -4.325011     -1.766188      0.467907
  O      -3.922354     -2.846202      0.818682
  O      -4.676377     -0.888737      1.405621
  C      -5.342740     -0.136817     -1.160260
  H      -6.394409     -0.314806     -0.909339
  H      -5.324035      0.179538     -2.206857
  C      -4.951844      0.513996      1.197878
  H      -6.005852      0.633747      1.477323
  C      -4.781391      0.936330     -0.248441
  H      -5.300414      1.885193     -0.397273
  H      -3.722157      1.103693     -0.456769
  C      -5.421566     -2.588573     -1.568038
  H      -4.927834     -3.553870     -1.488067
  H      -5.653917     -2.396617     -2.618527
  C      -3.230869     -1.297710     -1.840161
  C      -1.876798     -1.939943     -1.449319
  H      -3.057511     -0.233176     -1.963538
  H      -3.456553     -1.667907     -2.845641
  C      -1.435156     -1.486818     -0.059909
  C      -1.923246     -3.487271     -1.591559
  O      -1.821934     -0.448229      0.427918
  O      -0.540626     -2.201432      0.598992
  H      -1.504006     -3.743805     -2.568251
  H      -2.956036     -3.820308     -1.602477
  C      -1.189404     -4.244901     -0.486551
  C      -0.029987     -3.446325      0.065290
  H      -0.826660     -5.202327     -0.865487
  H      -1.880141     -4.447761      0.334316
  H       0.687825     -3.183524     -0.716648
  C      -4.070871      1.267215      2.181573
  H      -3.031704      1.015389      1.953932
  H      -4.275661      0.876668      3.183085
  C       0.715277     -4.097905      1.213155
  H      -0.001410     -4.374426      1.994144
  H       1.374124     -3.338098      1.644466
  H      -6.364674     -2.656095     -1.020977
  C      -4.269090      2.777833      2.162592
  H      -5.323656      3.019375      2.341946
  H      -4.032213      3.171792      1.168730
  C       1.542852     -5.305806      0.790927
  H       0.889297     -6.088533      0.392670
  H       2.207996     -5.016104     -0.031021
  C       0.372541      4.261965      0.822270
  H      -0.490567      3.923506      1.408369
  H      -0.037909      4.769342     -0.056521
  C       5.747641      1.888724      2.780332
  H       5.639109      0.825993      3.018766
  H       6.778228      2.017282      2.430360
  C       5.530313      2.711198      4.043406
  H       6.228110      2.423785      4.831928
  H       5.668609      3.777891      3.848983
  H       4.517132      2.577169      4.431048
  C       1.188468      5.255114      1.639087
  H       2.045602      5.620601      1.067819
  H       0.590367      6.119450      1.934100
  H       1.576341      4.791765      2.550354
  C      -3.397802      3.481363      3.194736
  H      -3.535822      4.563965      3.166572
  H      -3.629466      3.141050      4.207145
  H      -2.339054      3.274246      3.015430
  C       2.366808     -5.874885      1.938254
  H       1.725584     -6.195038      2.763584
  H       2.953722     -6.738459      1.619445
  H       3.060568     -5.128217      2.333311
104
Coordinates from ORCA-job orca E -2047.532185637319
  C      -0.044426     -0.055014     -2.393532
  C       1.027163     -0.183979     -1.284226
  O       1.735836     -1.157657     -1.225075
  O       1.260467      0.818591     -0.448151
  C      -0.928883      1.190123     -2.232283
  H      -1.731237      0.986214     -1.529874
  H      -1.378121      1.425268     -3.197548
  C       0.389118      1.969485     -0.319745
  H      -0.437046      1.647470      0.321033
  C      -0.145436      2.364367     -1.675874
  H      -0.803422      3.225374     -1.561885
  H       0.683986      2.666579     -2.318783
  C      -0.796015     -1.404965     -2.528278
  H      -0.013860     -2.159170     -2.584312
  H      -1.286985     -1.404418     -3.503900
  C       0.787742      0.095293     -3.634772
  C       4.439105      0.267488     -2.119015
  H       1.173969      1.063969     -3.915721
  H       1.242122     -0.780543     -4.074075
  C       3.912803      1.636778     -1.820675
  C       4.916531     -0.604726     -0.984551
  C       4.448496     -0.109148     -3.388350
  O       3.224908      2.264566     -2.583469
  O       4.228774      2.188540     -0.644561
  H       5.993960     -0.758325     -1.080498
  H       4.438055     -1.579439     -1.062552
  C       4.611348      0.026443      0.363048
  H       4.093259      0.557375     -4.159861
  H       4.807249     -1.087282     -3.678753
  C       5.011880      1.485122      0.339900
  H       5.147414     -0.492006      1.156479
  H       3.542796     -0.041838      0.577491
  H       6.064144      1.578326      0.045614
  C       1.201562      3.027569      0.393253
  H       2.027357      3.349607     -0.244380
  H       1.654221      2.554932      1.267343
  C       4.791899      2.227426      1.643942
  H       3.760616      2.069869      1.969395
  H       4.893632      3.295646      1.441576
  C      -4.530267     -1.461925     -1.067136
  C      -4.251078     -1.816158      0.394974
  O      -3.780157     -2.881910      0.697458
  O      -4.579524     -0.970158      1.367649
  C      -5.340439     -0.163579     -1.160712
  H      -6.379960     -0.364153     -0.888593
  H      -5.351725      0.178923     -2.196615
  C      -4.894949      0.428737      1.201463
  H      -5.941511      0.512799      1.510065
  C      -4.772045      0.891814     -0.235348
  H      -5.309424      1.832877     -0.343637
  H      -3.722888      1.083192     -0.465566
  C      -5.384695     -2.607432     -1.627152
  H      -4.869866     -3.561646     -1.581458
  H      -5.643923     -2.395266     -2.664772
  C      -3.228929     -1.277675     -1.904406
  C      -1.875000     -1.894640     -1.498969
  H      -3.079002     -0.212584     -2.032886
  H      -3.449284     -1.664421     -2.902566
  C      -1.446912     -1.384615     -0.129343
  C      -1.932260     -3.442900     -1.572352
  O      -1.818170     -0.315408      0.294579
  O      -0.569132     -2.074001      0.575160
  H      -1.504231     -3.749248     -2.527677
  H      -2.968235     -3.763136     -1.581076
  C      -1.227499     -4.153237     -0.420407
  C      -0.065964     -3.343746      0.103827
  H      -0.874450     -5.131289     -0.744070
  H      -1.931068     -4.303866      0.399293
  H       0.659765     -3.125828     -0.682114
  C      -4.010992      1.186180      2.178125
  H      -2.971954      0.982433      1.913706
  H      -4.170764      0.764070      3.171996
  C       0.661416     -3.952215      1.284479
  H      -0.063369     -4.189017      2.067206
  H       1.323694     -3.184367      1.688849
  H      -6.310666     -2.707437     -1.061432
  C      -4.270946      2.686717      2.206276
  H      -5.328647      2.875883      2.410776
  H      -4.069340      3.117454      1.222981
  C       1.478373     -5.183685      0.918784
  H       0.821311     -5.972989      0.547762
  H       2.153773     -4.934272      0.095718
  C       0.371322      4.221968      0.842679
  H      -0.488679      3.874577      1.423318
  H      -0.037666      4.741388     -0.026184
  C       5.754741      1.821152      2.750847
  H       5.642030      0.758117      2.972352
  H       6.783090      1.953049      2.404384
  C       5.538385      2.624246      4.024603
  H       6.233375      2.323186      4.806729
  H       5.680201      3.690384      3.846125
  H       4.527038      2.486937      4.407976
  C       1.187623      5.200345      1.673806
  H       2.042675      5.572307      1.108928
  H       0.591313      6.058242      1.980852
  H       1.573354      4.723183      2.575452
  C      -3.417044      3.399073      3.245939
  H      -3.607692      4.471242      3.252056
  H      -3.616362      3.019245      4.248076
  H      -2.355167      3.251846      3.045739
  C       2.283185     -5.713329      2.096102
  H       1.631197     -5.989473      2.925155
  H       2.860275     -6.594606      1.819870
  H       2.981169     -4.960884      2.464012
104
Coordinates from ORCA-job orca E -2047.533141494230
  C      -0.046719     -0.060185     -2.366308
  C       1.018465     -0.176455     -1.247217
  O       1.724542     -1.152212     -1.169172
  O       1.251207      0.839899     -0.426041
  C      -0.928954      1.191100     -2.230672
  H      -1.737904      1.001102     -1.530560
  H      -1.370971      1.413069     -3.204590
  C       0.384372      1.997965     -0.321240
  H      -0.446679      1.690486      0.322124
  C      -0.143657      2.372357     -1.687183
  H      -0.800520      3.238703     -1.589956
  H       0.691126      2.662491     -2.331562
  C      -0.798085     -1.412749     -2.497875
  H      -0.012387     -2.165271     -2.558560
  H      -1.289573     -1.410897     -3.475054
  C       0.796057      0.073415     -3.603606
  C       4.437831      0.252747     -2.078156
  H       1.186932      1.038790     -3.896582
  H       1.249982     -0.811109     -4.030991
  C       3.916608      1.630256     -1.803325
  C       4.907709     -0.603723     -0.927150
  C       4.450965     -0.144652     -3.343176
  O       3.234252      2.249796     -2.579554
  O       4.230895      2.199101     -0.633977
  H       5.986829     -0.763755     -1.016992
  H       4.424560     -1.579169     -0.991105
  C       4.600285      0.050222      0.410113
  H       4.100717      0.511973     -4.128400
  H       4.807069     -1.130909     -3.617213
  C       5.006880      1.507819      0.365958
  H       5.132634     -0.458659      1.214865
  H       3.529151     -0.011554      0.622122
  H       6.062539      1.592062      0.074327
  C       1.198128      3.066015      0.378306
  H       2.028621      3.374812     -0.262169
  H       1.645852      2.605675      1.263756
  C       4.785136      2.271666      1.658642
  H       3.750096      2.123306      1.981976
  H       4.892920      3.337996      1.440122
  C      -4.538994     -1.453849     -1.030590
  C      -4.277591     -1.791721      0.440013
  O      -3.844434     -2.868209      0.763694
  O      -4.614998     -0.932125      1.398419
  C      -5.341750     -0.150505     -1.146297
  H      -6.386522     -0.342107     -0.880277
  H      -5.342449      0.180120     -2.188089
  C      -4.914345      0.468622      1.213975
  H      -5.963897      0.568625      1.514483
  C      -4.775480      0.913527     -0.228215
  H      -5.307001      1.858132     -0.352871
  H      -3.722254      1.096323     -0.451628
  C      -5.400207     -2.599163     -1.584859
  H      -4.893781     -3.559160     -1.524898
  H      -5.650212     -2.395881     -2.628550
  C      -3.229039     -1.285960     -1.865393
  C      -1.876011     -1.920150     -1.472091
  H      -3.066402     -0.220338     -1.989777
  H      -3.455355     -1.662913     -2.867672
  C      -1.441119     -1.451956     -0.087660
  C      -1.932439     -3.467368     -1.593719
  O      -1.827147     -0.406085      0.382760
  O      -0.561769     -2.166030      0.591984
  H      -1.510410     -3.742018     -2.563520
  H      -2.968673     -3.790342     -1.605004
  C      -1.214578     -4.214777     -0.472303
  C      -0.053704     -3.417146      0.074432
  H      -0.857458     -5.180147     -0.834081
  H      -1.912477     -4.399947      0.346664
  H       0.668186     -3.168133     -0.708158
  C      -4.026706      1.225199      2.189025
  H      -2.987840      0.999644      1.935593
  H      -4.201676      0.818944      3.189096
  C       0.682729     -4.063841      1.230600
  H      -0.038604     -4.327978      2.010414
  H       1.347566     -3.307680      1.657292
  H      -6.333076     -2.684782     -1.024242
  C      -4.257887      2.731362      2.194450
  H      -5.313834      2.945958      2.393944
  H      -4.044154      3.143941      1.203891
  C       1.498735     -5.283732      0.820639
  H       0.838373     -6.062616      0.428261
  H       2.169808     -5.007672      0.000241
  C       0.370632      4.272666      0.803673
  H      -0.495352      3.938337      1.386359
  H      -0.032164      4.779989     -0.077677
  C       5.741634      1.878070      2.777511
  H       5.622115      0.817380      3.015866
  H       6.774133      1.999412      2.433098
  C       5.523956      2.702939      4.038680
  H       6.215250      2.410060      4.830247
  H       5.672616      3.767408      3.843621
  H       4.508230      2.576839      4.420318
  C       1.187189      5.262622      1.623230
  H       2.048800      5.621578      1.055843
  H       0.591978      6.130214      1.912603
  H       1.566266      4.798432      2.536889
  C      -3.388804      3.439759      3.225170
  H      -3.551902      4.518653      3.213054
  H      -3.600572      3.080809      4.234724
  H      -2.328828      3.259980      3.029578
  C       2.312187     -5.850916      1.976077
  H       1.664455     -6.153815      2.801901
  H       2.888549     -6.724714      1.667712
  H       3.014002     -5.108910      2.363655
104
Coordinates from ORCA-job orca E -2047.533057481335
  C      -0.044797     -0.072480     -2.357079
  C       1.022754     -0.187365     -1.239901
  O       1.733484     -1.160485     -1.166161
  O       1.253445      0.828125     -0.416745
  C      -0.933029      1.173605     -2.215400
  H      -1.737809      0.977222     -1.511208
  H      -1.381125      1.395195     -3.187015
  C       0.382291      1.982502     -0.307971
  H      -0.446176      1.671322      0.337746
  C      -0.151426      2.357589     -1.671790
  H      -0.812269      3.220904     -1.570385
  H       0.680078      2.652756     -2.318601
  C      -0.793471     -1.425762     -2.489658
  H      -0.008007     -2.179238     -2.547668
  H      -1.284514     -1.424813     -3.467510
  C       0.796881      0.068085     -3.594695
  C       4.436650      0.258143     -2.091284
  H       1.181117      1.036422     -3.887796
  H       1.252872     -0.813871     -4.025951
  C       3.915185      1.634960     -1.810414
  C       4.914650     -0.599886     -0.944360
  C       4.444380     -0.136385     -3.357562
  O       3.228641      2.255562     -2.582669
  O       4.234351      2.201788     -0.641508
  H       5.993915     -0.757635     -1.041165
  H       4.432725     -1.576465     -1.006838
  C       4.613948      0.050737      0.396223
  H       4.089080      0.521306     -4.140178
  H       4.800454     -1.121928     -3.635832
  C       5.016434      1.509613      0.353482
  H       5.153199     -0.458490      1.196683
  H       3.544241     -0.015582      0.615114
  H       6.070841      1.597502      0.057165
  C       1.194037      3.053138      0.390728
  H       2.019988      3.367031     -0.253632
  H       1.648090      2.592944      1.273463
  C       4.798135      2.269513      1.649467
  H       3.764409      2.117249      1.976287
  H       4.903084      3.337117      1.434149
  C      -4.545762     -1.443153     -1.042548
  C      -4.311628     -1.784545      0.432235
  O      -3.904867     -2.869791      0.762037
  O      -4.657805     -0.923494      1.386261
  C      -5.335148     -0.132242     -1.169019
  H      -6.385943     -0.315144     -0.919555
  H      -5.316433      0.199585     -2.210645
  C      -4.940686      0.480428      1.199015
  H      -5.994257      0.590088      1.483041
  C      -4.774530      0.925794     -0.240366
  H      -5.296199      1.875382     -0.372169
  H      -3.716056      1.100289     -0.446202
  C      -5.412804     -2.578252     -1.609820
  H      -4.919659     -3.544805     -1.542856
  H      -5.644872     -2.371287     -2.657350
  C      -3.223231     -1.285623     -1.863394
  C      -1.873055     -1.925253     -1.463030
  H      -3.054268     -0.220721     -1.989412
  H      -3.443087     -1.662933     -2.867371
  C      -1.431701     -1.448917     -0.083403
  C      -1.932060     -3.473318     -1.575315
  O      -1.788506     -0.383631      0.366858
  O      -0.547600     -2.158837      0.594943
  H      -1.515656     -3.754038     -2.546319
  H      -2.968529     -3.795348     -1.578525
  C      -1.206975     -4.214862     -0.454209
  C      -0.043072     -3.413188      0.081587
  H      -0.851163     -5.182048     -0.813647
  H      -1.899626     -4.396889      0.369912
  H       0.674269     -3.169145     -0.707158
  C      -4.061428      1.227936      2.188964
  H      -3.020806      0.991288      1.952766
  H      -4.257094      0.824270      3.186677
  C       0.700381     -4.053633      1.237147
  H      -0.016726     -4.311983      2.023311
  H       1.369736     -3.296009      1.655038
  H      -6.355198     -2.652141     -1.062862
  C      -4.275837      2.737002      2.190003
  H      -5.332447      2.964063      2.373854
  H      -4.042008      3.146399      1.202285
  C       1.511482     -5.278270      0.829996
  H       0.846586     -6.058613      0.447395
  H       2.178343     -5.009097      0.003412
  C       0.363074      4.255754      0.822054
  H      -0.499148      3.916677      1.408378
  H      -0.045421      4.763124     -0.057107
  C       5.759526      1.874454      2.764226
  H       5.640848      0.813141      3.001835
  H       6.790985      1.997041      2.415936
  C       5.546405      2.697878      4.027632
  H       6.241063      2.403871      4.816420
  H       5.694518      3.762923      3.833029
  H       4.531748      2.570955      4.412939
  C       1.179466      5.247863      1.639923
  H       2.037703      5.610673      1.069103
  H       0.581993      6.113203      1.932921
  H       1.563878      4.783368      2.551653
  C      -3.413562      3.436022      3.233241
  H      -3.562091      4.517392      3.216419
  H      -3.646405      3.081778      4.240238
  H      -2.352737      3.241397      3.054514
  C       2.331168     -5.839633      1.984438
  H       1.687562     -6.134516      2.816886
  H       2.903041     -6.717762      1.678519
  H       3.037989     -5.096480      2.361735
104
Coordinates from ORCA-job orca E -2047.533296841989
  C      -0.042645     -0.066460     -2.353892
  C       1.019613     -0.178707     -1.231828
  O       1.728646     -1.152584     -1.151858
  O       1.249494      0.839748     -0.412261
  C      -0.930367      1.180427     -2.219655
  H      -1.735982      0.987782     -1.515693
  H      -1.376501      1.397972     -3.192943
  C       0.380448      1.996208     -0.312339
  H      -0.450524      1.690687      0.332671
  C      -0.148650      2.365893     -1.679344
  H      -0.808596      3.230338     -1.583448
  H       0.684863      2.656889     -2.325162
  C      -0.790571     -1.419957     -2.489818
  H      -0.004581     -2.172775     -2.546717
  H      -1.278008     -1.417776     -3.469339
  C       0.806594      0.070888     -3.586763
  C       4.434710      0.256807     -2.085046
  H       1.191582      1.037827     -3.882517
  H       1.261737     -0.812741     -4.014919
  C       3.919694      1.637501     -1.810340
  C       4.908853     -0.598018     -0.934121
  C       4.442139     -0.142884     -3.349389
  O       3.237503      2.258132     -2.586399
  O       4.239927      2.207988     -0.643970
  H       5.987351     -0.760267     -1.030197
  H       4.423091     -1.572847     -0.991848
  C       4.610506      0.059638      0.403419
  H       4.090625      0.512728     -4.135232
  H       4.793960     -1.131015     -3.623257
  C       5.017822      1.516790      0.354983
  H       5.148359     -0.447680      1.205847
  H       3.540920     -0.003212      0.622862
  H       6.072799      1.600087      0.060008
  C       1.192772      3.068897      0.382665
  H       2.019831      3.378214     -0.262224
  H       1.644482      2.612319      1.268303
  C       4.799451      2.282419      1.647541
  H       3.764562      2.134837      1.972296
  H       4.909304      3.348715      1.429096
  C      -4.541849     -1.447331     -1.045576
  C      -4.297550     -1.795878      0.425558
  O      -3.872017     -2.876841      0.745838
  O      -4.631909     -0.938374      1.386806
  C      -5.333800     -0.137105     -1.160845
  H      -6.382373     -0.322506     -0.904642
  H      -5.322670      0.199193     -2.200972
  C      -4.920631      0.465317      1.207128
  H      -5.971912      0.570307      1.500606
  C      -4.767593      0.917356     -0.231632
  H      -5.292216      1.866341     -0.354556
  H      -3.711213      1.095295     -0.445180
  C      -5.408967     -2.581456     -1.614468
  H      -4.913374     -3.547100     -1.555380
  H      -5.646716     -2.369051     -2.659484
  C      -3.222883     -1.283895     -1.869124
  C      -1.873675     -1.923850     -1.468753
  H      -3.055847     -0.218637     -1.992297
  H      -3.442892     -1.659852     -2.873486
  C      -1.439344     -1.454534     -0.084497
  C      -1.934336     -3.471056     -1.588890
  O      -1.810588     -0.398456      0.375522
  O      -0.568037     -2.172936      0.601459
  H      -1.513571     -3.747750     -2.559042
  H      -2.971467     -3.790596     -1.598990
  C      -1.217646     -4.220497     -0.467593
  C      -0.058310     -3.422614      0.083359
  H      -0.859117     -5.184887     -0.831260
  H      -1.916519     -4.409013      0.349734
  H       0.665387     -3.172773     -0.697483
  C      -4.035752      1.212144      2.192542
  H      -2.996131      0.981908      1.946036
  H      -4.220642      0.803406      3.190070
  C       0.675469     -4.071377      1.240405
  H      -0.048309     -4.336769      2.017876
  H       1.340617     -3.316918      1.670144
  H      -6.348139     -2.660455     -1.063032
  C      -4.257662      2.720212      2.202802
  H      -5.314236      2.940649      2.393700
  H      -4.030854      3.136101      1.216366
  C       1.491288     -5.292067      0.830769
  H       0.830535     -6.069934      0.436696
  H       2.165324     -5.015761      0.012588
  C       0.363503      4.275460      0.805951
  H      -0.500510      3.941458      1.392167
  H      -0.041448      4.779144     -0.076743
  C       5.756317      1.887407      2.766262
  H       5.630833      0.828249      3.009036
  H       6.789047      2.002821      2.419834
  C       5.544850      2.718551      4.024931
  H       6.235885      2.424532      4.816663
  H       5.699804      3.781454      3.825001
  H       4.528695      2.599344      4.408240
  C       1.180645      5.269735      1.620485
  H       2.041183      5.626689      1.049761
  H       0.584935      6.138233      1.907026
  H       1.561129      4.809001      2.535549
  C      -3.394231      3.417907      3.246093
  H      -3.547009      4.498582      3.234320
  H      -3.622530      3.058484      4.252101
  H      -2.333533      3.228184      3.062917
  C       2.301185     -5.861451      1.988234
  H       1.650385     -6.162481      2.812621
  H       2.875966     -6.736974      1.680902
  H       3.004220     -5.120714      2.376684
104
Coordinates from ORCA-job orca E -2047.533369773750
  C      -0.038165     -0.059321     -2.355477
  C       1.012102     -0.169250     -1.222281
  O       1.716257     -1.145539     -1.129590
  O       1.239639      0.853745     -0.407578
  C      -0.924260      1.189564     -2.234210
  H      -1.732875      1.002900     -1.532533
  H      -1.365199      1.401632     -3.210905
  C       0.374959      2.014287     -0.323378
  H      -0.462010      1.718093      0.318138
  C      -0.142874      2.376425     -1.696568
  H      -0.800832      3.243253     -1.610785
  H       0.695865      2.660380     -2.338395
  C      -0.786336     -1.411989     -2.496619
  H      -0.000434     -2.164737     -2.553490
  H      -1.271202     -1.407496     -3.477294
  C       0.825744      0.072831     -3.578720
  C       4.430328      0.248824     -2.072225
  H       1.212582      1.037859     -3.877216
  H       1.280610     -0.813431     -4.001082
  C       3.928097      1.636494     -1.807949
  C       4.895905     -0.601947     -0.914866
  C       4.436705     -0.159387     -3.333585
  O       3.255981      2.259022     -2.591307
  O       4.248819      2.211521     -0.644438
  H       5.973165     -0.772626     -1.008445
  H       4.402928     -1.573264     -0.966252
  C       4.599973      0.066256      0.417776
  H       4.093137      0.493609     -4.124896
  H       4.779875     -1.152405     -3.600121
  C       5.016744      1.520164      0.362253
  H       5.133823     -0.439283      1.223839
  H       3.530031      0.009801      0.636368
  H       6.073479      1.594957      0.071994
  C       1.187293      3.089296      0.368263
  H       2.017597      3.390919     -0.275867
  H       1.632984      2.638006      1.259442
  C       4.796239      2.294360      1.649197
  H       3.758321      2.155762      1.967580
  H       4.916303      3.358508      1.426682
  C      -4.531465     -1.449984     -1.040855
  C      -4.267943     -1.802466      0.425619
  O      -3.844106     -2.886884      0.736612
  O      -4.600213     -0.952999      1.394300
  C      -5.329961     -0.142555     -1.143825
  H      -6.375390     -0.333939     -0.879957
  H      -5.328610      0.198585     -2.182270
  C      -4.900436      0.449364      1.223856
  H      -5.949763      0.545964      1.526608
  C      -4.761512      0.909719     -0.213641
  H      -5.292196      1.856397     -0.326863
  H      -3.707952      1.094707     -0.434396
  C      -5.397972     -2.586734     -1.605155
  H      -4.896207     -3.549789     -1.555172
  H      -5.647684     -2.371396     -2.646615
  C      -3.220388     -1.280311     -1.873605
  C      -1.870345     -1.919569     -1.478360
  H      -3.057122     -0.214898     -1.996416
  H      -3.444798     -1.656865     -2.876659
  C      -1.437535     -1.456606     -0.091428
  C      -1.934398     -3.465655     -1.605221
  O      -1.808963     -0.402157      0.372136
  O      -0.575598     -2.182875      0.598089
  H      -1.513298     -3.739493     -2.575884
  H      -2.972796     -3.781408     -1.617698
  C      -1.222851     -4.222556     -0.485709
  C      -0.064901     -3.429565      0.075080
  H      -0.864176     -5.185032     -0.853784
  H      -1.925086     -4.415379      0.327739
  H       0.662971     -3.177015     -0.700917
  C      -4.011916      1.196611      2.205361
  H      -2.973128      0.973419      1.949464
  H      -4.186397      0.783380      3.202746
  C       0.661238     -4.087079      1.231951
  H      -0.066926     -4.350002      2.005935
  H       1.330856     -3.339526      1.666364
  H      -6.330585     -2.673190     -1.044104
  C      -4.241322      2.703506      2.223511
  H      -5.297395      2.918041      2.422719
  H      -4.022459      3.124610      1.237691
  C       1.468055     -5.313493      0.821187
  H       0.801729     -6.084782      0.424063
  H       2.146667     -5.041131      0.005853
  C       0.360566      4.302451      0.777353
  H      -0.507595      3.976888      1.361801
  H      -0.037098      4.800392     -0.111673
  C       5.742167      1.897282      2.776576
  H       5.602480      0.842004      3.027441
  H       6.778004      1.998266      2.435508
  C       5.532973      2.741512      4.026997
  H       6.215466      2.445676      4.825213
  H       5.702415      3.800438      3.818883
  H       4.513222      2.637733      4.404689
  C       1.177757      5.300030      1.587940
  H       2.043105      5.647437      1.018922
  H       0.584606      6.173716      1.863119
  H       1.550364      4.845344      2.509028
  C      -3.374119      3.400095      3.264448
  H      -3.528351      4.480430      3.255356
  H      -3.597889      3.038330      4.270440
  H      -2.314266      3.211834      3.075980
  C       2.269854     -5.892373      1.979688
  H       1.614064     -6.188390      2.801692
  H       2.836905     -6.772650      1.672210
  H       2.978755     -5.158825      2.370608
104
Coordinates from ORCA-job orca E -2047.533515354286
  C      -0.033548     -0.057686     -2.339883
  C       1.007771     -0.162440     -1.198183
  O       1.710263     -1.138835     -1.094566
  O       1.232036      0.865921     -0.388777
  C      -0.923942      1.188220     -2.226201
  H      -1.730777      1.002536     -1.522102
  H      -1.366349      1.393097     -3.203715
  C       0.368213      2.027407     -0.317188
  H      -0.471288      1.738128      0.324470
  C      -0.145676      2.379825     -1.694358
  H      -0.804849      3.246394     -1.615809
  H       0.694575      2.660131     -2.335630
  C      -0.776837     -1.411901     -2.488498
  H       0.010704     -2.163212     -2.542421
  H      -1.255364     -1.405681     -3.472325
  C       0.841747      0.076555     -3.554843
  C       4.419847      0.250982     -2.070036
  H       1.223129      1.042511     -3.856558
  H       1.298693     -0.809295     -3.975493
  C       3.933155      1.645880     -1.812519
  C       4.886527     -0.595798     -0.910204
  C       4.414453     -0.166146     -3.328472
  O       3.267339      2.271344     -2.599195
  O       4.261508      2.224676     -0.653464
  H       5.962068     -0.773799     -1.009747
  H       4.386731     -1.564070     -0.951721
  C       4.602220      0.081721      0.420125
  H       4.073066      0.484039     -4.122986
  H       4.746156     -1.164385     -3.590076
  C       5.025599      1.533041      0.356353
  H       5.139259     -0.421838      1.225382
  H       3.533760      0.028871      0.645988
  H       6.082495      1.601188      0.065239
  C       1.180416      3.108014      0.366540
  H       2.008831      3.404502     -0.282377
  H       1.626702      2.664363      1.261190
  C       4.808254      2.314457      1.639347
  H       3.768569      2.183741      1.955074
  H       4.937391      3.376757      1.413462
  C      -4.529681     -1.449705     -1.050869
  C      -4.275180     -1.812705      0.414834
  O      -3.849206     -2.898011      0.720334
  O      -4.597682     -0.964685      1.387794
  C      -5.319301     -0.136446     -1.148686
  H      -6.366576     -0.322136     -0.888136
  H      -5.312836      0.210087     -2.185287
  C      -4.890794      0.439904      1.223125
  H      -5.940389      0.539931      1.523735
  C      -4.745419      0.906808     -0.211666
  H      -5.269566      1.857661     -0.320589
  H      -3.689928      1.085945     -0.428638
  C      -5.401040     -2.576988     -1.626553
  H      -4.905690     -3.543595     -1.581977
  H      -5.645414     -2.352031     -2.667238
  C      -3.214118     -1.281542     -1.877808
  C      -1.866526     -1.924433     -1.479022
  H      -3.049166     -0.216240     -1.997954
  H      -3.434508     -1.655735     -2.882670
  C      -1.441301     -1.469946     -0.086893
  C      -1.931042     -3.469445     -1.617565
  O      -1.809273     -0.413980      0.376387
  O      -0.594246     -2.206398      0.610020
  H      -1.506051     -3.736084     -2.588537
  H      -2.969736     -3.783638     -1.636711
  C      -1.225520     -4.236634     -0.500944
  C      -0.075426     -3.446113      0.079817
  H      -0.860148     -5.193322     -0.877371
  H      -1.933658     -4.442015      0.304208
  H       0.659879     -3.184538     -0.686141
  C      -4.001463      1.177619      2.211051
  H      -2.962967      0.950397      1.957511
  H      -4.181340      0.761085      3.206088
  C       0.639408     -4.114101      1.237768
  H      -0.096573     -4.382003      2.002597
  H       1.306862     -3.371910      1.684431
  H      -6.336089     -2.661500     -1.069329
  C      -4.222292      2.685911      2.236324
  H      -5.278585      2.905653      2.428346
  H      -3.991859      3.111691      1.255196
  C       1.446930     -5.339719      0.825273
  H       0.781912     -6.106344      0.417246
  H       2.134003     -5.063656      0.018374
  C       0.354430      4.325315      0.764935
  H      -0.513178      4.005900      1.353362
  H      -0.043085      4.814918     -0.128744
  C       5.747665      1.914700      2.771550
  H       5.592168      0.864215      3.032743
  H       6.785201      1.998186      2.430968
  C       5.549058      2.774450      4.013370
  H       6.225650      2.476012      4.815618
  H       5.735402      3.828364      3.794678
  H       4.527161      2.689807      4.389934
  C       1.173158      5.330312      1.565156
  H       2.038525      5.670510      0.991865
  H       0.581059      6.207377      1.831551
  H       1.545435      4.884180      2.490500
  C      -3.359924      3.370108      3.289736
  H      -3.501980      4.452115      3.281449
  H      -3.600473      3.008299      4.291797
  H      -2.300214      3.170089      3.113466
  C       2.236358     -5.929104      1.987271
  H       1.571716     -6.227683      2.801154
  H       2.802727     -6.809532      1.679067
  H       2.944299     -5.200466      2.388905
104
Coordinates from ORCA-job orca E -2047.533622583178
  C      -0.023377     -0.058256     -2.324386
  C       1.005820     -0.156282     -1.171316
  O       1.705296     -1.132764     -1.051500
  O       1.224304      0.879098     -0.368360
  C      -0.920336      1.183281     -2.220015
  H      -1.726101      0.997254     -1.514374
  H      -1.363541      1.379657     -3.198921
  C       0.360424      2.040814     -0.311792
  H      -0.482394      1.758252      0.328891
  C      -0.147824      2.381115     -1.694070
  H      -0.809107      3.246933     -1.625220
  H       0.695120      2.658006     -2.333311
  C      -0.760267     -1.414657     -2.478945
  H       0.029029     -2.164597     -2.527617
  H      -1.232238     -1.408716     -3.466040
  C       0.864145      0.079547     -3.529678
  C       4.407327      0.256236     -2.070226
  H       1.236696      1.047960     -3.834161
  H       1.327239     -0.804510     -3.947233
  C       3.941534      1.659862     -1.820688
  C       4.876346     -0.586935     -0.908939
  C       4.385101     -0.171592     -3.325077
  O       3.284757      2.290538     -2.611053
  O       4.279059      2.241409     -0.665743
  H       5.949722     -0.773501     -1.016321
  H       4.368437     -1.551506     -0.939724
  C       4.606135      0.099905      0.419418
  H       4.046308      0.475830     -4.122945
  H       4.701311     -1.176499     -3.580615
  C       5.037395      1.548172      0.347786
  H       5.146864     -0.402587      1.223035
  H       3.539436      0.051551      0.653868
  H       6.094855      1.608332      0.056898
  C       1.171183      3.128382      0.363153
  H       1.997458      3.419053     -0.291330
  H       1.617963      2.694667      1.262389
  C       4.822610      2.337072      1.626362
  H       3.779757      2.217358      1.935927
  H       4.964546      3.397014      1.397136
  C      -4.521140     -1.442935     -1.059745
  C      -4.280507     -1.817670      0.405388
  O      -3.864440     -2.908175      0.706272
  O      -4.603161     -0.974061      1.381962
  C      -5.302450     -0.124258     -1.154077
  H      -6.352702     -0.305429     -0.902204
  H      -5.286473      0.229311     -2.188226
  C      -4.889266      0.433035      1.224522
  H      -5.941036      0.535866      1.516673
  C      -4.729177      0.909075     -0.205673
  H      -5.246630      1.864014     -0.311701
  H      -3.670777      1.082829     -0.412608
  C      -5.394333     -2.561200     -1.649667
  H      -4.903445     -3.530413     -1.609608
  H      -5.631083     -2.326977     -2.690084
  C      -3.198927     -1.277135     -1.877868
  C      -1.855657     -1.928963     -1.477119
  H      -3.029133     -0.211834     -1.991646
  H      -3.415242     -1.644462     -2.886185
  C      -1.433264     -1.484611     -0.080686
  C      -1.927875     -3.472724     -1.627779
  O      -1.789619     -0.424052      0.381559
  O      -0.606257     -2.236447      0.623086
  H      -1.502198     -3.733457     -2.600012
  H      -2.968505     -3.780864     -1.651966
  C      -1.229622     -4.254050     -0.515939
  C      -0.084596     -3.471093      0.085083
  H      -0.860706     -5.205414     -0.902281
  H      -1.943538     -4.470433      0.281207
  H       0.658646     -3.202203     -0.670676
  C      -4.004765      1.158832      2.225361
  H      -2.965689      0.924297      1.981314
  H      -4.198174      0.739303      3.216657
  C       0.617085     -4.152186      1.243457
  H      -0.127339     -4.423903      1.998798
  H       1.283077     -3.416583      1.703036
  H      -6.333205     -2.645733     -1.098805
  C      -4.211928      2.669017      2.255705
  H      -5.268213      2.898336      2.436428
  H      -3.965126      3.097407      1.279616
  C       1.424333     -5.377234      0.828634
  H       0.760405     -6.137752      0.407588
  H       2.121049     -5.097372      0.031159
  C       0.344439      4.349380      0.748811
  H      -0.521670      4.036121      1.342816
  H      -0.055064      4.827802     -0.150076
  C       5.751047      1.931950      2.765914
  H       5.572896      0.888263      3.039690
  H       6.791049      1.989932      2.427326
  C       5.567403      2.811322      3.996412
  H       6.234354      2.507773      4.804855
  H       5.778230      3.857943      3.765116
  H       4.542482      2.754222      4.370060
  C       1.163534      5.365172      1.535121
  H       2.027009      5.699477      0.955486
  H       0.570684      6.244448      1.792406
  H       1.538707      4.930423      2.464749
  C      -3.354657      3.338681      3.322713
  H      -3.480023      4.422800      3.313848
  H      -3.615438      2.979347      4.320613
  H      -2.295719      3.122471      3.160879
  C       2.199086     -5.979849      1.993880
  H       1.524196     -6.282324      2.797869
  H       2.764910     -6.860099      1.684061
  H       2.905568     -5.257463      2.409270
104
Coordinates from ORCA-job orca E -2047.533683198097
  C      -0.019165     -0.055752     -2.317754
  C       1.001960     -0.152211     -1.157141
  O       1.696408     -1.130479     -1.025249
  O       1.218906      0.887667     -0.358698
  C      -0.916979      1.185895     -2.218610
  H      -1.723266      1.001368     -1.513445
  H      -1.359253      1.379033     -3.198635
  C       0.357021      2.051108     -0.309836
  H      -0.488509      1.772451      0.329237
  C      -0.146367      2.385715     -1.695175
  H      -0.807300      3.252295     -1.632738
  H       0.699614      2.660118     -2.331580
  C      -0.753880     -1.413192     -2.475981
  H       0.036539     -2.162352     -2.520551
  H      -1.221104     -1.408131     -3.465388
  C       0.874057      0.083479     -3.518013
  C       4.399155      0.261430     -2.074227
  H       1.241708      1.053878     -3.822444
  H       1.342455     -0.799075     -3.932849
  C       3.949444      1.670327     -1.827591
  C       4.868574     -0.582806     -0.914372
  C       4.366619     -0.170408     -3.327721
  O       3.299830      2.307164     -2.618873
  O       4.293107      2.249942     -0.673116
  H       5.940434     -0.775158     -1.026760
  H       4.354985     -1.544419     -0.941611
  C       4.607019      0.106220      0.414531
  H       4.031532      0.477838     -4.126466
  H       4.671841     -1.179408     -3.580710
  C       5.045474      1.552208      0.341952
  H       5.148630     -0.398751      1.216105
  H       3.540978      0.062351      0.653695
  H       6.103784      1.606263      0.052797
  C       1.168415      3.140873      0.361024
  H       1.994304      3.427067     -0.296062
  H       1.614133      2.712366      1.263263
  C       4.832008      2.343316      1.619202
  H       3.785899      2.233702      1.921525
  H       4.985613      3.401639      1.389881
  C      -4.520762     -1.444536     -1.068227
  C      -4.285150     -1.826880      0.395882
  O      -3.879453     -2.922073      0.693377
  O      -4.605993     -0.985539      1.375085
  C      -5.295305     -0.121738     -1.158056
  H      -6.346972     -0.298633     -0.908793
  H      -5.276049      0.236269     -2.190670
  C      -4.885782      0.423545      1.223341
  H      -5.938419      0.529419      1.511366
  C      -4.718464      0.904889     -0.204186
  H      -5.230026      1.863268     -0.307743
  H      -3.658295      1.072821     -0.407352
  C      -5.398304     -2.556078     -1.664578
  H      -4.911661     -3.527427     -1.627582
  H      -5.632316     -2.316970     -2.704531
  C      -3.196225     -1.280169     -1.883516
  C      -1.852570     -1.930318     -1.479301
  H      -3.026938     -0.215049     -1.997153
  H      -3.410094     -1.647522     -2.892339
  C      -1.436655     -1.488009     -0.080044
  C      -1.920720     -3.473922     -1.633995
  O      -1.787329     -0.423228      0.377028
  O      -0.613786     -2.240736      0.626843
  H      -1.490513     -3.730838     -2.605262
  H      -2.960263     -3.784433     -1.663621
  C      -1.225600     -4.257109     -0.521493
  C      -0.086498     -3.473294      0.089059
  H      -0.850986     -5.205686     -0.909384
  H      -1.943077     -4.478175      0.271151
  H       0.661109     -3.200658     -0.661308
  C      -4.002348      1.140224      2.231709
  H      -2.963222      0.901773      1.990974
  H      -4.202402      0.716061      3.219753
  C       0.608123     -4.155861      1.250821
  H      -0.140567     -4.422035      2.003942
  H       1.275499     -3.422235      1.711676
  H      -6.338756     -2.638973     -1.116023
  C      -4.202787      2.651110      2.269467
  H      -5.259504      2.884070      2.443058
  H      -3.946886      3.084193      1.297717
  C       1.410146     -5.386229      0.842105
  H       0.743683     -6.143887      0.419616
  H       2.111494     -5.112799      0.046595
  C       0.342519      4.364607      0.739713
  H      -0.522464      4.055328      1.337428
  H      -0.059219      4.836720     -0.161591
  C       5.749543      1.929660      2.764348
  H       5.553246      0.890553      3.043333
  H       6.791668      1.967757      2.429137
  C       5.576682      2.819008      3.989066
  H       6.234585      2.508354      4.802257
  H       5.806722      3.860555      3.753002
  H       4.549306      2.782438      4.358744
  C       1.162437      5.386371      1.517155
  H       2.023652      5.718680      0.932958
  H       0.568988      6.266230      1.771137
  H       1.541496      4.958048      2.448258
  C      -3.351236      3.311188      3.347022
  H      -3.471626      4.395951      3.343019
  H      -3.621582      2.947934      4.340975
  H      -2.291973      3.091444      3.192530
  C       2.176266     -5.991082      2.011743
  H       1.495972     -6.289235      2.812843
  H       2.739240     -6.874550      1.705822
  H       2.884191     -5.271753      2.430109
104
Coordinates from ORCA-job orca E -2047.533719054926
  C      -0.011259     -0.056416     -2.320362
  C       0.999616     -0.150107     -1.150458
  O       1.686683     -1.130946     -1.002223
  O       1.214532      0.895422     -0.358300
  C      -0.907665      1.187521     -2.232145
  H      -1.719049      1.007020     -1.531833
  H      -1.343577      1.376933     -3.215787
  C       0.355075      2.061059     -0.319584
  H      -0.494717      1.786438      0.315766
  C      -0.139281      2.388911     -1.709816
  H      -0.798996      3.257087     -1.657372
  H       0.712275      2.659644     -2.340590
  C      -0.747353     -1.413403     -2.475429
  H       0.042425     -2.163518     -2.515860
  H      -1.214018     -1.411888     -3.465110
  C       0.887950      0.077475     -3.515921
  C       4.398872      0.264166     -2.074340
  H       1.253073      1.048694     -3.821174
  H       1.364023     -0.805114     -3.921919
  C       3.963239      1.677531     -1.832367
  C       4.863076     -0.581414     -0.913867
  C       4.361880     -0.171456     -3.326639
  O       3.323237      2.319888     -2.626752
  O       4.307870      2.254877     -0.676459
  H       5.934028     -0.779037     -1.025730
  H       4.344394     -1.540345     -0.941138
  C       4.603541      0.109255      0.414637
  H       4.033186      0.477662     -4.127326
  H       4.657563     -1.184355     -3.575490
  C       5.050119      1.552925      0.343097
  H       5.141436     -0.398705      1.216870
  H       3.536958      0.071576      0.653144
  H       6.110471      1.600675      0.060215
  C       1.165944      3.152469      0.349001
  H       1.994727      3.432691     -0.307196
  H       1.606666      2.729509      1.256311
  C       4.832951      2.346421      1.618195
  H       3.782129      2.248727      1.908115
  H       5.000026      3.402769      1.388915
  C      -4.514145     -1.440135     -1.063512
  C      -4.281014     -1.828327      0.399448
  O      -3.871640     -2.922823      0.693817
  O      -4.605035     -0.990648      1.380850
  C      -5.292493     -0.119438     -1.149375
  H      -6.344053     -0.300612     -0.902481
  H      -5.273469      0.242570     -2.180643
  C      -4.888218      0.418423      1.234580
  H      -5.941562      0.520715      1.521490
  C      -4.721057      0.906080     -0.190853
  H      -5.236094      1.862888     -0.291649
  H      -3.661508      1.078737     -0.392289
  C      -5.387615     -2.551814     -1.665297
  H      -4.897320     -3.521473     -1.630538
  H      -5.620925     -2.310714     -2.704985
  C      -3.188479     -1.271462     -1.876706
  C      -1.845493     -1.926365     -1.476652
  H      -3.017679     -0.205758     -1.983408
  H      -3.402758     -1.631510     -2.888038
  C      -1.422501     -1.487062     -0.078102
  C      -1.920739     -3.469704     -1.632721
  O      -1.763198     -0.419034      0.379226
  O      -0.601595     -2.244485      0.625229
  H      -1.493063     -3.727326     -2.604942
  H      -2.961613     -3.775923     -1.661799
  C      -1.227977     -4.257284     -0.522091
  C      -0.083124     -3.480670      0.086193
  H      -0.859207     -5.207719     -0.911029
  H      -1.945342     -4.473472      0.272063
  H       0.664145     -3.211382     -0.665766
  C      -4.007243      1.132151      2.247028
  H      -2.967731      0.894714      2.006852
  H      -4.208891      0.703616      3.232913
  C       0.610338     -4.166761      1.246545
  H      -0.137648     -4.424566      2.003314
  H       1.284523     -3.436695      1.703308
  H      -6.328910     -2.640027     -1.118963
  C      -4.208655      2.642440      2.289501
  H      -5.265609      2.874335      2.463595
  H      -3.953951      3.078562      1.318699
  C       1.401468     -5.403757      0.837737
  H       0.728170     -6.156973      0.417955
  H       2.102028     -5.137477      0.039017
  C       0.340457      4.379633      0.717365
  H      -0.525465      4.074867      1.316094
  H      -0.060875      4.845285     -0.187546
  C       5.733963      1.923834      2.772755
  H       5.519979      0.888695      3.053755
  H       6.779504      1.943788      2.446324
  C       5.564372      2.820121      3.992514
  H       6.209958      2.502756      4.812988
  H       5.811653      3.857468      3.755187
  H       4.533302      2.800850      4.353372
  C       1.158911      5.407215      1.488185
  H       2.019411      5.738174      0.902099
  H       0.563965      6.287412      1.737621
  H       1.539505      4.985462      2.421737
  C      -3.356728      3.300341      3.367695
  H      -3.479878      4.384862      3.368696
  H      -3.623507      2.932385      4.360917
  H      -2.297149      3.084189      3.209911
  C       2.166437     -6.012821      2.005623
  H       1.486306     -6.307030      2.808381
  H       2.723637     -6.899648      1.698737
  H       2.879481     -5.297929      2.423022
104
Coordinates from ORCA-job orca E -2047.533757967784
  C      -0.006252     -0.059499     -2.314854
  C       1.009418     -0.154230     -1.149322
  O       1.697307     -1.134600     -1.003258
  O       1.225652      0.890663     -0.356716
  C      -0.905994      1.181773     -2.218143
  H      -1.715299      0.995804     -1.516449
  H      -1.345741      1.373783     -3.199582
  C       0.361992      2.052970     -0.307641
  H      -0.483320      1.771329      0.330732
  C      -0.140254      2.384018     -1.694415
  H      -0.802873      3.249679     -1.637105
  H       0.708459      2.661441     -2.326361
  C      -0.740136     -1.417843     -2.468829
  H       0.050539     -2.167254     -2.502845
  H      -1.202488     -1.419984     -3.460481
  C       0.884328      0.080575     -3.515669
  C       4.403425      0.288070     -2.103996
  H       1.241158      1.055863     -3.817983
  H       1.368207     -0.797109     -3.923102
  C       3.969752      1.699122     -1.848952
  C       4.876551     -0.566115     -0.953744
  C       4.356210     -0.139346     -3.358909
  O       3.325676      2.347891     -2.634384
  O       4.320030      2.266454     -0.689360
  H       5.947351     -0.759728     -1.073584
  H       4.360161     -1.526175     -0.987257
  C       4.623281      0.112086      0.382484
  H       4.020932      0.515431     -4.152243
  H       4.649530     -1.150888     -3.615951
  C       5.067384      1.557244      0.321141
  H       5.166229     -0.402354      1.177101
  H       3.558205      0.072276      0.627241
  H       6.126669      1.609160      0.034934
  C       1.173120      3.144072      0.360671
  H       1.997922      3.428891     -0.298677
  H       1.619375      2.720042      1.264805
  C       4.853238      2.340119      1.603442
  H       3.801774      2.243842      1.891417
  H       5.022590      3.397809      1.381783
  C      -4.513996     -1.438844     -1.080596
  C      -4.290410     -1.830106      0.383106
  O      -3.893861     -2.928705      0.679090
  O      -4.624236     -0.994750      1.363267
  C      -5.287109     -0.115438     -1.169012
  H      -6.341121     -0.293729     -0.930558
  H      -5.259622      0.249088     -2.199233
  C      -4.902386      0.415324      1.218966
  H      -5.958459      0.519375      1.495136
  C      -4.720131      0.906253     -0.203471
  H      -5.230647      1.865159     -0.307047
  H      -3.657962      1.074943     -0.395265
  C      -5.387407     -2.547134     -1.688802
  H      -4.899998     -3.518230     -1.651404
  H      -5.613656     -2.305335     -2.729907
  C      -3.183490     -1.273841     -1.885898
  C      -1.843847     -1.928057     -1.475188
  H      -3.010279     -0.208367     -1.993028
  H      -3.392099     -1.635436     -2.897838
  C      -1.431245     -1.482159     -0.075573
  C      -1.916399     -3.472408     -1.626087
  O      -1.783700     -0.416223      0.377982
  O      -0.616876     -2.236833      0.637650
  H      -1.478865     -3.733168     -2.593134
  H      -2.956456     -3.780492     -1.664781
  C      -1.233621     -4.254910     -0.505892
  C      -0.093914     -3.475634      0.108354
  H      -0.861483     -5.207080     -0.887179
  H      -1.958195     -4.466864      0.282793
  H       0.658849     -3.207869     -0.638449
  C      -4.030223      1.123102      2.243063
  H      -2.988847      0.884765      2.012047
  H      -4.242635      0.689627      3.224525
  C       0.592165     -4.154935      1.276973
  H      -0.161275     -4.416136      2.027175
  H       1.255739     -3.418170      1.738633
  H      -6.332578     -2.633076     -1.148838
  C      -4.230838      2.633042      2.290483
  H      -5.289547      2.864794      2.454257
  H      -3.966593      3.073529      1.324163
  C       1.398398     -5.384938      0.877953
  H       0.736912     -6.144228      0.450376
  H       2.105165     -5.112473      0.086490
  C       0.345431      4.366992      0.738103
  H      -0.514795      4.056488      1.342001
  H      -0.065318      4.833544     -0.162138
  C       5.753511      1.906113      2.753868
  H       5.538072      0.868838      3.025900
  H       6.799003      1.925878      2.427032
  C       5.586069      2.791756      3.981314
  H       6.231932      2.467196      4.798758
  H       5.832931      3.831287      3.753203
  H       4.555312      2.770072      4.343113
  C       1.164252      5.396087      1.506042
  H       2.017582      5.735670      0.914419
  H       0.565992      6.271325      1.764983
  H       1.555904      4.973050      2.434480
  C      -3.390119      3.285917      3.380044
  H      -3.516408      4.370064      3.387904
  H      -3.663851      2.910299      4.368532
  H      -2.328575      3.073873      3.230263
  C       2.155842     -5.986878      2.054090
  H       1.469738     -6.289785      2.848522
  H       2.726594     -6.867097      1.753059
  H       2.855977     -5.265026      2.481297
104
Coordinates from ORCA-job orca E -2047.533804215048
  C      -0.006741     -0.060994     -2.306360
  C       1.012646     -0.155963     -1.144286
  O       1.700236     -1.136928     -1.000190
  O       1.232476      0.889202     -0.353472
  C      -0.905410      1.180958     -2.207615
  H      -1.714263      0.995747     -1.505321
  H      -1.346028      1.373591     -3.188536
  C       0.367899      2.051069     -0.300003
  H      -0.474843      1.768095      0.340935
  C      -0.138710      2.383024     -1.684999
  H      -0.801873      3.248103     -1.625592
  H       0.708241      2.662263     -2.318427
  C      -0.740962     -1.419709     -2.459820
  H       0.050263     -2.168522     -2.491803
  H      -1.201052     -1.422977     -3.452451
  C       0.880201      0.078173     -3.510249
  C       4.408163      0.298091     -2.113500
  H       1.235944      1.053727     -3.813004
  H       1.366608     -0.798889     -3.915904
  C       3.972425      1.707337     -1.851804
  C       4.883779     -0.559487     -0.966672
  C       4.357575     -0.125332     -3.369536
  O       3.325596      2.357868     -2.633250
  O       4.323738      2.270482     -0.690632
  H       5.954991     -0.750166     -1.087310
  H       4.369910     -1.520529     -1.004860
  C       4.630539      0.112932      0.372437
  H       4.018434      0.531763     -4.159290
  H       4.651584     -1.135579     -3.630626
  C       5.073880      1.558691      0.315705
  H       5.174057     -0.404386      1.164660
  H       3.565756      0.073310      0.618077
  H       6.132586      1.612782      0.027950
  C       1.180457      3.141698      0.366901
  H       2.004471      3.426893     -0.293147
  H       1.628070      2.717146      1.270140
  C       4.861414      2.337063      1.601227
  H       3.809902      2.241701      1.888984
  H       5.031433      3.395338      1.382786
  C      -4.516732     -1.442580     -1.080770
  C      -4.293297     -1.828193      0.384376
  O      -3.890011     -2.923105      0.684848
  O      -4.629954     -0.990117      1.361257
  C      -5.291906     -0.120859     -1.174399
  H      -6.345718     -0.299938     -0.935855
  H      -5.264375      0.240067     -2.205848
  C      -4.910165      0.418793      1.211663
  H      -5.966765      0.521871      1.486087
  C      -4.726854      0.905023     -0.212286
  H      -5.238498      1.862820     -0.320100
  H      -3.664587      1.074236     -0.403926
  C      -5.386763     -2.554926     -1.686508
  H      -4.896944     -3.524733     -1.645824
  H      -5.612668     -2.316793     -2.728496
  C      -3.185853     -1.277514     -1.884010
  C      -1.847665     -1.930793     -1.469247
  H      -3.012706     -0.212224     -1.991570
  H      -3.392496     -1.640363     -2.895880
  C      -1.441100     -1.486593     -0.067334
  C      -1.918373     -3.475038     -1.620721
  O      -1.795970     -0.421885      0.387137
  O      -0.620521     -2.237377      0.643136
  H      -1.477786     -3.735175     -2.586539
  H      -2.957970     -3.784698     -1.662160
  C      -1.236432     -4.256058     -0.499152
  C      -0.096471     -3.475762      0.113233
  H      -0.864618     -5.208912     -0.878993
  H      -1.961056     -4.467053      0.289605
  H       0.654973     -3.207372     -0.634636
  C      -4.041118      1.131911      2.234656
  H      -2.998724      0.897027      2.004941
  H      -4.252741      0.699576      3.216728
  C       0.592351     -4.154518      1.280507
  H      -0.159683     -4.419498      2.030729
  H       1.253857     -3.416425      1.742923
  H      -6.332132     -2.641698     -1.147137
  C      -4.248118      2.641009      2.278807
  H      -5.308079      2.868427      2.440335
  H      -3.984212      3.080818      1.312141
  C       1.402015     -5.381082      0.878011
  H       0.742863     -6.140897      0.447787
  H       2.108030     -5.103840      0.087658
  C       0.353723      4.364659      0.746334
  H      -0.505622      4.053764      1.351160
  H      -0.058289      4.832079     -0.152816
  C       5.762212      1.898591      2.749312
  H       5.550056      0.859007      3.014879
  H       6.807699      1.923626      2.423039
  C       5.591110      2.776025      3.982056
  H       6.239239      2.450218      4.797144
  H       5.831987      3.818222      3.759965
  H       4.560786      2.746597      4.344441
  C       1.173938      5.392689      1.514097
  H       2.026537      5.732879      0.921881
  H       0.576209      6.267753      1.774781
  H       1.566497      4.968731      2.441698
  C      -3.412485      3.299308      3.368822
  H      -3.545048      4.382632      3.376371
  H      -3.685153      2.922318      4.357084
  H      -2.349654      3.092845      3.220827
  C       2.160947     -5.984509      2.052354
  H       1.475771     -6.292481      2.845582
  H       2.734784     -6.861748      1.748602
  H       2.858743     -5.261971      2.482102
104
Coordinates from ORCA-job orca E -2047.533854197785
  C      -0.006586     -0.060219     -2.295441
  C       1.016369     -0.158642     -1.137173
  O       1.701843     -1.141746     -0.996216
  O       1.242925      0.886106     -0.348355
  C      -0.902990      1.182714     -2.192703
  H      -1.711067      0.997967     -1.489690
  H      -1.344619      1.377698     -3.172751
  C       0.377604      2.047616     -0.287549
  H      -0.461717      1.762742      0.356698
  C      -0.134622      2.383362     -1.669528
  H      -0.798636      3.247427     -1.605534
  H       0.709885      2.666245     -2.304488
  C      -0.741546     -1.418625     -2.450935
  H       0.050436     -2.166472     -2.482692
  H      -1.200611     -1.421837     -3.443936
  C       0.878404      0.079674     -3.501200
  C       4.413554      0.318407     -2.136721
  H       1.232227      1.056122     -3.803405
  H       1.369604     -0.795928     -3.904043
  C       3.978209      1.725338     -1.859889
  C       4.892689     -0.548443     -0.998072
  C       4.356284     -0.094701     -3.395707
  O       3.328792      2.382722     -2.633309
  O       4.332762      2.277624     -0.694932
  H       5.964388     -0.735195     -1.120760
  H       4.381940     -1.510402     -1.046535
  C       4.641153      0.111177      0.347545
  H       4.012975      0.569335     -4.177785
  H       4.649533     -1.102481     -3.666693
  C       5.086203      1.556975      0.302373
  H       5.185046     -0.414155      1.134050
  H       3.576930      0.073077      0.595122
  H       6.143971      1.613396      0.011976
  C       1.192648      3.136265      0.378924
  H       2.015652      3.422011     -0.281997
  H       1.641677      2.709675      1.280600
  C       4.878006      2.324735      1.595195
  H       3.825824      2.232794      1.881442
  H       5.052683      3.384067      1.385610
  C      -4.520210     -1.451345     -1.080765
  C      -4.298981     -1.827827      0.386982
  O      -3.884716     -2.916728      0.694618
  O      -4.642617     -0.986379      1.358554
  C      -5.301169     -0.133831     -1.183597
  H      -6.354632     -0.316340     -0.946400
  H      -5.272588      0.221535     -2.216888
  C      -4.928399      0.420216      1.200194
  H      -5.986229      0.520091      1.470932
  C      -4.742721      0.899426     -0.225745
  H      -5.258003      1.854397     -0.340565
  H      -3.680689      1.072068     -0.415364
  C      -5.383629     -2.570735     -1.683187
  H      -4.889944     -3.538215     -1.637038
  H      -5.608078     -2.338140     -2.726672
  C      -3.188037     -1.283049     -1.880713
  C      -1.848896     -1.931102     -1.461660
  H      -3.018125     -0.217672     -1.990035
  H      -3.391125     -1.648820     -2.892233
  C      -1.444497     -1.483309     -0.060158
  C      -1.913413     -3.475651     -1.610001
  O      -1.810060     -0.423541      0.397167
  O      -0.617164     -2.228087      0.649729
  H      -1.468380     -3.736650     -2.573552
  H      -2.951611     -3.789231     -1.654153
  C      -1.231873     -4.251145     -0.484536
  C      -0.091831     -3.467775      0.123479
  H      -0.860509     -5.206035     -0.859788
  H      -1.956210     -4.459311      0.305081
  H       0.659116     -3.202199     -0.625947
  C      -4.066556      1.144133      2.221702
  H      -3.021798      0.917216      1.994722
  H      -4.276403      0.713978      3.205019
  C       0.598101     -4.143233      1.292031
  H      -0.153480     -4.408181      2.042618
  H       1.259357     -3.404321      1.753265
  H      -6.329756     -2.659134     -1.145489
  C      -4.287063      2.651610      2.259543
  H      -5.349654      2.869709      2.416056
  H      -4.023066      3.090301      1.292489
  C       1.407184     -5.370559      0.890110
  H       0.748005     -6.129253      0.457962
  H       2.114903     -5.092968      0.101790
  C       0.368250      4.359841      0.761766
  H      -0.490810      4.049011      1.367031
  H      -0.043733      4.829754     -0.135986
  C       5.777381      1.872926      2.738957
  H       5.566011      0.830154      2.992006
  H       6.823092      1.903320      2.414213
  C       5.603571      2.735606      3.981780
  H       6.254120      2.403813      4.792426
  H       5.839276      3.781280      3.770983
  H       4.573808      2.697129      4.344708
  C       1.191323      5.384597      1.530867
  H       2.044509      5.723780      0.939084
  H       0.595685      6.260613      1.793038
  H       1.582513      4.958200      2.457853
  C      -3.462644      3.321228      3.351260
  H      -3.607249      4.402902      3.356774
  H      -3.734950      2.942595      4.339007
  H      -2.397154      3.125640      3.208116
  C       2.163079     -5.976001      2.065407
  H       1.476179     -6.284011      2.857022
  H       2.736559     -6.853554      1.762000
  H       2.861221     -5.254786      2.496663
104
Coordinates from ORCA-job orca E -2047.533885549439
  C      -0.001936     -0.063212     -2.278440
  C       1.023891     -0.162754     -1.122894
  O       1.708782     -1.146621     -0.983493
  O       1.255413      0.882926     -0.337094
  C      -0.899426      1.178187     -2.173300
  H      -1.706707      0.991656     -1.469811
  H      -1.342025      1.373834     -3.152846
  C       0.387215      2.042169     -0.270298
  H      -0.447813      1.754486      0.378045
  C      -0.132035      2.379425     -1.649422
  H      -0.798839      3.241004     -1.580563
  H       0.708962      2.667154     -2.286885
  C      -0.735317     -1.422080     -2.436341
  H       0.057404     -2.169267     -2.464687
  H      -1.190394     -1.426009     -3.431163
  C       0.883421      0.080281     -3.483806
  C       4.416328      0.345180     -2.163943
  H       1.232180      1.058511     -3.786337
  H       1.380934     -0.792988     -3.884007
  C       3.983443      1.750272     -1.871462
  C       4.902301     -0.530897     -1.035079
  C       4.350290     -0.057146     -3.425896
  O       3.330916      2.415146     -2.636058
  O       4.344032      2.291592     -0.703609
  H       5.974301     -0.713303     -1.162668
  H       4.394752     -1.494159     -1.092278
  C       4.655802      0.115997      0.317490
  H       4.002317      0.614111     -4.199740
  H       4.641743     -1.062489     -3.707731
  C       5.102542      1.561580      0.283181
  H       5.202079     -0.417406      1.096880
  H       3.592708      0.078733      0.569435
  H       6.158829      1.620194     -0.012153
  C       1.203308      3.131302      0.394095
  H       2.023797      3.418045     -0.269623
  H       1.655467      2.704678      1.294333
  C       4.901053      2.318463      1.583488
  H       3.848551      2.229829      1.869819
  H       5.080913      3.378752      1.383076
  C      -4.520612     -1.455177     -1.086306
  C      -4.307212     -1.826415      0.383843
  O      -3.889404     -2.912509      0.696920
  O      -4.660506     -0.983724      1.351035
  C      -5.305407     -0.140517     -1.198459
  H      -6.359768     -0.325761     -0.967386
  H      -5.270995      0.211823     -2.232621
  C      -4.950103      0.421311      1.186159
  H      -6.009992      0.518591      1.449863
  C      -4.756437      0.896838     -0.239847
  H      -5.273692      1.850013     -0.360874
  H      -3.693923      1.072213     -0.422808
  C      -5.376944     -2.578882     -1.690864
  H      -4.881295     -3.545044     -1.639417
  H      -5.595580     -2.349077     -2.736228
  C      -3.183435     -1.284577     -1.877429
  C      -1.847246     -1.933436     -1.451072
  H      -3.012855     -0.218760     -1.984439
  H      -3.379860     -1.649352     -2.890688
  C      -1.448617     -1.485808     -0.047817
  C      -1.912047     -3.477964     -1.598184
  O      -1.816618     -0.427040      0.409763
  O      -0.619175     -2.228467      0.662625
  H      -1.463025     -3.740444     -2.559496
  H      -2.950160     -3.791076     -1.645943
  C      -1.234651     -4.252057     -0.469365
  C      -0.094158     -3.469130      0.138677
  H      -0.865204     -5.208869     -0.841709
  H      -1.960749     -4.457494      0.319460
  H       0.658022     -3.205937     -0.610240
  C      -4.098071      1.153062      2.210303
  H      -3.050478      0.932742      1.989480
  H      -4.310280      0.724544      3.193848
  C       0.593715     -4.144208      1.308823
  H      -0.159646     -4.413611      2.056096
  H       1.251363     -3.404595      1.773962
  H      -6.326016     -2.668287     -1.158494
  C      -4.329442      2.659310      2.242319
  H      -5.394871      2.869809      2.389617
  H      -4.060326      3.097249      1.276371
  C       1.408148     -5.368306      0.906892
  H       0.753360     -6.126538      0.467442
  H       2.120645     -5.085289      0.124779
  C       0.379534      4.354653      0.779389
  H      -0.478282      4.043641      1.386444
  H      -0.033683      4.824955     -0.117573
  C       5.800407      1.852481      2.721484
  H       5.586997      0.807740      2.964318
  H       6.845806      1.884618      2.395872
  C       5.629830      2.703155      3.973243
  H       6.283538      2.364281      4.778426
  H       5.864180      3.750886      3.771181
  H       4.601242      2.660241      4.338935
  C       1.204724      5.378777      1.547315
  H       2.057752      5.716414      0.954416
  H       0.610361      6.255719      1.809415
  H       1.595788      4.952149      2.474244
  C      -3.519543      3.338053      3.339509
  H      -3.673260      4.418464      3.341615
  H      -3.797346      2.958933      4.325585
  H      -2.451292      3.150835      3.205861
  C       2.157580     -5.977247      2.084684
  H       1.466016     -6.289801      2.870426
  H       2.734717     -6.852494      1.781393
  H       2.851710     -5.256404      2.523045
104
Coordinates from ORCA-job orca E -2047.533916581439
  C       0.002650     -0.064562     -2.261714
  C       1.031992     -0.168270     -1.109323
  O       1.716573     -1.153076     -0.974376
  O       1.269142      0.876807     -0.324262
  C      -0.896136      1.175114     -2.150977
  H      -1.702299      0.984846     -1.447283
  H      -1.339836      1.374046     -3.129368
  C       0.397891      2.033232     -0.248561
  H      -0.432625      1.741013      0.403588
  C      -0.129417      2.375505     -1.623353
  H      -0.799028      3.234197     -1.545836
  H       0.706822      2.669469     -2.264171
  C      -0.728853     -1.423418     -2.424346
  H       0.064193     -2.170323     -2.451317
  H      -1.180931     -1.426107     -3.420515
  C       0.889438      0.086411     -3.465362
  C       4.416456      0.377877     -2.197947
  H       1.233220      1.066881     -3.766403
  H       1.391464     -0.783999     -3.866265
  C       3.985954      1.779823     -1.885242
  C       4.910800     -0.510972     -1.082828
  C       4.342104     -0.008721     -3.464311
  O       3.328816      2.454008     -2.637983
  O       4.354698      2.306986     -0.713785
  H       5.982915     -0.688283     -1.217317
  H       4.406804     -1.475554     -1.150728
  C       4.670921      0.119205      0.278661
  H       3.988855      0.672110     -4.227360
  H       4.632182     -1.010189     -3.761120
  C       5.120054      1.564277      0.258783
  H       5.220181     -0.424724      1.048646
  H       3.609007      0.081951      0.535781
  H       6.174088      1.625340     -0.044069
  C       1.215129      3.121774      0.416010
  H       2.032505      3.410969     -0.250681
  H       1.671003      2.693045      1.313419
  C       4.929113      2.306227      1.569086
  H       3.877570      2.218973      1.859394
  H       5.113244      3.368026      1.380895
  C      -4.521351     -1.461988     -1.094495
  C      -4.317501     -1.826721      0.378722
  O      -3.899542     -2.910870      0.698385
  O      -4.681877     -0.982291      1.340484
  C      -5.310244     -0.150547     -1.218142
  H      -6.365726     -0.338800     -0.994841
  H      -5.268292      0.198095     -2.253275
  C      -4.976579      0.420732      1.167566
  H      -6.039000      0.514430      1.422336
  C      -4.772735      0.891620     -0.258428
  H      -5.291604      1.842983     -0.386846
  H      -3.709273      1.069645     -0.432763
  C      -5.369566     -2.590639     -1.701149
  H      -4.872582     -3.555640     -1.642328
  H      -5.580562     -2.364775     -2.748970
  C      -3.178870     -1.288196     -1.876245
  C      -1.843847     -1.934597     -1.442121
  H      -3.009738     -0.221890     -1.982167
  H      -3.367663     -1.653337     -2.890887
  C      -1.451404     -1.483414     -0.038318
  C      -1.905634     -3.479561     -1.585846
  O      -1.824477     -0.425818      0.417618
  O      -0.620862     -2.222355      0.675542
  H      -1.451695     -3.744068     -2.544283
  H      -2.943053     -3.794138     -1.637187
  C      -1.232312     -4.249584     -0.451891
  C      -0.093966     -3.464469      0.157732
  H      -0.862491     -5.208087     -0.819545
  H      -1.961073     -4.452226      0.335357
  H       0.661161     -3.204573     -0.589312
  C      -4.137134      1.162022      2.195161
  H      -3.086142      0.949835      1.982559
  H      -4.352654      0.735839      3.178999
  C       0.588968     -4.136192      1.332838
  H      -0.168036     -4.407982      2.075605
  H       1.242024     -3.394855      1.801611
  H      -6.322469     -2.679953     -1.175623
  C      -4.381756      2.666598      2.219572
  H      -5.450665      2.867794      2.354260
  H      -4.105187      3.103554      1.255350
  C       1.409489     -5.358553      0.937087
  H       0.760116     -6.117396      0.490776
  H       2.129327     -5.073055      0.162629
  C       0.392113      4.343918      0.806830
  H      -0.464524      4.031646      1.414911
  H      -0.021989      4.816740     -0.088369
  C       5.832800      1.822723      2.696352
  H       5.617023      0.775899      2.927654
  H       6.876541      1.856180      2.365524
  C       5.672334      2.658860      3.959526
  H       6.332030      2.309701      4.755393
  H       5.907020      3.708406      3.767407
  H       4.646418      2.612898      4.332181
  C       1.219732      5.365549      1.575844
  H       2.073042      5.701708      0.982473
  H       0.627283      6.243461      1.839024
  H       1.610245      4.936651      2.501933
  C      -3.590965      3.356764      3.323803
  H      -3.754798      4.435703      3.319478
  H      -3.877582      2.978847      4.307797
  H      -2.519460      3.179329      3.203454
  C       2.148495     -5.967600      2.121607
  H       1.449536     -6.281298      2.900326
  H       2.729312     -6.842089      1.823122
  H       2.837625     -5.246106      2.566775
104
Coordinates from ORCA-job orca E -2047.533936024796
  C       0.005199     -0.066488     -2.251636
  C       1.037421     -0.173554     -1.101470
  O       1.722584     -1.158569     -0.970977
  O       1.277364      0.870365     -0.315216
  C      -0.894934      1.171820     -2.135686
  H      -1.700416      0.977660     -1.432148
  H      -1.339194      1.374028     -3.113133
  C       0.403926      2.024557     -0.233013
  H      -0.423928      1.728519      0.420851
  C      -0.128654      2.371203     -1.604518
  H      -0.799855      3.228002     -1.519933
  H       0.703958      2.669131     -2.248220
  C      -0.725236     -1.424999     -2.417483
  H       0.067326     -2.172473     -2.443839
  H      -1.175620     -1.426242     -3.414439
  C       0.892325      0.090685     -3.454255
  C       4.416620      0.399741     -2.218371
  H       1.233993      1.072466     -3.753352
  H       1.394256     -0.778148     -3.858717
  C       3.984552      1.798263     -1.892514
  C       4.916275     -0.497717     -1.112812
  C       4.340870      0.024915     -3.488244
  O       3.322456      2.477070     -2.636861
  O       4.358506      2.316828     -0.718867
  H       5.988425     -0.671482     -1.251888
  H       4.414893     -1.463299     -1.187111
  C       4.679926      0.121455      0.254298
  H       3.984397      0.711795     -4.244357
  H       4.633220     -0.972776     -3.795516
  C       5.129656      1.566390      0.243723
  H       5.231162     -0.428838      1.018359
  H       3.618570      0.082927      0.513938
  H       6.181732      1.629466     -0.065510
  C       1.221325      3.112522      0.432950
  H       2.036890      3.403939     -0.235072
  H       1.679399      2.681695      1.328260
  C       4.947518      2.298046      1.560855
  H       3.898171      2.208240      1.858264
  H       5.130870      3.361299      1.380376
  C      -4.522714     -1.466290     -1.101503
  C      -4.325264     -1.827003      0.373717
  O      -3.909764     -2.910783      0.697602
  O      -4.695096     -0.980753      1.331861
  C      -5.313741     -0.156668     -1.232634
  H      -6.370014     -0.346494     -1.014469
  H      -5.266812      0.189529     -2.268380
  C      -4.993428      0.420883      1.153669
  H      -6.057448      0.511955      1.402766
  C      -4.783424      0.888649     -0.272401
  H      -5.303037      1.838982     -0.405354
  H      -3.719411      1.068166     -0.441500
  C      -5.365952     -2.597902     -1.709457
  H      -4.868783     -3.562399     -1.644947
  H      -5.571405     -2.375235     -2.759086
  C      -3.176677     -1.291025     -1.877084
  C      -1.842371     -1.935632     -1.437334
  H      -3.008115     -0.224364     -1.982311
  H      -3.360415     -1.656419     -2.892590
  C      -1.455387     -1.481348     -0.033121
  C      -1.902286     -3.481044     -1.578043
  O      -1.832524     -0.424356      0.420696
  O      -0.624413     -2.217206      0.683657
  H      -1.445769     -3.747191     -2.534751
  H      -2.939230     -3.796749     -1.630942
  C      -1.231123     -4.247687     -0.440651
  C      -0.095230     -3.459984      0.170373
  H      -0.859773     -5.206847     -0.804993
  H      -1.961811     -4.448574      0.345372
  H       0.661647     -3.201432     -0.575412
  C      -4.162137      1.168045      2.183585
  H      -3.109006      0.960295      1.976946
  H      -4.380555      0.743642      3.167577
  C       0.584675     -4.128664      1.348908
  H      -0.174482     -4.401412      2.089159
  H       1.234503     -3.385534      1.819315
  H      -6.321695     -2.686330     -1.188899
  C      -4.414360      2.671603      2.202662
  H      -5.485527      2.867411      2.327135
  H      -4.131093      3.107864      1.240074
  C       1.409516     -5.349902      0.958473
  H       0.763932     -6.110288      0.509234
  H       2.133305     -5.063780      0.187917
  C       0.398193      4.333185      0.827874
  H      -0.458134      4.019390      1.435598
  H      -0.016046      4.808301     -0.066067
  C       5.859727      1.805017      2.677254
  H       5.644402      0.756819      2.902628
  H       6.900803      1.839840      2.338186
  C       5.711531      2.632086      3.948041
  H       6.378331      2.276068      4.734917
  H       5.946274      3.682590      3.761209
  H       4.689029      2.584794      4.329739
  C       1.226396      5.352935      1.598971
  H       2.080214      5.688704      1.006035
  H       0.634796      6.231149      1.863004
  H       1.616369      4.922094      2.524381
  C      -3.637603      3.368871      3.312509
  H      -3.806752      4.447009      3.302421
  H      -3.932427      2.993025      4.294841
  H      -2.564021      3.197096      3.203026
  C       2.143026     -5.956552      2.147746
  H       1.440033     -6.270019      2.922951
  H       2.726410     -6.830728      1.853394
  H       2.828606     -5.233464      2.595823
104
Coordinates from ORCA-job orca E -2047.533956778919
  C       0.007274     -0.067681     -2.244237
  C       1.040873     -0.177372     -1.094821
  O       1.726353     -1.162468     -0.967239
  O       1.281583      0.865405     -0.306607
  C      -0.894127      1.169709     -2.124115
  H      -1.699131      0.972169     -1.420952
  H      -1.338452      1.374684     -3.100940
  C       0.407052      2.018282     -0.220832
  H      -0.420007      1.719835      0.432996
  C      -0.127931      2.368066     -1.590422
  H      -0.799438      3.224124     -1.501168
  H       0.702367      2.667293     -2.236507
  C      -0.722451     -1.425821     -2.412836
  H       0.069350     -2.174134     -2.438901
  H      -1.171451     -1.425480     -3.410426
  C       0.894512      0.094308     -3.445895
  C       4.416305      0.415669     -2.230413
  H       1.236186      1.076701     -3.742723
  H       1.392908     -0.773937     -3.855986
  C       3.981282      1.811049     -1.895951
  C       4.919327     -0.487919     -1.131626
  C       4.341542      0.049334     -3.502959
  O       3.314334      2.491933     -2.634031
  O       4.359383      2.324533     -0.721135
  H       5.991180     -0.660332     -1.274592
  H       4.418840     -1.453818     -1.208813
  C       4.685756      0.124448      0.239125
  H       3.982472      0.739715     -4.254669
  H       4.637173     -0.945170     -3.817433
  C       5.135601      1.569308      0.234050
  H       5.238280     -0.429659      0.999500
  H       3.624686      0.084517      0.499745
  H       6.185827      1.633407     -0.081238
  C       1.224109      3.105714      0.446938
  H       2.039116      3.398121     -0.221216
  H       1.682803      2.673389      1.341209
  C       4.962169      2.294111      1.555914
  H       3.916100      2.199738      1.863389
  H       5.141729      3.358702      1.379775
  C      -4.524153     -1.469563     -1.108720
  C      -4.332079     -1.828690      0.367797
  O      -3.920289     -2.913047      0.694235
  O      -4.703707     -0.980747      1.323674
  C      -5.315780     -0.160740     -1.244455
  H      -6.372787     -0.351138     -1.030321
  H      -5.265025      0.184275     -2.280413
  C      -5.005037      0.419897      1.142396
  H      -6.070357      0.508578      1.386798
  C      -4.790207      0.886213     -0.283375
  H      -5.309798      1.836176     -0.419028
  H      -3.725645      1.066282     -0.448624
  C      -5.363801     -2.602463     -1.719093
  H      -4.866832     -3.566759     -1.650452
  H      -5.564388     -2.381758     -2.770081
  C      -3.175354     -1.293398     -1.879290
  C      -1.841531     -1.936636     -1.435018
  H      -3.007027     -0.226576     -1.983650
  H      -3.355289     -1.658709     -2.895502
  C      -1.459870     -1.480804     -0.029876
  C      -1.900307     -3.482359     -1.574334
  O      -1.840092     -0.424177      0.422053
  O      -0.630050     -2.215067      0.689744
  H      -1.442111     -3.749121     -2.530042
  H      -2.936991     -3.798649     -1.628580
  C      -1.231353     -4.247389     -0.434593
  C      -0.098300     -3.457923      0.179566
  H      -0.857602     -5.206267     -0.797022
  H      -1.964355     -4.447698      0.349521
  H       0.660486     -3.199243     -0.564248
  C      -4.180334      1.170234      2.175234
  H      -3.125708      0.964500      1.974327
  H      -4.402688      0.746814      3.158776
  C       0.578232     -4.124727      1.360981
  H      -0.183040     -4.396849      2.099315
  H       1.225982     -3.380406      1.832464
  H      -6.322091     -2.690332     -1.203106
  C      -4.436407      2.673210      2.190737
  H      -5.509191      2.866329      2.305403
  H      -4.145879      3.109193      1.230157
  C       1.405396     -5.345870      0.975619
  H       0.762171     -6.107715      0.525431
  H       2.131649     -5.060891      0.206946
  C       0.400582      4.325377      0.843775
  H      -0.456192      4.010614      1.450376
  H      -0.013161      4.801981     -0.049615
  C       5.886387      1.796537      2.660603
  H       5.672071      0.747928      2.885090
  H       6.923584      1.830649      2.309707
  C       5.755062      2.619714      3.935771
  H       6.430161      2.258835      4.713316
  H       5.990947      3.670121      3.749791
  H       4.737043      2.574195      4.329467
  C       1.228222      5.344161      1.616791
  H       2.082654      5.679914      1.024661
  H       0.636782      6.222393      1.881000
  H       1.617725      4.912307      2.541921
  C      -3.671329      3.374355      3.306245
  H      -3.842584      4.452170      3.291194
  H      -3.974820      3.000811      4.286758
  H      -2.596302      3.205480      3.207016
  C       2.135288     -5.949410      2.168691
  H       1.429704     -6.261523      2.942131
  H       2.720095     -6.823874      1.878144
  H       2.818544     -5.224820      2.617893
104
Coordinates from ORCA-job orca E -2047.533978856567
  C       0.009798     -0.069342     -2.236835
  C       1.043114     -0.181033     -1.086752
  O       1.728145     -1.166424     -0.960014
  O       1.283503      0.860818     -0.296638
  C      -0.892214      1.167966     -2.114530
  H      -1.697696      0.968364     -1.412577
  H      -1.335287      1.375016     -3.091472
  C       0.409030      2.013471     -0.210003
  H      -0.418845      1.714039      0.442354
  C      -0.125595      2.365176     -1.579180
  H      -0.796111      3.221768     -1.488062
  H       0.703844      2.663174     -2.226901
  C      -0.719997     -1.426883     -2.407695
  H       0.070828     -2.176241     -2.432911
  H      -1.167219     -1.425245     -3.406068
  C       0.897175      0.095176     -3.437676
  C       4.416638      0.430644     -2.238326
  H       1.240978      1.077550     -3.731933
  H       1.389519     -0.773388     -3.854370
  C       3.977029      1.822559     -1.896611
  C       4.921854     -0.478233     -1.145057
  C       4.344601      0.071753     -3.513282
  O       3.304598      2.504084     -2.628862
  O       4.358618      2.332448     -0.721015
  H       5.993143     -0.650790     -1.291641
  H       4.420858     -1.443768     -1.223621
  C       4.690594      0.129049      0.228555
  H       3.983440      0.764673     -4.261657
  H       4.644879     -0.919497     -3.833635
  C       5.140175      1.573960      0.227346
  H       5.243688     -0.427757      0.986482
  H       3.629531      0.087683      0.488765
  H       6.188442      1.638830     -0.094273
  C       1.225483      3.100173      0.459938
  H       2.041568      3.392046     -0.206872
  H       1.682827      2.666961      1.354447
  C       4.976480      2.293052      1.553402
  H       3.934988      2.192433      1.874292
  H       5.149612      3.359085      1.379946
  C      -4.525955     -1.472314     -1.116249
  C      -4.338985     -1.830977      0.361185
  O      -3.930522     -2.915948      0.689603
  O      -4.710338     -0.981197      1.315340
  C      -5.317562     -0.163961     -1.255431
  H      -6.375269     -0.354642     -1.045040
  H      -5.263427      0.180450     -2.291439
  C      -5.015438      0.418318      1.131810
  H      -6.082138      0.503915      1.371365
  C      -4.796031      0.884078     -0.293358
  H      -5.315503      1.833785     -0.431142
  H      -3.730986      1.064564     -0.455235
  C      -5.362464     -2.605705     -1.729863
  H      -4.865849     -3.569891     -1.657620
  H      -5.558161     -2.386476     -2.782065
  C      -3.174477     -1.295417     -1.881698
  C      -1.841533     -1.937914     -1.432939
  H      -3.005910     -0.228505     -1.984749
  H      -3.350875     -1.660271     -2.898651
  C      -1.465065     -1.481831     -0.026351
  C      -1.899653     -3.483789     -1.571931
  O      -1.848577     -0.426088      0.424756
  O      -0.636379     -2.215153      0.695305
  H      -1.440023     -3.750490     -2.526952
  H      -2.936100     -3.800383     -1.627812
  C      -1.233214     -4.248278     -0.430372
  C      -0.102524     -3.458053      0.187105
  H      -0.857170     -5.206692     -0.791503
  H      -1.968626     -4.448173      0.351618
  H       0.657975     -3.198801     -0.554758
  C      -4.197648      1.171134      2.168230
  H      -3.141581      0.967250      1.973122
  H      -4.424398      0.747667      3.150746
  C       0.570786     -4.123893      1.370721
  H      -0.192240     -4.393146      2.108292
  H       1.218401     -3.379282      1.842014
  H      -6.323344     -2.693314     -1.218634
  C      -4.457327      2.673411      2.181424
  H      -5.531575      2.864012      2.286335
  H      -4.159659      3.109907      1.223221
  C       1.397016     -5.346793      0.989767
  H       0.753770     -6.109397      0.540825
  H       2.124254     -5.065213      0.220769
  C       0.401751      4.319692      0.856226
  H      -0.456473      4.004795      1.460689
  H      -0.010312      4.797201     -0.037455
  C       5.916637      1.793711      2.644028
  H       5.704259      0.745156      2.870708
  H       6.948402      1.826010      2.277252
  C       5.807122      2.615720      3.921841
  H       6.492692      2.251270      4.688501
  H       6.043874      3.665555      3.733889
  H       4.795192      2.573339      4.331292
  C       1.228009      5.337871      1.631387
  H       2.083604      5.673659      1.040907
  H       0.636352      6.216121      1.894917
  H       1.616264      4.905668      2.556873
  C      -3.703711      3.377193      3.302932
  H      -3.877006      4.454671      3.284336
  H      -4.015331      3.004784      4.281267
  H      -2.627383      3.211275      3.213548
  C       2.125031     -5.947380      2.185382
  H       1.418309     -6.256394      2.959050
  H       2.709233     -6.823277      1.898067
  H       2.808199     -5.222118      2.633574
104
Coordinates from ORCA-job orca E -2047.533996594501
  C       0.012987     -0.071236     -2.233028
  C       1.043750     -0.183146     -1.080663
  O       1.727643     -1.168999     -0.951745
  O       1.282462      0.858499     -0.289599
  C      -0.888540      1.167060     -2.112424
  H      -1.695520      0.968064     -1.412125
  H      -1.329376      1.374172     -3.090401
  C       0.409381      2.012394     -0.206082
  H      -0.421045      1.714182      0.443597
  C      -0.121269      2.363662     -1.577005
  H      -0.789787      3.222053     -1.488632
  H       0.709816      2.658114     -2.224193
  C      -0.717806     -1.428322     -2.404242
  H       0.072333     -2.178459     -2.427304
  H      -1.162911     -1.427032     -3.403563
  C       0.900972      0.091676     -3.433365
  C       4.418221      0.440425     -2.240669
  H       1.248286      1.073325     -3.725922
  H       1.387815     -0.778033     -3.854020
  C       3.974616      1.829970     -1.895028
  C       4.923864     -0.471357     -1.149865
  C       4.348635      0.085433     -3.516890
  O       3.298245      2.510916     -2.623988
  O       4.357697      2.338485     -0.719085
  H       5.994473     -0.645738     -1.298761
  H       4.420672     -1.435727     -1.228265
  C       4.694086      0.133951      0.225071
  H       3.986226      0.779337     -4.263745
  H       4.652425     -0.903862     -3.839931
  C       5.143001      1.579096      0.225189
  H       5.247036     -0.423736      0.982380
  H       3.632811      0.091575      0.483912
  H       6.189995      1.644556     -0.100477
  C       1.225075      3.098418      0.465730
  H       2.043986      3.388288     -0.198241
  H       1.679089      2.665305      1.361992
  C       4.986380      2.295126      1.553787
  H       3.948844      2.189378      1.885780
  H       5.153367      3.362239      1.380948
  C      -4.527014     -1.472775     -1.121958
  C      -4.343127     -1.833308      0.355436
  O      -3.935798     -2.918776      0.683672
  O      -4.713057     -0.983399      1.309825
  C      -5.317895     -0.164177     -1.261289
  H      -6.376117     -0.354954     -1.053589
  H      -5.261618      0.181402     -2.296801
  C      -5.021578      0.415349      1.126891
  H      -6.089375      0.497896      1.362735
  C      -4.798768      0.883062     -0.297018
  H      -5.318261      1.832707     -0.435024
  H      -3.733401      1.064113     -0.456374
  C      -5.362206     -2.605203     -1.739108
  H      -4.866030     -3.569552     -1.665935
  H      -5.554841     -2.385564     -2.791764
  C      -3.173653     -1.295622     -1.883997
  C      -1.841996     -1.938668     -1.432205
  H      -3.004287     -0.228801     -1.985873
  H      -3.347927     -1.659851     -2.901501
  C      -1.468735     -1.483255     -0.024389
  C      -1.900747     -3.484476     -1.571401
  O      -1.853636     -0.427918      0.426485
  O      -0.641362     -2.216741      0.698411
  H      -1.439988     -3.751142     -2.525912
  H      -2.937248     -3.800537     -1.629011
  C      -1.236924     -4.249563     -0.428684
  C      -0.107037     -3.460092      0.191084
  H      -0.860012     -5.207836     -0.789204
  H      -1.974200     -4.449058      0.351586
  H       0.654878     -3.200842     -0.549308
  C      -4.209130      1.168449      2.167266
  H      -3.152066      0.966240      1.975848
  H      -4.439119      0.742951      3.148153
  C       0.563747     -4.125800      1.376124
  H      -0.200427     -4.390522      2.114147
  H       1.213312     -3.381913      1.845929
  H      -6.324708     -2.693208     -1.230997
  C      -4.471490      2.670123      2.181523
  H      -5.546554      2.858825      2.281443
  H      -4.170359      3.108475      1.225224
  C       1.386068     -5.351981      0.998023
  H       0.740268     -6.114435      0.552505
  H       2.112536     -5.075202      0.226559
  C       0.401431      4.318962      0.858787
  H      -0.458673      4.004990      1.461087
  H      -0.008356      4.796183     -0.036093
  C       5.939446      1.796518      2.633762
  H       5.729075      0.748234      2.863690
  H       6.966606      1.827123      2.254117
  C       5.846653      2.619363      3.912160
  H       6.540108      2.253630      4.671092
  H       6.083382      3.668663      3.721331
  H       4.839615      2.579501      4.333832
  C       1.226063      5.337338      1.635191
  H       2.082761      5.673329      1.046436
  H       0.633796      6.215554      1.897475
  H       1.612828      4.905723      2.561582
  C      -3.724153      3.373822      3.307121
  H      -3.899575      4.450980      3.289250
  H      -4.038950      2.999548      4.283721
  H      -2.647090      3.210473      3.222213
  C       2.114533     -5.950474      2.194288
  H       1.408494     -6.255385      2.970216
  H       2.696239     -6.828630      1.908843
  H       2.800128     -5.225537      2.639274
104
Coordinates from ORCA-job orca E -2047.534013106169
  C       0.016117     -0.073875     -2.230790
  C       1.043642     -0.184962     -1.075921
  O       1.726504     -1.171241     -0.943967
  O       1.280090      0.856657     -0.284501
  C      -0.884216      1.165738     -2.113978
  H      -1.692910      0.968923     -1.415101
  H      -1.322868      1.371581     -3.093218
  C       0.408882      2.012477     -0.205712
  H      -0.424532      1.716557      0.441153
  C      -0.116322      2.362120     -1.579308
  H      -0.782672      3.222692     -1.496191
  H       0.717771      2.652507     -2.224267
  C      -0.716100     -1.430616     -2.400997
  H       0.073817     -2.181028     -2.420772
  H      -1.158746     -1.431080     -3.401385
  C       0.904759      0.084876     -3.431222
  C       4.420450      0.448465     -2.241784
  H       1.256060      1.065451     -3.722819
  H       1.387896     -0.786303     -3.853042
  C       3.973359      1.836036     -1.892480
  C       4.926541     -0.465354     -1.152535
  C       4.352388      0.096399     -3.518824
  O       3.293737      2.516350     -2.618925
  O       4.356792      2.343369     -0.716214
  H       5.996464     -0.641745     -1.303414
  H       4.420543     -1.428167     -1.231101
  C       4.698359      0.138419      0.223411
  H       3.988946      0.791298     -4.264240
  H       4.658975     -0.891382     -3.843787
  C       5.145788      1.584069      0.224458
  H       5.251580     -0.419599      0.980168
  H       3.636996      0.094819      0.481345
  H       6.191808      1.651075     -0.104058
  C       1.223989      3.097677      0.467659
  H       2.046608      3.385173     -0.192603
  H       1.673808      2.664950      1.366228
  C       4.994255      2.297519      1.555185
  H       3.959809      2.187822      1.895500
  H       5.156000      3.365518      1.382802
  C      -4.527952     -1.471863     -1.126040
  C      -4.346566     -1.834517      0.351075
  O      -3.939281     -2.920206      0.678846
  O      -4.715653     -0.985166      1.306131
  C      -5.317454     -0.162488     -1.264762
  H      -6.376193     -0.352693     -1.059105
  H      -5.259321      0.184547     -2.299676
  C      -5.026078      0.413130      1.124306
  H      -6.094835      0.493825      1.356531
  C      -4.799304      0.883080     -0.298150
  H      -5.318094      1.833088     -0.436289
  H      -3.733490      1.063603     -0.454942
  C      -5.362639     -2.602857     -1.746456
  H      -4.866439     -3.567306     -1.674417
  H      -5.553894     -2.381469     -2.798982
  C      -3.173008     -1.294972     -1.885377
  C      -1.843003     -1.939206     -1.431201
  H      -3.002811     -0.228233     -1.986453
  H      -3.345655     -1.658765     -2.903307
  C      -1.471246     -1.484204     -0.022724
  C      -1.902709     -3.484860     -1.570378
  O      -1.856522     -0.428963      0.428163
  O      -0.644678     -2.218021      0.700697
  H      -1.440774     -3.751839     -2.524272
  H      -2.939330     -3.800221     -1.629586
  C      -1.240941     -4.250487     -0.426822
  C      -0.110824     -3.462102      0.193793
  H      -0.864299     -5.209013     -0.787012
  H      -1.979222     -4.449811      0.352463
  H       0.652056     -3.203531     -0.545810
  C      -4.218003      1.165412      2.168680
  H      -3.160127      0.965003      1.979753
  H      -4.450430      0.737075      3.147736
  C       0.558578     -4.127883      1.379679
  H      -0.206014     -4.387691      2.118983
  H       1.211266     -3.385251      1.847136
  H      -6.325794     -2.692084     -1.239831
  C      -4.482711      2.666518      2.185685
  H      -5.558251      2.853405      2.283577
  H      -4.180231      3.107457      1.231013
  C       1.375673     -5.357987      1.003103
  H       0.725834     -6.119974      0.562709
  H       2.100015     -5.086323      0.227844
  C       0.400887      4.319977      0.856370
  H      -0.460832      4.007694      1.457178
  H      -0.006658      4.796090     -0.040118
  C       5.956779      1.800144      2.627467
  H       5.749569      0.751490      2.858619
  H       6.980673      1.831930      2.239257
  C       5.872854      2.622305      3.906742
  H       6.571769      2.256846      4.660780
  H       6.107089      3.671974      3.714967
  H       4.868990      2.581417      4.335896
  C       1.224507      5.338941      1.632853
  H       2.081956      5.674922      1.045259
  H       0.631730      6.217237      1.893809
  H       1.609880      4.908369      2.560299
  C      -3.738936      3.368468      3.314613
  H      -3.916735      4.445239      3.300435
  H      -4.054273      2.990080      4.289493
  H      -2.661450      3.207255      3.231332
  C       2.106667     -5.954619      2.198671
  H       1.402782     -6.255059      2.978259
  H       2.684969     -6.835318      1.914124
  H       2.796181     -5.230337      2.638661
104
Coordinates from ORCA-job orca E -2047.534022054527
  C       0.019066     -0.076129     -2.229003
  C       1.043765     -0.185850     -1.072070
  O       1.726101     -1.172309     -0.937404
  O       1.278089      0.855948     -0.280782
  C      -0.880166      1.164439     -2.116303
  H      -1.690035      0.970103     -1.418038
  H      -1.317577      1.368392     -3.096494
  C       0.408404      2.013491     -0.206498
  H      -0.427301      1.719939      0.438497
  C      -0.112067      2.361093     -1.582531
  H      -0.777067      3.223167     -1.504543
  H       0.725088      2.648717     -2.224663
  C      -0.713883     -1.432965     -2.398159
  H       0.076407     -2.183027     -2.414766
  H      -1.154218     -1.435465     -3.399568
  C       0.908961      0.078683     -3.429240
  C       4.421743      0.456916     -2.244985
  H       1.263067      1.058358     -3.720751
  H       1.391393     -0.793623     -3.849487
  C       3.973209      1.843169     -1.891420
  C       4.929120     -0.459084     -1.157753
  C       4.353094      0.107817     -3.522715
  O       3.291416      2.524058     -2.615434
  O       4.357180      2.348362     -0.714709
  H       5.998401     -0.636958     -1.311036
  H       4.420548     -1.420431     -1.237372
  C       4.703659      0.142449      0.219586
  H       3.988457      0.804360     -4.266017
  H       4.660655     -0.878867     -3.850017
  C       5.149684      1.588535      0.222119
  H       5.258234     -0.416359      0.974698
  H       3.642641      0.097628      0.478507
  H       6.194873      1.657555     -0.108643
  C       1.223302      3.098149      0.467654
  H       2.049104      3.383708     -0.189507
  H       1.669511      2.665863      1.368252
  C       5.001611      2.299125      1.554878
  H       3.968600      2.187909      1.899082
  H       5.161368      3.367671      1.383918
  C      -4.527630     -1.470759     -1.128930
  C      -4.348505     -1.835066      0.347951
  O      -3.940955     -2.920872      0.675250
  O      -4.718648     -0.986870      1.303633
  C      -5.315647     -0.160455     -1.267410
  H      -6.374918     -0.349937     -1.063770
  H      -5.255360      0.187831     -2.301781
  C      -5.029530      0.411343      1.122752
  H      -6.099104      0.491313      1.351521
  C      -4.798331      0.883277     -0.298296
  H      -5.316106      1.833810     -0.436748
  H      -3.731951      1.062900     -0.452078
  C      -5.362387     -2.600338     -1.751754
  H      -4.866266     -3.564995     -1.681575
  H      -5.553048     -2.376710     -2.803914
  C      -3.171337     -1.294502     -1.886199
  C      -1.842983     -1.939951     -1.430044
  H      -3.000498     -0.227879     -1.986954
  H      -3.342555     -1.658151     -2.904442
  C      -1.472361     -1.485025     -0.021199
  C      -1.903386     -3.485496     -1.569178
  O      -1.856930     -0.429236      0.429084
  O      -0.647215     -2.219469      0.703453
  H      -1.439474     -3.752976     -2.521987
  H      -2.940076     -3.800255     -1.630512
  C      -1.244050     -4.251533     -0.424460
  C      -0.113920     -3.464241      0.197377
  H      -0.868094     -5.210542     -0.784220
  H      -1.983423     -4.450927      0.353756
  H       0.650482     -3.206849     -0.541025
  C      -4.225207      1.162534      2.170818
  H      -3.166536      0.964661      1.983437
  H      -4.458965      0.731067      3.148172
  C       0.553417     -4.130280      1.384395
  H      -0.212129     -4.387015      2.123764
  H       1.208184     -3.388933      1.850939
  H      -6.325724     -2.690499     -1.245650
  C      -4.492820      2.663072      2.191506
  H      -5.568727      2.847659      2.289573
  H      -4.190662      3.107087      1.238189
  C       1.367035     -5.363129      1.008900
  H       0.714303     -6.124588      0.571958
  H       2.090255     -5.094659      0.231485
  C       0.401192      4.322476      0.852326
  H      -0.461383      4.012398      1.452974
  H      -0.004795      4.796867     -0.045761
  C       5.968221      1.800897      2.623150
  H       5.763702      0.751214      2.851967
  H       6.990926      1.836086      2.232175
  C       5.885098      2.619394      3.904808
  H       6.586218      2.253870      4.656761
  H       6.116086      3.670206      3.715404
  H       4.882151      2.574660      4.335748
  C       1.225067      5.342299      1.627374
  H       2.082792      5.677384      1.039726
  H       0.632388      6.221123      1.886923
  H       1.609566      4.913071      2.555819
  C      -3.750874      3.362797      3.323026
  H      -3.931056      4.439169      3.313516
  H      -4.065480      2.979625      4.296341
  H      -2.673139      3.203341      3.239654
  C       2.099368     -5.958809      2.204138
  H       1.396691     -6.256180      2.985960
  H       2.675291     -6.841310      1.920244
  H       2.791729     -5.235153      2.640679
104
Coordinates from ORCA-job orca E -2047.534028921459
  C       0.020004     -0.078617     -2.230135
  C       1.043759     -0.187193     -1.072420
  O       1.726768     -1.173375     -0.937565
  O       1.276063      0.854256     -0.280539
  C      -0.878182      1.162613     -2.120306
  H      -1.688679      0.970194     -1.422128
  H      -1.315106      1.365289     -3.100948
  C       0.407246      2.012903     -0.209286
  H      -0.429874      1.720831      0.434533
  C      -0.109837      2.359367     -1.586850
  H      -0.774208      3.222208     -1.511997
  H       0.729549      2.645649     -2.226620
  C      -0.713676     -1.435443     -2.397838
  H       0.076769     -2.185371     -2.412825
  H      -1.153242     -1.439274     -3.399573
  C       0.910682      0.073230     -3.430479
  C       4.423210      0.461585     -2.246089
  H       1.267285      1.051915     -3.722461
  H       1.393215     -0.800176     -3.848369
  C       3.971758      1.846337     -1.889579
  C       4.931572     -0.455606     -1.160024
  C       4.356316      0.115205     -3.524595
  O       3.287923      2.526985     -2.612221
  O       4.354895      2.350173     -0.712289
  H       6.000652     -0.633623     -1.314319
  H       4.422116     -1.416341     -1.241060
  C       4.707182      0.143997      0.218208
  H       3.990908      0.812965     -4.266368
  H       4.666123     -0.870122     -3.853851
  C       5.150708      1.590810      0.221942
  H       5.263608     -0.414935      0.971850
  H       3.646530      0.097164      0.478390
  H       6.195278      1.662570     -0.110238
  C       1.221777      3.097084      0.465892
  H       2.050042      3.381898     -0.188510
  H       1.665146      2.664536      1.367802
  C       5.003401      2.299492      1.555876
  H       3.970856      2.186899      1.901085
  H       5.161749      3.368455      1.386104
  C      -4.527779     -1.469261     -1.129255
  C      -4.349422     -1.834321      0.347428
  O      -3.942257     -2.920447      0.674238
  O      -4.720422     -0.986942      1.303614
  C      -5.314326     -0.157945     -1.267523
  H      -6.373940     -0.346333     -1.064638
  H      -5.252794      0.190882     -2.301622
  C      -5.029917      0.411647      1.123300
  H      -6.099688      0.492587      1.350822
  C      -4.796469      0.884379     -0.297114
  H      -5.313074      1.835574     -0.435519
  H      -3.729715      1.062716     -0.449449
  C      -5.363705     -2.597702     -1.752605
  H      -4.867964     -3.562715     -1.684511
  H      -5.555115     -2.372172     -2.804222
  C      -3.171052     -1.294209     -1.886276
  C      -1.843513     -1.940560     -1.429573
  H      -2.999720     -0.227671     -1.987501
  H      -3.342109     -1.658166     -2.904468
  C      -1.472212     -1.484618     -0.021325
  C      -1.904753     -3.486140     -1.567516
  O      -1.856045     -0.428280      0.428304
  O      -0.647208     -2.218978      0.703832
  H      -1.440398     -3.754825     -2.519755
  H      -2.941587     -3.800432     -1.628850
  C      -1.245657     -4.251506     -0.422225
  C      -0.114871     -3.464363      0.198547
  H      -0.870856     -5.211182     -0.781504
  H      -1.984680     -4.450452      0.356453
  H       0.649743     -3.208384     -0.540150
  C      -4.226292      1.161600      2.172773
  H      -3.167386      0.964805      1.985412
  H      -4.460079      0.728632      3.149450
  C       0.552475     -4.130009      1.385881
  H      -0.212846     -4.384815      2.126128
  H       1.209216     -3.389482      1.850889
  H      -6.326539     -2.687971     -1.245590
  C      -4.494657      2.662036      2.195799
  H      -5.570568      2.845804      2.295150
  H      -4.193239      3.107722      1.243058
  C       1.363462     -5.364883      1.010727
  H       0.708136     -6.126262      0.577604
  H       2.085016     -5.098890      0.230930
  C       0.400412      4.322816      0.847795
  H      -0.463102      4.014466      1.447921
  H      -0.003686      4.796275     -0.051630
  C       5.971299      1.801535      2.623112
  H       5.770990      0.750244      2.848177
  H       6.994176      1.842965      2.233266
  C       5.882756      2.615405      3.907441
  H       6.584722      2.251014      4.659152
  H       6.108806      3.667929      3.721606
  H       4.879429      2.564148      4.336750
  C       1.224546      5.342680      1.622612
  H       2.082952      5.676672      1.035361
  H       0.632265      6.222147      1.880967
  H       1.607623      4.913806      2.551814
  C      -3.752452      3.359843      3.328458
  H      -3.933074      4.436125      3.321831
  H      -4.066623      2.974082      4.300930
  H      -2.674805      3.200267      3.244448
  C       2.098244     -5.959024      2.205296
  H       1.397290     -6.253433      2.989761
  H       2.671943     -6.843124      1.921794
  H       2.793222     -5.235460      2.637817
104
Coordinates from ORCA-job orca E -2047.534032150205
  C       0.022601     -0.080973     -2.227980
  C       1.045408     -0.188747     -1.069200
  O       1.728974     -1.174456     -0.933573
  O       1.275993      0.852633     -0.276956
  C      -0.875161      1.160581     -2.120259
  H      -1.686257      0.969167     -1.422410
  H      -1.311535      1.362551     -3.101266
  C       0.407438      2.011742     -0.207848
  H      -0.430621      1.720352      0.435138
  C      -0.107163      2.357485     -1.586452
  H      -0.771569      3.220469     -1.513387
  H       0.733860      2.643624     -2.224174
  C      -0.711106     -1.437876     -2.395230
  H       0.079364     -2.187802     -2.408242
  H      -1.149204     -1.442628     -3.397592
  C       0.914726      0.069766     -3.427467
  C       4.422598      0.472499     -2.252774
  H       1.272257      1.047985     -3.719823
  H       1.398785     -0.804107     -3.842711
  C       3.970238      1.855446     -1.890461
  C       4.933423     -0.448292     -1.170837
  C       4.354861      0.131181     -3.532628
  O       3.284184      2.537859     -2.609400
  O       4.354960      2.355473     -0.712280
  H       6.001977     -0.626340     -1.328504
  H       4.423030     -1.408374     -1.254159
  C       4.712961      0.146873      0.209990
  H       3.987743      0.831639     -4.271008
  H       4.665629     -0.852370     -3.866265
  C       5.155011      1.594079      0.216824
  H       5.272635     -0.414043      0.959740
  H       3.653334      0.097988      0.473971
  H       6.198373      1.668328     -0.118587
  C       1.221617      3.095701      0.468093
  H       2.051557      3.379867     -0.184599
  H       1.662730      2.663091      1.371169
  C       5.010521      2.298903      1.553029
  H       3.978134      2.186327      1.898792
  H       5.169710      3.368202      1.386112
  C      -4.527004     -1.468603     -1.132040
  C      -4.351937     -1.834438      0.344851
  O      -3.946117     -2.920969      0.671879
  O      -4.725833     -0.987890      1.300786
  C      -5.311992     -0.156359     -1.271491
  H      -6.372291     -0.343740     -1.071302
  H      -5.247380      0.193024     -2.305202
  C      -5.033699      0.411094      1.120520
  H      -6.104097      0.492837      1.344838
  C      -4.795439      0.884615     -0.298826
  H      -5.310402      1.836604     -0.437922
  H      -3.727923      1.061489     -0.447670
  C      -5.362912     -2.596027     -1.757309
  H      -4.867675     -3.561379     -1.690294
  H      -5.553270     -2.368795     -2.808773
  C      -3.168850     -1.294567     -1.886788
  C      -1.842414     -1.941545     -1.427956
  H      -2.996986     -0.228110     -1.987843
  H      -3.338343     -1.658437     -2.905290
  C      -1.472829     -1.484821     -0.019589
  C      -1.904248     -3.487205     -1.565073
  O      -1.856564     -0.427943      0.428827
  O      -0.649292     -2.219262      0.707293
  H      -1.438324     -3.756814     -2.516272
  H      -2.941150     -3.801063     -1.627686
  C      -1.246921     -4.252163     -0.418480
  C      -0.116838     -3.465070      0.203675
  H      -0.872335     -5.212215     -0.776959
  H      -1.986910     -4.450764      0.359424
  H       0.649283     -3.210095     -0.533851
  C      -4.233023      1.159905      2.172953
  H      -3.173447      0.964459      1.987923
  H      -4.468727      0.725515      3.148535
  C       0.548211     -4.130392      1.392546
  H      -0.218367     -4.383977      2.131911
  H       1.205311     -3.390338      1.857779
  H      -6.326195     -2.686295     -1.251150
  C      -4.502684      2.660160      2.197449
  H      -5.579023      2.842721      2.294433
  H      -4.199074      3.107542      1.246213
  C       1.358415     -5.366636      1.019704
  H       0.702336     -6.128149      0.588015
  H       2.080531     -5.102548      0.239799
  C       0.400874      4.322662      0.847494
  H      -0.463357      4.016110      1.447489
  H      -0.001770      4.794943     -0.053203
  C       5.979229      1.797642      2.617938
  H       5.780808      0.745026      2.838340
  H       7.002073      1.843074      2.228460
  C       5.888969      2.605826      3.905846
  H       6.592019      2.240002      4.655836
  H       6.112581      3.659618      3.724260
  H       4.885764      2.550247      4.334857
  C       1.225356      5.342942      1.621501
  H       2.084204      5.675553      1.034120
  H       0.633522      6.223105      1.878496
  H       1.607574      4.914759      2.551359
  C      -3.764190      3.356690      3.333397
  H      -3.945299      4.432887      3.327949
  H      -4.081455      2.969209      4.304189
  H      -2.686274      3.197419      3.252467
  C       2.092331     -5.959228      2.215659
  H       1.390753     -6.251396      3.000403
  H       2.665213     -6.844445      1.933966
  H       2.787898     -5.235426      2.646836
104
Coordinates from ORCA-job orca E -2047.534038410990
  C       0.022635     -0.082076     -2.229366
  C       1.045557     -0.189691     -1.070398
  O       1.730080     -1.174911     -0.935955
  O       1.274663      0.851037     -0.276892
  C      -0.874895      1.159655     -2.122081
  H      -1.686358      0.968525     -1.424499
  H      -1.310891      1.361813     -3.103197
  C       0.406261      2.010379     -0.208646
  H      -0.432432      1.719184      0.433617
  C      -0.106892      2.356296     -1.587619
  H      -0.771317      3.219279     -1.514645
  H       0.734822      2.642365     -2.224424
  C      -0.711062     -1.438832     -2.396274
  H       0.079184     -2.189000     -2.409693
  H      -1.149663     -1.443333     -3.398429
  C       0.915234      0.068281     -3.428590
  C       4.421848      0.475552     -2.253534
  H       1.274107      1.045883     -3.721398
  H       1.399322     -0.806231     -3.842554
  C       3.966787      1.856973     -1.889135
  C       4.933327     -0.446578     -1.173094
  C       4.356477      0.136976     -3.534287
  O       3.278913      2.539279     -2.606608
  O       4.351435      2.355812     -0.710400
  H       6.001762     -0.624410     -1.331762
  H       4.423130     -1.406673     -1.257350
  C       4.714118      0.146683      0.208775
  H       3.988862      0.838363     -4.271548
  H       4.669750     -0.845092     -3.869967
  C       5.154275      1.594424      0.216609
  H       5.276256     -0.414534      0.956479
  H       3.655178      0.095723      0.475284
  H       6.196884      1.670482     -0.120698
  C       1.220018      3.094081      0.468353
  H       2.051087      3.378035     -0.182955
  H       1.659414      2.660978      1.372051
  C       5.010286      2.298159      1.553413
  H       3.977824      2.185112      1.898787
  H       5.169446      3.367583      1.387308
  C      -4.526388     -1.467874     -1.131541
  C      -4.351305     -1.833319      0.345475
  O      -3.945595     -2.919794      0.672687
  O      -4.726471     -0.986956      1.301144
  C      -5.310781     -0.155239     -1.271443
  H      -6.371254     -0.342041     -1.071610
  H      -5.245541      0.193947     -2.305164
  C      -5.033085      0.412334      1.120696
  H      -6.103460      0.494931      1.344796
  C      -4.794048      0.885543     -0.298664
  H      -5.308278      1.837920     -0.437842
  H      -3.726297      1.061584     -0.446991
  C      -5.363280     -2.595119     -1.755939
  H      -4.868451     -3.560690     -1.689351
  H      -5.554351     -2.367789     -2.807272
  C      -3.168491     -1.295042     -1.887020
  C      -1.841873     -1.942053     -1.428393
  H      -2.996311     -0.228671     -1.988870
  H      -3.338561     -1.659444     -2.905231
  C      -1.472053     -1.484740     -0.020368
  C      -1.903841     -3.487821     -1.564869
  O      -1.855746     -0.427710      0.427661
  O      -0.648456     -2.218939      0.706721
  H      -1.438244     -3.757881     -2.516090
  H      -2.940781     -3.801624     -1.626804
  C      -1.246073     -4.252342     -0.418189
  C      -0.116088     -3.464893      0.203806
  H      -0.871552     -5.212487     -0.776472
  H      -1.985865     -4.450627      0.360016
  H       0.650207     -3.210392     -0.533733
  C      -4.232289      1.160587      2.173345
  H      -3.172678      0.964934      1.988729
  H      -4.468329      0.726338      3.148918
  C       0.548550     -4.129829      1.393111
  H      -0.218118     -4.382325      2.132765
  H       1.206425     -3.390030      1.857684
  H      -6.326219     -2.684737     -1.249005
  C      -4.501321      2.661004      2.197874
  H      -5.577629      2.844005      2.294444
  H      -4.197033      3.108358      1.246836
  C       1.357628     -5.367274      1.021612
  H       0.700546     -6.129079      0.591989
  H       2.079342     -5.105194      0.240672
  C       0.399545      4.321652      0.846309
  H      -0.465798      4.016155      1.445215
  H      -0.001281      4.793846     -0.055246
  C       5.979115      1.796672      2.618066
  H       5.782955      0.743175      2.836207
  H       7.002236      1.845426      2.229708
  C       5.886093      2.602210      3.907534
  H       6.589642      2.236514      4.657120
  H       6.107649      3.656796      3.727960
  H       4.882713      2.543589      4.335692
  C       1.223828      5.341535      1.621140
  H       2.083696      5.673035      1.034598
  H       0.632440      6.222304      1.877035
  H       1.604578      4.913157      2.551513
  C      -3.762951      3.357062      3.334248
  H      -3.942502      4.433535      3.327823
  H      -4.081984      2.970667      4.304881
  H      -2.685178      3.196329      3.254398
  C       2.092154     -5.958083      2.218123
  H       1.390943     -6.247803      3.004116
  H       2.663778     -6.844495      1.937678
  H       2.788745     -5.233973      2.647114
104
Coordinates from ORCA-job orca E -2047.534042213380
  C       0.023189     -0.083737     -2.229443
  C       1.046345     -0.191198     -1.070261
  O       1.732104     -1.175615     -0.936891
  O       1.273722      0.848806     -0.275249
  C      -0.874593      1.157909     -2.122036
  H      -1.686556      0.966388     -1.425177
  H      -1.309879      1.360633     -3.103359
  C       0.405038      2.007987     -0.207343
  H      -0.434162      1.716369      0.434026
  C      -0.107020      2.354339     -1.586586
  H      -0.771710      3.217084     -1.513126
  H       0.734998      2.640657     -2.222827
  C      -0.710375     -1.440385     -2.396238
  H       0.079432     -2.191035     -2.409694
  H      -1.149111     -1.444702     -3.398352
  C       0.915938      0.066764     -3.428447
  C       4.419846      0.480976     -2.255466
  H       1.275742      1.043856     -3.721730
  H       1.400032     -0.808235     -3.841502
  C       3.961398      1.860143     -1.887749
  C       4.932565     -0.443277     -1.177595
  C       4.356860      0.146185     -3.537411
  O       3.270731      2.542435     -2.602489
  O       4.346918      2.357229     -0.708438
  H       6.000731     -0.620855     -1.338330
  H       4.422685     -1.403474     -1.262757
  C       4.715944      0.147092      0.206073
  H       3.988125      0.848718     -4.273033
  H       4.673320     -0.833862     -3.876037
  C       5.153707      1.595538      0.215294
  H       5.281869     -0.414727      0.950540
  H       3.658155      0.093285      0.476796
  H       6.195144      1.673766     -0.125044
  C       1.218034      3.091581      0.470965
  H       2.050190      3.375140     -0.179096
  H       1.655510      2.658177      1.375478
  C       5.011147      2.297421      1.553151
  H       3.978681      2.183992      1.898279
  H       5.170518      3.367005      1.388346
  C      -4.525868     -1.467425     -1.132124
  C      -4.351598     -1.832244      0.345180
  O      -3.946494     -2.918665      0.673155
  O      -4.728130     -0.985521      1.300018
  C      -5.309233     -0.154316     -1.273026
  H      -6.369967     -0.340160     -1.073746
  H      -5.243139      0.194357     -2.306879
  C      -5.032540      0.414246      1.118922
  H      -6.102949      0.498274      1.342335
  C      -4.792074      0.886492     -0.300547
  H      -5.304958      1.839508     -0.440276
  H      -3.723968      1.061039     -0.448265
  C      -5.363558     -2.594546     -1.755860
  H      -4.869184     -3.560336     -1.688884
  H      -5.554737     -2.367713     -2.807297
  C      -3.167905     -1.296106     -1.887594
  C      -1.841268     -1.942963     -1.428276
  H      -2.995164     -0.229899     -1.990336
  H      -3.338129     -1.661278     -2.905507
  C      -1.471993     -1.484972     -0.020371
  C      -1.903720     -3.488840     -1.563687
  O      -1.856544     -0.428166      0.427376
  O      -0.647985     -2.218480      0.706822
  H      -1.438814     -3.759577     -2.515028
  H      -2.940806     -3.802394     -1.624647
  C      -1.245560     -4.252693     -0.416799
  C      -0.115646     -3.464729      0.204813
  H      -0.870839     -5.212911     -0.774606
  H      -1.985291     -4.450199      0.361682
  H       0.650607     -3.210654     -0.532966
  C      -4.231704      1.161719      2.172028
  H      -3.172099      0.964658      1.988901
  H      -4.469431      0.728196      3.147514
  C       0.548778     -4.128867      1.394599
  H      -0.217783     -4.379407      2.135051
  H       1.207706     -3.389135      1.857812
  H      -6.326511     -2.683292     -1.248797
  C      -4.498825      2.662523      2.195674
  H      -5.575192      2.846899      2.288919
  H      -4.191204      3.109383      1.245465
  C       1.356177     -5.367944      1.024995
  H       0.697825     -6.130178      0.598069
  H       2.077181     -5.108799      0.242421
  C       0.397492      4.319580      0.847297
  H      -0.469185      4.014969      1.444727
  H      -0.001440      4.791735     -0.055117
  C       5.980553      1.794586      2.616515
  H       5.785863      0.740351      2.832384
  H       7.003610      1.845431      2.228210
  C       5.887176      2.597270      3.907770
  H       6.591742      2.230685      4.655964
  H       6.107598      3.652449      3.730277
  H       4.884140      2.536722      4.336439
  C       1.221060      5.339285      1.623194
  H       2.082017      5.669950      1.037735
  H       0.629831      6.220490      1.877889
  H       1.600426      4.910879      2.554125
  C      -3.763034      3.358071      3.334037
  H      -3.940008      4.434985      3.325248
  H      -4.086736      2.973863      4.303958
  H      -2.685308      3.195202      3.258277
  C       2.091646     -5.956349      2.222125
  H       1.391087     -6.242884      3.009891
  H       2.661650     -6.844290      1.943305
  H       2.789554     -5.231862      2.648308
104
Coordinates from ORCA-job orca E -2047.534047343691
  C       0.023520     -0.083535     -2.229362
  C       1.046683     -0.191079     -1.070138
  O       1.732978     -1.175111     -0.937155
  O       1.273324      0.848493     -0.274341
  C      -0.874544      1.158041     -2.121603
  H      -1.686875      0.966097     -1.425367
  H      -1.309182      1.361269     -3.103125
  C       0.404376      2.007397     -0.206231
  H      -0.435183      1.715299      0.434456
  C      -0.107227      2.354269     -1.585531
  H      -0.771929      3.216968     -1.511596
  H       0.734734      2.640541     -2.221826
  C      -0.709926     -1.440216     -2.396280
  H       0.079728     -2.191011     -2.410054
  H      -1.148807     -1.444344     -3.398332
  C       0.916070      0.067121     -3.428377
  C       4.417917      0.483415     -2.256229
  H       1.276201      1.044018     -3.721888
  H       1.399594     -0.808078     -3.841682
  C       3.957825      1.861459     -1.886862
  C       4.931050     -0.441874     -1.179524
  C       4.356190      0.150393     -3.538711
  O       3.265504      2.543654     -2.600008
  O       4.344278      2.357895     -0.707488
  H       5.998978     -0.619780     -1.341523
  H       4.421029     -1.402020     -1.264606
  C       4.716400      0.147340      0.205057
  H       3.987083      0.853356     -4.273741
  H       4.674154     -0.828721     -3.878649
  C       5.152993      1.596133      0.214619
  H       5.284642     -0.414608      0.947687
  H       3.659392      0.092110      0.478627
  H       6.193835      1.675222     -0.127329
  C       1.216903      3.090833      0.472939
  H       2.049628      3.373873     -0.176582
  H       1.653259      2.657366      1.377990
  C       5.011257      2.297084      1.553049
  H       3.978664      2.183827      1.897792
  H       5.171115      3.366706      1.388952
  C      -4.525298     -1.467906     -1.132017
  C      -4.350682     -1.832064      0.345446
  O      -3.944875     -2.918068      0.673945
  O      -4.727819     -0.985054      1.299773
  C      -5.308731     -0.154944     -1.273313
  H      -6.369441     -0.340752     -1.073846
  H      -5.242876      0.193303     -2.307325
  C      -5.031782      0.414790      1.118241
  H      -6.102152      0.499132      1.341720
  C      -4.791415      0.886346     -0.301467
  H      -5.304124      1.839406     -0.441525
  H      -3.723294      1.060693     -0.449458
  C      -5.363112     -2.595436     -1.754882
  H      -4.868677     -3.561150     -1.687121
  H      -5.554461     -2.369573     -2.806481
  C      -3.167648     -1.296975     -1.887979
  C      -1.840746     -1.943220     -1.428434
  H      -2.994963     -0.230873     -1.991612
  H      -3.338098     -1.662986     -2.905527
  C      -1.472003     -1.485358     -0.020327
  C      -1.903010     -3.489093     -1.563780
  O      -1.857217     -0.428873      0.427579
  O      -0.647614     -2.218498      0.706721
  H      -1.438570     -3.759695     -2.515406
  H      -2.940101     -3.802686     -1.624351
  C      -1.244698     -4.252931     -0.416948
  C      -0.115024     -3.464807      0.204977
  H      -0.869417     -5.212914     -0.774724
  H      -1.984608     -4.450449      0.361349
  H       0.651379     -3.210665     -0.532617
  C      -4.230699      1.162417      2.171050
  H      -3.171225      0.963854      1.988837
  H      -4.469647      0.730163      3.146817
  C       0.548890     -4.128670      1.395131
  H      -0.217868     -4.377762      2.135861
  H       1.208405     -3.389062      1.857739
  H      -6.326034     -2.683833     -1.247687
  C      -4.496046      2.663537      2.192759
  H      -5.572402      2.849361      2.283404
  H      -4.185936      3.109053      1.242704
  C       1.355072     -5.368784      1.026687
  H       0.696018     -6.130975      0.600751
  H       2.076015     -5.111385      0.243455
  C       0.396201      4.318935      0.848462
  H      -0.471373      4.014465      1.444678
  H      -0.001598      4.791409     -0.054293
  C       5.980526      1.792824      2.615776
  H       5.784864      0.738711      2.831361
  H       7.003460      1.842482      2.226965
  C       5.888941      2.595094      3.907375
  H       6.593473      2.227190      4.654962
  H       6.110689      3.650052      3.730246
  H       4.886124      2.535843      4.336725
  C       1.219002      5.338357      1.625501
  H       2.080698      5.668948      1.041082
  H       0.627665      6.219627      1.879676
  H       1.597414      4.909794      2.556744
  C      -3.761860      3.359588      3.331800
  H      -3.937013      4.436794      3.320593
  H      -4.088478      2.977646      4.301620
  H      -2.684167      3.195193      3.258886
  C       2.090397     -5.956409      2.224266
  H       1.389865     -6.241232      3.012686
  H       2.659398     -6.845269      1.946351
  H       2.789084     -5.232077      2.649416
104
Coordinates from ORCA-job orca E -2047.534046428576
  C       0.023650     -0.083641     -2.229373
  C       1.046774     -0.191241     -1.070221
  O       1.733574     -1.174974     -0.937524
  O       1.272918      0.847958     -0.273815
  C      -0.874574      1.157941     -2.121441
  H      -1.687432      0.965594     -1.425972
  H      -1.308387      1.361572     -3.103255
  C       0.403657      2.006585     -0.205355
  H      -0.436271      1.713891      0.434546
  C      -0.107483      2.354006     -1.584764
  H      -0.772003      3.216828     -1.510727
  H       0.734454      2.639926     -2.221187
  C      -0.710050     -1.440319     -2.396081
  H       0.079496     -2.191251     -2.409829
  H      -1.148968     -1.444609     -3.398114
  C       0.915584      0.066590     -3.428847
  C       4.416511      0.484454     -2.255737
  H       1.276203      1.043273     -3.722495
  H       1.397928     -0.808853     -3.842958
  C       3.954380      1.861359     -1.885009
  C       4.929775     -0.441426     -1.179611
  C       4.356616      0.152888     -3.538642
  O       3.260104      2.542915     -2.596812
  O       4.341592      2.357689     -0.705818
  H       5.997477     -0.619829     -1.342519
  H       4.419401     -1.401388     -1.264401
  C       4.716781      0.147131      0.205577
  H       3.987346      0.856045     -4.273407
  H       4.676485     -0.825299     -3.879436
  C       5.151977      1.596391      0.215067
  H       5.287125     -0.414521      0.946793
  H       3.660464      0.090554      0.481609
  H       6.192363      1.676423     -0.127987
  C       1.215531      3.089845      0.474818
  H       2.049121      3.372166     -0.173855
  H       1.650535      2.656502      1.380594
  C       5.010851      2.296861      1.553847
  H       3.978282      2.183598      1.898644
  H       5.170525      3.366515      1.389857
  C      -4.525390     -1.468084     -1.131870
  C      -4.350435     -1.831579      0.345708
  O      -3.944015     -2.917208      0.674746
  O      -4.727589     -0.984089      1.299562
  C      -5.309017     -0.155340     -1.273464
  H      -6.369608     -0.341171     -1.073368
  H      -5.243828      0.192394     -2.307689
  C      -5.031043      0.415802      1.117531
  H      -6.101281      0.500559      1.341438
  C      -4.791277      0.886563     -0.302543
  H      -5.304003      1.839539     -0.443036
  H      -3.723252      1.060858     -0.451275
  C      -5.363150     -2.596058     -1.753962
  H      -4.868710     -3.561688     -1.685035
  H      -5.554297     -2.371357     -2.805838
  C      -3.167918     -1.297457     -1.888122
  C      -1.840964     -1.943343     -1.428306
  H      -2.995226     -0.231455     -1.992657
  H      -3.338447     -1.664319     -2.905345
  C      -1.472050     -1.485557     -0.020208
  C      -1.903246     -3.489197     -1.563424
  O      -1.857831     -0.429461      0.428142
  O      -0.646666     -2.218212      0.706179
  H      -1.439653     -3.759807     -2.515483
  H      -2.940392     -3.802769     -1.623291
  C      -1.244391     -4.252930     -0.416851
  C      -0.114365     -3.464811      0.204421
  H      -0.868947     -5.212834     -0.774650
  H      -1.984067     -4.450381      0.361663
  H       0.651689     -3.210836     -0.533582
  C      -4.229131      1.163602      2.169661
  H      -3.169933      0.963698      1.987417
  H      -4.468566      0.732316      3.145734
  C       0.549998     -4.128323      1.394525
  H      -0.216371     -4.375567      2.136265
  H       1.210682     -3.388890      1.855759
  H      -6.326187     -2.684068     -1.246934
  C      -4.493058      2.664953      2.190097
  H      -5.569333      2.851976      2.279364
  H      -4.181580      3.109405      1.239988
  C       1.354331     -5.369671      1.026511
  H       0.693994     -6.131753      0.602366
  H       2.074310     -5.114124      0.241792
  C       0.394487      4.317979      0.849302
  H      -0.474106      4.013336      1.443984
  H      -0.002012      4.790874     -0.053806
  C       5.980536      1.792133      2.615945
  H       5.783511      0.738508      2.832657
  H       7.003085      1.839616      2.225821
  C       5.891784      2.595585      3.906927
  H       6.596504      2.227119      4.654056
  H       6.114906      3.650089      3.728824
  H       4.889423      2.538347      4.337624
  C       1.216110      5.337094      1.627865
  H       2.078636      5.668049      1.044891
  H       0.624377      6.218235      1.881568
  H       1.593291      4.908348      2.559525
  C      -3.759395      3.361350      3.329196
  H      -3.933658      4.438688      3.316798
  H      -4.087017      2.980565      4.299123
  H      -2.681717      3.196245      3.257495
  C       2.090836     -5.956603      2.223658
  H       1.391272     -6.239795      3.013520
  H       2.658571     -6.846346      1.945991
  H       2.790888     -5.232513      2.646970
