85
Coordinates from ORCA-job orca E -1736.086258998720
  C           0.81758497696996     -0.98249830591866     -0.02714869699702
  C           0.91345896380860     -0.22987392797946      1.29340453213730
  O           1.21826308254157      0.92837452632100      1.42016611145992
  O           0.59924366734913     -1.00204137020827      2.34677840494128
  C           1.24950992961745     -0.06340753190829     -1.16610834333421
  H           0.66247303784852      0.85124153447863     -1.19453765035382
  H           1.14536543733327     -0.57305165369044     -2.12253431210324
  C           0.64335096569647     -0.36271749851187      3.61846530733211
  H           0.35034247968364     -1.11903140085248      4.34166413620788
  C           1.68400659627791     -2.27259376254436      0.02903931741778
  C           3.23024604781813     -2.24317702215012      0.11166855899664
  H           1.44517675755216     -2.83720659620964     -0.87332129850517
  H           1.33873716155387     -2.86838621006004      0.87726521256179
  C           3.79539942074759     -1.76982581882229     -1.23594999602218
  C           3.79523270274158     -1.48107262369577      1.32721043787854
  C           3.66341390649140     -3.71858908330481      0.22050614029768
  O           3.41660947053938     -2.24892496604801     -2.26907935466795
  O           4.75149738500667     -0.83278072247895     -1.28573564364832
  H           4.62824968679133     -2.05851723827601      1.73915825723842
  H           3.04586209447953     -1.44338659440214      2.11880670743912
  C           4.32089145784267     -0.09677793704875      0.99172564156859
  H           3.24771191968543     -4.30621279434382     -0.59698836214031
  H           3.31685656910542     -4.13339758819209      1.16960245025293
  C           5.33280870684429     -0.20805342550314     -0.12529754791381
  H           4.80279969479038      0.33752524971777      1.86966286541594
  H           3.52235350753418      0.58793289053421      0.69997578930640
  H           6.16339826312297     -0.84979050168712      0.19780223282142
  C           5.88667958616849      1.11806538507096     -0.61441953027609
  H           5.05022935803914      1.74238047768158     -0.94546381231088
  H           6.49585383268141      0.91847815565239     -1.50025558220664
  C           6.71843295643077      1.86019857381420      0.42540143997312
  H           6.09499226019710      2.12508144894143      1.28413097094203
  H           7.50145262487984      1.19541337445544      0.80665529150935
  C           7.35384432207448      3.12402631770010     -0.13933544961148
  H           7.93857611322854      3.64782993017301      0.61855615776378
  H           8.01967697515782      2.89081062929382     -0.97322060229580
  H           6.59227018900482      3.81505438144682     -0.50782755394027
  H           1.64963720389873     -0.00025463879909      3.83165041311406
  H          -0.04568286687547      0.48210642417365      3.64932826896677
  H           2.28625846874226      0.24869980045229     -1.05797538607865
  H           4.75131822727720     -3.80900663899221      0.18754057509907
  C          -0.62922102767731     -1.52914960290463     -0.22816174987526
  C          -1.88196728116685     -0.61966196550077     -0.40367560633297
  H          -0.58110749891646     -2.15175843561391     -1.12296511309396
  H          -0.84633638008066     -2.19445453702722      0.61096907722058
  C          -3.01311805823117     -1.64937260724416     -0.69464835216257
  C          -1.68759518410474      0.20948717923107     -1.68276013431582
  C          -2.17914182612854      0.21578872398236      0.85875013964774
  C          -4.48800459770361     -1.23454063365343     -0.90902905881606
  H          -2.71825914039400     -2.18727075469562     -1.59719729906254
  H          -2.99479372655162     -2.37006231247311      0.12588695923651
  O          -1.55007490352792     -0.32493999887638     -2.74933471979131
  O          -1.68566346937218      1.54650905220515     -1.63568972514071
  H          -1.27412228129817      0.33374723489159      1.44865548043967
  H          -2.86867330957420     -0.33556044739402      1.49924605911424
  C          -2.68873895272811      1.61682032626329      0.56356690025976
  C          -5.14287331901302     -0.72437662088865      0.37046138079799
  C          -4.68627643047890     -0.20907944331777     -2.02321662937121
  C          -5.24781285156890     -2.51998504966331     -1.29299102797824
  C          -1.73768090708832      2.28821492546493     -0.39954492409780
  H          -2.73262545583989      2.19094555460817      1.49069490124149
  H          -3.69596780608127      1.61460874197189      0.14290826884944
  O          -5.74986807582290      0.30755136077966      0.48282965440624
  O          -5.01455604696130     -1.59397488306143      1.38685742185519
  H          -5.74980186535713     -0.04576342966998     -2.19769265974369
  H          -4.22798846767934     -0.57067853821380     -2.94351405092662
  H          -4.24988367661930      0.76022377943226     -1.79015835181335
  H          -5.10616628294628     -3.30496244052077     -0.55023217904328
  H          -4.88420900209171     -2.88242956379921     -2.25582795873858
  H          -6.31770582842375     -2.32366623080597     -1.38828485255577
  H          -0.72541987484036      2.28512032496552      0.02545462661321
  C          -2.11361717125382      3.70462515159282     -0.79067436643049
  C          -5.63778735390071     -1.21149433614185      2.60904910683090
  H          -3.12220963071153      3.69675508476541     -1.21691100261039
  H          -1.43853442205988      4.01825979460034     -1.59180757413749
  C          -2.03460552843609      4.69747246484815      0.36353460502151
  H          -5.43753013742133     -2.01782541152815      3.30990010771393
  H          -5.21910626022816     -0.27417409953279      2.97792892156367
  H          -6.71116987460371     -1.08441273804346      2.46990645562038
  H          -2.76340625936812      4.43199874365780      1.13466294646209
  H          -1.04836713524050      4.62797023257187      0.83486617316866
  C          -2.28562208466225      6.13009538654146     -0.08861976059035
  H          -2.23528650225166      6.82628506901257      0.75012361638293
  H          -1.54574972309317      6.44405768120801     -0.82837427996795
  H          -3.27265752917981      6.22959401969657     -0.54616752408581
