85
Coordinates from ORCA-job orca E -1736.083274338663
  C       0.818080     -1.025670     -0.016740
  C       0.898140     -0.222340      1.276400
  O       1.164750      0.951550      1.360580
  O       0.619130     -0.963030      2.359380
  C       1.266420     -0.146260     -1.185620
  H       0.691180      0.783830     -1.243760
  H       1.153800     -0.687370     -2.133160
  C       0.646810     -0.291800      3.606780
  H       0.392290     -1.040330      4.365000
  C       1.681680     -2.316350      0.098640
  C       3.230580     -2.282070      0.189750
  H       1.448860     -2.920690     -0.790030
  H       1.324260     -2.880740      0.973250
  C       3.793010     -1.852830     -1.178920
  C       3.787030     -1.465880      1.378240
  C       3.670630     -3.752350      0.359670
  O       3.440490     -2.396850     -2.189820
  O       4.700530     -0.871440     -1.259880
  H       4.650290     -2.008300      1.798210
  H       3.041390     -1.432450      2.184890
  C       4.265130     -0.072910      0.998210
  H       3.262640     -4.378890     -0.444670
  H       3.316970     -4.138530      1.328120
  C       5.262610     -0.176340     -0.138810
  H       4.753740      0.401020      1.862450
  H       3.434290      0.586450      0.707380
  H       6.135700     -0.766010      0.200940
  C       5.749730      1.158200     -0.682810
  H       4.874690      1.731300     -1.034490
  H       6.361720      0.948700     -1.574890
  C       6.555750      1.985850      0.314760
  H       5.922690      2.258790      1.175380
  H       7.377100      1.370100      0.721950
  C       7.129340      3.255150     -0.305920
  H       7.699670      3.840530      0.430150
  H       7.804080      3.018310     -1.143300
  H       6.328030      3.899940     -0.699330
  H       1.645080      0.126370      3.802690
  H      -0.083280      0.531070      3.624000
  H       2.316270      0.152220     -1.085050
  H       4.767760     -3.840400      0.337970
  C      -0.633370     -1.574310     -0.212070
  C      -1.882480     -0.660160     -0.402550
  H      -0.581950     -2.218360     -1.101910
  H      -0.855590     -2.231090      0.643670
  C      -3.019850     -1.671100     -0.739090
  C      -1.656230      0.188850     -1.668370
  C      -2.202610      0.154550      0.874480
  C      -4.483930     -1.216950     -0.972070
  H      -2.712770     -2.194160     -1.656210
  H      -3.032820     -2.418460      0.069200
  O      -1.521980     -0.332010     -2.743260
  O      -1.622710      1.522630     -1.586890
  H      -1.317630      0.208700      1.515630
  H      -2.945310     -0.388470      1.474700
  C      -2.647020      1.584410      0.602030
  C      -5.142650     -0.718530      0.312170
  C      -4.634150     -0.151540     -2.060750
  C      -5.268940     -2.475990     -1.402910
  C      -1.660940      2.241190     -0.342500
  H      -2.679010      2.146260      1.547060
  H      -3.659370      1.629480      0.173340
  O      -5.699680      0.340100      0.451680
  O      -5.074040     -1.623830      1.301020
  H      -5.697490      0.051980     -2.249330
  H      -4.163800     -0.497440     -2.990780
  H      -4.168690      0.802750     -1.785850
  H      -5.163840     -3.286660     -0.668800
  H      -4.891760     -2.830680     -2.373480
  H      -6.339980     -2.249710     -1.518160
  H      -0.647920      2.191920      0.097910
  C      -1.978410      3.681880     -0.707080
  C      -5.677070     -1.258940      2.529850
  H      -2.995560      3.723880     -1.133330
  H      -1.289690      3.977130     -1.515030
  C      -1.851650      4.659490      0.458430
  H      -5.543860     -2.112290      3.204080
  H      -5.194040     -0.363930      2.950100
  H      -6.746480     -1.043600      2.394120
  H      -2.582720      4.405520      1.244070
  H      -0.855170      4.547670      0.920090
  C      -2.059360      6.108960      0.032920
  H      -1.970330      6.795890      0.887380
  H      -1.315960      6.411970     -0.720910
  H      -3.057170      6.252630     -0.410450
85
Coordinates from ORCA-job orca E -1736.085665433526
  C       0.795956     -0.978108     -0.015221
  C       0.872993     -0.192291      1.287783
  O       1.132930      0.980134      1.386945
  O       0.586237     -0.946179      2.360314
  C       1.232544     -0.084686     -1.174022
  H       0.651063      0.832101     -1.222240
  H       1.125890     -0.613850     -2.119739
  C       0.605667     -0.280132      3.614186
  H       0.350118     -1.029619      4.358758
  C       1.664368     -2.264857      0.079653
  C       3.212272     -2.235747      0.166420
  H       1.429169     -2.854741     -0.807913
  H       1.313907     -2.836873      0.942056
  C       3.782189     -1.807367     -1.196338
  C       3.777505     -1.434698      1.356385
  C       3.640202     -3.706210      0.330030
  O       3.431206     -2.344262     -2.210120
  O       4.715940     -0.851179     -1.272935
  H       4.623146     -1.990738      1.773747
  H       3.035420     -1.390820      2.154794
  C       4.283489     -0.052117      0.983943
  H       3.229261     -4.322046     -0.469241
  H       3.287552     -4.089228      1.290597
  C       5.286781     -0.176527     -0.141116
  H       4.771646      0.406465      1.846492
  H       3.474408      0.619867      0.688524
  H       6.135624     -0.785990      0.199837
  C       5.809887      1.145867     -0.672869
  H       4.958689      1.740642     -1.022290
  H       6.418741      0.929725     -1.555725
  C       6.628991      1.939504      0.337073
  H       6.002422      2.219358      1.189532
  H       7.425584      1.303133      0.739737
  C       7.238506      3.196119     -0.268896
  H       7.816830      3.754240      0.469357
  H       7.905368      2.950324     -1.098850
  H       6.462906      3.861430     -0.656127
  H       1.594425      0.134839      3.816777
  H      -0.120477      0.534735      3.632409
  H       2.270270      0.224146     -1.072630
  H       4.728247     -3.801124      0.306670
  C      -0.649771     -1.533225     -0.215327
  C      -1.904118     -0.630011     -0.407972
  H      -0.592929     -2.170112     -1.100142
  H      -0.868662     -2.187940      0.632625
  C      -3.025874     -1.663352     -0.725437
  C      -1.686131      0.208356     -1.679477
  C      -2.219459      0.194940      0.859932
  C      -4.506423     -1.262648     -0.944654
  H      -2.717855     -2.181897     -1.635062
  H      -3.007672     -2.401327      0.080367
  O      -1.552604     -0.318453     -2.750066
  O      -1.632763      1.541556     -1.609955
  H      -1.339246      0.246489      1.494960
  H      -2.961402     -0.334039      1.459334
  C      -2.646378      1.626519      0.580320
  C      -5.179710     -0.793060      0.341210
  C      -4.713480     -0.213112     -2.034857
  C      -5.241407     -2.549964     -1.366305
  C      -1.653194      2.263315     -0.364843
  H      -2.670452      2.189440      1.515567
  H      -3.649582      1.682569      0.152964
  O      -5.789508      0.234647      0.478753
  O      -5.081943     -1.702074      1.324847
  H      -5.778399     -0.061251     -2.212583
  H      -4.241821     -0.541508     -2.960878
  H      -4.294123      0.756173     -1.772330
  H      -5.096669     -3.348901     -0.638937
  H      -4.862006     -2.886555     -2.332736
  H      -6.313557     -2.368907     -1.470059
  H      -0.645528      2.200677      0.068781
  C      -1.951992      3.704273     -0.731104
  C      -5.723301     -1.368678      2.546780
  H      -2.960780      3.758961     -1.155264
  H      -1.263010      3.991055     -1.531182
  C      -1.815961      4.673578      0.436373
  H      -5.557728     -2.210120      3.215039
  H      -5.296280     -0.458604      2.972843
  H      -6.791374     -1.210060      2.394677
  H      -2.548817      4.429912      1.211825
  H      -0.830150      4.547765      0.898213
  C      -2.001484      6.123703      0.011723
  H      -1.907627      6.802848      0.860907
  H      -1.255983      6.414799     -0.732317
  H      -2.987639      6.280162     -0.432560
85
Coordinates from ORCA-job orca E -1736.084616694092
  C       0.831775     -1.025839     -0.048732
  C       0.939297     -0.230320      1.245279
  O       1.251375      0.929367      1.331586
  O       0.652980     -0.969337      2.329063
  C       1.280011     -0.155977     -1.218744
  H       0.717517      0.767555     -1.277484
  H       1.161334     -0.693911     -2.154378
  C       0.720556     -0.287925      3.576425
  H       0.460135     -1.020410      4.331132
  C       1.682705     -2.320412      0.050677
  C       3.226735     -2.291756      0.148996
  H       1.450175     -2.906166     -0.836101
  H       1.325290     -2.888853      0.908431
  C       3.804717     -1.843805     -1.201591
  C       3.773721     -1.499302      1.350574
  C       3.657969     -3.761577      0.297542
  O       3.449390     -2.353778     -2.227289
  O       4.715940     -0.864714     -1.264392
  H       4.626189     -2.042024      1.762380
  H       3.029405     -1.479932      2.143585
  C       4.246608     -0.101477      0.997829
  H       3.253931     -4.367529     -0.507953
  H       3.302579     -4.154364      1.249115
  C       5.262437     -0.191091     -0.116893
  H       4.713927      0.358648      1.866709
  H       3.425118      0.550428      0.700926
  H       6.118434     -0.784859      0.222142
  C       5.759137      1.148120     -0.628093
  H       4.900238      1.728134     -0.972579
  H       6.377042      0.959048     -1.506654
  C       6.554308      1.941657      0.399587
  H       5.918909      2.194339      1.249356
  H       7.359909      1.318283      0.795005
  C       7.139443      3.219246     -0.184349
  H       7.701192      3.775706      0.562798
  H       7.812680      3.000609     -1.012065
  H       6.354246      3.872383     -0.562897
  H       1.722430      0.097392      3.750860
  H       0.021517      0.545417      3.599864
  H       2.320971      0.134150     -1.124555
  H       4.742967     -3.852092      0.278576
  C      -0.623244     -1.560679     -0.233352
  C      -1.874124     -0.648685     -0.414110
  H      -0.582328     -2.196244     -1.115718
  H      -0.839802     -2.211509      0.613581
  C      -3.002938     -1.668069     -0.727926
  C      -1.671531      0.196933     -1.681199
  C      -2.195501      0.165437      0.856616
  C      -4.464459     -1.223659     -0.958648
  H      -2.702644     -2.202542     -1.626845
  H      -3.007947     -2.390037      0.087866
  O      -1.567312     -0.321716     -2.758563
  O      -1.669676      1.531716     -1.614570
  H      -1.314436      0.241714      1.482373
  H      -2.917513     -0.382936      1.457696
  C      -2.673688      1.579592      0.580967
  C      -5.106801     -0.674727      0.310293
  C      -4.625898     -0.204890     -2.082658
  C      -5.254404     -2.492039     -1.331026
  C      -1.707244      2.250141     -0.365435
  H      -2.714230      2.138363      1.514022
  H      -3.676581      1.599082      0.155239
  O      -5.645239      0.394840      0.415860
  O      -4.986070     -1.521146      1.346760
  H      -5.679708     -0.010789     -2.263340
  H      -4.174818     -0.586668     -2.994667
  H      -4.162025      0.749973     -1.854610
  H      -5.138292     -3.268473     -0.579918
  H      -4.896849     -2.875508     -2.284226
  H      -6.315290     -2.270184     -1.434424
  H      -0.698656      2.220864      0.060912
  C      -2.056770      3.679826     -0.725535
  C      -5.564994     -1.085451      2.571183
  H      -3.063523      3.701562     -1.148416
  H      -1.379472      3.995872     -1.519915
  C      -1.955619      4.642823      0.449633
  H      -5.385735     -1.880305      3.285769
  H      -5.101064     -0.161594      2.910149
  H      -6.631727     -0.914297      2.454275
  H      -2.682720      4.372656      1.216494
  H      -0.971634      4.544250      0.913939
  C      -2.182825      6.088403      0.032305
  H      -2.114432      6.762594      0.883404
  H      -1.444581      6.405060     -0.703241
  H      -3.167819      6.216594     -0.414942
85
Coordinates from ORCA-job orca E -1736.086079667734
  C       0.814794     -0.993926     -0.014516
  C       0.894498     -0.207035      1.287040
  O       1.171885      0.960928      1.385389
  O       0.590133     -0.956079      2.359174
  C       1.257828     -0.106637     -1.174571
  H       0.678555      0.810677     -1.229765
  H       1.154270     -0.639952     -2.117808
  C       0.613167     -0.282876      3.612342
  H       0.343208     -1.026798      4.356666
  C       1.678925     -2.282489      0.080758
  C       3.225794     -2.252899      0.164852
  H       1.441843     -2.872217     -0.805658
  H       1.330496     -2.853099      0.944231
  C       3.791946     -1.821817     -1.196998
  C       3.791953     -1.452301      1.353882
  C       3.655174     -3.723650      0.323441
  O       3.427254     -2.345814     -2.212898
  O       4.723349     -0.862749     -1.277452
  H       4.640828     -2.004719      1.767296
  H       3.052272     -1.411613      2.153965
  C       4.289065     -0.067122      0.980144
  H       3.239765     -4.337991     -0.473923
  H       3.308024     -4.107147      1.285090
  C       5.294375     -0.188774     -0.142205
  H       4.772916      0.395468      1.842107
  H       3.476810      0.598170      0.681136
  H       6.142630     -0.798412      0.196346
  C       5.814803      1.135073     -0.672478
  H       4.962950      1.730777     -1.016072
  H       6.421777      0.923131     -1.556734
  C       6.636766      1.923767      0.339489
  H       6.013313      2.199561      1.194479
  H       7.435024      1.286444      0.735117
  C       7.243155      3.183477     -0.263882
  H       7.824891      3.737543      0.474038
  H       7.905601      2.941308     -1.097549
  H       6.466015      3.850403     -0.643289
  H       1.606548      0.117612      3.816738
  H      -0.101210      0.541212      3.622107
  H       2.295836      0.200495     -1.070115
  H       4.742539     -3.817651      0.293752
  C      -0.632230     -1.543279     -0.214421
  C      -1.885393     -0.636450     -0.402008
  H      -0.578804     -2.176419     -1.101260
  H      -0.851811     -2.199457      0.631116
  C      -3.011979     -1.661751     -0.717691
  C      -1.675376      0.202934     -1.672685
  C      -2.202454      0.186575      0.865284
  C      -4.481865     -1.234610     -0.941659
  H      -2.709015     -2.185874     -1.625107
  H      -3.005598     -2.395009      0.091599
  O      -1.550418     -0.322616     -2.745067
  O      -1.651787      1.538039     -1.609929
  H      -1.318369      0.257796      1.492813
  H      -2.931291     -0.353095      1.469868
  C      -2.663682      1.606130      0.581437
  C      -5.148736     -0.749085      0.341215
  C      -4.655384     -0.177458     -2.029473
  C      -5.242713     -2.504648     -1.370089
  C      -1.684980      2.262198     -0.364199
  H      -2.701930      2.170499      1.514416
  H      -3.666308      1.635735      0.149935
  O      -5.728435      0.295600      0.477245
  O      -5.070423     -1.657444      1.328257
  H      -5.714478      0.001769     -2.213021
  H      -4.187373     -0.516289     -2.953082
  H      -4.212648      0.780080     -1.761323
  H      -5.117072     -3.309017     -0.645957
  H      -4.867598     -2.844899     -2.336236
  H      -6.309782     -2.300042     -1.475946
  H      -0.676239      2.221505      0.066740
  C      -2.014860      3.695636     -0.733111
  C      -5.707336     -1.300937      2.549273
  H      -3.021729      3.727397     -1.161838
  H      -1.328418      3.999510     -1.528038
  C      -1.907203      4.666039      0.436974
  H      -5.555132     -2.140077      3.222775
  H      -5.263912     -0.395629      2.966083
  H      -6.771579     -1.126388      2.393626
  H      -2.642899      4.409084      1.204130
  H      -0.924139      4.558669      0.907426
  C      -2.115343      6.112596      0.009566
  H      -2.042782      6.793039      0.859137
  H      -1.367946      6.416632     -0.726347
  H      -3.099229      6.249911     -0.444348
85
Coordinates from ORCA-job orca E -1736.085806398084
  C       0.793342     -0.979045     -0.054938
  C       0.890284     -0.190497      1.244328
  O       1.170283      0.977403      1.337097
  O       0.634556     -0.946662      2.324330
  C       1.213182     -0.089361     -1.222150
  H       0.625711      0.824711     -1.269210
  H       1.098884     -0.624540     -2.164070
  C       0.695032     -0.275642      3.577866
  H       0.459937     -1.025178      4.329625
  C       1.663847     -2.264539      0.030486
  C       3.210098     -2.231536      0.126661
  H       1.433821     -2.845578     -0.864488
  H       1.311836     -2.847731      0.885240
  C       3.786839     -1.768887     -1.220402
  C       3.764331     -1.457541      1.339379
  C       3.642827     -3.704930      0.255674
  O       3.437124     -2.275934     -2.250367
  O       4.732668     -0.821481     -1.269531
  H       4.603135     -2.025407      1.754666
  H       3.012612     -1.425676      2.130217
  C       4.280566     -0.070314      0.999904
  H       3.234818     -4.302839     -0.559063
  H       3.289099     -4.110956      1.206654
  C       5.298861     -0.180147     -0.112298
  H       4.758165      0.369979      1.877980
  H       3.478972      0.609773      0.704232
  H       6.135236     -0.809314      0.222573
  C       5.843101      1.148156     -0.607251
  H       5.002533      1.763688     -0.946271
  H       6.457454      0.947767     -1.490111
  C       6.664945      1.902865      0.431220
  H       6.035741      2.167747      1.286575
  H       7.451389      1.245613      0.820195
  C       7.294100      3.168196     -0.137104
  H       7.876025      3.697867      0.619727
  H       7.962283      2.935943     -0.970204
  H       6.528990      3.854485     -0.508928
  H       1.691519      0.135614      3.747074
  H      -0.028594      0.540877      3.614278
  H       2.251132      0.225343     -1.133702
  H       4.731583     -3.795287      0.232298
  C      -0.653569     -1.535618     -0.235919
  C      -1.912352     -0.635647     -0.418463
  H      -0.606331     -2.173676     -1.120664
  H      -0.862521     -2.188355      0.616038
  C      -3.033622     -1.674120     -0.718961
  C      -1.710477      0.199742     -1.693211
  C      -2.223290      0.191421      0.848347
  C      -4.514773     -1.274530     -0.931119
  H      -2.732269     -2.204549     -1.624256
  H      -3.009487     -2.400231      0.097664
  O      -1.562830     -0.329853     -2.760973
  O      -1.671094      1.535050     -1.632103
  H      -1.335638      0.262317      1.471583
  H      -2.951902     -0.344836      1.458408
  C      -2.677616      1.613262      0.563282
  C      -5.164968     -0.757628      0.348237
  C      -4.733661     -0.261020     -2.052854
  C      -5.263033     -2.571541     -1.296934
  C      -1.696749      2.261186     -0.386465
  H      -2.709491      2.179596      1.496294
  H      -3.681598      1.648751      0.135002
  O      -5.764029      0.279083      0.460723
  O      -5.025023     -1.617972      1.370892
  H      -5.801051     -0.110233     -2.219019
  H      -4.279109     -0.624584     -2.974630
  H      -4.306208      0.714955     -1.830381
  H      -5.107108     -3.347939     -0.547235
  H      -4.903252     -2.939953     -2.259600
  H      -6.336479     -2.388284     -1.385503
  H      -0.686716      2.213418      0.041772
  C      -2.015980      3.697184     -0.755744
  C      -5.631700     -1.225468      2.596795
  H      -3.023191      3.736428     -1.185166
  H      -1.326142      3.996811     -1.550482
  C      -1.901754      4.666291      0.415500
  H      -5.427539     -2.027917      3.301929
  H      -5.204689     -0.287065      2.955578
  H      -6.706778     -1.093310      2.470448
  H      -2.643026      4.416241      1.180784
  H      -0.920335      4.548526      0.889047
  C      -2.094015      6.115546     -0.011739
  H      -2.017510      6.795181      0.839326
  H      -1.340453      6.412679     -0.745526
  H      -3.075825      6.262836     -0.469155
85
Coordinates from ORCA-job orca E -1736.086177139269
  C       0.811863     -0.986501     -0.033312
  C       0.900462     -0.205410      1.270941
  O       1.183882      0.960791      1.372355
  O       0.597012     -0.957651      2.341518
  C       1.249714     -0.093539     -1.191011
  H       0.668356      0.823411     -1.240439
  H       1.143829     -0.623234     -2.136329
  C       0.628257     -0.287175      3.597021
  H       0.357457     -1.032770      4.339808
  C       1.676029     -2.275759      0.052383
  C       3.222291     -2.246153      0.141582
  H       1.440951     -2.857620     -0.840083
  H       1.325939     -2.854766      0.910100
  C       3.793175     -1.797805     -1.212403
  C       3.782598     -1.460285      1.343354
  C       3.652885     -3.718922      0.282813
  O       3.430885     -2.307752     -2.236526
  O       4.733449     -0.845747     -1.277080
  H       4.625681     -2.021037      1.758214
  H       3.036253     -1.423281      2.137988
  C       4.289605     -0.074107      0.986864
  H       3.239984     -4.323635     -0.523600
  H       3.303062     -4.114422      1.239004
  C       5.302856     -0.190346     -0.128844
  H       4.768648      0.377997      1.857466
  H       3.482969      0.597860      0.687195
  H       6.143380     -0.812246      0.207365
  C       5.837824      1.135300     -0.640126
  H       4.992831      1.743286     -0.979967
  H       6.448012      0.929407     -1.523925
  C       6.661788      1.903733      0.386396
  H       6.036538      2.173684      1.242329
  H       7.453428      1.254456      0.776645
  C       7.281120      3.166500     -0.197904
  H       7.864375      3.706151      0.549988
  H       7.945320      2.929490     -1.032093
  H       6.510780      3.844926     -0.571668
  H       1.624895      0.107685      3.797686
  H      -0.082682      0.540224      3.610520
  H       2.288024      0.214908     -1.088651
  H       4.740794     -3.811432      0.255198
  C      -0.635872     -1.536035     -0.229192
  C      -1.891909     -0.631644     -0.410752
  H      -0.585420     -2.166961     -1.118168
  H      -0.851937     -2.194583      0.615797
  C      -3.016539     -1.663963     -0.715686
  C      -1.690243      0.206023     -1.683604
  C      -2.202421      0.192905      0.857361
  C      -4.492327     -1.250982     -0.932883
  H      -2.715921     -2.193356     -1.621258
  H      -3.000151     -2.391500      0.099079
  O      -1.562656     -0.321185     -2.755050
  O      -1.669575      1.541891     -1.623823
  H      -1.312965      0.270750      1.476617
  H      -2.924225     -0.348635      1.469645
  C      -2.671306      1.610196      0.573878
  C      -5.148653     -0.745141      0.347617
  C      -4.690488     -0.219845     -2.041833
  C      -5.248299     -2.536005     -1.323861
  C      -1.699917      2.268298     -0.378141
  H      -2.706681      2.175629      1.506658
  H      -3.676174      1.635376      0.147659
  O      -5.739579      0.295157      0.468224
  O      -5.039981     -1.627702      1.355212
  H      -5.754090     -0.055797     -2.215606
  H      -4.231328     -0.575195     -2.963997
  H      -4.255033      0.748122     -1.801622
  H      -5.106106     -3.323959     -0.584398
  H      -4.882948     -2.893585     -2.287880
  H      -6.318670     -2.342090     -1.419608
  H      -0.688572      2.231959      0.046873
  C      -2.036236      3.700151     -0.747738
  C      -5.663830     -1.249597      2.577644
  H      -3.044095      3.727647     -1.175115
  H      -1.351527      4.007341     -1.543277
  C      -1.930905      4.670917      0.422853
  H      -5.483380     -2.067784      3.270161
  H      -5.230848     -0.324697      2.961569
  H      -6.733889     -1.100480      2.434139
  H      -2.668409      4.413730      1.188580
  H      -0.948214      4.564071      0.895042
  C      -2.139032      6.117573     -0.005387
  H      -2.069056      6.798276      0.844654
  H      -1.389714      6.421900     -0.739708
  H      -3.122318      6.253774     -0.461709
85
Coordinates from ORCA-job orca E -1736.086143802939
  C       0.811424     -0.985679     -0.010152
  C       0.897576     -0.199773      1.291323
  O       1.189360      0.964548      1.389476
  O       0.612013     -0.952998      2.366265
  C       1.249325     -0.095765     -1.169989
  H       0.664246      0.818434     -1.224594
  H       1.148246     -0.629420     -2.113385
  C       0.658071     -0.280436      3.620734
  H       0.399252     -1.025970      4.367452
  C       1.676245     -2.274342      0.080577
  C       3.222837     -2.244341      0.162652
  H       1.437257     -2.862450     -0.806440
  H       1.330436     -2.846987      0.944059
  C       3.788518     -1.813322     -1.198874
  C       3.788726     -1.444611      1.352647
  C       3.653396     -3.715580      0.319362
  O       3.416599     -2.330798     -2.215759
  O       4.732212     -0.865780     -1.279374
  H       4.630881     -2.002304      1.772782
  H       3.044740     -1.394397      2.148414
  C       4.298986     -0.064948      0.976137
  H       3.236624     -4.329332     -0.477831
  H       3.307517     -4.099109      1.281559
  C       5.308651     -0.199195     -0.140502
  H       4.781137      0.397620      1.839190
  H       3.493755      0.604846      0.668881
  H       6.147150     -0.821009      0.200024
  C       5.847351      1.117621     -0.669961
  H       5.003835      1.725130     -1.013501
  H       6.453264      0.898659     -1.553233
  C       6.678506      1.894687      0.344244
  H       6.058023      2.177009      1.199318
  H       7.469279      1.247137      0.738370
  C       7.299866      3.148192     -0.257574
  H       7.887877      3.694466      0.481372
  H       7.959674      2.898828     -1.091312
  H       6.530546      3.824709     -0.636126
  H       1.656009      0.117216      3.807254
  H      -0.054958      0.544690      3.641882
  H       2.285852      0.217348     -1.065721
  H       4.740893     -3.808857      0.288210
  C      -0.635352     -1.535420     -0.208170
  C      -1.888775     -0.629616     -0.399577
  H      -0.581884     -2.169121     -1.094684
  H      -0.855539     -2.190283      0.638211
  C      -3.013001     -1.657532     -0.717125
  C      -1.675094      0.208515     -1.669828
  C      -2.212714      0.194374      0.864859
  C      -4.483738     -1.234651     -0.943476
  H      -2.707770     -2.182264     -1.623624
  H      -3.005569     -2.389428      0.093463
  O      -1.533155     -0.318401     -2.739585
  O      -1.659840      1.544647     -1.610641
  H      -1.328486      0.279574      1.490038
  H      -2.935918     -0.350479      1.472092
  C      -2.688648      1.607675      0.574157
  C      -5.155123     -0.753703      0.338792
  C      -4.659366     -0.177151     -2.030864
  C      -5.240104     -2.506468     -1.375035
  C      -1.709117      2.270981     -0.365248
  H      -2.740255      2.173481      1.505679
  H      -3.687561      1.625283      0.133740
  O      -5.741566      0.287197      0.474377
  O      -5.066079     -1.659475      1.327699
  H      -5.719040     -0.002923     -2.216683
  H      -4.188377     -0.514008     -2.953815
  H      -4.221937      0.782457     -1.761748
  H      -5.112725     -3.311904     -0.652272
  H      -4.862277     -2.843356     -2.341438
  H      -6.307696     -2.304740     -1.482016
  H      -0.703019      2.239520      0.071925
  C      -2.047503      3.701222     -0.738486
  C      -5.706191     -1.304588      2.549275
  H      -3.048811      3.724019     -1.180556
  H      -1.352657      4.013296     -1.522916
  C      -1.964596      4.670420      0.435269
  H      -5.537726     -2.137693      3.226460
  H      -5.275854     -0.389561      2.958136
  H      -6.773340     -1.149351      2.393370
  H      -2.714416      4.410283      1.187532
  H      -0.990013      4.565285      0.923889
  C      -2.169065      6.117160      0.005562
  H      -2.115931      6.796513      0.857575
  H      -1.407912      6.424455     -0.714829
  H      -3.144373      6.251204     -0.467602
85
Coordinates from ORCA-job orca E -1736.086209469572
  C       0.810240     -0.984889     -0.027219
  C       0.897310     -0.205561      1.278173
  O       1.183004      0.959842      1.381486
  O       0.597054     -0.960587      2.347953
  C       1.243673     -0.087984     -1.183472
  H       0.656933      0.825709     -1.231587
  H       1.140909     -0.616780     -2.129564
  C       0.631066     -0.291611      3.604894
  H       0.361420     -1.038685      4.346429
  C       1.677801     -2.272376      0.055254
  C       3.224271     -2.240255      0.139904
  H       1.441145     -2.853996     -0.836799
  H       1.331710     -2.852759      0.913603
  C       3.790913     -1.789778     -1.214916
  C       3.787401     -1.456160      1.341810
  C       3.657666     -3.712820      0.276618
  O       3.420225     -2.293173     -2.239349
  O       4.736914     -0.843345     -1.280897
  H       4.627672     -2.020277      1.757467
  H       3.041090     -1.414962      2.136053
  C       4.300977     -0.072617      0.984514
  H       3.242869     -4.316291     -0.529622
  H       3.311426     -4.110353      1.233151
  C       5.312852     -0.193912     -0.131639
  H       4.781809      0.377914      1.854816
  H       3.497549      0.602525      0.684196
  H       6.149131     -0.822732      0.201817
  C       5.855805      1.128722     -0.641970
  H       5.014268      1.743202     -0.978315
  H       6.462733      0.920501     -1.527299
  C       6.687335      1.889650      0.384251
  H       6.066208      2.161397      1.242465
  H       7.476249      1.234756      0.770256
  C       7.312314      3.150137     -0.199141
  H       7.900528      3.684833      0.548288
  H       7.972849      2.910924     -1.035471
  H       6.544878      3.833636     -0.569300
  H       1.628298      0.102255      3.803629
  H      -0.079675      0.535699      3.620203
  H       2.280129      0.226090     -1.080313
  H       4.745534     -3.803468      0.245413
  C      -0.635723     -1.537068     -0.223800
  C      -1.891700     -0.633054     -0.405900
  H      -0.584311     -2.166776     -1.113431
  H      -0.851544     -2.196090      0.620694
  C      -3.017331     -1.664041     -0.710046
  C      -1.690702      0.202790     -1.679699
  C      -2.202529      0.193420      0.860301
  C      -4.490554     -1.246167     -0.931083
  H      -2.716710     -2.195874     -1.614100
  H      -3.004195     -2.389355      0.106557
  O      -1.557629     -0.326143     -2.749626
  O      -1.675189      1.539143     -1.623258
  H      -1.310868      0.280855      1.475087
  H      -2.918441     -0.350778      1.477096
  C      -2.681692      1.606334      0.572365
  C      -5.150643     -0.742775      0.348473
  C      -4.678815     -0.209845     -2.036836
  C      -5.249503     -2.526822     -1.330982
  C      -1.712437      2.268220     -0.378896
  H      -2.723131      2.173648      1.503625
  H      -3.685447      1.623416      0.143213
  O      -5.739099      0.298750      0.470107
  O      -5.043900     -1.626806      1.355118
  H      -5.740759     -0.041275     -2.215726
  H      -4.216176     -0.563652     -2.957835
  H      -4.240957      0.755647     -1.790785
  H      -5.113700     -3.318415     -0.594364
  H      -4.880883     -2.881458     -2.294750
  H      -6.318535     -2.328357     -1.430962
  H      -0.701620      2.238492      0.047661
  C      -2.055780      3.697340     -0.752342
  C      -5.669845     -1.248971      2.577323
  H      -3.061555      3.718071     -1.184589
  H      -1.368859      4.008246     -1.544361
  C      -1.962179      4.669784      0.418092
  H      -5.486506     -2.065988      3.270281
  H      -5.239970     -0.322259      2.959792
  H      -6.740141     -1.104157      2.432344
  H      -2.704768      4.411187      1.178206
  H      -0.982751      4.566589      0.897592
  C      -2.171779      6.115325     -0.013439
  H      -2.111067      6.796966      0.836429
  H      -1.417654      6.421302     -0.741954
  H      -3.151826      6.247354     -0.477624
85
Coordinates from ORCA-job orca E -1736.086198168936
  C       0.815159     -0.982061     -0.039331
  C       0.909643     -0.204171      1.266381
  O       1.207075      0.958285      1.370147
  O       0.603316     -0.957183      2.335897
  C       1.253355     -0.086669     -1.195034
  H       0.671925      0.830518     -1.242154
  H       1.147423     -0.614088     -2.141652
  C       0.644397     -0.289390      3.593374
  H       0.367948     -1.034600      4.334474
  C       1.677163     -2.273094      0.042706
  C       3.222894     -2.244582      0.134104
  H       1.441978     -2.851757     -0.851782
  H       1.325967     -2.854413      0.898554
  C       3.796420     -1.791964     -1.217099
  C       3.779842     -1.462901      1.340539
  C       3.653859     -3.718197      0.269995
  O       3.429487     -2.292335     -2.244411
  O       4.744558     -0.847212     -1.276472
  H       4.616735     -2.028520      1.761258
  H       3.028283     -1.420998      2.130033
  C       4.296560     -0.079519      0.987481
  H       3.242453     -4.319462     -0.539821
  H       3.301931     -4.117206      1.223990
  C       5.315005     -0.200482     -0.122725
  H       4.771969      0.370442      1.861215
  H       3.495056      0.596048      0.682231
  H       6.148351     -0.831402      0.214481
  C       5.862764      1.122070     -0.628137
  H       5.023865      1.738193     -0.968450
  H       6.474642      0.914237     -1.510292
  C       6.689323      1.880828      0.403852
  H       6.063637      2.151844      1.259158
  H       7.475747      1.224660      0.793128
  C       7.318371      3.141767     -0.174333
  H       7.902536      3.675342      0.577272
  H       7.983704      2.903165     -1.007212
  H       6.553309      3.826156     -0.548156
  H       1.645658      0.094710      3.791678
  H      -0.058554      0.544689      3.609374
  H       2.291915      0.221266     -1.091701
  H       4.741920     -3.810112      0.244472
  C      -0.633422     -1.529041     -0.234442
  C      -1.889213     -0.623438     -0.412682
  H      -0.585376     -2.157575     -1.125238
  H      -0.849152     -2.189418      0.609207
  C      -3.014913     -1.656644     -0.712115
  C      -1.691973      0.212540     -1.687016
  C      -2.196038      0.202935      0.854592
  C      -4.492462     -1.246737     -0.922579
  H      -2.717989     -2.186504     -1.618717
  H      -2.993181     -2.383434      0.103166
  O      -1.561886     -0.316334     -2.757361
  O      -1.681324      1.549119     -1.631225
  H      -1.301129      0.294758      1.463969
  H      -2.906574     -0.343507      1.475952
  C      -2.680976      1.614407      0.568321
  C      -5.145327     -0.744842      0.361288
  C      -4.698391     -0.215552     -2.030209
  C      -5.246989     -2.533446     -1.311445
  C      -1.717896      2.279265     -0.387271
  H      -2.720224      2.181745      1.499819
  H      -3.686652      1.628706      0.143806
  O      -5.747012      0.289102      0.483156
  O      -5.031421     -1.629621      1.366431
  H      -5.763334     -0.056267     -2.200592
  H      -4.240930     -0.568906     -2.954075
  H      -4.266642      0.754391     -1.791449
  H      -5.099567     -3.321766     -0.573291
  H      -4.884704     -2.889084     -2.277401
  H      -6.318227     -2.341918     -1.402521
  H      -0.705420      2.254268      0.035719
  C      -2.068375      3.706576     -0.761209
  C      -5.658074     -1.257569      2.590193
  H      -3.075546      3.722598     -1.190718
  H      -1.384802      4.019774     -1.555398
  C      -1.975520      4.680634      0.408100
  H      -5.466282     -2.073518      3.282331
  H      -5.235141     -0.327288      2.972047
  H      -6.729980     -1.121897      2.447212
  H      -2.716010      4.420494      1.169922
  H      -0.994705      4.580953      0.885803
  C      -2.190540      6.125144     -0.024463
  H      -2.130569      6.807807      0.824822
  H      -1.438614      6.432896     -0.754709
  H      -3.172004      6.253470     -0.487022
85
Coordinates from ORCA-job orca E -1736.086226862958
  C       0.812803     -0.980575     -0.025076
  C       0.901269     -0.206721      1.283467
  O       1.194125      0.956453      1.391849
  O       0.593088     -0.964022      2.349460
  C       1.250666     -0.079673     -1.176565
  H       0.665529      0.835302     -1.222040
  H       1.149415     -0.604228     -2.125240
  C       0.627693     -0.300122      3.609301
  H       0.349931     -1.048383      4.346753
  C       1.677859     -2.269999      0.054318
  C       3.224030     -2.239765      0.139922
  H       1.440496     -2.849243     -0.839168
  H       1.330719     -2.851537      0.911631
  C       3.792468     -1.792279     -1.215109
  C       3.785653     -1.453820      1.341525
  C       3.656446     -3.712659      0.279307
  O       3.420252     -2.295249     -2.239254
  O       4.743685     -0.851110     -1.281405
  H       4.621988     -2.019592      1.763017
  H       3.036187     -1.406161      2.132522
  C       4.305349     -0.073520      0.980714
  H       3.242487     -4.316864     -0.526951
  H       3.308151     -4.108494      1.235903
  C       5.320237     -0.202238     -0.131759
  H       4.784119      0.379261      1.851093
  H       3.504971      0.602683      0.674253
  H       6.152247     -0.835018      0.205111
  C       5.870971      1.116398     -0.644006
  H       5.033127      1.734074     -0.983958
  H       6.479356      0.903109     -1.527213
  C       6.703335      1.876387      0.382420
  H       6.081387      2.152523      1.238749
  H       7.489038      1.219270      0.771418
  C       7.334230      3.133219     -0.202655
  H       7.922214      3.668016      0.545029
  H       7.996245      2.889411     -1.036608
  H       6.569997      3.818310     -0.576760
  H       1.627308      0.085435      3.812753
  H      -0.077153      0.532271      3.625030
  H       2.287635      0.232145     -1.069260
  H       4.744428     -3.803928      0.250277
  C      -0.633689     -1.530099     -0.225981
  C      -1.889293     -0.625238     -0.407940
  H      -0.581532     -2.157023     -1.117632
  H      -0.851651     -2.191787      0.615977
  C      -3.013648     -1.657795     -0.713806
  C      -1.687113      0.212426     -1.680309
  C      -2.202015      0.199571      0.858706
  C      -4.489097     -1.245716     -0.932596
  H      -2.712107     -2.187556     -1.618912
  H      -2.997244     -2.384641      0.101480
  O      -1.550204     -0.315060     -2.750474
  O      -1.677908      1.548984     -1.622973
  H      -1.309069      0.293976      1.470507
  H      -2.912951     -0.349025      1.477678
  C      -2.689136      1.610048      0.571326
  C      -5.149163     -0.744153      0.347732
  C      -4.685624     -0.212723     -2.040171
  C      -5.243522     -2.530503     -1.328077
  C      -1.722380      2.277766     -0.378457
  H      -2.734516      2.176340      1.503139
  H      -3.692563      1.622641      0.141481
  O      -5.747834      0.291757      0.467694
  O      -5.032479     -1.624763      1.356213
  H      -5.749031     -0.050937     -2.217321
  H      -4.222929     -0.566029     -2.961430
  H      -4.253163      0.755980     -1.797496
  H      -5.102261     -3.320119     -0.590191
  H      -4.875714     -2.885353     -2.292189
  H      -6.313744     -2.336823     -1.425711
  H      -0.712036      2.254119      0.049768
  C      -2.073440      3.704797     -0.752886
  C      -5.658661     -1.249027      2.579217
  H      -3.078063      3.719293     -1.188235
  H      -1.385837      4.020273     -1.542617
  C      -1.989338      4.677768      0.418027
  H      -5.463133     -2.061156      3.274718
  H      -5.238256     -0.315634      2.956037
  H      -6.731155     -1.117679      2.436983
  H      -2.734350      4.415852      1.174747
  H      -1.011479      4.578944      0.901813
  C      -2.203640      6.122429     -0.014391
  H      -2.150268      6.804179      0.836006
  H      -1.447435      6.432061     -0.739331
  H      -3.182226      6.249751     -0.483177
85
Coordinates from ORCA-job orca E -1736.086213076602
  C       0.810061     -0.983264     -0.035676
  C       0.903200     -0.205415      1.270192
  O       1.193227      0.958881      1.373621
  O       0.605617     -0.961415      2.340136
  C       1.236745     -0.083807     -1.192452
  H       0.647943      0.828958     -1.235898
  H       1.130452     -0.610994     -2.139030
  C       0.646951     -0.294688      3.598355
  H       0.376171     -1.042096      4.339085
  C       1.679601     -2.270019      0.041558
  C       3.225909     -2.235896      0.125224
  H       1.442764     -2.848503     -0.852423
  H       1.334945     -2.854155      0.897952
  C       3.790738     -1.771019     -1.225397
  C       3.788547     -1.463760      1.335602
  C       3.662673     -3.709191      0.245032
  O       3.412417     -2.257443     -2.255272
  O       4.743117     -0.830440     -1.281939
  H       4.623566     -2.035629      1.751100
  H       3.039381     -1.423311      2.127047
  C       4.311309     -0.080598      0.990709
  H       3.248675     -4.304132     -0.567924
  H       3.317461     -4.117970      1.197156
  C       5.323834     -0.197924     -0.125102
  H       4.792291      0.360433      1.865725
  H       3.512203      0.601129      0.694063
  H       6.154623     -0.837323      0.201778
  C       5.876953      1.125626     -0.621659
  H       5.040065      1.749721     -0.951755
  H       6.482820      0.922086     -1.508753
  C       6.713527      1.870349      0.412461
  H       6.094379      2.136672      1.273764
  H       7.498665      1.206581      0.790838
  C       7.345697      3.133231     -0.157955
  H       7.936310      3.657236      0.595106
  H       8.005315      2.898785     -0.996330
  H       6.582086      3.824474     -0.521536
  H       1.646814      0.093797      3.794250
  H      -0.059918      0.535721      3.617021
  H       2.273166      0.231712     -1.093470
  H       4.750730     -3.796976      0.212644
  C      -0.635810     -1.536378     -0.226422
  C      -1.891861     -0.631775     -0.403590
  H      -0.588373     -2.165577     -1.116578
  H      -0.848110     -2.195412      0.618860
  C      -3.020310     -1.662691     -0.698375
  C      -1.698037      0.199754     -1.681162
  C      -2.194049      0.199795      0.860797
  C      -4.493428     -1.244342     -0.917089
  H      -2.723347     -2.199184     -1.600919
  H      -3.004998     -2.383952      0.121672
  O      -1.566645     -0.332878     -2.749429
  O      -1.688097      1.536587     -1.630481
  H      -1.295052      0.300895      1.462727
  H      -2.897244     -0.346680      1.490032
  C      -2.686608      1.607419      0.569097
  C      -5.152432     -0.738888      0.362257
  C      -4.681752     -0.210383     -2.024987
  C      -5.254151     -2.525164     -1.313662
  C      -1.726584      2.271790     -0.389612
  H      -2.727581      2.178449      1.498113
  H      -3.692514      1.615939      0.144978
  O      -5.745958      0.300108      0.480884
  O      -5.041683     -1.619626      1.371287
  H      -5.743658     -0.041661     -2.203806
  H      -4.219934     -0.566999     -2.945366
  H      -4.242871      0.755453     -1.781928
  H      -5.118292     -3.315410     -0.575609
  H      -4.886796     -2.882010     -2.277089
  H      -6.323027     -2.325699     -1.412988
  H      -0.713737      2.251912      0.032974
  C      -2.082180      3.696202     -0.769641
  C      -5.667040     -1.239703      2.593526
  H      -3.088934      3.706431     -1.199840
  H      -1.399284      4.008929     -1.564382
  C      -1.994101      4.675414      0.395752
  H      -5.475341     -2.051790      3.289960
  H      -5.242929     -0.307733      2.969345
  H      -6.738771     -1.104108      2.450438
  H      -2.734742      4.415980      1.157441
  H      -1.013699      4.581137      0.874979
  C      -2.213685      6.117321     -0.043049
  H      -2.157627      6.803404      0.803529
  H      -1.461877      6.424842     -0.773261
  H      -3.194798      6.240038     -0.507488
85
Coordinates from ORCA-job orca E -1736.086237476659
  C       0.812624     -0.980501     -0.030695
  C       0.903103     -0.207296      1.278117
  O       1.197437      0.955474      1.386666
  O       0.597196     -0.965465      2.344151
  C       1.246382     -0.077946     -1.182433
  H       0.659667      0.836207     -1.225296
  H       1.143506     -0.601585     -2.131389
  C       0.635143     -0.303129      3.604739
  H       0.357536     -1.051868      4.341700
  C       1.679413     -2.269140      0.046150
  C       3.225523     -2.237452      0.131837
  H       1.442551     -2.846765     -0.848456
  H       1.332829     -2.852846      0.902168
  C       3.793554     -1.782239     -1.220777
  C       3.786503     -1.457911      1.338163
  C       3.659857     -3.710660      0.262399
  O       3.418335     -2.276716     -2.247958
  O       4.747773     -0.843812     -1.281567
  H       4.619991     -2.027770      1.759630
  H       3.035431     -1.410954      2.127548
  C       4.310923     -0.077612      0.984472
  H       3.246857     -4.310354     -0.547663
  H       3.311724     -4.112645      1.216434
  C       5.326263     -0.203730     -0.127819
  H       4.789732      0.369823      1.857519
  H       3.512777      0.602166      0.680301
  H       6.155590     -0.841675      0.205784
  C       5.881961      1.115698     -0.632468
  H       5.046474      1.738041     -0.969567
  H       6.490201      0.905122     -1.516376
  C       6.716190      1.867489      0.398473
  H       6.094779      2.140633      1.256095
  H       7.499853      1.205974      0.783997
  C       7.350820      3.125695     -0.179543
  H       7.939432      3.655133      0.571390
  H       8.012913      2.884534     -1.014150
  H       6.588641      3.814583     -0.550739
  H       1.635749      0.080457      3.806861
  H      -0.068337      0.530264      3.622726
  H       2.283090      0.235235     -1.077371
  H       4.747935     -3.800268      0.233244
  C      -0.633530     -1.531106     -0.228526
  C      -1.889260     -0.625999     -0.407099
  H      -0.583436     -2.157516     -1.120588
  H      -0.849198     -2.193065      0.613721
  C      -3.015735     -1.657855     -0.707376
  C      -1.691933      0.209488     -1.681605
  C      -2.196201      0.201541      0.858812
  C      -4.490579     -1.243787     -0.924529
  H      -2.716861     -2.190337     -1.611742
  H      -2.998654     -2.382452      0.109806
  O      -1.555793     -0.319834     -2.750933
  O      -1.684864      1.546213     -1.627015
  H      -1.298805      0.303268      1.463010
  H      -2.899688     -0.348291      1.485036
  C      -2.690799      1.609085      0.569835
  C      -5.148912     -0.739865      0.355744
  C      -4.685701     -0.211775     -2.033187
  C      -5.247843     -2.527666     -1.317896
  C      -1.729467      2.278184     -0.384403
  H      -2.735350      2.177346      1.500471
  H      -3.695661      1.617091      0.143277
  O      -5.748438      0.295738      0.474084
  O      -5.031823     -1.618957      1.365435
  H      -5.748797     -0.047833     -2.209871
  H      -4.224420     -0.567431     -2.954249
  H      -4.250624      0.756239     -1.792280
  H      -5.107576     -3.316609     -0.579144
  H      -4.881414     -2.884426     -2.281786
  H      -6.317692     -2.331952     -1.415026
  H      -0.717950      2.259870      0.041445
  C      -2.087462      3.702622     -0.762213
  C      -5.656812     -1.241061      2.588449
  H      -3.093011      3.711321     -1.195449
  H      -1.402924      4.018817     -1.554260
  C      -2.005240      4.679543      0.405557
  H      -5.459205     -2.051279      3.285526
  H      -5.237133     -0.306221      2.962305
  H      -6.729651     -1.111618      2.447361
  H      -2.747589      4.416678      1.164509
  H      -1.025984      4.586579      0.887533
  C      -2.226979      6.121891     -0.030779
  H      -2.175140      6.806292      0.817524
  H      -1.473663      6.432850     -0.758086
  H      -3.207043      6.243269     -0.497953
85
Coordinates from ORCA-job orca E -1736.086240994783
  C       0.813408     -0.979483     -0.027829
  C       0.905306     -0.208513      1.282230
  O       1.202340      0.953402      1.392643
  O       0.596186     -0.967363      2.346824
  C       1.247866     -0.075362     -1.178047
  H       0.661820      0.839366     -1.219169
  H       1.144569     -0.597235     -2.127949
  C       0.634643     -0.307268      3.608477
  H       0.353448     -1.056228      4.343887
  C       1.679323     -2.268848      0.046846
  C       3.225437     -2.237887      0.130947
  H       1.441214     -2.845390     -0.848154
  H       1.333194     -2.853111      0.902694
  C       3.792066     -1.781559     -1.221915
  C       3.787761     -1.459592      1.337542
  C       3.659608     -3.711391      0.259362
  O       3.413877     -2.273332     -2.249309
  O       4.747503     -0.844425     -1.282716
  H       4.620420     -2.030751      1.758916
  H       3.036858     -1.411600      2.127029
  C       4.313722     -0.079803      0.984251
  H       3.245817     -4.309969     -0.551160
  H       3.312108     -4.114484      1.213182
  C       5.328055     -0.206402     -0.128896
  H       4.793460      0.366755      1.857254
  H       3.516051      0.600923      0.680815
  H       6.156637     -0.846015      0.203440
  C       5.885347      1.112617     -0.632854
  H       5.050501      1.736334     -0.969071
  H       6.492785      0.901799     -1.517285
  C       6.721185      1.862646      0.398066
  H       6.100660      2.135959      1.256303
  H       7.504288      1.199889      0.782661
  C       7.356986      3.120440     -0.179551
  H       7.946334      3.648953      0.571488
  H       8.018616      2.878989     -1.014469
  H       6.595386      3.810282     -0.550238
  H       1.636311      0.072515      3.812702
  H      -0.065999      0.528525      3.626945
  H       2.284882      0.236811     -1.072352
  H       4.747673     -3.801162      0.229275
  C      -0.633067     -1.528920     -0.226455
  C      -1.888120     -0.623092     -0.406077
  H      -0.582931     -2.155313     -1.118549
  H      -0.849716     -2.190818      0.615608
  C      -3.014387     -1.655190     -0.707215
  C      -1.689026      0.212160     -1.680476
  C      -2.195812      0.204958      0.859202
  C      -4.489799     -1.243108     -0.924729
  H      -2.714659     -2.187121     -1.611668
  H      -2.996816     -2.380286      0.109536
  O      -1.551642     -0.317308     -2.749565
  O      -1.683437      1.548912     -1.626248
  H      -1.297999      0.309969      1.462168
  H      -2.897310     -0.345998      1.486748
  C      -2.693075      1.611395      0.569169
  C      -5.149972     -0.741129      0.355367
  C      -4.686631     -0.211434     -2.033432
  C      -5.244806     -2.528188     -1.318661
  C      -1.731887      2.281784     -0.384357
  H      -2.739435      2.179989      1.499552
  H      -3.697581      1.617785      0.141852
  O      -5.753504      0.292214      0.473229
  O      -5.027971     -1.618448      1.365954
  H      -5.750007     -0.049945     -2.210783
  H      -4.223968     -0.566008     -2.954252
  H      -4.253957      0.757583     -1.792351
  H      -5.103597     -3.317006     -0.579922
  H      -4.877284     -2.884229     -2.282427
  H      -6.314937     -2.334170     -1.416316
  H      -0.721041      2.266116      0.043232
  C      -2.092590      3.705039     -0.764124
  C      -5.653111     -1.241842      2.589237
  H      -3.097528      3.710836     -1.198884
  H      -1.407622      4.021979     -1.555530
  C      -2.014507      4.683459      0.402657
  H      -5.450667     -2.050086      3.287252
  H      -5.237503     -0.304403      2.961188
  H      -6.726799     -1.117840      2.449483
  H      -2.757014      4.419301      1.161039
  H      -1.035529      4.593831      0.885855
  C      -2.239895      6.124702     -0.035466
  H      -2.191077      6.810110      0.812231
  H      -1.486599      6.437136     -0.762194
  H      -3.219758      6.242772     -0.503956
85
Coordinates from ORCA-job orca E -1736.086244506967
  C       0.815058     -0.977870     -0.026421
  C       0.907218     -0.212367      1.286883
  O       1.208046      0.948083      1.402426
  O       0.596139     -0.975205      2.347973
  C       1.249820     -0.068581     -1.172404
  H       0.663320      0.846114     -1.209390
  H       1.147377     -0.586061     -2.124769
  C       0.636234     -0.321617      3.612731
  H       0.351118     -1.072854      4.344325
  C       1.681152     -2.267547      0.043765
  C       3.227121     -2.236512      0.127701
  H       1.442808     -2.841414     -0.852879
  H       1.335170     -2.854214      0.898054
  C       3.793866     -1.779130     -1.224832
  C       3.788997     -1.459233      1.335313
  C       3.661803     -3.710104      0.254502
  O       3.414761     -2.269093     -2.252747
  O       4.753424     -0.846249     -1.284179
  H       4.618346     -2.032904      1.759742
  H       3.036199     -1.407532      2.122766
  C       4.320089     -0.081370      0.982373
  H       3.248854     -4.307624     -0.557250
  H       3.313584     -4.114638      1.207453
  C       5.335422     -0.211353     -0.129454
  H       4.799578      0.364259      1.855971
  H       3.524774      0.601417      0.677263
  H       6.160973     -0.854532      0.203603
  C       5.898490      1.105620     -0.632295
  H       5.066481      1.732212     -0.970222
  H       6.506780      0.892494     -1.515604
  C       6.735017      1.852998      0.399947
  H       6.113901      2.128518      1.257057
  H       7.515221      1.187726      0.786121
  C       7.375982      3.108490     -0.176924
  H       7.964816      3.635913      0.575288
  H       8.039108      2.864575     -1.009943
  H       6.617292      3.800198     -0.550131
  H       1.639365      0.052712      3.820013
  H      -0.060748      0.517130      3.634911
  H       2.286627      0.243653     -1.064453
  H       4.749946     -3.799385      0.225285
  C      -0.631179     -1.526772     -0.227284
  C      -1.885945     -0.620323     -0.405218
  H      -0.580873     -2.150958     -1.120898
  H      -0.848146     -2.190770      0.613024
  C      -3.012745     -1.652243     -0.705489
  C      -1.688497      0.215490     -1.679533
  C      -2.191476      0.207801      0.860164
  C      -4.488000     -1.240824     -0.924208
  H      -2.712603     -2.185252     -1.609202
  H      -2.995408     -2.376426      0.112053
  O      -1.550083     -0.313398     -2.748750
  O      -1.686711      1.552243     -1.625131
  H      -1.290530      0.320882      1.457069
  H      -2.885490     -0.346779      1.492901
  C      -2.697592      1.611116      0.570330
  C      -5.148841     -0.734851      0.353921
  C      -4.684941     -0.213580     -2.037002
  C      -5.243145     -2.527487     -1.313164
  C      -1.740510      2.286080     -0.384189
  H      -2.745700      2.179794      1.500606
  H      -3.702693      1.612792      0.144488
  O      -5.757842      0.295908      0.466346
  O      -5.024443     -1.607328      1.368273
  H      -5.748280     -0.053056     -2.215362
  H      -4.221890     -0.571798     -2.956257
  H      -4.252411      0.756484     -1.799987
  H      -5.102194     -3.313295     -0.571135
  H      -4.875394     -2.887567     -2.275349
  H      -6.313210     -2.333656     -1.411909
  H      -0.729822      2.276888      0.044094
  C      -2.109797      3.706644     -0.765963
  C      -5.651234     -1.227722      2.589653
  H      -3.114850      3.705447     -1.200531
  H      -1.426994      4.026384     -1.558116
  C      -2.037616      4.687536      0.399050
  H      -5.445749     -2.031923      3.291459
  H      -5.239539     -0.286904      2.957413
  H      -6.725451     -1.108718      2.449416
  H      -2.777215      4.419110      1.158791
  H      -1.057394      4.606087      0.881131
  C      -2.274360      6.126328     -0.041090
  H      -2.229669      6.813344      0.805537
  H      -1.524338      6.443367     -0.769219
  H      -3.255650      6.236361     -0.508557
85
Coordinates from ORCA-job orca E -1736.086251558378
  C       0.816114     -0.977673     -0.030946
  C       0.908695     -0.216597      1.284989
  O       1.212605      0.942625      1.404766
  O       0.592359     -0.981659      2.342868
  C       1.250794     -0.064579     -1.173894
  H       0.664451      0.850361     -1.207350
  H       1.148071     -0.578632     -2.128044
  C       0.631634     -0.332726      3.609853
  H       0.340481     -1.084897      4.338089
  C       1.682164     -2.267703      0.035347
  C       3.227971     -2.236939      0.120978
  H       1.444690     -2.838269     -0.863585
  H       1.335148     -2.857433      0.887084
  C       3.796177     -1.773576     -1.228929
  C       3.788590     -1.465241      1.332834
  C       3.662728     -3.711074      0.241201
  O       3.416284     -2.257022     -2.259621
  O       4.757195     -0.841948     -1.282830
  H       4.615830     -2.042010      1.757076
  H       3.034227     -1.414995      2.118840
  C       4.322457     -0.086784      0.986597
  H       3.250966     -4.304607     -0.574046
  H       3.313220     -4.120316      1.191630
  C       5.338893     -0.213334     -0.124637
  H       4.801368      0.354368      1.862734
  H       3.528432      0.598380      0.683514
  H       6.163014     -0.859285      0.206557
  C       5.904604      1.104972     -0.620973
  H       5.074011      1.733954     -0.957868
  H       6.514079      0.894620     -1.504116
  C       6.740308      1.847113      0.415636
  H       6.118059      2.120155      1.272685
  H       7.518849      1.179282      0.800698
  C       7.384061      3.103872     -0.155294
  H       7.971648      3.628003      0.600152
  H       8.048879      2.862201     -0.987582
  H       6.627025      3.797705     -0.527856
  H       1.635921      0.035821      3.821876
  H      -0.061145      0.509415      3.632984
  H       2.287616      0.247132     -1.065020
  H       4.750906     -3.800046      0.213070
  C      -0.630110     -1.525890     -0.232915
  C      -1.884415     -0.618560     -0.409041
  H      -0.580271     -2.148737     -1.127441
  H      -0.847079     -2.191100      0.606391
  C      -3.013323     -1.649528     -0.704307
  C      -1.690250      0.215132     -1.685277
  C      -2.185395      0.212275      0.855289
  C      -4.489278     -1.237003     -0.914926
  H      -2.717961     -2.181920     -1.609933
  H      -2.992100     -2.374465      0.112432
  O      -1.549926     -0.315499     -2.753354
  O      -1.689223      1.551958     -1.633278
  H      -1.281080      0.331847      1.445984
  H      -2.873218     -0.343214      1.494020
  C      -2.697945      1.612832      0.563428
  C      -5.143808     -0.733350      0.367291
  C      -4.691089     -0.207529     -2.024725
  C      -5.247271     -2.522509     -1.302514
  C      -1.744845      2.288843     -0.394417
  H      -2.745901      2.183527      1.492466
  H      -3.703980      1.610446      0.139787
  O      -5.753874      0.296320      0.483923
  O      -5.011470     -1.605956      1.380458
  H      -5.755129     -0.045859     -2.197532
  H      -4.232782     -0.564313     -2.946874
  H      -4.256511      0.761758     -1.788106
  H      -5.103273     -3.309710     -0.562561
  H      -4.884435     -2.881184     -2.267058
  H      -6.317622     -2.327697     -1.395737
  H      -0.733760      2.284543      0.033024
  C      -2.120089      3.706916     -0.779828
  C      -5.631240     -1.228159      2.605851
  H      -3.125961      3.700441     -1.212425
  H      -1.440118      4.026542     -1.574425
  C      -2.049463      4.691920      0.381722
  H      -5.420529     -2.032553      3.305860
  H      -5.218599     -0.287106      2.971893
  H      -6.706464     -1.110418      2.472520
  H      -2.785200      4.422098      1.144679
  H      -1.067339      4.617287      0.860926
  C      -2.295132      6.128007     -0.062276
  H      -2.251308      6.817909      0.782015
  H      -1.549113      6.446679     -0.793766
  H      -3.278418      6.231525     -0.526969
85
Coordinates from ORCA-job orca E -1736.086252389547
  C       0.816192     -0.978447     -0.027758
  C       0.911165     -0.220473      1.289869
  O       1.217743      0.937788      1.412174
  O       0.594496     -0.987379      2.346283
  C       1.247758     -0.062547     -1.169564
  H       0.660733      0.852135     -1.199540
  H       1.143082     -0.574498     -2.124649
  C       0.636193     -0.341369      3.614567
  H       0.343088     -1.094113      4.341438
  C       1.682978     -2.268264      0.033607
  C       3.229015     -2.237375      0.115969
  H       1.443913     -2.836544     -0.866350
  H       1.337819     -2.860425      0.884412
  C       3.793899     -1.768104     -1.233284
  C       3.792715     -1.470954      1.329737
  C       3.664279     -3.711924      0.228632
  O       3.410714     -2.246231     -2.265230
  O       4.753858     -0.835296     -1.285541
  H       4.621329     -2.049437      1.748924
  H       3.040614     -1.424714      2.118144
  C       4.325123     -0.090641      0.988633
  H       3.250538     -4.301945     -0.588158
  H       3.317247     -4.125404      1.178126
  C       5.338270     -0.211351     -0.126296
  H       4.806663      0.346256      1.865452
  H       3.529929      0.595752      0.691577
  H       6.164002     -0.857901      0.199685
  C       5.901375      1.109687     -0.618403
  H       5.069291      1.739233     -0.950516
  H       6.508716      0.903711     -1.504049
  C       6.739055      1.848179      0.419186
  H       6.118666      2.117397      1.278781
  H       7.518890      1.179306      0.799799
  C       7.380715      3.107616     -0.148192
  H       7.969590      3.629163      0.608037
  H       8.043884      2.869701     -0.982867
  H       6.622411      3.802405     -0.516359
  H       1.641642      0.023710      3.827163
  H      -0.053981      0.502866      3.639903
  H       2.284607      0.249578     -1.062439
  H       4.752385     -3.800636      0.197308
  C      -0.630120     -1.526802     -0.228366
  C      -1.884051     -0.619305     -0.405235
  H      -0.580791     -2.150531     -1.122322
  H      -0.846847     -2.191094      0.611701
  C      -3.013413     -1.650341     -0.698695
  C      -1.689693      0.211998     -1.683016
  C      -2.183807      0.214087      0.857670
  C      -4.488722     -1.237420     -0.912832
  H      -2.717169     -2.185652     -1.602333
  H      -2.993934     -2.372825      0.120243
  O      -1.550896     -0.320575     -2.750326
  O      -1.688505      1.548900     -1.633509
  H      -1.278796      0.335438      1.446921
  H      -2.870609     -0.340364      1.498409
  C      -2.696819      1.613980      0.563497
  C      -5.145443     -0.729847      0.366728
  C      -4.687778     -0.211140     -2.026093
  C      -5.246899     -2.523495     -1.298195
  C      -1.744309      2.288269     -0.396242
  H      -2.744061      2.186478      1.491454
  H      -3.703135      1.610878      0.140672
  O      -5.755346      0.300380      0.479234
  O      -5.016102     -1.599979      1.382412
  H      -5.751347     -0.048817     -2.201066
  H      -4.228408     -0.571266     -2.946420
  H      -4.252415      0.758367     -1.791872
  H      -5.104906     -3.308663     -0.555702
  H      -4.882407     -2.885203     -2.260974
  H      -6.316918     -2.328179     -1.394074
  H      -0.733156      2.285033      0.030987
  C      -2.120034      3.705494     -0.784313
  C      -5.638903     -1.218958      2.605179
  H      -3.126350      3.698028     -1.215888
  H      -1.440932      4.023329     -1.580369
  C      -2.048319      4.692954      0.375023
  H      -5.432060     -2.022565      3.307245
  H      -5.225541     -0.278147      2.971073
  H      -6.713472     -1.099202      2.468438
  H      -2.782511      4.424153      1.139815
  H      -1.065347      4.620107      0.852779
  C      -2.295667      6.127946     -0.071546
  H      -2.250816      6.819648      0.771213
  H      -1.551032      6.445583     -0.804897
  H      -3.279740      6.229991     -0.534881
85
Coordinates from ORCA-job orca E -1736.086253030068
  C       0.815846     -0.979411     -0.028652
  C       0.911557     -0.222427      1.289418
  O       1.218136      0.935757      1.412429
  O       0.596878     -0.990572      2.345556
  C       1.246784     -0.062990     -1.170190
  H       0.659572      0.851574     -1.199684
  H       1.141793     -0.574656     -2.125416
  C       0.640457     -0.345820      3.614412
  H       0.347891     -1.099085      4.340968
  C       1.682808     -2.269063      0.031639
  C       3.228835     -2.238214      0.114592
  H       1.444192     -2.836509     -0.868970
  H       1.337475     -2.862223      0.881706
  C       3.794075     -1.767570     -1.233999
  C       3.792330     -1.472945      1.329052
  C       3.663758     -3.712910      0.226325
  O       3.413718     -2.247140     -2.266320
  O       4.753269     -0.833865     -1.285138
  H       4.621977     -2.051190      1.746553
  H       3.040635     -1.429084      2.118093
  C       4.323171     -0.091560      0.989796
  H       3.249858     -4.302368     -0.590790
  H       3.316675     -4.126897      1.175586
  C       5.336406     -0.209810     -0.125349
  H       4.804668      0.344387      1.867128
  H       3.527273      0.594551      0.694103
  H       6.163279     -0.855085      0.200283
  C       5.897429      1.112559     -0.616357
  H       5.064411      1.740871     -0.948482
  H       6.505539      0.908237     -1.501863
  C       6.733288      1.851753      0.422205
  H       6.111799      2.119956      1.281328
  H       7.513611      1.183728      0.803317
  C       7.373906      3.112207     -0.144116
  H       7.961602      3.634093      0.612803
  H       8.038003      2.875403     -0.978373
  H       6.615101      3.806295     -0.512575
  H       1.646336      0.018558      3.826184
  H      -0.049227      0.498749      3.641433
  H       2.283608      0.249365     -1.063482
  H       4.751834     -3.801901      0.194846
  C      -0.630662     -1.527489     -0.228574
  C      -1.884311     -0.619553     -0.404639
  H      -0.582022     -2.151194     -1.122588
  H      -0.847092     -2.191819      0.611521
  C      -3.014185     -1.650506     -0.696553
  C      -1.690536      0.210710     -1.683182
  C      -2.182019      0.214891      0.858186
  C      -4.489467     -1.237476     -0.911152
  H      -2.718275     -2.187013     -1.599603
  H      -2.994963     -2.372059      0.123224
  O      -1.556005     -0.322734     -2.750611
  O      -1.689438      1.547671     -1.634889
  H      -1.276467      0.334813      1.446965
  H      -2.869320     -0.338240      1.499502
  C      -2.693631      1.615313      0.563971
  C      -5.146826     -0.730257      0.368258
  C      -4.688036     -0.210935     -2.024278
  C      -5.247278     -2.523412     -1.297577
  C      -1.742383      2.288060     -0.398119
  H      -2.738460      2.188541      1.491589
  H      -3.700707      1.612899      0.143038
  O      -5.755329      0.300729      0.481321
  O      -5.017213     -1.600338      1.383999
  H      -5.751543     -0.048553     -2.199601
  H      -4.228338     -0.570859     -2.944536
  H      -4.252810      0.758523     -1.789658
  H      -5.105625     -3.308974     -0.555452
  H      -4.882148     -2.884513     -2.260345
  H      -6.317269     -2.328186     -1.393970
  H      -0.730375      2.284450      0.027198
  C      -2.117826      3.705223     -0.786728
  C      -5.640108     -1.219371      2.606713
  H      -3.125296      3.698317     -1.215620
  H      -1.440582      4.021425     -1.585020
  C      -2.041999      4.693994      0.371216
  H      -5.435162     -2.023986      3.308188
  H      -5.225270     -0.279671      2.973855
  H      -6.714356     -1.097464      2.469396
  H      -2.774050      4.426643      1.138563
  H      -1.057662      4.621086      0.846154
  C      -2.289479      6.128636     -0.076396
  H      -2.241477      6.821415      0.765305
  H      -1.546684      6.444674     -0.812312
  H      -3.274789      6.231024     -0.537021
85
Coordinates from ORCA-job orca E -1736.086260590874
  C       0.816602     -0.981327     -0.026380
  C       0.912270     -0.225960      1.292533
  O       1.217683      0.932389      1.416843
  O       0.598138     -0.995699      2.347722
  C       1.248063     -0.064063     -1.166956
  H       0.660841      0.850469     -1.196263
  H       1.143582     -0.575130     -2.122582
  C       0.641893     -0.352787      3.617550
  H       0.349070     -1.107023      4.342983
  C       1.683480     -2.270976      0.032655
  C       3.229594     -2.240438      0.114769
  H       1.444509     -2.837821     -0.868249
  H       1.338603     -2.864745      0.882487
  C       3.793932     -1.769662     -1.234111
  C       3.794231     -1.475370      1.328692
  C       3.663961     -3.715286      0.226329
  O       3.413482     -2.249717     -2.266177
  O       4.751122     -0.833893     -1.286077
  H       4.625861     -2.052630      1.743620
  H       3.044054     -1.433911      2.119370
  C       4.322078     -0.092762      0.989686
  H       3.248891     -4.304757     -0.590165
  H       3.317731     -4.128848      1.176082
  C       5.334004     -0.208437     -0.126914
  H       4.804319      0.343190      1.866615
  H       3.524591      0.592264      0.695885
  H       6.163009     -0.851518      0.197605
  C       5.891069      1.115432     -0.618460
  H       5.056100      1.741501     -0.949912
  H       6.499007      0.912756     -1.504452
  C       6.725715      1.856846      0.419513
  H       6.103956      2.124039      1.278746
  H       7.507651      1.190690      0.800578
  C       7.363342      3.118543     -0.147439
  H       7.950295      3.641855      0.609068
  H       8.027537      2.882904     -0.981941
  H       6.602900      3.810925     -0.515709
  H       1.647892      0.010898      3.829898
  H      -0.047470      0.491940      3.645800
  H       2.284822      0.248348     -1.059604
  H       4.751944     -3.804823      0.193621
  C      -0.630026     -1.528782     -0.226920
  C      -1.883172     -0.620160     -0.403316
  H      -0.581363     -2.152248     -1.121097
  H      -0.847018     -2.193328      0.612834
  C      -3.013233     -1.650594     -0.695971
  C      -1.688263      0.210161     -1.681623
  C      -2.181545      0.214204      0.859512
  C      -4.488001     -1.236603     -0.912448
  H      -2.716727     -2.188019     -1.598260
  H      -2.995590     -2.371469      0.124427
  O      -1.551467     -0.323268     -2.748783
  O      -1.686612      1.547147     -1.633286
  H      -1.276778      0.332424      1.449827
  H      -2.870665     -0.338251      1.499458
  C      -2.691650      1.615165      0.565225
  C      -5.145305     -0.726484      0.365837
  C      -4.685072     -0.211640     -2.027311
  C      -5.246576     -2.522544     -1.297279
  C      -1.739692      2.287495     -0.396448
  H      -2.736453      2.188357      1.492852
  H      -3.698526      1.613255      0.143802
  O      -5.752682      0.305359      0.476994
  O      -5.018803     -1.596023      1.382481
  H      -5.748368     -0.048644     -2.203369
  H      -4.225292     -0.573417     -2.946794
  H      -4.249240      0.757832     -1.793993
  H      -5.105936     -3.307100     -0.553910
  H      -4.881167     -2.885339     -2.259296
  H      -6.316365     -2.326681     -1.394550
  H      -0.727808      2.283564      0.029318
  C      -2.114500      3.704716     -0.785528
  C      -5.643703     -1.213296      2.603646
  H      -3.122142      3.698222     -1.213995
  H      -1.437472      4.020026     -1.584350
  C      -2.037551      4.694297      0.371650
  H      -5.443176     -2.018702      3.305482
  H      -5.226755     -0.275052      2.972134
  H      -6.717153     -1.087817      2.463474
  H      -2.769095      4.427763      1.139758
  H      -1.052900      4.621585      0.845920
  C      -2.284821      6.128657     -0.076971
  H      -2.235936      6.822182      0.764054
  H      -1.542324      6.443729     -0.813599
  H      -3.270348      6.231098     -0.537105
85
Coordinates from ORCA-job orca E -1736.086258785565
  C       0.816948     -0.981716     -0.026969
  C       0.912123     -0.228842      1.293458
  O       1.217767      0.929189      1.420170
  O       0.597370     -1.000672      2.346935
  C       1.248814     -0.062434     -1.165770
  H       0.661443      0.852037     -1.193992
  H       1.144969     -0.571951     -2.122293
  C       0.641080     -0.360763      3.618297
  H       0.347119     -1.116443      4.341769
  C       1.683801     -2.271519      0.029855
  C       3.229989     -2.241541      0.112459
  H       1.445094     -2.836659     -0.872202
  H       1.338647     -2.866930      0.878409
  C       3.794965     -1.768872     -1.235488
  C       3.794757     -1.478644      1.327659
  C       3.663689     -3.716741      0.221945
  O       3.414921     -2.247391     -2.268422
  O       4.751690     -0.832515     -1.285785
  H       4.626865     -2.056405      1.740960
  H       3.044880     -1.439286      2.118700
  C       4.321883     -0.095130      0.991220
  H       3.248396     -4.304840     -0.595420
  H       3.317130     -4.131402      1.171101
  C       5.333834     -0.208184     -0.125612
  H       4.804025      0.339366      1.868926
  H       3.524028      0.590083      0.698831
  H       6.163511     -0.850902      0.197898
  C       5.889568      1.116986     -0.615192
  H       5.053994      1.742462     -0.946252
  H       6.498209      0.916207     -1.501129
  C       6.722733      1.858121      0.424187
  H       6.100026      2.123939      1.283161
  H       7.504984      1.192309      0.805223
  C       7.359657      3.120979     -0.140993
  H       7.945412      3.644120      0.616563
  H       8.024837      2.886745     -0.975112
  H       6.598882      3.812984     -0.509294
  H       1.647396      0.001275      3.832030
  H      -0.047418      0.484570      3.648239
  H       2.285432      0.250034     -1.057387
  H       4.751635     -3.806748      0.189221
  C      -0.629589     -1.528861     -0.228611
  C      -1.882520     -0.619779     -0.404486
  H      -0.580840     -2.151460     -1.123386
  H      -0.846852     -2.194224      0.610431
  C      -3.013312     -1.649772     -0.695762
  C      -1.688137      0.209743     -1.683353
  C      -2.179909      0.215367      0.858031
  C      -4.488321     -1.235383     -0.909859
  H      -2.718292     -2.187243     -1.598505
  H      -2.994673     -2.370731      0.124528
  O      -1.551162     -0.324351     -2.750158
  O      -1.686493      1.546757     -1.635897
  H      -1.274716      0.334026      1.447568
  H      -2.868718     -0.336629      1.498776
  C      -2.690298      1.616122      0.563126
  C      -5.142939     -0.724926      0.369631
  C      -4.687230     -0.210413     -2.024389
  C      -5.247964     -2.521182     -1.293079
  C      -1.739152      2.288046     -0.399595
  H      -2.734568      2.189970      1.490394
  H      -3.697453      1.613716      0.142322
  O      -5.750616      0.306642      0.481641
  O      -5.014123     -1.594135      1.386277
  H      -5.750837     -0.047351     -2.198551
  H      -4.229156     -0.572270     -2.944690
  H      -4.250939      0.759060     -1.791878
  H      -5.106016     -3.305759     -0.549960
  H      -4.884514     -2.884068     -2.255806
  H      -6.317908     -2.325099     -1.388240
  H      -0.727012      2.284916      0.025663
  C      -2.114984      3.704666     -0.789988
  C      -5.637094     -1.211446      2.608480
  H      -3.123201      3.697119     -1.217101
  H      -1.439205      4.019076     -1.590224
  C      -2.036973      4.696211      0.365416
  H      -5.435960     -2.017190      3.309758
  H      -5.219044     -0.273571      2.976666
  H      -6.710658     -1.085296      2.469831
  H      -2.766839      4.430192      1.135324
  H      -1.051371      4.625522      0.837955
  C      -2.286639      6.129516     -0.085271
  H      -2.236985      6.824603      0.754425
  H      -1.545731      6.444057     -0.823733
  H      -3.273065      6.230116     -0.543888
85
Coordinates from ORCA-job orca E -1736.086258998720
  C       0.817585     -0.982498     -0.027149
  C       0.913459     -0.229874      1.293405
  O       1.218263      0.928375      1.420166
  O       0.599244     -1.002041      2.346778
  C       1.249510     -0.063408     -1.166108
  H       0.662473      0.851242     -1.194538
  H       1.145365     -0.573052     -2.122534
  C       0.643351     -0.362717      3.618465
  H       0.350342     -1.119031      4.341664
  C       1.684007     -2.272594      0.029039
  C       3.230246     -2.243177      0.111669
  H       1.445177     -2.837207     -0.873321
  H       1.338737     -2.868386      0.877265
  C       3.795399     -1.769826     -1.235950
  C       3.795233     -1.481073      1.327210
  C       3.663414     -3.718589      0.220506
  O       3.416609     -2.248925     -2.269079
  O       4.751497     -0.832781     -1.285736
  H       4.628250     -2.058517      1.739158
  H       3.045862     -1.443387      2.118807
  C       4.320891     -0.096778      0.991726
  H       3.247712     -4.306213     -0.596988
  H       3.316857     -4.133398      1.169602
  C       5.332809     -0.208053     -0.125298
  H       4.802800      0.337525      1.869663
  H       3.522354      0.587933      0.699976
  H       6.163398     -0.849791      0.197802
  C       5.886680      1.118065     -0.614420
  H       5.050229      1.742380     -0.945464
  H       6.495854      0.918478     -1.500256
  C       6.718433      1.860199      0.425401
  H       6.094992      2.125081      1.284131
  H       7.501453      1.195413      0.806655
  C       7.353844      3.124026     -0.139335
  H       7.938576      3.647830      0.618556
  H       8.019677      2.890811     -0.973221
  H       6.592270      3.815054     -0.507828
  H       1.649637     -0.000255      3.831650
  H      -0.045683      0.482106      3.649328
  H       2.286258      0.248700     -1.057975
  H       4.751318     -3.809007      0.187541
  C      -0.629221     -1.529150     -0.228162
  C      -1.881967     -0.619662     -0.403676
  H      -0.581107     -2.151758     -1.122965
  H      -0.846336     -2.194455      0.610969
  C      -3.013118     -1.649373     -0.694648
  C      -1.687595      0.209487     -1.682760
  C      -2.179142      0.215789      0.858750
  C      -4.488005     -1.234541     -0.909029
  H      -2.718259     -2.187271     -1.597197
  H      -2.994794     -2.370062      0.125887
  O      -1.550075     -0.324940     -2.749335
  O      -1.685663      1.546509     -1.635690
  H      -1.274122      0.333747      1.448655
  H      -2.868673     -0.335560      1.499246
  C      -2.688739      1.616820      0.563567
  C      -5.142873     -0.724377      0.370461
  C      -4.686276     -0.209079     -2.023217
  C      -5.247813     -2.519985     -1.292991
  C      -1.737681      2.288215     -0.399545
  H      -2.732625      2.190946      1.490695
  H      -3.695968      1.614609      0.142908
  O      -5.749868      0.307551      0.482830
  O      -5.014556     -1.593975      1.386857
  H      -5.749802     -0.045763     -2.197693
  H      -4.227988     -0.570679     -2.943514
  H      -4.249884      0.760224     -1.790158
  H      -5.106166     -3.304962     -0.550232
  H      -4.884209     -2.882430     -2.255828
  H      -6.317706     -2.323666     -1.388285
  H      -0.725420      2.285120      0.025455
  C      -2.113617      3.704625     -0.790674
  C      -5.637787     -1.211494      2.609049
  H      -3.122210      3.696755     -1.216911
  H      -1.438534      4.018260     -1.591808
  C      -2.034606      4.697472      0.363535
  H      -5.437530     -2.017825      3.309900
  H      -5.219106     -0.274174      2.977929
  H      -6.711170     -1.084413      2.469906
  H      -2.763406      4.431999      1.134663
  H      -1.048367      4.627970      0.834866
  C      -2.285622      6.130095     -0.088620
  H      -2.235287      6.826285      0.750124
  H      -1.545750      6.444058     -0.828374
  H      -3.272658      6.229594     -0.546168
