44
Coordinates from ORCA-job orca E -887.584670167977
  O      -1.219908     -0.437546     -2.637551
  C      -1.407764      0.099411     -1.574162
  C      -1.417512     -0.639223     -0.258239
  C      -1.892344      0.067156      1.008985
  H      -1.026575      0.173266      1.684708
  H      -2.622561     -0.560819      1.540765
  C      -2.469972      1.454819      0.729851
  H      -2.504428      2.039264      1.662236
  H      -3.501754      1.404208      0.352998
  C      -1.617704      2.176998     -0.300996
  H      -0.568671      2.226666      0.051844
  C      -2.091335      3.579822     -0.658441
  C      -1.926298      4.605378      0.465221
  H      -2.516175      4.298581      1.346782
  H      -0.871192      4.618879      0.795777
  C      -2.348918      6.012882      0.043607
  H      -2.223662      6.735954      0.865329
  H      -3.408068      6.034746     -0.263180
  H      -1.751112      6.369977     -0.811691
  H      -3.149061      3.523856     -0.971524
  H      -1.521843      3.904700     -1.545560
  C      -0.517475     -1.674740     -0.170083
  H      -0.310168     -2.159437      0.788198
  H      -0.050808     -2.078425     -1.070819
  C      -3.286797     -1.838038     -0.867028
  H      -3.202484     -2.515970     -0.014418
  C      -4.648915     -1.214142     -1.079427
  C      -5.199130     -0.610021      0.213251
  O      -5.088946     -1.457621      1.256569
  C      -5.615689     -0.998909      2.500878
  H      -5.476844     -1.821005      3.214178
  H      -5.078342     -0.101251      2.844244
  H      -6.683101     -0.748553      2.405875
  O      -5.705159      0.481634      0.317246
  C      -5.623115     -2.365714     -1.475712
  H      -5.649188     -3.149702     -0.705470
  H      -6.644839     -1.973804     -1.614300
  H      -5.295279     -2.813784     -2.426019
  C      -4.646988     -0.151675     -2.186322
  H      -4.030288      0.716356     -1.922618
  H      -5.667616      0.209660     -2.377853
  H      -4.238975     -0.580153     -3.113486
  H      -2.787389     -2.167617     -1.781174
  O      -1.621589      1.433572     -1.540319
44
Coordinates from ORCA-job orca E -887.586093906316
  O      -1.221727     -0.428154     -2.637122
  C      -1.407723      0.106215     -1.574435
  C      -1.412285     -0.632334     -0.260448
  C      -1.887037      0.069950      1.005930
  H      -1.024428      0.176694      1.679313
  H      -2.614580     -0.558424      1.534176
  C      -2.467340      1.453852      0.727609
  H      -2.503326      2.035971      1.657073
  H      -3.495919      1.400099      0.350551
  C      -1.616258      2.176389     -0.300526
  H      -0.570294      2.226031      0.050325
  C      -2.091732      3.576510     -0.655874
  C      -1.928992      4.596857      0.469486
  H      -2.518888      4.289228      1.345912
  H      -0.878041      4.610270      0.800245
  C      -2.350676      6.002430      0.049222
  H      -2.226748      6.721668      0.868982
  H      -3.405624      6.023992     -0.257585
  H      -1.753685      6.358697     -0.801797
  H      -3.145827      3.519753     -0.968580
  H      -1.523418      3.903857     -1.538308
  C      -0.516321     -1.665076     -0.175813
  H      -0.307507     -2.148282      0.778260
  H      -0.053073     -2.066241     -1.074421
  C      -3.292059     -1.837136     -0.869093
  H      -3.204937     -2.513260     -0.020176
  C      -4.653800     -1.215424     -1.078601
  C      -5.200865     -0.612457      0.213641
  O      -5.084853     -1.456637      1.256244
  C      -5.607755     -0.992239      2.498523
  H      -5.463504     -1.807236      3.212607
  H      -5.072980     -0.094387      2.832779
  H      -6.672428     -0.747304      2.406064
  O      -5.707699      0.476614      0.318181
  C      -5.626297     -2.364219     -1.474023
  H      -5.743907     -3.085235     -0.657560
  H      -6.615128     -1.957445     -1.728750
  H      -5.234107     -2.888138     -2.354088
  C      -4.653141     -0.154472     -2.183106
  H      -4.036487      0.710327     -1.921142
  H      -5.670360      0.206276     -2.372237
  H      -4.248543     -0.582452     -3.107766
  H      -2.794404     -2.163112     -1.781037
  O      -1.621278      1.437617     -1.540485
44
Coordinates from ORCA-job orca E -887.585176162925
  O      -1.239367     -0.437973     -2.641640
  C      -1.423392      0.099353     -1.580643
  C      -1.441264     -0.640048     -0.265434
  C      -1.897296      0.066736      0.999748
  H      -1.028075      0.168873      1.665300
  H      -2.624449     -0.563451      1.534374
  C      -2.469360      1.452947      0.729506
  H      -2.495323      2.031996      1.660882
  H      -3.500414      1.406593      0.361338
  C      -1.622759      2.172110     -0.304412
  H      -0.575234      2.222224      0.041300
  C      -2.097079      3.571242     -0.661849
  C      -1.924044      4.594415      0.458550
  H      -2.500717      4.285485      1.343063
  H      -0.869683      4.611418      0.776900
  C      -2.356119      5.997608      0.042973
  H      -2.227770      6.716722      0.861171
  H      -3.413595      6.015219     -0.253451
  H      -1.770228      6.357791     -0.813450
  H      -3.153256      3.516171     -0.967219
  H      -1.534643      3.892592     -1.549830
  C      -0.529004     -1.668956     -0.174551
  H      -0.321385     -2.148155      0.780533
  H      -0.065521     -2.069257     -1.071455
  C      -3.276856     -1.825613     -0.863516
  H      -3.198030     -2.504314     -0.012881
  C      -4.632298     -1.198387     -1.070941
  C      -5.182086     -0.597835      0.220273
  O      -5.089588     -1.460793      1.249961
  C      -5.623840     -1.012104      2.491404
  H      -5.509824     -1.843334      3.190601
  H      -5.077534     -0.132776      2.853968
  H      -6.680776     -0.741776      2.386960
  O      -5.682021      0.493721      0.334700
  C      -5.610981     -2.342494     -1.459099
  H      -5.685355     -3.083753     -0.656593
  H      -6.615243     -1.942750     -1.661507
  H      -5.242305     -2.842389     -2.361981
  C      -4.631906     -0.142887     -2.180040
  H      -4.039283      0.736631     -1.905244
  H      -5.652448      0.193605     -2.394204
  H      -4.195278     -0.563991     -3.091938
  H      -2.781696     -2.162651     -1.776357
  O      -1.638655      1.431865     -1.543122
44
Coordinates from ORCA-job orca E -887.585708451837
  O      -1.248411     -0.435393     -2.641554
  C      -1.437332      0.098997     -1.581919
  C      -1.464696     -0.643712     -0.270175
  C      -1.909431      0.067541      0.996060
  H      -1.038072      0.167629      1.654467
  H      -2.632239     -0.557206      1.534183
  C      -2.477312      1.453960      0.726886
  H      -2.499075      2.031858      1.656012
  H      -3.507373      1.411094      0.360750
  C      -1.628714      2.167787     -0.306478
  H      -0.583070      2.213303      0.037207
  C      -2.097854      3.567305     -0.663211
  C      -1.923511      4.586087      0.458605
  H      -2.501503      4.278348      1.339226
  H      -0.872123      4.599467      0.777430
  C      -2.349725      5.989363      0.043901
  H      -2.220428      6.705334      0.861052
  H      -3.404032      6.010411     -0.253315
  H      -1.762640      6.347144     -0.809153
  H      -3.151271      3.516361     -0.969526
  H      -1.533598      3.887786     -1.547102
  C      -0.542326     -1.664890     -0.176754
  H      -0.333266     -2.139195      0.777399
  H      -0.078319     -2.063685     -1.071200
  C      -3.265407     -1.817585     -0.858083
  H      -3.190299     -2.497215     -0.012116
  C      -4.623264     -1.194747     -1.066309
  C      -5.182267     -0.598310      0.221945
  O      -5.085193     -1.456415      1.253503
  C      -5.623890     -1.004874      2.491202
  H      -5.506662     -1.830749      3.192181
  H      -5.084239     -0.123239      2.850015
  H      -6.679458     -0.741925      2.383542
  O      -5.680678      0.492049      0.335427
  C      -5.593355     -2.342783     -1.459130
  H      -5.632058     -3.106832     -0.679220
  H      -6.606023     -1.955251     -1.619806
  H      -5.243417     -2.808044     -2.384714
  C      -4.627662     -0.140184     -2.173991
  H      -4.049862      0.744239     -1.896419
  H      -5.648252      0.182040     -2.395187
  H      -4.181181     -0.555889     -3.080756
  H      -2.777203     -2.160050     -1.767892
  O      -1.649288      1.429698     -1.544831
44
Coordinates from ORCA-job orca E -887.586259272631
  O      -1.244560     -0.424040     -2.639334
  C      -1.437028      0.106853     -1.579812
  C      -1.465771     -0.638373     -0.271341
  C      -1.911740      0.073939      0.995521
  H      -1.042070      0.176289      1.651437
  H      -2.632015     -0.545959      1.534368
  C      -2.481288      1.458070      0.721095
  H      -2.507886      2.036686      1.646810
  H      -3.507502      1.412236      0.348953
  C      -1.626776      2.169800     -0.306282
  H      -0.584390      2.210400      0.039998
  C      -2.091172      3.570146     -0.661352
  C      -1.924878      4.582448      0.465787
  H      -2.517048      4.278182      1.334805
  H      -0.879986      4.588161      0.797203
  C      -2.334423      5.988026      0.046923
  H      -2.207721      6.701062      0.863808
  H      -3.382942      6.017014     -0.260604
  H      -1.735776      6.338791     -0.797725
  H      -3.139847      3.521798     -0.975536
  H      -1.519637      3.894404     -1.536221
  C      -0.546544     -1.656410     -0.179198
  H      -0.335675     -2.128045      0.773384
  H      -0.082887     -2.055188     -1.071409
  C      -3.266315     -1.815652     -0.855261
  H      -3.188634     -2.495078     -0.013605
  C      -4.629987     -1.202300     -1.065155
  C      -5.190985     -0.608013      0.221615
  O      -5.080955     -1.455511      1.258183
  C      -5.621357     -0.996520      2.492478
  H      -5.484487     -1.809637      3.201266
  H      -5.095501     -0.103079      2.834415
  H      -6.679775     -0.756277      2.386436
  O      -5.709436      0.472125      0.325789
  C      -5.587009     -2.357374     -1.462093
  H      -5.603791     -3.136004     -0.699094
  H      -6.603831     -1.980414     -1.600157
  H      -5.249586     -2.796585     -2.402293
  C      -4.640939     -0.148057     -2.170556
  H      -4.059384      0.732606     -1.900983
  H      -5.660311      0.176868     -2.380622
  H      -4.207540     -0.565712     -3.080518
  H      -2.783068     -2.157388     -1.763563
  O      -1.643527      1.435344     -1.545409
44
Coordinates from ORCA-job orca E -887.586458673036
  O      -1.243767     -0.413919     -2.640468
  C      -1.437875      0.114838     -1.579993
  C      -1.475220     -0.636470     -0.275535
  C      -1.918053      0.079543      0.992724
  H      -1.046012      0.184245      1.643812
  H      -2.636880     -0.534879      1.536771
  C      -2.487511      1.462740      0.712867
  H      -2.520547      2.042088      1.637043
  H      -3.509597      1.414177      0.331623
  C      -1.624540      2.173351     -0.306731
  H      -0.584711      2.207388      0.045183
  C      -2.081849      3.576655     -0.659418
  C      -1.926045      4.582771      0.474928
  H      -2.538985      4.283972      1.330114
  H      -0.887812      4.578049      0.824363
  C      -2.313189      5.993029      0.049863
  H      -2.189444      6.704364      0.867998
  H      -3.356278      6.032768     -0.272142
  H      -1.697306      6.334210     -0.785383
  H      -3.126380      3.531764     -0.984842
  H      -1.499691      3.906347     -1.524350
  C      -0.559350     -1.653081     -0.183015
  H      -0.347174     -2.121590      0.770535
  H      -0.094816     -2.054853     -1.073034
  C      -3.265552     -1.809949     -0.848998
  H      -3.186869     -2.492025     -0.010417
  C      -4.637584     -1.210196     -1.062837
  C      -5.209899     -0.622667      0.220970
  O      -5.074947     -1.454483      1.265153
  C      -5.616802     -0.989408      2.498306
  H      -5.440160     -1.783357      3.219377
  H      -5.117389     -0.072398      2.813577
  H      -6.683922     -0.792111      2.399836
  O      -5.748518      0.447942      0.314821
  C      -5.574984     -2.375653     -1.466972
  H      -5.556395     -3.177102     -0.728837
  H      -6.602039     -2.016811     -1.570615
  H      -5.254221     -2.777010     -2.429011
  C      -4.654388     -0.156087     -2.166610
  H      -4.076977      0.727515     -1.900307
  H      -5.675086      0.164366     -2.374371
  H      -4.222521     -0.573217     -3.077201
  H      -2.790707     -2.157576     -1.758987
  O      -1.633986      1.442350     -1.547642
44
Coordinates from ORCA-job orca E -887.586494445560
  O      -1.238478     -0.411103     -2.641665
  C      -1.430668      0.118650     -1.581008
  C      -1.468285     -0.633603     -0.276743
  C      -1.912821      0.081963      0.991161
  H      -1.040729      0.189003      1.642032
  H      -2.631509     -0.532412      1.535979
  C      -2.484134      1.463906      0.709185
  H      -2.523388      2.043149      1.633230
  H      -3.503994      1.412670      0.321967
  C      -1.617995      2.176925     -0.306203
  H      -0.579537      2.211671      0.050095
  C      -2.075772      3.579748     -0.659269
  C      -1.928368      4.584467      0.477602
  H      -2.549835      4.285949      1.326792
  H      -0.893271      4.578273      0.836143
  C      -2.310561      5.995775      0.050297
  H      -2.191610      6.706449      0.869632
  H      -3.351245      6.036864     -0.279119
  H      -1.687661      6.336038     -0.780100
  H      -3.118467      3.533112     -0.990566
  H      -1.489505      3.912479     -1.520292
  C      -0.558682     -1.654772     -0.185334
  H      -0.347593     -2.124370      0.767898
  H      -0.094967     -2.058459     -1.074810
  C      -3.269324     -1.808681     -0.848376
  H      -3.188677     -2.490567     -0.009726
  C      -4.643063     -1.212126     -1.062209
  C      -5.214506     -0.625034      0.222240
  O      -5.075618     -1.455602      1.266506
  C      -5.618738     -0.991623      2.500048
  H      -5.431099     -1.781260      3.222924
  H      -5.127522     -0.068387      2.809626
  H      -6.688258     -0.806905      2.403639
  O      -5.767718      0.438779      0.312817
  C      -5.578469     -2.379608     -1.465155
  H      -5.560882     -3.179167     -0.724973
  H      -6.605843     -2.022661     -1.572644
  H      -5.255647     -2.784158     -2.425227
  C      -4.660522     -0.158153     -2.166158
  H      -4.082680      0.725454     -1.900415
  H      -5.681079      0.163212     -2.373312
  H      -4.228870     -0.575382     -3.076751
  H      -2.797298     -2.157928     -1.759452
  O      -1.621092      1.447054     -1.548156
44
Coordinates from ORCA-job orca E -887.586525886682
  O      -1.236908     -0.410391     -2.644019
  C      -1.426926      0.119748     -1.583230
  C      -1.470072     -0.634851     -0.280086
  C      -1.910668      0.082131      0.987947
  H      -1.036509      0.191182      1.635803
  H      -2.627320     -0.531528      1.535829
  C      -2.482609      1.463161      0.704842
  H      -2.527320      2.041764      1.628946
  H      -3.500228      1.410558      0.312105
  C      -1.612845      2.177918     -0.306286
  H      -0.576181      2.213482      0.054954
  C      -2.070569      3.580356     -0.660415
  C      -1.932595      4.583458      0.479115
  H      -2.562401      4.284414      1.321910
  H      -0.900938      4.576185      0.847226
  C      -2.310411      5.995624      0.050293
  H      -2.198123      6.705030      0.871653
  H      -3.348169      6.037449     -0.287966
  H      -1.679825      6.336470     -0.774004
  H      -3.110953      3.532294     -0.998605
  H      -1.479377      3.915756     -1.516990
  C      -0.563702     -1.659897     -0.188464
  H      -0.354819     -2.130288      0.764880
  H      -0.100205     -2.065426     -1.077203
  C      -3.269284     -1.803994     -0.845926
  H      -3.188897     -2.486202     -0.007370
  C      -4.644637     -1.210152     -1.059919
  C      -5.222367     -0.626744      0.223669
  O      -5.072869     -1.452727      1.269859
  C      -5.618127     -0.990706      2.503663
  H      -5.413171     -1.772983      3.229832
  H      -5.141797     -0.057209      2.805157
  H      -6.691217     -0.826122      2.410868
  O      -5.782233      0.433740      0.313157
  C      -5.576118     -2.379590     -1.464894
  H      -5.555105     -3.180583     -0.726274
  H      -6.604933     -2.026812     -1.571322
  H      -5.251673     -2.781875     -2.425423
  C      -4.662859     -0.155530     -2.163242
  H      -4.093957      0.732416     -1.892580
  H      -5.684209      0.158401     -2.377530
  H      -4.221062     -0.568519     -3.070881
  H      -2.802724     -2.158892     -1.757867
  O      -1.609068      1.449116     -1.549061
44
Coordinates from ORCA-job orca E -887.586542164884
  O      -1.231267     -0.411001     -2.645773
  C      -1.418091      0.119490     -1.584774
  C      -1.462269     -0.635376     -0.281781
  C      -1.901882      0.081147      0.986096
  H      -1.026980      0.193609      1.632516
  H      -2.615963     -0.534047      1.535684
  C      -2.477147      1.460247      0.701923
  H      -2.528024      2.038385      1.625971
  H      -3.492948      1.404995      0.304529
  C      -1.605693      2.178238     -0.305798
  H      -0.570845      2.217630      0.060271
  C      -2.066718      3.579007     -0.662021
  C      -1.939621      4.581691      0.479063
  H      -2.575247      4.280338      1.316709
  H      -0.910969      4.576203      0.855591
  C      -2.317479      5.993436      0.049101
  H      -2.214459      6.701687      0.872674
  H      -3.352310      6.033061     -0.298264
  H      -1.680610      6.337719     -0.768935
  H      -3.104859      3.527237     -1.006606
  H      -1.471890      3.916926     -1.515091
  C      -0.561780     -1.665666     -0.191585
  H      -0.356004     -2.138929      0.761002
  H      -0.099194     -2.071757     -1.080516
  C      -3.272091     -1.802210     -0.845951
  H      -3.190561     -2.483105     -0.006431
  C      -4.646632     -1.206813     -1.058112
  C      -5.224339     -0.624084      0.225984
  O      -5.070585     -1.449124      1.272529
  C      -5.619419     -0.990644      2.505918
  H      -5.406610     -1.769870      3.233083
  H      -5.152966     -0.051725      2.805885
  H      -6.694259     -0.837062      2.413563
  O      -5.791928      0.432330      0.314908
  C      -5.580378     -2.374714     -1.463465
  H      -5.572127     -3.168579     -0.716794
  H      -6.605997     -2.017812     -1.584878
  H      -5.247039     -2.788759     -2.415965
  C      -4.664207     -0.150797     -2.160309
  H      -4.097565      0.737648     -1.886335
  H      -5.685369      0.162214     -2.376649
  H      -4.219226     -0.561491     -3.067407
  H      -2.808856     -2.159932     -1.758522
  O      -1.593580      1.449892     -1.548889
44
Coordinates from ORCA-job orca E -887.586548981041
  O      -1.227705     -0.412505     -2.647196
  C      -1.412903      0.117483     -1.585720
  C      -1.458998     -0.638191     -0.283361
  C      -1.895966      0.078884      0.984893
  H      -1.019597      0.194055      1.628858
  H      -2.607094     -0.537283      1.537128
  C      -2.474022      1.456522      0.700146
  H      -2.528044      2.034461      1.624113
  H      -3.488939      1.399422      0.300731
  C      -1.601999      2.176529     -0.305732
  H      -0.568335      2.218914      0.063294
  C      -2.065747      3.576154     -0.663458
  C      -1.946916      4.578591      0.478703
  H      -2.586509      4.275414      1.312647
  H      -0.920401      4.574829      0.861094
  C      -2.325003      5.989831      0.047592
  H      -2.229930      6.697240      0.872851
  H      -3.357313      6.027452     -0.307474
  H      -1.682988      6.336915     -0.765219
  H      -3.102131      3.521586     -1.012823
  H      -1.468091      3.916007     -1.513779
  C      -0.561203     -1.670905     -0.194151
  H      -0.357694     -2.146148      0.757949
  H      -0.099154     -2.076841     -1.083449
  C      -3.272330     -1.800453     -0.845438
  H      -3.190962     -2.480553     -0.005275
  C      -4.645788     -1.202388     -1.056145
  C      -5.223596     -0.620213      0.228106
  O      -5.066954     -1.444125      1.275262
  C      -5.619751     -0.988163      2.507646
  H      -5.403025     -1.765538      3.235646
  H      -5.160193     -0.045910      2.807771
  H      -6.695509     -0.841461      2.414190
  O      -5.794581      0.434296      0.316487
  C      -5.581457     -2.368424     -1.462661
  H      -5.579364     -3.160139     -0.713613
  H      -6.605175     -2.008066     -1.589691
  H      -5.245182     -2.786049     -2.412557
  C      -4.662514     -0.145193     -2.157392
  H      -4.096528      0.743159     -1.881657
  H      -5.683527      0.167820     -2.374368
  H      -4.216817     -0.554832     -3.064617
  H      -2.811987     -2.160919     -1.758427
  O      -1.584057      1.448364     -1.548754
44
Coordinates from ORCA-job orca E -887.586556950709
  O      -1.221757     -0.415862     -2.648899
  C      -1.405215      0.113345     -1.586697
  C      -1.453593     -0.643615     -0.285305
  C      -1.886403      0.074531      0.983584
  H      -1.007487      0.193963      1.623375
  H      -2.592786     -0.543017      1.540258
  C      -2.469140      1.449796      0.698164
  H      -2.526805      2.027570      1.622003
  H      -3.483209      1.389485      0.296998
  C      -1.597277      2.172936     -0.305700
  H      -0.565151      2.220258      0.067008
  C      -2.065878      3.570558     -0.665446
  C      -1.959943      4.572481      0.478427
  H      -2.605305      4.266112      1.306711
  H      -0.936648      4.571931      0.869472
  C      -2.339199      5.982801      0.045631
  H      -2.257460      6.688777      0.873564
  H      -3.367279      6.016612     -0.321900
  H      -1.689056      6.334758     -0.758564
  H      -3.099607      3.511134     -1.021812
  H      -1.464226      3.913911     -1.511565
  C      -0.559510     -1.679735     -0.197637
  H      -0.359127     -2.157819      0.753719
  H      -0.098471     -2.085459     -1.087539
  C      -3.272842     -1.798328     -0.844640
  H      -3.192394     -2.477269     -0.003463
  C      -4.644144     -1.194893     -1.053694
  C      -5.221644     -0.612867      0.230724
  O      -5.060589     -1.434460      1.279180
  C      -5.618294     -0.981122      2.510141
  H      -5.397050     -1.756003      3.239454
  H      -5.167049     -0.034906      2.810377
  H      -6.695056     -0.842566      2.415143
  O      -5.795342      0.440173      0.318279
  C      -5.583916     -2.357179     -1.462072
  H      -5.590248     -3.146959     -0.711035
  H      -6.604738     -1.990813     -1.595221
  H      -5.245366     -2.778403     -2.409526
  C      -4.657859     -0.136302     -2.153820
  H      -4.089597      0.750188     -1.876942
  H      -5.678041      0.179725     -2.370266
  H      -4.213678     -0.546148     -3.061706
  H      -2.816403     -2.162549     -1.758113
  O      -1.571199      1.444859     -1.548501
44
Coordinates from ORCA-job orca E -887.586564505137
  O      -1.217244     -0.418285     -2.649870
  C      -1.399823      0.110232     -1.587134
  C      -1.448683     -0.647836     -0.286502
  C      -1.878685      0.070640      0.983063
  H      -0.997808      0.192896      1.619672
  H      -2.581673     -0.547993      1.542869
  C      -2.465064      1.444300      0.697858
  H      -2.524126      2.021820      1.621756
  H      -3.479025      1.381551      0.296754
  C      -1.594635      2.170020     -0.305432
  H      -0.563247      2.221171      0.068846
  C      -2.067483      3.565998     -0.666280
  C      -1.971004      4.567469      0.478830
  H      -2.621033      4.259125      1.302682
  H      -0.950232      4.568950      0.876438
  C      -2.350380      5.977273      0.044442
  H      -2.278946      6.682122      0.874279
  H      -3.374931      6.008558     -0.333071
  H      -1.693500      6.332507     -0.752807
  H      -3.099343      3.502607     -1.027361
  H      -1.463395      3.912407     -1.509416
  C      -0.557209     -1.686224     -0.200469
  H      -0.358390     -2.166321      0.750210
  H      -0.097184     -2.091686     -1.091018
  C      -3.273303     -1.797393     -0.844309
  H      -3.193768     -2.475674     -0.002568
  C      -4.642759     -1.189501     -1.052486
  C      -5.218804     -0.606278      0.231996
  O      -5.056494     -1.426502      1.281269
  C      -5.616670     -0.973637      2.511248
  H      -5.395207     -1.747861      3.241200
  H      -5.167737     -0.026487      2.812007
  H      -6.693544     -0.836947      2.414650
  O      -5.794649      0.445716      0.318331
  C      -5.586544     -2.348616     -1.461099
  H      -5.597537     -3.137607     -0.709286
  H      -6.605498     -1.977779     -1.596319
  H      -5.248441     -2.771867     -2.407815
  C      -4.653409     -0.130620     -2.152378
  H      -4.080770      0.753305     -1.876167
  H      -5.672528      0.189892     -2.367199
  H      -4.212352     -0.542202     -3.061008
  H      -2.819121     -2.163624     -1.758127
  O      -1.563802      1.442012     -1.548128
44
Coordinates from ORCA-job orca E -887.586569375989
  O      -1.211413     -0.422217     -2.651729
  C      -1.392893      0.105227     -1.588227
  C      -1.442612     -0.654882     -0.288929
  C      -1.867133      0.064159      0.981976
  H      -0.982739      0.190367      1.613005
  H      -2.564734     -0.555734      1.547022
  C      -2.458817      1.435551      0.697799
  H      -2.518935      2.012527      1.621961
  H      -3.472906      1.369388      0.297604
  C      -1.591303      2.165037     -0.305240
  H      -0.560774      2.221738      0.070592
  C      -2.070648      3.558542     -0.667182
  C      -1.990249      4.558170      0.480836
  H      -2.649595      4.246666      1.295984
  H      -0.974346      4.561538      0.890775
  C      -2.367637      5.967940      0.044438
  H      -2.313849      6.670045      0.877936
  H      -3.385458      5.996427     -0.351078
  H      -1.698072      6.328492     -0.739749
  H      -3.099166      3.488997     -1.036489
  H      -1.462137      3.910709     -1.504740
  C      -0.554921     -1.696737     -0.205560
  H      -0.357874     -2.179524      0.744139
  H      -0.096716     -2.102087     -1.097077
  C      -3.273576     -1.795467     -0.843309
  H      -3.196103     -2.472945     -0.000753
  C      -4.640389     -1.181353     -1.051191
  C      -5.215726     -0.595624      0.232422
  O      -5.049505     -1.411547      1.284264
  C      -5.611602     -0.957251      2.512934
  H      -5.388075     -1.729010      3.244870
  H      -5.165778     -0.008004      2.811647
  H      -6.688832     -0.824145      2.415405
  O      -5.794097      0.455272      0.315814
  C      -5.589564     -2.336235     -1.459514
  H      -5.604298     -3.125257     -0.707785
  H      -6.606675     -1.960256     -1.594553
  H      -5.253797     -2.760775     -2.406459
  C      -4.646081     -0.123060     -2.151649
  H      -4.067362      0.757396     -1.876841
  H      -5.663481      0.203598     -2.365260
  H      -4.208527     -0.537759     -3.060556
  H      -2.823126     -2.165527     -1.757486
  O      -1.554458      1.437241     -1.547918
44
Coordinates from ORCA-job orca E -887.586572904978
  O      -1.207170     -0.425434     -2.653708
  C      -1.387674      0.100991     -1.589512
  C      -1.437076     -0.660841     -0.291315
  C      -1.856602      0.058146      0.981059
  H      -0.969126      0.187234      1.607225
  H      -2.549688     -0.562875      1.550358
  C      -2.452703      1.427869      0.698695
  H      -2.512555      2.004134      1.623291
  H      -3.467356      1.359353      0.300296
  C      -1.588703      2.160592     -0.305006
  H      -0.558494      2.221798      0.070965
  C      -2.073803      3.552043     -0.667369
  C      -2.009037      4.549052      0.483964
  H      -2.678490      4.234599      1.289613
  H      -0.998466      4.552863      0.906912
  C      -2.382692      5.959473      0.046360
  H      -2.346178      6.658139      0.883670
  H      -3.393285      5.986585     -0.367374
  H      -1.700061      6.325155     -0.724039
  H      -3.098948      3.477037     -1.044838
  H      -1.460905      3.910136     -1.499216
  C      -0.553002     -1.705893     -0.210891
  H      -0.356730     -2.190967      0.737802
  H      -0.096860     -2.111173     -1.103488
  C      -3.274042     -1.794050     -0.842603
  H      -3.198532     -2.470725      0.000756
  C      -4.638495     -1.174899     -1.050920
  C      -5.212653     -0.585278      0.231396
  O      -5.043059     -1.396492      1.286191
  C      -5.605163     -0.938808      2.513684
  H      -5.380469     -1.708020      3.247929
  H      -5.159998      0.011793      2.809034
  H      -6.682542     -0.807092      2.416101
  O      -5.794499      0.464022      0.311030
  C      -5.592482     -2.326581     -1.457254
  H      -5.609935     -3.114585     -0.704464
  H      -6.608147     -1.946718     -1.592189
  H      -5.258887     -2.753815     -2.403769
  C      -4.639956     -0.118474     -2.153151
  H      -4.056036      0.759234     -1.880447
  H      -5.655762      0.213224     -2.366357
  H      -4.205064     -0.536850     -3.061659
  H      -2.826279     -2.167335     -1.756819
  O      -1.548373      1.433064     -1.547792
44
Coordinates from ORCA-job orca E -887.586581626322
  O      -1.199893     -0.431544     -2.658289
  C      -1.378403      0.092391     -1.592527
  C      -1.427253     -0.673341     -0.296779
  C      -1.835495      0.045292      0.979001
  H      -0.941548      0.179580      1.594969
  H      -2.519410     -0.577961      1.556806
  C      -2.440113      1.411968      0.701218
  H      -2.498559      1.986529      1.626931
  H      -3.456125      1.339451      0.306995
  C      -1.583693      2.151116     -0.304257
  H      -0.553824      2.220755      0.071133
  C      -2.079978      3.538683     -0.666852
  C      -2.050183      4.528554      0.492180
  H      -2.743040      4.207533      1.275000
  H      -1.052631      4.531423      0.945130
  C      -2.413301      5.941381      0.053221
  H      -2.414136      6.631625      0.898277
  H      -3.406751      5.967592     -0.400243
  H      -1.702368      6.317892     -0.685681
  H      -3.097049      3.452785     -1.063237
  H      -1.456852      3.910092     -1.485168
  C      -0.550639     -1.725185     -0.222867
  H      -0.355372     -2.214917      0.723665
  H      -0.099211     -2.130352     -1.117880
  C      -3.274862     -1.790849     -0.841124
  H      -3.203797     -2.465646      0.004125
  C      -4.634885     -1.162525     -1.051431
  C      -5.207870     -0.563684      0.227044
  O      -5.027856     -1.361866      1.289857
  C      -5.587676     -0.894308      2.514837
  H      -5.357515     -1.655561      3.255656
  H      -5.144584      0.060652      2.799007
  H      -6.665795     -0.767428      2.419549
  O      -5.796732      0.482391      0.297551
  C      -5.597522     -2.308958     -1.452493
  H      -5.619375     -3.094160     -0.696777
  H      -6.610669     -1.922508     -1.587288
  H      -5.268016     -2.742263     -2.397655
  C      -4.628403     -0.111296     -2.158616
  H      -4.036448      0.762510     -1.890247
  H      -5.641359      0.227975     -2.373001
  H      -4.196745     -0.537254     -3.065167
  H      -2.832276     -2.171423     -1.754953
  O      -1.537767      1.424493     -1.547472
44
Coordinates from ORCA-job orca E -887.586584924800
  O      -1.203070     -0.429105     -2.656801
  C      -1.382287      0.095402     -1.591455
  C      -1.430644     -0.669130     -0.294923
  C      -1.842334      0.049207      0.980079
  H      -0.950512      0.180997      1.599580
  H      -2.529713     -0.573235      1.554650
  C      -2.443594      1.417309      0.701668
  H      -2.501328      1.992275      1.627197
  H      -3.459561      1.346801      0.306998
  C      -1.585508      2.154186     -0.304068
  H      -0.555040      2.220718      0.070246
  C      -2.078314      3.543117     -0.665937
  C      -2.035981      4.535315      0.490649
  H      -2.720288      4.216176      1.281782
  H      -1.033577      4.538714      0.932720
  C      -2.403612      5.947216      0.052600
  H      -2.389566      6.640704      0.894881
  H      -3.404216      5.973514     -0.384840
  H      -1.704299      6.319758     -0.699310
  H      -3.098440      3.460675     -1.055172
  H      -1.459415      3.910149     -1.489417
  C      -0.551635     -1.718864     -0.219427
  H      -0.355370     -2.207130      0.727641
  H      -0.099111     -2.123953     -1.113930
  C      -3.274639     -1.792196     -0.841819
  H      -3.202359     -2.467403      0.002983
  C      -4.636246     -1.167440     -1.052289
  C      -5.209740     -0.570350      0.226846
  O      -5.032839     -1.371618      1.287983
  C      -5.592449     -0.905478      2.513533
  H      -5.364286     -1.668649      3.252991
  H      -5.147709      0.048056      2.799946
  H      -6.670272     -0.776228      2.417957
  O      -5.796990      0.476480      0.299206
  C      -5.595677     -2.316308     -1.453983
  H      -5.615985     -3.101515     -0.698245
  H      -6.609757     -1.932553     -1.589482
  H      -5.264422     -2.748777     -2.398929
  C      -4.632586     -0.115475     -2.158822
  H      -4.044292      0.760388     -1.889383
  H      -5.646660      0.220209     -2.373745
  H      -4.198963     -0.539353     -3.065393
  H      -2.829553     -2.170362     -1.755370
  O      -1.543140      1.427387     -1.547244
44
Coordinates from ORCA-job orca E -887.586581704753
  O      -1.204861     -0.427964     -2.656580
  C      -1.384361      0.096477     -1.591266
  C      -1.432094     -0.667857     -0.294586
  C      -1.844426      0.050091      0.980462
  H      -0.953143      0.180607      1.600976
  H      -2.533028     -0.572068      1.553871
  C      -2.444423      1.418883      0.702515
  H      -2.501070      1.993782      1.628150
  H      -3.460683      1.349474      0.308370
  C      -1.586371      2.155018     -0.303790
  H      -0.555403      2.220155      0.069395
  C      -2.077941      3.544591     -0.664866
  C      -2.032534      4.536792      0.491571
  H      -2.715219      4.218000      1.284244
  H      -1.029160      4.539696      0.931435
  C      -2.400564      5.948811      0.054320
  H      -2.382345      6.642754      0.896132
  H      -3.402957      5.975848     -0.378976
  H      -1.704043      6.320324     -0.700687
  H      -3.098784      3.463339     -1.052497
  H      -1.459959      3.910794     -1.489394
  C      -0.552326     -1.717000     -0.219102
  H      -0.355156     -2.204851      0.727984
  H      -0.099895     -2.121983     -1.113703
  C      -3.274605     -1.792739     -0.842151
  H      -3.202167     -2.467887      0.002690
  C      -4.636894     -1.169740     -1.053399
  C      -5.210832     -0.572008      0.225221
  O      -5.033641     -1.372463      1.286971
  C      -5.591953     -0.904785      2.512497
  H      -5.363690     -1.667382      3.252508
  H      -5.146231      0.048713      2.797528
  H      -6.669765     -0.774839      2.417756
  O      -5.798016      0.474883      0.296947
  C      -5.594865     -2.320158     -1.454001
  H      -5.614105     -3.104663     -0.697503
  H      -6.609462     -1.937894     -1.589816
  H      -5.263050     -2.753132     -2.398516
  C      -4.634480     -0.118729     -2.160855
  H      -4.048156      0.758567     -1.891781
  H      -5.649091      0.214759     -2.376731
  H      -4.199571     -0.542605     -3.066801
  H      -2.828240     -2.170315     -1.755304
  O      -1.546418      1.428333     -1.547086
