44
Coordinates from ORCA-job orca E -886.364923023861
  O          -1.21990799687118     -0.43754615621689     -2.63755050454023
  C          -1.40776394891812      0.09941075152150     -1.57416225931082
  C          -1.41751159942302     -0.63922339716056     -0.25823919832387
  C          -1.89234442083259      0.06715557517665      1.00898477760512
  H          -1.02657466101199      0.17326556160246      1.68470821233212
  H          -2.62256143634719     -0.56081945321213      1.54076515149020
  C          -2.46997169248937      1.45481889001261      0.72985087502494
  H          -2.50442787129796      2.03926366072850      1.66223557740471
  H          -3.50175391534042      1.40420761580665      0.35299849416038
  C          -1.61770404758647      2.17699766923115     -0.30099556489216
  H          -0.56867106318284      2.22666551387138      0.05184371448367
  C          -2.09133514799966      3.57982158549646     -0.65844143064871
  C          -1.92629776775219      4.60537791748582      0.46522086404126
  H          -2.51617505192142      4.29858127937040      1.34678164624077
  H          -0.87119173500488      4.61887855654621      0.79577704400614
  C          -2.34891785840195      6.01288211596274      0.04360663518834
  H          -2.22366249998973      6.73595383736834      0.86532898839496
  H          -3.40806809835606      6.03474597926792     -0.26318019810802
  H          -1.75111151603952      6.36997696426687     -0.81169076034666
  H          -3.14906077278373      3.52385589533830     -0.97152431073913
  H          -1.52184281803619      3.90470043732253     -1.54555955325303
  C          -0.51747459339136     -1.67473956296868     -0.17008337586788
  H          -0.31016821871021     -2.15943729603977      0.78819764558222
  H          -0.05080822114828     -2.07842527986179     -1.07081901190939
  C          -3.28679697509199     -1.83803751581437     -0.86702805881407
  H          -3.20248366693594     -2.51596998392466     -0.01441757068803
  C          -4.64891459766765     -1.21414165857327     -1.07942671949063
  C          -5.19912992732160     -0.61002145216510      0.21325141696523
  O          -5.08894621328027     -1.45762140906985      1.25656910164231
  C          -5.61568931270553     -0.99890932168415      2.50087806771399
  H          -5.47684362766243     -1.82100501162017      3.21417804146257
  H          -5.07834166296120     -0.10125102134277      2.84424448110474
  H          -6.68310103998847     -0.74855339038396      2.40587475866816
  O          -5.70515942122177      0.48163414763468      0.31724638580412
  C          -5.62311519378776     -2.36571449609792     -1.47571206315227
  H          -5.64918838420528     -3.14970234417335     -0.70547035087421
  H          -6.64483871738538     -1.97380407615986     -1.61429993875876
  H          -5.29527937671156     -2.81378437181480     -2.42601926663009
  C          -4.64698821064949     -0.15167516756030     -2.18632181930459
  H          -4.03028836104813      0.71635613616048     -1.92261768672910
  H          -5.66761556549677      0.20966021449411     -2.37785321862923
  H          -4.23897494423435     -0.58015335538488     -3.11348641066363
  H          -2.78738911499059     -2.16761691047482     -1.78117377220757
  O          -1.62158873381676      1.43357232703813     -1.54031883543376
