44
Coordinates from ORCA-job orca E -887.586581704753
  O          -1.20486054366828     -0.42796426395565     -2.65658036134897
  C          -1.38436139886530      0.09647656023999     -1.59126607012480
  C          -1.43209393609462     -0.66785710128428     -0.29458576939279
  C          -1.84442629589370      0.05009113024570      0.98046226659729
  H          -0.95314335554279      0.18060710323434      1.60097564668561
  H          -2.53302778104320     -0.57206811673767      1.55387062730675
  C          -2.44442321135375      1.41888254223099      0.70251453355358
  H          -2.50107036650043      1.99378237427603      1.62815016704107
  H          -3.46068306875758      1.34947410531078      0.30837038618278
  C          -1.58637144164583      2.15501799899554     -0.30379035878452
  H          -0.55540319497050      2.22015488634761      0.06939537374666
  C          -2.07794139723744      3.54459102240293     -0.66486628062220
  C          -2.03253405180295      4.53679240452472      0.49157130938857
  H          -2.71521918248855      4.21800035037055      1.28424440312180
  H          -1.02915976101002      4.53969648283233      0.93143465301312
  C          -2.40056406098761      5.94881060450549      0.05431953782092
  H          -2.38234456714380      6.64275427748430      0.89613157771832
  H          -3.40295660215603      5.97584790298649     -0.37897616976828
  H          -1.70404310983535      6.32032447348772     -0.70068748927944
  H          -3.09878440898385      3.46333929997688     -1.05249696826406
  H          -1.45995871521438      3.91079366380859     -1.48939350931136
  C          -0.55232633133042     -1.71699997224325     -0.21910242167287
  H          -0.35515606856690     -2.20485123815198      0.72798413634328
  H          -0.09989476645686     -2.12198272137488     -1.11370317618684
  C          -3.27460457196094     -1.79273931001630     -0.84215116084892
  H          -3.20216657609907     -2.46788674212578      0.00268990735191
  C          -4.63689423588406     -1.16973954723382     -1.05339864872566
  C          -5.21083151363925     -0.57200843008578      0.22522088213690
  O          -5.03364082533299     -1.37246334742503      1.28697096613740
  C          -5.59195346346866     -0.90478467773686      2.51249733106593
  H          -5.36369044858804     -1.66738221815196      3.25250780667811
  H          -5.14623131231377      0.04871343120598      2.79752842645571
  H          -6.66976484085341     -0.77483863420395      2.41775596567709
  O          -5.79801555836641      0.47488346446548      0.29694726204115
  C          -5.59486506035442     -2.32015818856804     -1.45400060660517
  H          -5.61410548261026     -3.10466329101100     -0.69750331542199
  H          -6.60946238192444     -1.93789386678705     -1.58981594805444
  H          -5.26304975203568     -2.75313209448150     -2.39851582589417
  C          -4.63448038126715     -0.11872938130252     -2.16085533262194
  H          -4.04815647359234      0.75856665066673     -1.89178148104833
  H          -5.64909082615099      0.21475898282498     -2.37673119293505
  H          -4.19957106354595     -0.54260507052255     -3.06680051616445
  H          -2.82823993925369     -2.17031483292382     -1.75530441879403
  O          -1.54641767520748      1.42833333389930     -1.54708614419355
