104
Coordinates from ORCA-job orca E -2047.500622584894
  C           0.28919909470774      0.58320514319465     -1.54350557897009
  C           0.91476128754369      0.68051004423444     -0.13605493062266
  O           1.71030598294636     -0.15039784982598      0.23221415154365
  O           0.62741631149930      1.67567484512482      0.67908848937809
  C          -0.83782275733983      1.61672556379294     -1.73376975295047
  H          -1.74394902453538      1.26277981590200     -1.24670229524009
  H          -1.04943692675201      1.72737713505191     -2.80040031520176
  C          -0.31862963707035      2.72997782592562      0.39878033538970
  H          -1.27198741246082      2.38691670349511      0.81680794212111
  C          -0.46938666822289      2.94158947932278     -1.09072242013260
  H          -1.25976102837666      3.67400505897746     -1.26414546121722
  H           0.46035960135216      3.35401418322525     -1.49215279045761
  C          -0.11842928212941     -0.89220169200519     -1.80644584562764
  H           0.77338394497895     -1.48056196605138     -1.59529866091364
  H          -0.29587485048789     -0.98837339227858     -2.88147783282977
  C           1.37090143453116      0.93095073872252     -2.57223726705419
  C           3.54305173942063      0.77574669519472     -2.25131166665306
  H           1.45221661229175      1.98552638731986     -2.79370030035847
  H           1.36474370448629      0.29931492919670     -3.45504774053487
  C           3.64019420687012      1.75655553211955     -1.10617659501354
  C           3.79691722672040     -0.69917239428030     -1.96381958696110
  C           3.97137159764297      1.30706469641564     -3.44302185319160
  O           3.03156972976898      2.79245096700824     -1.04572610145268
  O           4.53104530490755      1.46020118414977     -0.15834642337469
  H           4.36757152939244     -1.10892061910747     -2.79990639897790
  H           2.85881220630060     -1.24746755874626     -1.91616071152945
  C           4.55721286494593     -0.90118188029931     -0.65009983777414
  H           3.98874501696325      2.37811871048824     -3.59922948632967
  H           4.22252737154096      0.66612573101174     -4.27957606474438
  C           5.39464210618930      0.31582369923311     -0.31706431014968
  H           5.19751528963646     -1.78199094361607     -0.71901014715697
  H           3.85185302853629     -1.05573791826771      0.16722366173855
  H           6.08390076253608      0.53875210919224     -1.14271829327713
  C           0.18228930422818      3.93814325456330      1.16630925388496
  H           1.15272715322881      4.23261760802188      0.75482558757580
  H           0.36102131235437      3.62565106183151      2.19892734838652
  C           6.17820178282018      0.21232124996956      0.97759005945608
  H           5.48032891582242     -0.01335858179905      1.78998680770483
  H           6.59836007164339      1.19902641749869      1.19198778407413
  C          -4.04875675055906     -1.67968950786762     -1.51848337655594
  C          -4.18602315601544     -1.99025499192963     -0.02531288061517
  O          -3.67592478900721     -2.97131793728285      0.45378032475056
  O          -4.94614599627177     -1.22761319233670      0.75560371914915
  C          -5.00966731597207     -0.55291784039164     -1.92332474958921
  H          -6.02994361261938     -0.94710716688537     -1.97606820491411
  H          -4.75600975224242     -0.20945370070467     -2.92961718507698
  C          -5.44655386747186      0.08761792626095      0.42873320828301
  H          -6.53580494156232     -0.03207247375459      0.39055920637408
  C          -4.96188999551588      0.58147615955497     -0.91988864210660
  H          -5.60112543232917      1.40744496470135     -1.23607078574310
  H          -3.94607016428366      0.97055125635108     -0.82033340369645
  C          -4.46763163334696     -2.95704307430995     -2.26281776766878
  H          -3.83419250886172     -3.80455129006257     -2.01349038331283
  H          -4.41908540380167     -2.78433012322770     -3.34047882247174
  C          -2.60334021937312     -1.24487115004763     -1.92605225745203
  C          -1.33663414862878     -1.60867430496037     -1.11733383298435
  H          -2.61914746697400     -0.16657686549106     -2.04470420528302
  H          -2.43913153024526     -1.64552236978908     -2.93162293911579
  C          -1.43821635102912     -1.08117181929904      0.31190708695967
  C          -1.06435168765251     -3.13692038499121     -1.17985942104738
  O          -2.11657234219150     -0.11681925146074      0.58441308459067
  O          -0.71592501386545     -1.64167360535337      1.26458229264333
  H          -0.32894809541531     -3.31296254682807     -1.96942053202483
  H          -1.97099003618948     -3.65128047456952     -1.48180871199147
  C          -0.58569153548426     -3.74975022170424      0.13467839535181
  C           0.17126671772968     -2.74355218231352      0.97024306258475
  H           0.04642952135619     -4.61702502147859     -0.06290203322984
  H          -1.44660041181775     -4.08670111536838      0.71543564715362
  H           1.02456995870825     -2.32874148311778      0.42653278883326
  C          -5.06849962168881      0.98582165308004      1.59511076981634
  H          -3.97853030399973      0.98543548711466      1.67605974902333
  H          -5.45323463355673      0.53014435566561      2.51176429075974
  C           0.65351423351487     -3.25443651084966      2.31311154658086
  H          -0.18178691105647     -3.73182276298167      2.83586586618568
  H           0.94685638774213     -2.38572173658998      2.90852063982420
  H          -5.49416002936541     -3.23040037838846     -2.01019860408522
  C          -5.59341958352670      2.41166839468412      1.47042680398316
  H          -6.68137617759554      2.39747574037457      1.33886868593630
  H          -5.18165873562138      2.88255006518529      0.57262117412459
  C           1.83222088770432     -4.21420384778458      2.20104580507010
  H           1.55315570212264     -5.08665913547776      1.60230332963952
  H           2.64697965824841     -3.71846148879876      1.66203222970627
  C          -0.78919307657714      5.11292675942874      1.14933361632262
  H          -1.77811249133242      4.77362017183665      1.47850600858764
  H          -0.91527075165087      5.47983946721609      0.12639234561956
  C           7.29793450728520     -0.82148197443901      0.93508290975079
  H           6.87893474713921     -1.82138036007263      0.79004318089725
  H           7.93833161426346     -0.62778896648376      0.06760525914202
  C           8.14309350014699     -0.81237475943291      2.20234890896821
  H           8.93671589966857     -1.55986482948767      2.15560339792210
  H           8.61099200815016      0.16281431634022      2.35528970791863
  H           7.53290117447581     -1.02784632837344      3.08244842140720
  C          -0.32337649678827      6.26020180474725      2.03630720107327
  H           0.65312987820673      6.62978418389935      1.71508841833106
  H          -1.02314477109831      7.09718616907925      2.00653629545684
  H          -0.22931341119137      5.93969654382363      3.07634239118858
  C          -5.23566237071659      3.25990374800169      2.68421482274892
  H          -5.61352124239755      4.27903811852350      2.58525259013320
  H          -5.65500372092877      2.83549499370306      3.59921074889451
  H          -4.15222302661946      3.31539054957054      2.81480162688219
  C           2.33144831726345     -4.68033198774017      3.56243638255016
  H           1.54567540503563     -5.20799168977757      4.10798475383518
  H           3.18194238446640     -5.35729924478256      3.46522148812649
  H           2.64631010277902     -3.83284470606319      4.17565580332793
