54
Coordinates from ORCA-job orca E -1043.694842335244
  C      -1.343240     -1.343020      2.497270
  H      -2.355840     -1.668170      2.744780
  H      -0.692400     -0.993430      3.303010
  C       1.392300     -1.989890     -0.277860
  C       1.078440     -0.828260     -1.234850
  O       0.034960     -0.781700     -1.838930
  O       1.990230      0.107990     -1.470980
  C       2.872370     -1.957940      0.145430
  H       3.498200     -2.334890     -0.682010
  H       3.023140     -2.650550      0.988700
  C       3.198320      0.341050     -0.728100
  H       4.016930      0.083230     -1.425000
  C       3.305660     -0.546450      0.499880
  H       4.346960     -0.533390      0.853540
  H       2.673790     -0.133470      1.300910
  C       1.139860     -3.288110     -1.065490
  H       0.090980     -3.395550     -1.365230
  H       1.417220     -4.154350     -0.444930
  C       0.517910     -1.953690      1.018830
  C      -0.866580     -1.258730      1.069360
  H       1.114440     -1.486880      1.813960
  H       0.362670     -2.999880      1.328350
  C      -0.672090      0.262770      0.876950
  C      -1.926710     -1.865450      0.113080
  O       0.391480      0.803910      1.045810
  O      -1.749890      0.996510      0.621300
  H      -2.521230     -2.594980      0.684960
  H      -1.429840     -2.414790     -0.690120
  C      -2.833420     -0.813550     -0.525040
  C      -3.027040      0.386650      0.382600
  H      -3.808440     -1.252560     -0.780600
  H      -2.369990     -0.452210     -1.455780
  H      -3.435310      0.067810      1.360420
  C       3.236910      1.833760     -0.433090
  H       2.359820      2.073870      0.189160
  H       3.104180      2.367280     -1.388330
  C      -3.912490      1.484010     -0.186000
  H      -3.511550      1.781990     -1.169520
  H      -3.812380      2.363640      0.470480
  H       1.750540     -3.316850     -1.980600
  C       4.524000      2.297690      0.243220
  H       5.395450      1.961380     -0.346920
  H       4.620860      1.817880      1.231520
  C      -5.384560      1.099070     -0.307230
  H      -5.496000      0.249090     -1.000740
  H      -5.751510      0.743950      0.671850
  C      -6.254670      2.254950     -0.789100
  H      -7.309770      1.956050     -0.874010
  H      -6.201630      3.108570     -0.095350
  H      -5.926290      2.611780     -1.777780
  C       4.579200      3.811800      0.416360
  H       5.505920      4.127630      0.918070
  H       4.531740      4.324770     -0.557040
  H       3.730170      4.169410      1.019410
54
Coordinates from ORCA-job orca E -1043.696227697600
  C      -1.336147     -1.249196      2.458233
  H      -2.329133     -1.582876      2.726272
  H      -0.683356     -0.878256      3.238717
  C       1.401460     -1.935487     -0.298369
  C       1.154480     -0.776813     -1.273754
  O       0.140451     -0.710087     -1.921824
  O       2.103891      0.122722     -1.500963
  C       2.867448     -1.948615      0.159514
  H       3.495140     -2.349894     -0.644162
  H       2.972538     -2.634242      1.004783
  C       3.298500      0.321666     -0.722654
  H       4.122461      0.032621     -1.387816
  C       3.338374     -0.552883      0.514805
  H       4.361477     -0.572597      0.894639
  H       2.704043     -0.113484      1.288262
  C       1.135755     -3.230498     -1.080236
  H       0.101946     -3.312471     -1.406268
  H       1.370721     -4.091159     -0.449162
  C       0.504913     -1.872425      0.981361
  C      -0.885164     -1.188987      1.025344
  H       1.089904     -1.398156      1.769457
  H       0.353440     -2.907026      1.304239
  C      -0.727373      0.329943      0.800012
  C      -1.953354     -1.836378      0.111384
  O       0.321181      0.901891      0.951966
  O      -1.825566      1.036798      0.554726
  H      -2.512369     -2.558296      0.712490
  H      -1.470879     -2.390463     -0.685753
  C      -2.901764     -0.821786     -0.521387
  C      -3.095353      0.389303      0.366096
  H      -3.866457     -1.285558     -0.733365
  H      -2.482145     -0.473532     -1.467981
  H      -3.463622      0.084511      1.355373
  C       3.371109      1.812040     -0.439707
  H       2.488279      2.081999      0.146389
  H       3.288414      2.338603     -1.395391
  C      -4.020004      1.452112     -0.198291
  H      -3.657633      1.738099     -1.191361
  H      -3.926388      2.340917      0.433139
  H       1.766360     -3.282746     -1.970396
  C       4.642648      2.242729      0.278516
  H       5.521139      1.896669     -0.279505
  H       4.695429      1.761594      1.260182
  C      -5.480999      1.026462     -0.269478
  H      -5.589635      0.169818     -0.941517
  H      -5.808152      0.681509      0.718121
  C      -6.390456      2.152146     -0.742420
  H      -7.431804      1.829374     -0.791608
  H      -6.338563      3.010907     -0.068668
  H      -6.101442      2.498096     -1.737839
  C       4.710360      3.751881      0.461580
  H       5.613554      4.051542      0.996330
  H       4.706115      4.266557     -0.502466
  H       3.848008      4.111151      1.028989
54
Coordinates from ORCA-job orca E -1043.696070204586
  C      -1.375092     -1.402987      2.486064
  H      -2.373803     -1.745367      2.699087
  H      -0.748061     -1.089512      3.306149
  C       1.384691     -1.975933     -0.256787
  C       1.071685     -0.825624     -1.217663
  O       0.020657     -0.771908     -1.804763
  O       1.981650      0.108309     -1.470697
  C       2.856597     -1.940804      0.173075
  H       3.478590     -2.323330     -0.639295
  H       2.999111     -2.617194      1.015969
  C       3.196558      0.335225     -0.727390
  H       4.002264      0.058595     -1.413856
  C       3.289029     -0.529628      0.512728
  H       4.316780     -0.515917      0.869533
  H       2.659376     -0.107933      1.295808
  C       1.143673     -3.273307     -1.039797
  H       0.110943     -3.383267     -1.348735
  H       1.413763     -4.126473     -0.418592
  C       0.507347     -1.942848      1.029865
  C      -0.876750     -1.258370      1.076714
  H       1.091839     -1.484509      1.823220
  H       0.353200     -2.981964      1.325415
  C      -0.694436      0.266583      0.949196
  C      -1.904005     -1.836808      0.077353
  O       0.355409      0.812188      1.167453
  O      -1.767412      1.004544      0.679584
  H      -2.497701     -2.582609      0.604959
  H      -1.387080     -2.349599     -0.722722
  C      -2.807553     -0.777802     -0.546401
  C      -3.034273      0.383716      0.394438
  H      -3.761668     -1.216314     -0.829953
  H      -2.339845     -0.385144     -1.448957
  H      -3.452485      0.032988      1.343743
  C       3.250236      1.827924     -0.456298
  H       2.389132      2.087519      0.160206
  H       3.123070      2.344441     -1.408607
  C      -3.916789      1.486219     -0.158111
  H      -3.503421      1.818926     -1.112131
  H      -3.849030      2.336754      0.521576
  H       1.758737     -3.301760     -1.937523
  C       4.541698      2.285296      0.207369
  H       5.399673      1.946146     -0.378887
  H       4.639565      1.819762      1.189108
  C      -5.374826      1.080905     -0.325029
  H      -5.456560      0.265932     -1.045082
  H      -5.754373      0.689786      0.621882
  C      -6.246404      2.241581     -0.782165
  H      -7.283843      1.936424     -0.900391
  H      -6.219879      3.060087     -0.064083
  H      -5.904299      2.633818     -1.738952
  C       4.594886      3.797754      0.365431
  H       5.511640      4.116497      0.857177
  H       4.545092      4.295853     -0.601995
  H       3.754479      4.152888      0.960340
54
Coordinates from ORCA-job orca E -1043.696579591467
  C      -1.322488     -1.281540      2.484854
  H      -2.316463     -1.609859      2.754181
  H      -0.664164     -0.920296      3.264534
  C       1.384065     -1.950822     -0.290323
  C       1.095510     -0.781547     -1.237908
  O       0.053455     -0.707136     -1.839213
  O       2.020858      0.143837     -1.468432
  C       2.856328     -1.945363      0.143855
  H       3.477576     -2.323085     -0.674972
  H       2.986033     -2.640080      0.977432
  C       3.233465      0.342843     -0.712705
  H       4.042090      0.067829     -1.400458
  C       3.306175     -0.545933      0.512177
  H       4.334405     -0.552577      0.876500
  H       2.675363     -0.128997      1.300700
  C       1.120915     -3.237161     -1.087295
  H       0.083694     -3.326221     -1.398916
  H       1.376096     -4.103273     -0.472770
  C       0.508866     -1.910782      0.999301
  C      -0.874403     -1.222348      1.051419
  H       1.100449     -1.443133      1.785713
  H       0.357576     -2.948974      1.308771
  C      -0.693730      0.291306      0.824005
  C      -1.942720     -1.857832      0.131119
  O       0.367476      0.843082      0.958427
  O      -1.776012      1.015852      0.553853
  H      -2.515680     -2.570638      0.728666
  H      -1.459508     -2.419847     -0.659902
  C      -2.872448     -0.834288     -0.514785
  C      -3.055632      0.383889      0.363780
  H      -3.841331     -1.286790     -0.728910
  H      -2.444088     -0.498196     -1.461677
  H      -3.431670      0.092560      1.352934
  C       3.303462      1.830564     -0.414292
  H       2.440394      2.090091      0.204749
  H       3.186834      2.366853     -1.360078
  C      -3.960970      1.455532     -0.214495
  H      -3.589582      1.728643     -1.206997
  H      -3.860699      2.347427      0.410250
  H       1.737888     -3.267501     -1.987254
  C       4.598491      2.261028      0.263506
  H       5.456523      1.920755     -0.327030
  H       4.686773      1.775695      1.239659
  C      -5.427284      1.048224     -0.291023
  H      -5.543889      0.189715     -0.957995
  H      -5.765493      0.716189      0.696424
  C      -6.316504      2.184451     -0.778231
  H      -7.361871      1.877301     -0.831388
  H      -6.255282      3.046771     -0.110907
  H      -6.015862      2.517302     -1.773994
  C       4.671527      3.770941      0.448372
  H       5.593331      4.069333      0.949967
  H       4.631907      4.287683     -0.513012
  H       3.832029      4.128267      1.048393
54
Coordinates from ORCA-job orca E -1043.696120208363
  C      -1.376990     -1.326874      2.452884
  H      -2.378682     -1.668906      2.686849
  H      -0.739796     -0.984069      3.261953
  C       1.403658     -1.957133     -0.277246
  C       1.140100     -0.806871     -1.256871
  O       0.132351     -0.769469     -1.917828
  O       2.080336      0.100585     -1.498165
  C       2.866604     -1.943139      0.192200
  H       3.507647     -2.343556     -0.603422
  H       2.975350     -2.618032      1.047890
  C       3.274079      0.318860     -0.718168
  H       4.101185      0.021466     -1.377755
  C       3.312119     -0.534632      0.533435
  H       4.333104     -0.533707      0.924682
  H       2.661851     -0.092638      1.294524
  C       1.165557     -3.258609     -1.059529
  H       0.135248     -3.356236     -1.398909
  H       1.406425     -4.115275     -0.422149
  C       0.497736     -1.905004      0.996422
  C      -0.892408     -1.221032      1.032988
  H       1.076290     -1.435302      1.794216
  H       0.342232     -2.944402      1.307394
  C      -0.720713      0.302071      0.861077
  C      -1.937887     -1.831582      0.068946
  O       0.319763      0.864292      1.087555
  O      -1.809677      1.024819      0.614263
  H      -2.515240     -2.573850      0.629738
  H      -1.435026     -2.358695     -0.736305
  C      -2.868767     -0.791504     -0.549694
  C      -3.078821      0.386550      0.377726
  H      -3.831513     -1.245832     -0.797858
  H      -2.428599     -0.410476     -1.476025
  H      -3.465253      0.047332      1.350031
  C       3.338109      1.814920     -0.461825
  H       2.455748      2.092835      0.124668
  H       3.249938      2.324887     -1.427705
  C      -3.990291      1.472066     -0.165846
  H      -3.608086      1.793430     -1.142152
  H      -3.909849      2.338535      0.500197
  H       1.808779     -3.302601     -1.943444
  C       4.612429      2.265429      0.243176
  H       5.490567      1.914483     -0.315171
  H       4.673345      1.802317      1.234791
  C      -5.451264      1.050922     -0.281111
  H      -5.548171      0.219873     -0.988760
  H      -5.799105      0.670367      0.687901
  C      -6.349294      2.197173     -0.730009
  H      -7.392192      1.879050     -0.811324
  H      -6.307946      3.031434     -0.022648
  H      -6.039074      2.578437     -1.708014
  C       4.673400      3.779932      0.396437
  H       5.579690      4.095013      0.921050
  H       4.661475      4.275763     -0.579364
  H       3.811309      4.146333      0.962886
54
Coordinates from ORCA-job orca E -1043.696762287461
  C      -1.355498     -1.321136      2.476244
  H      -2.351595     -1.663303      2.720835
  H      -0.712580     -0.974277      3.275500
  C       1.389635     -1.950499     -0.279085
  C       1.109595     -0.790722     -1.240997
  O       0.074397     -0.724846     -1.855365
  O       2.038862      0.129343     -1.478152
  C       2.859193     -1.942419      0.165768
  H       3.485854     -2.330408     -0.644527
  H       2.981780     -2.627868      1.008451
  C       3.247788      0.333940     -0.716394
  H       4.059978      0.047560     -1.395761
  C       3.309151     -0.539143      0.520088
  H       4.335070     -0.543231      0.892108
  H       2.673729     -0.110783      1.298687
  C       1.134287     -3.242963     -1.068778
  H       0.099934     -3.334188     -1.390270
  H       1.383548     -4.104458     -0.444842
  C       0.503673     -1.906048      1.005549
  C      -0.884514     -1.223394      1.052247
  H       1.089067     -1.437654      1.796361
  H       0.352532     -2.944892      1.313933
  C      -0.712406      0.297724      0.868568
  C      -1.933730     -1.841908      0.098777
  O       0.337638      0.856666      1.052906
  O      -1.795973      1.021147      0.599409
  H      -2.511053     -2.574178      0.668572
  H      -1.433853     -2.380106     -0.698836
  C      -2.861541     -0.808716     -0.534690
  C      -3.067732      0.383572      0.373550
  H      -3.823863     -1.263173     -0.774777
  H      -2.422176     -0.444085     -1.466017
  H      -3.454484      0.062545      1.349582
  C       3.318913      1.825135     -0.437405
  H       2.452747      2.094794      0.173103
  H       3.209544      2.349631     -1.390999
  C      -3.974151      1.463147     -0.188071
  H      -3.591319      1.766656     -1.167613
  H      -3.891386      2.338577      0.462515
  H       1.760422     -3.279754     -1.962559
  C       4.610369      2.262346      0.243357
  H       5.472148      1.916902     -0.339309
  H       4.693068      1.787058      1.225253
  C      -5.435825      1.045248     -0.296787
  H      -5.535595      0.205382     -0.990219
  H      -5.784785      0.682174      0.676206
  C      -6.328423      2.187768     -0.763644
  H      -7.370563      1.873447     -0.840125
  H      -6.283719      3.031110     -0.070721
  H      -6.016826      2.551522     -1.745481
  C       4.680590      3.774236      0.413475
  H       5.598752      4.078917      0.918712
  H       4.647211      4.280993     -0.553790
  H       3.835893      4.136364      1.004038
54
Coordinates from ORCA-job orca E -1043.696781035997
  C      -1.355371     -1.319356      2.473130
  H      -2.352477     -1.655970      2.719973
  H      -0.710992     -0.970148      3.269781
  C       1.388810     -1.956196     -0.276921
  C       1.100801     -0.792717     -1.231342
  O       0.066934     -0.733478     -1.848518
  O       2.026095      0.131494     -1.468649
  C       2.857277     -1.940911      0.170941
  H       3.487393     -2.323953     -0.638657
  H       2.981959     -2.626826      1.012622
  C       3.236197      0.337447     -0.708326
  H       4.047467      0.051732     -1.388666
  C       3.299018     -0.535607      0.527725
  H       4.323919     -0.534809      0.901849
  H       2.659720     -0.111094      1.305130
  C       1.142458     -3.246359     -1.073498
  H       0.110123     -3.341415     -1.398980
  H       1.394229     -4.109268     -0.452987
  C       0.500659     -1.919816      1.004981
  C      -0.884494     -1.232311      1.048449
  H       1.084227     -1.455574      1.799309
  H       0.346159     -2.959772      1.307131
  C      -0.702216      0.285643      0.854016
  C      -1.937019     -1.849328      0.097980
  O       0.351935      0.838163      1.033849
  O      -1.781928      1.014919      0.584703
  H      -2.516727     -2.577105      0.670608
  H      -1.440820     -2.392004     -0.698446
  C      -2.861757     -0.813926     -0.536439
  C      -3.058275      0.382476      0.368399
  H      -3.827062     -1.264509     -0.770751
  H      -2.424709     -0.455074     -1.470824
  H      -3.440815      0.066893      1.347596
  C       3.306287      1.828745     -0.430187
  H       2.442979      2.098157      0.184237
  H       3.192186      2.352362     -1.383396
  C      -3.962589      1.464098     -0.192292
  H      -3.583191      1.763039     -1.174282
  H      -3.873696      2.340982      0.455110
  H       1.771595     -3.275491     -1.965159
  C       4.601054      2.267659      0.243557
  H       5.459462      1.920057     -0.342272
  H       4.688359      1.795604      1.226323
  C      -5.426401      1.051731     -0.293208
  H      -5.532846      0.211283     -0.984528
  H      -5.772328      0.692212      0.681895
  C      -6.316245      2.197168     -0.758214
  H      -7.359803      1.887227     -0.829371
  H      -6.264721      3.041350     -0.067196
  H      -6.007419      2.557571     -1.741869
  C       4.673886      3.780234      0.407612
  H       5.595214      4.085530      0.906111
  H       4.635624      4.283093     -0.561209
  H       3.833654      4.145899      1.001755
54
Coordinates from ORCA-job orca E -1043.696792519837
  C      -1.358862     -1.315451      2.471676
  H      -2.354909     -1.656891      2.717396
  H      -0.716337     -0.964489      3.269415
  C       1.389159     -1.950273     -0.277265
  C       1.106789     -0.787243     -1.234132
  O       0.071434     -0.721776     -1.848297
  O       2.034557      0.134866     -1.469871
  C       2.857585     -1.940287      0.171326
  H       3.486945     -2.326191     -0.637796
  H       2.979220     -2.626217      1.013705
  C       3.245128      0.336429     -0.708805
  H       4.055842      0.047558     -1.388828
  C       3.304126     -0.536336      0.527604
  H       4.329038     -0.538905      0.902431
  H       2.665825     -0.109076      1.304491
  C       1.138435     -3.240454     -1.072454
  H       0.105621     -3.331811     -1.398499
  H       1.386611     -4.103730     -0.450620
  C       0.500236     -1.910284      1.004795
  C      -0.886901     -1.225589      1.047470
  H       1.083380     -1.443357      1.798135
  H       0.347295     -2.949805      1.309896
  C      -0.709975      0.293529      0.854988
  C      -1.936733     -1.845530      0.095762
  O       0.341850      0.850051      1.036780
  O      -1.791823      1.019037      0.584018
  H      -2.514168     -2.576122      0.667558
  H      -1.437968     -2.385864     -0.701023
  C      -2.865354     -0.813080     -0.538067
  C      -3.066023      0.382063      0.367580
  H      -3.829291     -1.267186     -0.772330
  H      -2.429886     -0.451982     -1.472496
  H      -3.447033      0.064432      1.346915
  C       3.320037      1.827509     -0.431117
  H       2.457256      2.099893      0.182999
  H       3.208074      2.351445     -1.384647
  C      -3.974407      1.460889     -0.191969
  H      -3.596032      1.762454     -1.173780
  H      -3.889025      2.337521      0.456593
  H       1.768060     -3.272954     -1.963933
  C       4.615736      2.262541      0.243437
  H       5.473709      1.913421     -0.342556
  H       4.701507      1.789348      1.226038
  C      -5.436762      1.043100     -0.293537
  H      -5.540141      0.203579     -0.986793
  H      -5.781300      0.680231      0.681056
  C      -6.331040      2.186230     -0.756069
  H      -7.373651      1.872464     -0.827829
  H      -6.282563      3.029243     -0.063049
  H      -6.023498      2.549948     -1.739154
  C       4.691721      3.774792      0.409109
  H       5.613600      4.077733      0.908547
  H       4.655062      4.278730     -0.559468
  H       3.851622      4.141596      1.003246
54
Coordinates from ORCA-job orca E -1043.696800418554
  C      -1.363695     -1.322391      2.470232
  H      -2.358725     -1.668796      2.713341
  H      -0.723211     -0.972600      3.270203
  C       1.389745     -1.949296     -0.276188
  C       1.108989     -0.786811     -1.234329
  O       0.075510     -0.723059     -1.851897
  O       2.036759      0.135556     -1.469015
  C       2.857063     -1.938465      0.176109
  H       3.488796     -2.325124     -0.630861
  H       2.976654     -2.623242      1.019769
  C       3.246715      0.336605     -0.706411
  H       4.057972      0.044891     -1.384665
  C       3.302035     -0.533786      0.531647
  H       4.325836     -0.535342      0.909705
  H       2.661072     -0.105303      1.305745
  C       1.141825     -3.239800     -1.071778
  H       0.109923     -3.331557     -1.400817
  H       1.388693     -4.102853     -0.449043
  C       0.498322     -1.910306      1.004615
  C      -0.889664     -1.226731      1.047112
  H       1.080161     -1.443788      1.799224
  H       0.345575     -2.950258      1.308498
  C      -0.713901      0.293402      0.860713
  C      -1.937261     -1.844753      0.091671
  O       0.337764      0.849949      1.043567
  O      -1.795029      1.018771      0.586304
  H      -2.514574     -2.578193      0.660106
  H      -1.436464     -2.381765     -0.706105
  C      -2.866710     -0.811693     -0.540244
  C      -3.068805      0.381301      0.367920
  H      -3.830197     -1.266318     -0.775681
  H      -2.431507     -0.447975     -1.473806
  H      -3.449847      0.061346      1.346504
  C       3.323586      1.828145     -0.432030
  H       2.461368      2.103271      0.181773
  H       3.212177      2.350080     -1.386765
  C      -3.977472      1.460879     -0.189545
  H      -3.598289      1.765640     -1.170111
  H      -3.893786      2.335761      0.461672
  H       1.773987     -3.272097     -1.961550
  C       4.620253      2.262955      0.241032
  H       5.477376      1.910372     -0.344232
  H       4.705459      1.792717      1.225161
  C      -5.439455      1.042236     -0.294043
  H      -5.541594      0.205501     -0.990921
  H      -5.784718      0.675256      0.678806
  C      -6.334070      2.186697     -0.752867
  H      -7.376453      1.872548     -0.827048
  H      -6.286785      3.026866     -0.056237
  H      -6.025546      2.554599     -1.734143
  C       4.699492      3.775652      0.401638
  H       5.622517      4.078310      0.899254
  H       4.663161      4.276306     -0.568712
  H       3.860754      4.146439      0.995300
54
Coordinates from ORCA-job orca E -1043.696808691544
  C      -1.369875     -1.323846      2.466956
  H      -2.362831     -1.677476      2.708119
  H      -0.732459     -0.971702      3.268344
  C       1.389452     -1.946362     -0.274738
  C       1.110048     -0.783066     -1.232302
  O       0.076514     -0.718081     -1.849734
  O       2.036916      0.141039     -1.463832
  C       2.855702     -1.935848      0.181115
  H       3.489680     -2.322519     -0.624075
  H       2.972979     -2.620363      1.025279
  C       3.247842      0.338451     -0.701089
  H       4.058126      0.043191     -1.379018
  C       3.299461     -0.530944      0.537506
  H       4.322135     -0.532083      0.918694
  H       2.656006     -0.101954      1.309284
  C       1.142952     -3.236092     -1.072017
  H       0.111800     -3.326793     -1.403836
  H       1.387927     -4.099792     -0.449454
  C       0.495627     -1.908603      1.004548
  C      -0.893141     -1.226267      1.044859
  H       1.075620     -1.441713      1.800282
  H       0.343138     -2.948835      1.307580
  C      -0.717940      0.293979      0.859214
  C      -1.937751     -1.844627      0.086560
  O       0.332197      0.851563      1.047648
  O      -1.798910      1.018625      0.582248
  H      -2.513980     -2.580890      0.652497
  H      -1.434429     -2.378533     -0.711709
  C      -2.869465     -0.812496     -0.543937
  C      -3.072354      0.379346      0.365601
  H      -3.832506     -1.268576     -0.778477
  H      -2.436100     -0.447108     -1.477708
  H      -3.450939      0.057927      1.344622
  C       3.329819      1.829989     -0.428720
  H       2.470560      2.108814      0.187668
  H       3.217008      2.350980     -1.383783
  C      -3.983269      1.458292     -0.189069
  H      -3.605044      1.766150     -1.169037
  H      -3.901461      2.331835      0.464172
  H       1.777248     -3.267695     -1.960317
  C       4.630438      2.261599      0.239087
  H       5.483953      1.903143     -0.347880
  H       4.716832      1.794431      1.224573
  C      -5.444578      1.037206     -0.294327
  H      -5.545700      0.203520     -0.994990
  H      -5.788746      0.665521      0.677112
  C      -6.341265      2.182338     -0.747724
  H      -7.383178      1.866912     -0.823035
  H      -6.294914      3.019297     -0.047180
  H      -6.033364      2.555074     -1.727370
  C       4.717768      3.774576      0.393599
  H       5.644589      4.074448      0.885826
  H       4.679804      4.271442     -0.578633
  H       3.883835      4.152331      0.989580
54
Coordinates from ORCA-job orca E -1043.696816762332
  C      -1.377654     -1.328573      2.465566
  H      -2.366418     -1.695095      2.704657
  H      -0.745187     -0.971075      3.268488
  C       1.387609     -1.941589     -0.271876
  C       1.106690     -0.775185     -1.225270
  O       0.073218     -0.710309     -1.842908
  O       2.031382      0.151987     -1.453145
  C       2.853314     -1.931122      0.186130
  H       3.488856     -2.316749     -0.618317
  H       2.969473     -2.616276      1.029890
  C       3.245768      0.343471     -0.693921
  H       4.052925      0.044517     -1.374045
  C       3.296110     -0.526215      0.544162
  H       4.318245     -0.526955      0.926853
  H       2.651330     -0.097615      1.314997
  C       1.142977     -3.228882     -1.073631
  H       0.112373     -3.318647     -1.407367
  H       1.387435     -4.094504     -0.453579
  C       0.491810     -1.908597      1.006166
  C      -0.897968     -1.228002      1.044705
  H       1.069579     -1.442513      1.803910
  H       0.340150     -2.949798      1.306203
  C      -0.723159      0.292382      0.860342
  C      -1.939114     -1.846492      0.082886
  O       0.325766      0.850569      1.053503
  O      -1.803369      1.016367      0.578925
  H      -2.514022     -2.586280      0.645525
  H      -1.432679     -2.376360     -0.716061
  C      -2.873086     -0.815405     -0.546373
  C      -3.076595      0.375761      0.363916
  H      -3.835735     -1.272781     -0.779990
  H      -2.441284     -0.448755     -1.480392
  H      -3.453354      0.053498      1.343334
  C       3.335553      1.834565     -0.422279
  H       2.482104      2.117343      0.200476
  H       3.217929      2.355726     -1.376645
  C      -3.988919      1.454198     -0.189055
  H      -3.610249      1.765151     -1.167857
  H      -3.909554      2.326345      0.466347
  H       1.778512     -3.257205     -1.961163
  C       4.643596      2.260260      0.235017
  H       5.490235      1.893227     -0.356603
  H       4.733829      1.796510      1.221759
  C      -5.449509      1.031156     -0.297185
  H      -5.548919      0.200778     -1.001988
  H      -5.794078      0.654590      0.672206
  C      -6.347188      2.177390     -0.746136
  H      -7.388589      1.861089     -0.824429
  H      -6.302616      3.010785     -0.041265
  H      -6.038178      2.555251     -1.723455
  C       4.744048      3.773202      0.381950
  H       5.677786      4.067691      0.864250
  H       4.701548      4.265701     -0.592313
  H       3.919055      4.161218      0.983663
54
Coordinates from ORCA-job orca E -1043.696824358634
  C      -1.382014     -1.333225      2.462700
  H      -2.367131     -1.710063      2.700606
  H      -0.753556     -0.970741      3.266466
  C       1.387868     -1.941633     -0.271242
  C       1.106210     -0.774879     -1.224182
  O       0.073581     -0.711575     -1.843376
  O       2.027814      0.156469     -1.447201
  C       2.852364     -1.928427      0.190318
  H       3.490633     -2.313016     -0.612414
  H       2.967598     -2.613330      1.034360
  C       3.242669      0.346615     -0.688801
  H       4.049397      0.046410     -1.368893
  C       3.292019     -0.522797      0.549422
  H       4.313248     -0.521698      0.934374
  H       2.644710     -0.095167      1.318713
  C       1.148122     -3.229149     -1.074155
  H       0.118712     -3.321202     -1.410480
  H       1.393012     -4.094467     -0.453921
  C       0.489579     -1.910992      1.005191
  C      -0.900537     -1.230646      1.042648
  H       1.065811     -1.445739      1.804502
  H       0.337946     -2.952661      1.303498
  C      -0.725128      0.289765      0.860329
  C      -1.940778     -1.847749      0.078996
  O       0.323595      0.847314      1.056011
  O      -1.804895      1.014199      0.578758
  H      -2.514598     -2.589970      0.639404
  H      -1.433677     -2.374411     -0.721453
  C      -2.875962     -0.816092     -0.547613
  C      -3.078376      0.374202      0.364126
  H      -3.838821     -1.273231     -0.780553
  H      -2.445270     -0.448317     -1.481659
  H      -3.454523      0.050948      1.343452
  C       3.335242      1.837733     -0.417955
  H       2.484344      2.122097      0.207589
  H       3.214903      2.358374     -1.372220
  C      -3.990630      1.453551     -0.187199
  H      -3.611383      1.766388     -1.165141
  H      -3.911469      2.324451      0.469842
  H       1.785889     -3.255792     -1.960090
  C       4.646880      2.261180      0.233679
  H       5.489936      1.887150     -0.358621
  H       4.738055      1.801666      1.222280
  C      -5.451178      1.031001     -0.297064
  H      -5.550327      0.202285     -1.003788
  H      -5.796469      0.652302      0.671201
  C      -6.348213      2.178485     -0.744088
  H      -7.389548      1.862621     -0.824286
  H      -6.304173      3.010084     -0.037132
  H      -6.038065      2.558666     -1.720099
  C       4.756081      3.774259      0.372607
  H       5.693817      4.065793      0.848819
  H       4.711860      4.262024     -0.603918
  H       3.936609      4.170690      0.976234
54
Coordinates from ORCA-job orca E -1043.696830896387
  C      -1.384248     -1.334367      2.462609
  H      -2.365194     -1.722095      2.700143
  H      -0.759630     -0.966064      3.266705
  C       1.386846     -1.939085     -0.270865
  C       1.104585     -0.771168     -1.222281
  O       0.073004     -0.708797     -1.843272
  O       2.025098      0.161768     -1.442695
  C       2.851398     -1.926342      0.190367
  H       3.489328     -2.310664     -0.612746
  H       2.966684     -2.611972      1.033808
  C       3.241519      0.349265     -0.687025
  H       4.046804      0.048543     -1.368636
  C       3.291920     -0.521298      0.550442
  H       4.313445     -0.520959      0.934494
  H       2.645380     -0.094083      1.320638
  C       1.146749     -3.225982     -1.074515
  H       0.116948     -3.318352     -1.409610
  H       1.392602     -4.091691     -0.455237
  C       0.488803     -1.909496      1.005670
  C      -0.901871     -1.230364      1.042949
  H       1.064688     -1.444055      1.805104
  H       0.338179     -2.951350      1.303779
  C      -0.727820      0.290260      0.861756
  C      -1.940845     -1.847976      0.078307
  O       0.320460      0.848585      1.057363
  O      -1.808395      1.013613      0.580883
  H      -2.513149     -2.592221      0.637487
  H      -1.432679     -2.372233     -0.723100
  C      -2.877438     -0.816929     -0.547140
  C      -3.080993      0.372839      0.365109
  H      -3.839818     -1.274769     -0.780394
  H      -2.446935     -0.448276     -1.480948
  H      -3.457710      0.048718      1.343953
  C       3.337412      1.840014     -0.414893
  H       2.488573      2.125136      0.213081
  H       3.215219      2.361656     -1.368363
  C      -3.993742      1.451733     -0.186505
  H      -3.613667      1.765323     -1.163876
  H      -3.915469      2.322350      0.470995
  H       1.783503     -3.251937     -1.961156
  C       4.651835      2.259812      0.233252
  H       5.492194      1.880954     -0.359800
  H       4.743123      1.801726      1.222499
  C      -5.453842      1.028407     -0.297905
  H      -5.551723      0.199420     -1.004452
  H      -5.799940      0.649598      0.670018
  C      -6.351059      2.175206     -0.746110
  H      -7.392041      1.858616     -0.827734
  H      -6.308620      3.006907     -0.039211
  H      -6.039967      2.555599     -1.721713
  C       4.768067      3.772547      0.369125
  H       5.708552      4.060583      0.841998
  H       4.723274      4.258807     -0.608106
  H       3.952387      4.174290      0.974333
54
Coordinates from ORCA-job orca E -1043.696826429112
  C      -1.386167     -1.334794      2.461542
  H      -2.363019     -1.733198      2.698422
  H      -0.765481     -0.960987      3.266198
  C       1.386740     -1.938222     -0.270619
  C       1.104350     -0.770427     -1.222185
  O       0.073445     -0.708782     -1.844328
  O       2.023899      0.163846     -1.440713
  C       2.851320     -1.925279      0.190456
  H       3.488962     -2.309858     -0.612808
  H       2.966750     -2.611053      1.033810
  C       3.240992      0.350381     -0.686894
  H       4.045678      0.049523     -1.369199
  C       3.292506     -0.520485      0.550463
  H       4.314414     -0.520692      0.933472
  H       2.646862     -0.093234      1.321397
  C       1.146872     -3.225478     -1.073566
  H       0.116773     -3.319244     -1.407396
  H       1.394088     -4.090744     -0.454151
  C       0.488522     -1.908305      1.005845
  C      -0.902418     -1.229712      1.042364
  H       1.064035     -1.442446      1.805303
  H       0.338344     -2.950105      1.304435
  C      -0.729335      0.291127      0.862562
  C      -1.940340     -1.847138      0.076517
  O       0.318922      0.849932      1.056809
  O      -1.810986      1.013884      0.584366
  H      -2.511744     -2.593080      0.634385
  H      -1.431541     -2.369232     -0.725885
  C      -2.877503     -0.815831     -0.547537
  C      -3.082599      0.372577      0.366191
  H      -3.839419     -1.273894     -0.782246
  H      -2.446407     -0.445683     -1.480546
  H      -3.460397      0.046669      1.344097
  C       3.338449      1.841027     -0.414200
  H       2.489867      2.126583      0.213916
  H       3.216374      2.363063     -1.367511
  C      -3.995770      1.451419     -0.185158
  H      -3.615379      1.765633     -1.162237
  H      -3.917650      2.321741      0.472789
  H       1.782758     -3.251458     -1.960819
  C       4.653501      2.258743      0.233801
  H       5.493298      1.876387     -0.357854
  H       4.742913      1.802090      1.223916
  C      -5.455602      1.027578     -0.296957
  H      -5.552799      0.197576     -1.002441
  H      -5.801933      0.649625      0.671241
  C      -6.353181      2.173355     -0.746796
  H      -7.393966      1.856059     -0.828591
  H      -6.311700      3.005978     -0.040904
  H      -6.042029      2.552928     -1.722730
  C       4.773806      3.771280      0.367368
  H       5.714919      4.057364      0.840241
  H       4.730787      4.256314     -0.610584
  H       3.958999      4.176425      0.971526
54
Coordinates from ORCA-job orca E -1043.696829602600
  C      -1.388680     -1.335156      2.459751
  H      -2.361529     -1.743781      2.695754
  H      -0.771931     -0.956247      3.265059
  C       1.386903     -1.937463     -0.270200
  C       1.105169     -0.769952     -1.222340
  O       0.074947     -0.708641     -1.845643
  O       2.024306      0.165079     -1.439512
  C       2.851216     -1.924479      0.191729
  H       3.489204     -2.309434     -0.611105
  H       2.966080     -2.610097      1.035308
  C       3.241626      0.350706     -0.686206
  H       4.046109      0.048868     -1.368361
  C       3.292540     -0.519697      0.551542
  H       4.314356     -0.520237      0.934806
  H       2.646776     -0.092021      1.322149
  C       1.147462     -3.225080     -1.072588
  H       0.117319     -3.319761     -1.406066
  H       1.395255     -4.089929     -0.452791
  C       0.487903     -1.907094      1.005828
  C      -0.903304     -1.228939      1.041134
  H       1.062794     -1.440736      1.805480
  H       0.337915     -2.948833      1.304782
  C      -0.730760      0.292035      0.862347
  C      -1.939918     -1.846125      0.073798
  O       0.317340      0.851290      1.056075
  O      -1.813142      1.014471      0.585864
  H      -2.510833     -2.593485      0.630302
  H      -1.430288     -2.366382     -0.729248
  C      -2.877535     -0.814559     -0.549171
  C      -3.084039      0.372398      0.366108
  H      -3.839023     -1.272887     -0.785152
  H      -2.446129     -0.442884     -1.481446
  H      -3.462094      0.044717      1.343350
  C       3.340611      1.841419     -0.414126
  H       2.491994      2.128168      0.213419
  H       3.219489      2.363147     -1.367742
  C      -3.997990      1.451152     -0.184238
  H      -3.618286      1.765985     -1.161390
  H      -3.919739      2.321198      0.474072
  H       1.783190     -3.251187     -1.959965
  C       4.655841      2.257873      0.234309
  H       5.495533      1.872686     -0.355672
  H       4.743306      1.802938      1.225394
  C      -5.457671      1.026658     -0.295146
  H      -5.554843      0.196034     -0.999912
  H      -5.803295      0.649235      0.673516
  C      -6.356070      2.171633     -0.745295
  H      -7.396747      1.853717     -0.826233
  H      -6.314678      3.004860     -0.040100
  H      -6.045778      2.550664     -1.721723
  C       4.778892      3.770396      0.365256
  H       5.719886      4.055511      0.838950
  H       4.738149      4.253792     -0.613612
  H       3.963970      4.178204      0.967484
