54
Coordinates from ORCA-job orca E -1043.696829602600
  C          -1.38867996510605     -1.33515634871487      2.45975134395614
  H          -2.36152941993992     -1.74378066721707      2.69575419561195
  H          -0.77193125310033     -0.95624705922385      3.26505879207023
  C           1.38690336195219     -1.93746347019310     -0.27020008187852
  C           1.10516914988526     -0.76995202392264     -1.22234016184881
  O           0.07494673572370     -0.70864073373549     -1.84564319946605
  O           2.02430636653871      0.16507931402416     -1.43951182647520
  C           2.85121647656112     -1.92447875092228      0.19172853947092
  H           3.48920420925953     -2.30943384519404     -0.61110494974845
  H           2.96608010893078     -2.61009719659306      1.03530780587982
  C           3.24162585153143      0.35070624947725     -0.68620587056660
  H           4.04610850918400      0.04886807533341     -1.36836100567941
  C           3.29254005206359     -0.51969696077261      0.55154165821797
  H           4.31435603419211     -0.52023741687239      0.93480592174173
  H           2.64677554081711     -0.09202060797974      1.32214897349124
  C           1.14746220399713     -3.22507969088250     -1.07258815011946
  H           0.11731871860560     -3.31976058643525     -1.40606649643581
  H           1.39525492869946     -4.08992913012459     -0.45279065926844
  C           0.48790268163550     -1.90709427663678      1.00582771723191
  C          -0.90330423373802     -1.22893879969419      1.04113393247904
  H           1.06279440320364     -1.44073623397443      1.80547957469948
  H           0.33791476397051     -2.94883339610099      1.30478223100365
  C          -0.73075962718519      0.29203458312528      0.86234675605841
  C          -1.93991777545626     -1.84612465310852      0.07379764425020
  O           0.31734044053451      0.85129035379821      1.05607523017165
  O          -1.81314242867988      1.01447117226515      0.58586365027864
  H          -2.51083329644473     -2.59348490304941      0.63030152878179
  H          -1.43028811772173     -2.36638187111861     -0.72924831653732
  C          -2.87753509930542     -0.81455874882143     -0.54917061810829
  C          -3.08403915451669      0.37239814878816      0.36610752893794
  H          -3.83902272070845     -1.27288708504338     -0.78515225373823
  H          -2.44612931973859     -0.44288408512815     -1.48144646294910
  H          -3.46209447133521      0.04471706380489      1.34335001723051
  C           3.34061098229934      1.84141894187630     -0.41412623314423
  H           2.49199372877693      2.12816757261686      0.21341921285678
  H           3.21948930129006      2.36314741534666     -1.36774233431136
  C          -3.99798962337967      1.45115230603444     -0.18423762605257
  H          -3.61828593309720      1.76598461675747     -1.16138981803462
  H          -3.91973865649277      2.32119775432234      0.47407231991002
  H           1.78318987103959     -3.25118686894085     -1.95996520311470
  C           4.65584115024674      2.25787257700536      0.23430861940096
  H           5.49553299301545      1.87268647387363     -0.35567192163620
  H           4.74330611559862      1.80293819229054      1.22539428110472
  C          -5.45767051616504      1.02665812141970     -0.29514634262588
  H          -5.55484299172848      0.19603433562695     -0.99991186095768
  H          -5.80329531092090      0.64923458293245      0.67351575820406
  C          -6.35606970118906      2.17163284348101     -0.74529511151126
  H          -7.39674683153994      1.85371741402129     -0.82623266993043
  H          -6.31467751604955      3.00485996778212     -0.04010022246139
  H          -6.04577783688670      2.55066447363149     -1.72172304132892
  C           4.77889165649809      3.77039590273281      0.36525636457212
  H           5.71988620429502      4.05551122589736      0.83895030323566
  H           4.73814919599665      4.25379192261715     -0.61361181243150
  H           3.96397006408337      4.17820380951781      0.96748434951289
