54

C          0.68672       -2.38935       -0.39220
H          0.16471       -2.97796        0.37624
C          2.19028       -2.76344       -0.22889
C          2.75920       -2.51783        1.18716
H          1.94378       -2.53805        1.92158
H          3.43312       -3.35360        1.43883
C          3.56024       -1.23322        1.31013
H          4.01340       -1.17379        2.31024
H          2.92798       -0.34092        1.20819
C          4.66072       -1.20847        0.26851
H          5.37351       -2.02731        0.48026
C          5.42325        0.10631        0.17452
C          6.11475        0.53270        1.46580
H          5.36302        0.69647        2.25557
H          6.76326       -0.28550        1.82501
C          6.93945        1.80320        1.29117
H          7.42335        2.10164        2.23249
H          6.30581        2.64138        0.96030
H          7.72806        1.66679        0.53492
H          4.71825        0.89245       -0.14619
H          6.16338        0.01059       -0.63621
O          4.14449       -1.44630       -1.05150
C          2.25371       -4.28306       -0.50707
H          1.67504       -4.82373        0.25736
H          3.29198       -4.64629       -0.46742
H          1.84672       -4.51947       -1.49916
C          3.03087       -2.12891       -1.34627
O          2.72535       -2.24797       -2.50411
C          0.09500       -0.94435       -0.33262
C          0.37523       -0.36912        1.06111
O          0.13603       -1.00392        2.05611
O          0.89973        0.85294        1.19366
C          1.19627        1.73518        0.09371
C          2.21584        2.72249        0.64080
H          1.79087        3.17181        1.55275
H          3.10974        2.15961        0.96297
C          2.61815        3.82098       -0.33865
C          3.54953        4.85083        0.29114
H          3.07145        5.34818        1.14933
H          4.47383        4.37625        0.65737
H          3.83698        5.62876       -0.43110
H          1.71124        4.32218       -0.71863
H          3.11326        3.37619       -1.21790
H          0.25980        2.26425       -0.15801
C          1.65769        0.94135       -1.11158
H          2.62056        0.45934       -0.89185
H          1.84043        1.62873       -1.94986
C         -1.44394       -1.19162       -0.42846
H         -1.68845       -1.93790        0.34124
H         -1.61988       -1.67121       -1.40452
C          0.59689       -0.07202       -1.50846
H         -0.23708        0.48534       -1.94423
H          0.96873       -0.72156       -2.31028
H          0.37563       -2.78826       -1.36931
