85
./tetramer_ABAB/tetramer_1.out	Energy: -1088179.8176623
C          0.81808       -1.02567       -0.01674
C          0.89814       -0.22234        1.27640
O          1.16475        0.95155        1.36058
O          0.61913       -0.96303        2.35938
C          1.26642       -0.14626       -1.18562
H          0.69118        0.78383       -1.24376
H          1.15380       -0.68737       -2.13316
C          0.64681       -0.29180        3.60678
H          0.39229       -1.04033        4.36500
C          1.68168       -2.31635        0.09864
C          3.23058       -2.28207        0.18975
H          1.44886       -2.92069       -0.79003
H          1.32426       -2.88074        0.97325
C          3.79301       -1.85283       -1.17892
C          3.78703       -1.46588        1.37824
C          3.67063       -3.75235        0.35967
O          3.44049       -2.39685       -2.18982
O          4.70053       -0.87144       -1.25988
H          4.65029       -2.00830        1.79821
H          3.04139       -1.43245        2.18489
C          4.26513       -0.07291        0.99821
H          3.26264       -4.37889       -0.44467
H          3.31697       -4.13853        1.32812
C          5.26261       -0.17634       -0.13881
H          4.75374        0.40102        1.86245
H          3.43429        0.58645        0.70738
H          6.13570       -0.76601        0.20094
C          5.74973        1.15820       -0.68281
H          4.87469        1.73130       -1.03449
H          6.36172        0.94870       -1.57489
C          6.55575        1.98585        0.31476
H          5.92269        2.25879        1.17538
H          7.37710        1.37010        0.72195
C          7.12934        3.25515       -0.30592
H          7.69967        3.84053        0.43015
H          7.80408        3.01831       -1.14330
H          6.32803        3.89994       -0.69933
H          1.64508        0.12637        3.80269
H         -0.08328        0.53107        3.62400
H          2.31627        0.15222       -1.08505
H          4.76776       -3.84040        0.33797
C         -0.63337       -1.57431       -0.21207
C         -1.88248       -0.66016       -0.40255
H         -0.58195       -2.21836       -1.10191
H         -0.85559       -2.23109        0.64367
C         -3.01985       -1.67110       -0.73909
C         -1.65623        0.18885       -1.66837
C         -2.20261        0.15455        0.87448
C         -4.48393       -1.21695       -0.97207
H         -2.71277       -2.19416       -1.65621
H         -3.03282       -2.41846        0.06920
O         -1.52198       -0.33201       -2.74326
O         -1.62271        1.52263       -1.58689
H         -1.31763        0.20870        1.51563
H         -2.94531       -0.38847        1.47470
C         -2.64702        1.58441        0.60203
C         -5.14265       -0.71853        0.31217
C         -4.63415       -0.15154       -2.06075
C         -5.26894       -2.47599       -1.40291
C         -1.66094        2.24119       -0.34250
H         -2.67901        2.14626        1.54706
H         -3.65937        1.62948        0.17334
O         -5.69968        0.34010        0.45168
O         -5.07404       -1.62383        1.30102
H         -5.69749        0.05198       -2.24933
H         -4.16380       -0.49744       -2.99078
H         -4.16869        0.80275       -1.78585
H         -5.16384       -3.28666       -0.66880
H         -4.89176       -2.83068       -2.37348
H         -6.33998       -2.24971       -1.51816
H         -0.64792        2.19192        0.09791
C         -1.97841        3.68188       -0.70708
C         -5.67707       -1.25894        2.52985
H         -2.99556        3.72388       -1.13333
H         -1.28969        3.97713       -1.51503
C         -1.85165        4.65949        0.45843
H         -5.54386       -2.11229        3.20408
H         -5.19404       -0.36393        2.95010
H         -6.74648       -1.04360        2.39412
H         -2.58272        4.40552        1.24407
H         -0.85517        4.54767        0.92009
C         -2.05936        6.10896        0.03292
H         -1.97033        6.79589        0.88738
H         -1.31596        6.41197       -0.72091
H         -3.05717        6.25263       -0.41045
