51
./bde_1/rad_2.out	Energy: -629563.3880956
C         -1.19533       -1.47765        0.35492
C         -1.25406       -0.28577        1.19153
O         -0.35237        0.04464        1.93769
O         -2.34231        0.50428        1.12467
C         -2.28423       -1.78113       -0.62056
H         -2.93071       -2.58258       -0.20813
H         -1.83359       -2.18090       -1.54056
C         -3.50818        0.13894        0.38071
H         -4.08863       -0.57405        0.99919
C         -3.11572       -0.54226       -0.91813
H         -4.01652       -0.80772       -1.48954
H         -2.52438        0.15965       -1.52887
C         -0.01692       -2.39685        0.45237
C          1.39053       -1.83537        0.06848
H         -0.23336       -3.26108       -0.19258
H          0.06542       -2.78915        1.48055
C          1.23653       -0.78417       -1.03898
C          2.18642       -1.32343        1.30474
C          2.18467       -2.98110       -0.60032
O          0.30180       -0.77551       -1.79932
O          2.22693        0.08885       -1.22848
H          3.01772       -2.02127        1.49680
H          1.53905       -1.32697        2.18762
C          2.73915        0.08208        1.11822
H          1.68505       -3.32664       -1.51751
H          3.20567       -2.66494       -0.86237
H          2.26415       -3.83001        0.09630
C          3.29152        0.26189       -0.28111
H          3.52336        0.28300        1.86232
H          1.93554        0.81934        1.27603
H          4.05598       -0.51274       -0.48519
C         -4.31632        1.41706        0.21598
H         -3.73759        2.11690       -0.41076
H         -4.39657        1.88559        1.21023
C          3.88937        1.62954       -0.57188
H          3.13267        2.39772       -0.33862
H          4.06888        1.68906       -1.65775
C         -5.71055        1.21008       -0.36975
H         -6.24931        0.45353        0.22748
H         -5.63418        0.79570       -1.38885
C          5.18622        1.91754        0.17985
H          5.00232        1.90458        1.26692
H          5.91027        1.10729       -0.01655
C          5.80299        3.25725       -0.20757
H          6.73332        3.44724        0.34752
H          6.04001        3.28985       -1.28255
H          5.11087        4.08734        0.00365
C         -6.52493        2.49860       -0.41440
H         -7.52313        2.32923       -0.84421
H         -6.65991        2.91854        0.59464
H         -6.02175        3.26376       -1.02605
