54
./bde_1/rad_1.out	Energy: -654193.7067162
C         -1.34324       -1.34302        2.49727
H         -2.35584       -1.66817        2.74478
H         -0.69240       -0.99343        3.30301
C          1.39230       -1.98989       -0.27786
C          1.07844       -0.82826       -1.23485
O          0.03496       -0.78170       -1.83893
O          1.99023        0.10799       -1.47098
C          2.87237       -1.95794        0.14543
H          3.49820       -2.33489       -0.68201
H          3.02314       -2.65055        0.98870
C          3.19832        0.34105       -0.72810
H          4.01693        0.08323       -1.42500
C          3.30566       -0.54645        0.49988
H          4.34696       -0.53339        0.85354
H          2.67379       -0.13347        1.30091
C          1.13986       -3.28811       -1.06549
H          0.09098       -3.39555       -1.36523
H          1.41722       -4.15435       -0.44493
C          0.51791       -1.95369        1.01883
C         -0.86658       -1.25873        1.06936
H          1.11444       -1.48688        1.81396
H          0.36267       -2.99988        1.32835
C         -0.67209        0.26277        0.87695
C         -1.92671       -1.86545        0.11308
O          0.39148        0.80391        1.04581
O         -1.74989        0.99651        0.62130
H         -2.52123       -2.59498        0.68496
H         -1.42984       -2.41479       -0.69012
C         -2.83342       -0.81355       -0.52504
C         -3.02704        0.38665        0.38260
H         -3.80844       -1.25256       -0.78060
H         -2.36999       -0.45221       -1.45578
H         -3.43531        0.06781        1.36042
C          3.23691        1.83376       -0.43309
H          2.35982        2.07387        0.18916
H          3.10418        2.36728       -1.38833
C         -3.91249        1.48401       -0.18600
H         -3.51155        1.78199       -1.16952
H         -3.81238        2.36364        0.47048
H          1.75054       -3.31685       -1.98060
C          4.52400        2.29769        0.24322
H          5.39545        1.96138       -0.34692
H          4.62086        1.81788        1.23152
C         -5.38456        1.09907       -0.30723
H         -5.49600        0.24909       -1.00074
H         -5.75151        0.74395        0.67185
C         -6.25467        2.25495       -0.78910
H         -7.30977        1.95605       -0.87401
H         -6.20163        3.10857       -0.09535
H         -5.92629        2.61178       -1.77778
C          4.57920        3.81180        0.41636
H          5.50592        4.12763        0.91807
H          4.53174        4.32477       -0.55704
H          3.73017        4.16941        1.01941
