104

C          0.43348        0.57466       -1.36365
C          0.97312        0.64026        0.07931
O          1.79202       -0.16641        0.46052
O          0.55362        1.56094        0.92094
C         -0.70646        1.58758       -1.58469
H         -1.63889        1.20263       -1.16054
H         -0.86371        1.72707       -2.66624
C         -0.33377        2.65058        0.61353
H         -1.32528        2.33019        0.97815
C         -0.40818        2.90194       -0.88109
H         -1.21134        3.62737       -1.07674
H          0.54073        3.34572       -1.21998
C          0.02468       -0.90201       -1.64974
H          0.88506       -1.51139       -1.35396
H         -0.06384       -1.01405       -2.74216
C          1.57585        0.96537       -2.37420
C          3.08506        0.79864       -2.09253
H          1.43958        2.02854       -2.60983
H          1.36537        0.42178       -3.30953
C          3.50006        1.72503       -0.94105
C          3.55888       -0.67053       -1.91682
C          3.81247        1.40995       -3.31901
O          2.86363        2.70333       -0.64100
O          4.66895        1.50289       -0.34182
H          4.04639       -0.98795       -2.85267
H          2.69953       -1.33381       -1.77918
C          4.51834       -0.86714       -0.74680
H          3.54929        2.46990       -3.44896
H          3.52657        0.86527       -4.23176
C          5.44543        0.32145       -0.58417
H          5.11038       -1.78239       -0.89205
H          3.94570       -0.97368        0.18584
H          6.02440        0.48082       -1.51427
C          0.16603        3.82993        1.43248
H          1.18270        4.07932        1.08617
H          0.26286        3.49131        2.47670
C          6.41598        0.21754        0.58224
H          5.83419        0.04734        1.50383
H          6.90059        1.20062        0.69791
C         -3.92882       -1.68934       -1.68237
C         -4.17633       -2.01171       -0.20002
O         -3.69509       -2.99138        0.31290
O         -5.00524       -1.25685        0.51427
C         -4.87073       -0.56490       -2.14954
H         -5.88970       -0.96869       -2.27863
H         -4.54972       -0.20998       -3.14181
C         -5.47801        0.05795        0.17555
H         -6.57120       -0.05629        0.06020
C         -4.90454        0.56584       -1.13746
H         -5.52982        1.39624       -1.49635
H         -3.89280        0.96246       -0.96444
C         -4.27914       -2.96920       -2.46386
H         -3.63712       -3.81285       -2.18520
H         -4.17145       -2.78429       -3.54403
C         -2.45624       -1.24374       -1.97740
C         -1.26203       -1.59424       -1.05706
H         -2.46533       -0.15771       -2.10529
H         -2.20296       -1.65056       -2.97048
C         -1.48745       -1.04147        0.35290
C         -0.99261       -3.12874       -1.05505
O         -2.23247       -0.11000        0.56384
O         -0.78941       -1.54596        1.35245
H         -0.20716       -3.33482       -1.79941
H         -1.88820       -3.65604       -1.39368
C         -0.60204       -3.69507        0.31115
C          0.10183       -2.66158        1.16759
H          0.04088       -4.57864        0.18928
H         -1.51135       -4.00858        0.84563
H          1.00622       -2.27493        0.67170
C         -5.18321        0.94613        1.37728
H         -4.09560        0.92109        1.54614
H         -5.65149        0.48456        2.26172
C          0.48361       -3.12112        2.56339
H         -0.41216       -3.52102        3.06854
H          0.79275       -2.22486        3.12437
H         -5.32026       -3.27105       -2.27374
C         -5.66942        2.38461        1.22468
H         -6.74860        2.39256        0.98823
H         -5.16547        2.86008        0.36636
C          1.61173       -4.14902        2.58219
H          1.29801       -5.06477        2.05325
H          2.47359       -3.74980        2.01925
C         -0.74481        5.05307        1.37120
H         -1.77791        4.75471        1.62458
H         -0.78332        5.44135        0.33960
C          7.48018       -0.86410        0.41764
H          7.00280       -1.85624        0.35669
H          8.00466       -0.71867       -0.54326
C          8.49421       -0.86645        1.55659
H          9.24826       -1.65590        1.42250
H          9.02351        0.09718        1.61948
H          7.99977       -1.03550        2.52591
C         -0.29162        6.16819        2.30735
H          0.73050        6.49672        2.06253
H         -0.95237        7.04524        2.24053
H         -0.28725        5.82917        3.35513
C         -5.41228        3.22032        2.47429
H         -5.75805        4.25680        2.34610
H         -5.93064        2.79811        3.34930
H         -4.33717        3.24976        2.71165
C          2.05078       -4.51291        3.99635
H          1.21443       -4.93695        4.57393
H          2.86276       -5.25509        3.98815
H          2.41105       -3.62536        4.53957
