34
./bde_1/rad_1.out	Energy: -458537.0941369
C          1.44582       -1.93270        1.46037
C          0.83742       -1.04746        0.40737
H          1.77384       -1.50928        2.41269
H          1.74502       -2.95290        1.20753
C          0.00222        0.04405        1.12213
C          2.04195       -0.45030       -0.34168
C          0.01992       -1.89027       -0.57690
C         -0.82672        1.04335        0.28252
H         -0.68361       -0.47375        1.80887
H          0.69016        0.63313        1.74756
O          2.39263       -0.76258       -1.44880
O          2.70921        0.43658        0.40813
H          0.63702       -2.69687       -0.99509
H         -0.84233       -2.33378       -0.05967
H         -0.34212       -1.29184       -1.42395
C          0.00446        1.76929       -0.77757
C         -2.01322        0.36562       -0.40311
C          3.85134        1.02611       -0.18847
H          0.86291        2.26599       -0.30306
H          0.37816        1.08403       -1.55079
H         -0.60313        2.52760       -1.29002
O         -2.33900        0.52638       -1.55045
O         -2.70699       -0.41075        0.44021
H          3.57053        1.59252       -1.08874
H          4.27864        1.69900        0.56336
H          4.58494        0.25889       -0.47449
C         -3.83636       -1.07296       -0.10163
H         -4.28468       -1.64091        0.72119
H         -4.55986       -0.35017       -0.50498
H         -3.53532       -1.75280       -0.91234
C         -1.42708        2.07801        1.25761
H         -0.61917        2.65604        1.73130
H         -2.08321        2.78394        0.72599
H         -2.01300        1.58765        2.04789
