14

C         -3.82589        0.99862        0.88937
C         -4.27412        1.43784        2.07333
H         -4.62730        0.56221        2.63639
H         -3.74612        2.25084        2.59445
C         -2.37077        0.52985        1.12124
H         -2.41629       -0.37626        1.74309
H         -1.87717        1.30216        1.73134
C         -4.74934        0.19840       -0.02807
O         -5.00977       -1.02286        0.46017
C         -5.86258       -1.84102       -0.32075
H         -5.98074       -2.77956        0.23242
H         -6.84023       -1.36115       -0.47048
H         -5.41611       -2.03536       -1.30728
O         -5.24008        0.60458       -1.04875
