51
Coordinates from ORCA-job orca E -1004.411894003238
  C       0.987234     -2.049233     -0.379080
  H       0.225255     -2.375477      0.329657
  C       2.224935     -2.976077     -0.157802
  C       2.828174     -2.804700      1.241236
  H       2.024580     -2.643274      1.961046
  H       3.328713     -3.736888      1.523423
  C       3.843877     -1.679926      1.309611
  H       4.281745     -1.630384      2.307779
  H       3.379412     -0.707215      1.121707
  C       4.940361     -1.918115      0.298033
  H       5.478182     -2.838385      0.559415
  C       5.936340     -0.780979      0.157384
  C       6.725492     -0.487779      1.428177
  H       6.048279     -0.146069      2.215908
  H       7.181392     -1.413260      1.796547
  C       7.808020      0.560462      1.206809
  H       8.351331      0.771568      2.129046
  H       7.378689      1.499890      0.850499
  H       8.533235      0.226281      0.461414
  H       5.393645      0.115456     -0.162972
  H       6.622802     -1.033939     -0.655333
  O       4.404565     -2.121341     -1.025886
  C       1.739242     -4.418266     -0.336958
  H       1.017218     -4.660185      0.445703
  H       2.570864     -5.121423     -0.260603
  H       1.268006     -4.553704     -1.309299
  C       3.214990     -2.679806     -1.288720
  O       2.931232     -2.886492     -2.437958
  C       1.192946     -0.583577     -0.220463
  C       0.821881      0.030324      1.045917
  O       0.485394     -0.613569      2.016885
  O       0.894693      1.373229      1.166805
  C       1.083166      2.207923      0.013212
  C       1.392879      3.592192      0.552481
  H       0.633193      3.831880      1.301494
  H       2.350114      3.554533      1.083252
  C       1.423762      4.682017     -0.512920
  C       1.633545      6.066762      0.086131
  H       0.833563      6.317363      0.786356
  H       2.578221      6.118667      0.632490
  H       1.654052      6.835945     -0.687339
  H       0.484760      4.666116     -1.076684
  H       2.218644      4.479385     -1.236604
  H       0.129315      2.238434     -0.531767
  C       2.150956      1.620753     -0.885974
  H       3.090976      1.570802     -0.326139
  H       2.318138      2.271524     -1.744975
  C       1.729698      0.234017     -1.345152
  H       0.947501      0.316957     -2.113901
  H       2.553842     -0.284788     -1.841913
  H       0.631150     -2.246088     -1.394245
51
Coordinates from ORCA-job orca E -1004.411896203598
  C       0.986736     -2.050233     -0.378730
  H       0.225184     -2.376550      0.330419
  C       2.224731     -2.976730     -0.157896
  C       2.828025     -2.805198      1.241071
  H       2.024350     -2.644526      1.960979
  H       3.329335     -3.737029      1.523063
  C       3.842748     -1.679566      1.309511
  H       4.280725     -1.629862      2.307634
  H       3.377352     -0.707212      1.121877
  C       4.939346     -1.916651      0.297766
  H       5.478011     -2.836480      0.558960
  C       5.934308     -0.778607      0.157220
  C       6.723900     -0.485457      1.427756
  H       6.046818     -0.145147      2.216205
  H       7.181106     -1.410687      1.795132
  C       7.805026      0.564252      1.206501
  H       8.348522      0.775538      2.128577
  H       7.374363      1.503354      0.850921
  H       8.530246      0.231401      0.460516
  H       5.390677      0.117522     -0.162399
  H       6.620554     -1.030544     -0.655995
  O       4.403571     -2.120139     -1.026109
  C       1.739625     -4.419110     -0.337170
  H       1.017977     -4.661515      0.445686
  H       2.571585     -5.121915     -0.261246
  H       1.268132     -4.554579     -1.309385
  C       3.214465     -2.679666     -1.288882
  O       2.930708     -2.886262     -2.438132
  C       1.192484     -0.584591     -0.220349
  C       0.822450      0.029293      1.046307
  O       0.487401     -0.614640      2.017759
  O       0.895372      1.372203      1.167134
  C       1.083261      2.206960      0.013495
  C       1.393775      3.590991      0.552928
  H       0.633235      3.831872      1.300689
  H       2.350082      3.552095      1.085266
  C       1.428219      4.680584     -0.512611
  C       1.637912      6.065222      0.086706
  H       0.835721      6.317379      0.783836
  H       2.580614      6.115765      0.636600
  H       1.662670      6.834088     -0.686956
  H       0.490640      4.665490     -1.078771
  H       2.224715      4.476984     -1.234229
  H       0.129104      2.237839     -0.530917
  C       2.150311      1.619641     -0.886488
  H       3.090727      1.569533     -0.327365
  H       2.316988      2.270394     -1.745599
  C       1.728432      0.232996     -1.345417
  H       0.945607      0.316185     -2.113486
  H       2.552096     -0.285845     -1.842932
  H       0.630254     -2.247299     -1.393721
51
Coordinates from ORCA-job orca E -1004.411899470926
  C       0.983939     -2.055378     -0.377698
  H       0.223611     -2.383182      0.332018
  C       2.224091     -2.979131     -0.157217
  C       2.827806     -2.804591      1.241134
  H       2.023861     -2.645914      1.961258
  H       3.332347     -3.734480      1.523789
  C       3.838691     -1.675440      1.308002
  H       4.277584     -1.624007      2.305697
  H       3.369512     -0.704747      1.120647
  C       4.935408     -1.909365      0.295474
  H       5.477637     -2.827001      0.557010
  C       5.926205     -0.767796      0.153497
  C       6.719256     -0.474194      1.421756
  H       6.043881     -0.139429      2.214036
  H       7.182386     -1.398200      1.784704
  C       7.794260      0.581502      1.199015
  H       8.339278      0.794737      2.119692
  H       7.357698      1.518781      0.845736
  H       8.518778      0.253460      0.450217
  H       5.378480      0.126904     -0.163074
  H       6.610535     -1.016186     -0.662419
  O       4.399314     -2.115655     -1.027742
  C       1.742468     -4.422912     -0.334756
  H       1.023103     -4.666899      0.449701
  H       2.576432     -5.123514     -0.260290
  H       1.269410     -4.560220     -1.305975
  C       3.212032     -2.679904     -1.289162
  O       2.929047     -2.889966     -2.437949
  C       1.187614     -0.589533     -0.219872
  C       0.816451      0.024078      1.046373
  O       0.482763     -0.620100      2.018207
  O       0.886545      1.367204      1.166695
  C       1.077256      2.202448      0.013899
  C       1.388502      3.585099      0.556529
  H       0.615512      3.834829      1.288457
  H       2.333259      3.537751      1.108374
  C       1.457814      4.672360     -0.509767
  C       1.659952      6.056691      0.092751
  H       0.835095      6.320293      0.758460
  H       2.581827      6.098212      0.677669
  H       1.723305      6.822594     -0.681658
  H       0.536329      4.661990     -1.101970
  H       2.272693      4.461995     -1.208432
  H       0.124556      2.234916     -0.532906
  C       2.145568      1.615024     -0.884616
  H       3.085253      1.564773     -0.324408
  H       2.313557      2.265654     -1.743534
  C       1.723589      0.228612     -1.344427
  H       0.940810      0.312745     -2.112375
  H       2.547391     -0.289522     -1.842351
  H       0.627508     -2.253842     -1.392467
51
Coordinates from ORCA-job orca E -1004.411900569758
  C       0.982675     -2.058309     -0.377928
  H       0.222050     -2.387415      0.330840
  C       2.224336     -2.979950     -0.155750
  C       2.828297     -2.802280      1.242153
  H       2.024334     -2.643092      1.962164
  H       3.333742     -3.731192      1.526377
  C       3.838258     -1.672135      1.306871
  H       4.277930     -1.619200      2.304159
  H       3.367978     -0.702155      1.118910
  C       4.934515     -1.906101      0.293812
  H       5.478054     -2.822714      0.556194
  C       5.923815     -0.763513      0.149686
  C       6.718900     -0.468667      1.416308
  H       6.044793     -0.134934      2.210114
  H       7.184153     -1.392007      1.778224
  C       7.791923      0.588516      1.191150
  H       8.338044      0.803483      2.110747
  H       7.353369      1.524815      0.837695
  H       8.515656      0.260993      0.441367
  H       5.374594      0.130477     -0.166297
  H       6.606968     -1.011569     -0.667319
  O       4.397765     -2.114667     -1.028706
  C       1.744647     -4.424646     -0.330394
  H       1.026301     -4.668322      0.455076
  H       2.579702     -5.123883     -0.255474
  H       1.271055     -4.564355     -1.301008
  C       3.211555     -2.681972     -1.288588
  O       2.927118     -2.891347     -2.437120
  C       1.183260     -0.592067     -0.220250
  C       0.805600      0.021690      1.043941
  O       0.470104     -0.622509      2.015156
  O       0.873038      1.365002      1.163880
  C       1.070172      2.200711      0.012479
  C       1.380142      3.582317      0.558680
  H       0.596180      3.838050      1.276739
  H       2.314572      3.529027      1.127308
  C       1.477078      4.668172     -0.506922
  C       1.670444      6.052306      0.098905
  H       0.827844      6.323060      0.738996
  H       2.574602      6.088315      0.711250
  H       1.762926      6.816251     -0.674524
  H       0.569607      4.660567     -1.120513
  H       2.307220      4.453937     -1.186034
  H       0.120313      2.234537     -0.539132
  C       2.142189      1.613091     -0.881589
  H       3.079758      1.563091     -0.317801
  H       2.313496      2.263403     -1.740038
  C       1.722069      0.226596     -1.343003
  H       0.941484      0.310855     -2.113155
  H       2.547583     -0.290785     -1.838818
  H       0.627991     -2.257940     -1.393090
51
Coordinates from ORCA-job orca E -1004.411903724451
  C       0.984273     -2.055473     -0.378787
  H       0.222908     -2.383865      0.329551
  C       2.224896     -2.978312     -0.156000
  C       2.828454     -2.801678      1.242249
  H       2.024583     -2.640778      1.961941
  H       3.331824     -3.731645      1.526688
  C       3.840865     -1.673737      1.307313
  H       4.279840     -1.621236      2.304885
  H       3.373049     -0.702824      1.118444
  C       4.937172     -1.910542      0.295095
  H       5.478245     -2.828455      0.558040
  C       5.929327     -0.770449      0.151267
  C       6.721744     -0.474899      1.419383
  H       6.046298     -0.136687      2.210152
  H       7.182812     -1.398825      1.785190
  C       7.799148      0.577876      1.194582
  H       8.343934      0.792401      2.115111
  H       7.364841      1.515112      0.838434
  H       8.523598      0.246254      0.447304
  H       5.382979      0.124281     -0.167632
  H       6.614005     -1.021605     -0.663512
  O       4.400842     -2.118108     -1.027806
  C       1.743448     -4.422356     -0.331131
  H       1.023739     -4.664956      0.453426
  H       2.577481     -5.122675     -0.255018
  H       1.270890     -4.561457     -1.302324
  C       3.213137     -2.681851     -1.288366
  O       2.929380     -2.892210     -2.436900
  C       1.185521     -0.589261     -0.220797
  C       0.808024      0.024561      1.043550
  O       0.471036     -0.619565      2.014244
  O       0.876253      1.367797      1.163711
  C       1.072511      2.203462      0.012096
  C       1.382055      3.585661      0.557044
  H       0.603956      3.836682      1.283107
  H       2.322429      3.536469      1.116205
  C       1.461298      4.673190     -0.508275
  C       1.657502      6.057350      0.096653
  H       0.825288      6.321487      0.752902
  H       2.572752      6.098183      0.691951
  H       1.730093      6.823325     -0.676896
  H       0.545531      4.663023     -1.109333
  H       2.282965      4.463089     -1.198941
  H       0.121997      2.236666     -0.538459
  C       2.143973      1.615961     -0.882669
  H       3.081970      1.566103     -0.319446
  H       2.314513      2.266343     -1.741221
  C       1.724092      0.229341     -1.343748
  H       0.943380      0.313103     -2.113883
  H       2.549536     -0.288228     -1.839528
  H       0.629811     -2.254501     -1.394122
51
Coordinates from ORCA-job orca E -1004.411911042054
  C       0.983790     -2.056428     -0.378934
  H       0.222507     -2.385172      0.329336
  C       2.224960     -2.978306     -0.155816
  C       2.828309     -2.800545      1.242390
  H       2.024296     -2.639535      1.961902
  H       3.332036     -3.730123      1.527458
  C       3.840245     -1.672124      1.306786
  H       4.279057     -1.618697      2.304368
  H       3.372050     -0.701530      1.117101
  C       4.936747     -1.909300      0.294877
  H       5.477854     -2.827031      0.558406
  C       5.928902     -0.769261      0.150479
  C       6.721483     -0.473008      1.418360
  H       6.046198     -0.134032      2.208931
  H       7.182304     -1.396812      1.784785
  C       7.799270      0.579214      1.192730
  H       8.344359      0.793996      2.113034
  H       7.365271      1.516431      0.836168
  H       8.523472      0.246887      0.445525
  H       5.382589      0.125329     -0.168863
  H       6.613526     -1.020863     -0.664210
  O       4.400631     -2.117646     -1.027983
  C       1.744460     -4.422764     -0.330398
  H       1.024882     -4.665545      0.454225
  H       2.578971     -5.122498     -0.254005
  H       1.272010     -4.562541     -1.301543
  C       3.212970     -2.681569     -1.288337
  O       2.929748     -2.893608     -2.436692
  C       1.184139     -0.590093     -0.220946
  C       0.805532      0.023714      1.043101
  O       0.466753     -0.620387      2.013173
  O       0.872462      1.367025      1.163014
  C       1.070743      2.202909      0.011874
  C       1.380535      3.584670      0.557755
  H       0.600260      3.837107      1.281001
  H       2.318780      3.533879      1.120337
  C       1.465605      4.671934     -0.507377
  C       1.660593      6.055971      0.098256
  H       0.825171      6.321621      0.749800
  H       2.572644      6.095560      0.698527
  H       1.738604      6.821623     -0.675092
  H       0.552537      4.662696     -1.112556
  H       2.290196      4.460796     -1.194238
  H       0.120873      2.236891     -0.539760
  C       2.142834      1.615205     -0.881958
  H       3.080465      1.565252     -0.318117
  H       2.314002      2.265547     -1.740413
  C       1.723214      0.228681     -1.343481
  H       0.942855      0.312590     -2.113992
  H       2.548890     -0.288839     -1.838945
  H       0.629614     -2.255732     -1.394311
51
Coordinates from ORCA-job orca E -1004.411907826929
  C       0.983403     -2.057415     -0.379239
  H       0.222140     -2.386455      0.328929
  C       2.225116     -2.978438     -0.155662
  C       2.828249     -2.799775      1.242558
  H       2.024118     -2.638684      1.961912
  H       3.332236     -3.729055      1.528135
  C       3.839846     -1.670997      1.306495
  H       4.278504     -1.616854      2.304096
  H       3.371373     -0.700651      1.116202
  C       4.936489     -1.908332      0.294803
  H       5.477700     -2.825895      0.558738
  C       5.928548     -0.768242      0.149993
  C       6.720822     -0.471035      1.417866
  H       6.045321     -0.131253      2.207905
  H       7.181366     -1.394608      1.785228
  C       7.798926      0.580772      1.191713
  H       8.344013      0.795858      2.111968
  H       7.365232      1.517920      0.834621
  H       8.523175      0.247835      0.444820
  H       5.382249      0.126115     -0.170028
  H       6.613396     -1.020277     -0.664382
  O       4.400553     -2.117304     -1.028034
  C       1.745474     -4.423268     -0.329742
  H       1.025939     -4.666161      0.454891
  H       2.580394     -5.122491     -0.252991
  H       1.273190     -4.563661     -1.300872
  C       3.213123     -2.681755     -1.288240
  O       2.929691     -2.893564     -2.436589
  C       1.182708     -0.590882     -0.221405
  C       0.802983      0.022989      1.042305
  O       0.463932     -0.621125      2.012253
  O       0.869560      1.366289      1.162201
  C       1.069507      2.202496      0.011568
  C       1.380304      3.583677      0.558281
  H       0.599112      3.837117      1.280202
  H       2.317461      3.531385      1.122519
  C       1.468779      4.670972     -0.506535
  C       1.663883      6.054725      0.099725
  H       0.827197      6.321266      0.749282
  H       2.574585      6.093271      0.702098
  H       1.744483      6.820375     -0.673361
  H       0.556988      4.662784     -1.113650
  H       2.294666      4.459034     -1.191603
  H       0.119956      2.237637     -0.540551
  C       2.141544      1.614437     -0.882017
  H       3.079149      1.564200     -0.318126
  H       2.312913      2.264783     -1.740426
  C       1.721741      0.228086     -1.343796
  H       0.941328      0.312200     -2.114262
  H       2.547305     -0.289464     -1.839414
  H       0.629528     -2.257044     -1.394653
51
Coordinates from ORCA-job orca E -1004.411904813698
  C       0.983234     -2.058118     -0.379294
  H       0.222103     -2.387217      0.328984
  C       2.225232     -2.978669     -0.155660
  C       2.828311     -2.799681      1.242555
  H       2.024140     -2.638749      1.961894
  H       3.332578     -3.728775      1.528247
  C       3.839548     -1.670576      1.306322
  H       4.278124     -1.616001      2.303943
  H       3.370762     -0.700436      1.115742
  C       4.936266     -1.907782      0.294692
  H       5.477668     -2.825199      0.558759
  C       5.928090     -0.767513      0.149794
  C       6.719660     -0.469556      1.417938
  H       6.043615     -0.129367      2.207340
  H       7.180067     -1.392878      1.786109
  C       7.797759      0.582261      1.191893
  H       8.342593      0.797426      2.112279
  H       7.364128      1.519356      0.834605
  H       8.522274      0.249252      0.445288
  H       5.381733      0.126586     -0.170847
  H       6.613367     -1.019726     -0.664161
  O       4.400442     -2.117046     -1.028155
  C       1.746166     -4.423710     -0.329617
  H       1.026725     -4.666806      0.455041
  H       2.581356     -5.122595     -0.252800
  H       1.273901     -4.564343     -1.300723
  C       3.213149     -2.681794     -1.288284
  O       2.929485     -2.893254     -2.436641
  C       1.182128     -0.591476     -0.221660
  C       0.802384      0.022474      1.042014
  O       0.463661     -0.621624      2.012088
  O       0.868716      1.365772      1.161812
  C       1.069347      2.202209      0.011451
  C       1.381372      3.582978      0.558540
  H       0.600556      3.836800      1.280741
  H       2.318651      3.529826      1.122504
  C       1.470230      4.670468     -0.506073
  C       1.666423      6.053991      0.100373
  H       0.830366      6.320725      0.750659
  H       2.577657      6.092075      0.701965
  H       1.746621      6.819788     -0.672615
  H       0.558187      4.663001     -1.112820
  H       2.295736      4.458162     -1.191477
  H       0.119720      2.238328     -0.540468
  C       2.140786      1.613789     -0.882551
  H       3.078704      1.563260     -0.319197
  H       2.311825      2.264166     -1.741008
  C       1.720429      0.227625     -1.344307
  H       0.939441      0.312013     -2.114168
  H       2.545496     -0.289999     -1.840659
  H       0.629286     -2.257901     -1.394657
51
Coordinates from ORCA-job orca E -1004.411905464397
  C       0.982668     -2.059099     -0.378940
  H       0.221955     -2.388337      0.329728
  C       2.225198     -2.978957     -0.155655
  C       2.828388     -2.799899      1.242509
  H       2.024237     -2.639484      1.961996
  H       3.333160     -3.728776      1.528001
  C       3.839075     -1.670311      1.306269
  H       4.277729     -1.615541      2.303846
  H       3.369760     -0.700414      1.115810
  C       4.935783     -1.906816      0.294468
  H       5.477680     -2.824005      0.558316
  C       5.927010     -0.766036      0.149625
  C       6.718026     -0.467425      1.417958
  H       6.041463     -0.127355      2.206970
  H       7.178756     -1.390417      1.786549
  C       7.795605      0.584952      1.192109
  H       8.340277      0.800204      2.112567
  H       7.361546      1.521903      0.834967
  H       8.520355      0.252402      0.445526
  H       5.380233      0.127715     -0.171272
  H       6.612624     -1.017955     -0.664134
  O       4.399892     -2.116135     -1.028348
  C       1.747085     -4.424291     -0.329855
  H       1.027971     -4.668053      0.454898
  H       2.582770     -5.122617     -0.253373
  H       1.274698     -4.564982     -1.300898
  C       3.212737     -2.681182     -1.288388
  O       2.929009     -2.892634     -2.436735
  C       1.181076     -0.592344     -0.221758
  C       0.801660      0.021830      1.041893
  O       0.463690     -0.622139      2.012330
  O       0.868005      1.365125      1.161475
  C       1.069427      2.201668      0.011326
  C       1.383005      3.581974      0.558771
  H       0.602466      3.836533      1.281008
  H       2.320214      3.527665      1.122723
  C       1.473023      4.669571     -0.505655
  C       1.670120      6.052857      0.101011
  H       0.834230      6.320028      0.751335
  H       2.581396      6.090289      0.702575
  H       1.750795      6.818716     -0.671870
  H       0.561114      4.662887     -1.112607
  H       2.298539      4.456747     -1.190856
  H       0.119724      2.238991     -0.540355
  C       2.140056      1.612531     -0.883154
  H       3.078292      1.561396     -0.320392
  H       2.310936      2.262879     -1.741667
  C       1.718600      0.226690     -1.344825
  H       0.936882      0.311611     -2.113880
  H       2.542908     -0.291235     -1.842099
  H       0.628352     -2.259181     -1.394113
51
Coordinates from ORCA-job orca E -1004.411903974518
  C       0.982529     -2.059440     -0.378844
  H       0.221990     -2.388605      0.330046
  C       2.225138     -2.979213     -0.155717
  C       2.828285     -2.800237      1.242467
  H       2.024089     -2.640060      1.961967
  H       3.333253     -3.729038      1.527861
  C       3.838698     -1.670418      1.306342
  H       4.277312     -1.615606      2.303926
  H       3.369122     -0.700631      1.115958
  C       4.935506     -1.906518      0.294543
  H       5.477682     -2.823557      0.558323
  C       5.926385     -0.765421      0.149768
  C       6.717076     -0.466433      1.418209
  H       6.040237     -0.126322      2.206967
  H       7.177886     -1.389260      1.787097
  C       7.794488      0.586133      1.192423
  H       8.339030      0.801512      2.112930
  H       7.360308      1.523000      0.835208
  H       8.519370      0.253680      0.445928
  H       5.379351      0.128112     -0.171277
  H       6.612199     -1.017144     -0.663882
  O       4.399689     -2.115927     -1.028289
  C       1.747230     -4.424591     -0.330102
  H       1.028144     -4.668551      0.454616
  H       2.583016     -5.122800     -0.253707
  H       1.274874     -4.565209     -1.301170
  C       3.212654     -2.681171     -1.288393
  O       2.928876     -2.892306     -2.436793
  C       1.181017     -0.592674     -0.221893
  C       0.802462      0.021573      1.041962
  O       0.464561     -0.622321      2.012486
  O       0.868721      1.364876      1.161418
  C       1.070150      2.201436      0.011287
  C       1.384502      3.581569      0.558758
  H       0.604694      3.836087      1.281785
  H       2.322244      3.527030      1.121785
  C       1.473558      4.669396     -0.505521
  C       1.671197      6.052572      0.101210
  H       0.836126      6.319417      0.752722
  H       2.583263      6.090055      0.701572
  H       1.750721      6.818623     -0.671601
  H       0.561064      4.662804     -1.111593
  H       2.298417      4.456739     -1.191559
  H       0.120281      2.239270     -0.540056
  C       2.140190      1.611913     -0.883666
  H       3.078653      1.560295     -0.321343
  H       2.310953      2.262306     -1.742173
  C       1.717888      0.226318     -1.345304
  H       0.935555      0.311699     -2.113678
  H       2.541590     -0.291793     -1.843360
  H       0.627973     -2.259628     -1.393910
