51
Coordinates from ORCA-job orca E -1004.411902945334
  C           0.98267062605471     -2.05914836468157     -0.37896893484822
  H           0.22199916235838     -2.38827850507754      0.32978973060474
  C           2.22518057260111     -2.97901052037325     -0.15563634752247
  C           2.82825549129839     -2.79993683890262      1.24255778596212
  H           2.02404525672697     -2.63951976318467      1.96197474397919
  H           3.33305335217637     -3.72878401993666      1.52810441982476
  C           3.83885434323020     -1.67027271439381      1.30638364935437
  H           4.27742482701937     -1.61548427519000      2.30399339996805
  H           3.36947198306118     -0.70041499206703      1.11586664243145
  C           4.93567451714248     -1.90672013351097      0.29468986846124
  H           5.47760682664405     -2.82386837698847      0.55858529902750
  C           5.92682787004710     -0.76587388224519      0.14985741061962
  C           6.71793847776339     -0.46728354742760      1.41812583269087
  H           6.04146713176732     -0.12709740511456      2.20716771861371
  H           7.17859701283915     -1.39029912952552      1.78673324445817
  C           7.79565310086094      0.58493229671635      1.19210980232067
  H           8.34045499547982      0.80017969402309      2.11249450003843
  H           7.36170554450616      1.52192066105506      0.83492464133511
  H           8.52027177371169      0.25220700378512      0.44548026297983
  H           5.37998399300668      0.12785681240046     -0.17095175311027
  H           6.61238066125842     -1.01770296132536     -0.66398122134239
  O           4.39988997041418     -2.11612814936271     -1.02816032557599
  C           1.74705544762720     -4.42433520804463     -0.32986139828908
  H           1.02783627988501     -4.66804991470120      0.45480611226744
  H           2.58271641297946     -5.12267270297075     -0.25324384563680
  H           1.27481012692437     -4.56505439841604     -1.30096638699220
  C           3.21279561375565     -2.68123564480185     -1.28828554895889
  O           2.92916438083112     -2.89270359243631     -2.43665964605075
  C           1.18114558039037     -0.59238932605176     -0.22191771417604
  C           0.80213558325766      0.02181379220899      1.04184481615320
  O           0.46398278306695     -0.62211365807615      2.01224870142105
  O           0.86829934717260      1.36512224289191      1.16134493847872
  C           1.06973931509557      2.20162937596028      0.01116922768885
  C           1.38342209970991      3.58191014004716      0.55861307559578
  H           0.60307721818454      3.83632692191199      1.28109951392084
  H           2.32079587330384      3.52762208343547      1.12228571461881
  C           1.47304054129289      4.66964544702584     -0.50569123670997
  C           1.66994549323663      6.05290827200595      0.10111321968342
  H           0.83415922863473      6.31978041757860      0.75168991551366
  H           2.58134985415150      6.09047523035267      0.70248149522587
  H           1.75029599456990      6.81888098803280     -0.67168645365137
  H           0.56101694978618      4.66283835079326     -1.11247399660192
  H           2.29847034825273      4.45709387066770     -1.19109650825849
  H           0.12003237104120      2.23903378797834     -0.54049598287637
  C           2.14024233753019      1.61233671895416     -0.88337823179306
  H           3.07847436026402      1.56090105958364     -0.32066144788839
  H           2.31125194482010      2.26274632444367     -1.74182544383950
  C           1.71839712658684      0.22662632864844     -1.34512108980696
  H           0.93639874968165      0.31183990004578     -2.11385954715607
  H           2.54243314987988     -0.29135718011563     -1.84278389771368
  H           0.62830899811915     -2.25935351562487     -1.39410072443858
