51
Coordinates from ORCA-job orca E -1004.411903974518
  C           0.98252928630122     -2.05944049923628     -0.37884429489353
  H           0.22199008474541     -2.38860526574398      0.33004558760531
  C           2.22513829162901     -2.97921282437629     -0.15571679237368
  C           2.82828523127246     -2.80023716618850      1.24246742120069
  H           2.02408862118079     -2.64006042232780      1.96196670200091
  H           3.33325329944102     -3.72903768624487      1.52786126435721
  C           3.83869823714930     -1.67041758529050      1.30634170605541
  H           4.27731179870825     -1.61560604515792      2.30392611150119
  H           3.36912161241430     -0.70063069491130      1.11595812469390
  C           4.93550556388691     -1.90651843099509      0.29454308247943
  H           5.47768182808591     -2.82355740568381      0.55832274515226
  C           5.92638450791834     -0.76542093534549      0.14976845431694
  C           6.71707633823725     -0.46643322144433      1.41820855971413
  H           6.04023672242010     -0.12632204616494      2.20696741128470
  H           7.17788565819149     -1.38925972027721      1.78709704498985
  C           7.79448806011384      0.58613305528254      1.19242265216253
  H           8.33903007872422      0.80151163444898      2.11293022660871
  H           7.36030829295407      1.52300020763285      0.83520758813869
  H           8.51937043133081      0.25367973285904      0.44592775601808
  H           5.37935106425866      0.12811230918956     -0.17127725229133
  H           6.61219914325569     -1.01714433804494     -0.66388183343568
  O           4.39968907671316     -2.11592660267281     -1.02828948189871
  C           1.74723006685814     -4.42459051091393     -0.33010176752262
  H           1.02814448441118     -4.66855084497346      0.45461595840610
  H           2.58301645442236     -5.12280023407348     -0.25370712158546
  H           1.27487414969036     -4.56520859478517     -1.30116998422580
  C           3.21265357102946     -2.68117106201861     -1.28839342229595
  O           2.92887576604815     -2.89230606136625     -2.43679326902200
  C           1.18101699836074     -0.59267430081393     -0.22189263141240
  C           0.80246190897836      0.02157255089767      1.04196248318107
  O           0.46456072542749     -0.62232082261264      2.01248589499609
  O           0.86872148769754      1.36487638007925      1.16141784446331
  C           1.07014957934985      2.20143555197847      0.01128683160089
  C           1.38450192129111      3.58156932294219      0.55875756560636
  H           0.60469430102672      3.83608748100326      1.28178458546058
  H           2.32224399612766      3.52703044834951      1.12178532517738
  C           1.47355769892254      4.66939627498528     -0.50552109165213
  C           1.67119683865659      6.05257205199458      0.10120982134340
  H           0.83612644937143      6.31941737092731      0.75272177316639
  H           2.58326272566383      6.09005482942336      0.70157202179609
  H           1.75072149144782      6.81862301490394     -0.67160066242680
  H           0.56106359480687      4.66280376589439     -1.11159326916611
  H           2.29841745094989      4.45673855203171     -1.19155889842481
  H           0.12028110127817      2.23926974614078     -0.54005621917762
  C           2.14019012550258      1.61191269653133     -0.88366606330045
  H           3.07865347240935      1.56029534126563     -0.32134308485004
  H           2.31095338619740      2.26230560054029     -1.74217322487769
  C           1.71788782889621      0.22631788389084     -1.34530410770745
  H           0.93555523903944      0.31169942026698     -2.11367830773149
  H           2.54159011584993     -0.29179315399982     -1.84335972655660
  H           0.62797284135654     -2.25962774779635     -1.39391003664927
