51
Coordinates from ORCA-job orca E -1004.411877566187
  C           0.98715167925832     -2.04955289321197     -0.37870546212112
  H           0.22575981349242     -2.37540034659890      0.33085098887335
  C           2.22485958138353     -2.97652212087283     -0.15832770810936
  C           2.82802406883429     -2.80599650934343      1.24083144694191
  H           2.02436793913213     -2.64552906332684      1.96077461175047
  H           3.32904543353373     -3.73813640986631      1.52229478797896
  C           3.84300505827264     -1.68064877520502      1.31001900920997
  H           4.28065823192185     -1.63135226862163      2.30828566674229
  H           3.37796611868242     -0.70811944184222      1.12251831256799
  C           4.93975377730613     -1.91765278553071      0.29845178883866
  H           5.47803733689310     -2.83776766609129      0.55939735706239
  C           5.93510456251522     -0.77990180408798      0.15850517848261
  C           6.72362907272555     -0.48663534073702      1.42966567371320
  H           6.04593864258295     -0.14545223614631      2.21720539630374
  H           7.17983313962545     -1.41196968900814      1.79797709344803
  C           7.80578010805162      0.56212848683974      1.20897951180406
  H           8.34886500076944      0.77287935734986      2.13143051750096
  H           7.37611762682105      1.50158334004198      0.85315061956215
  H           8.53130529355341      0.22864036128069      0.46359144160833
  H           5.39201932096745      0.11636318120638     -0.16170026026331
  H           6.62197552430738     -1.03218532436124     -0.65405624443609
  O           4.40428822772315     -2.12048943834954     -1.02567786252697
  C           1.73934038005295     -4.41866321232938     -0.33848297161404
  H           1.01723733331251     -4.66113883776247      0.44392648967377
  H           2.57102559699334     -5.12176872004404     -0.26243936621308
  H           1.26823431749301     -4.55352878167779     -1.31096437992416
  C           3.21494028602120     -2.67919169410794     -1.28898352389169
  O           2.93136208520871     -2.88530750998655     -2.43835886321358
  C           1.19350814323684     -0.58391224926933     -0.22046061028017
  C           0.82524857145055      0.03007293773045      1.04672643934802
  O           0.49055246509358     -0.61379348875456      2.01827973757630
  O           0.89902282829182      1.37292223243944      1.16761845467010
  C           1.08530081696786      2.20763977086555      0.01366435364589
  C           1.39671839291319      3.59179543140920      0.55211134862655
  H           0.64014918334370      3.83078830390815      1.30448948674703
  H           2.35628572752580      3.55450158165085      1.07865770120737
  C           1.42207935572343      4.68192928752389     -0.51310457559214
  C           1.63542657297508      6.06649059023781      0.08516807786137
  H           0.84005402194622      6.31650732979221      0.79083311365522
  H           2.58371279470577      6.11852414670881      0.62520801630886
  H           1.65041062791964      6.83602283044406     -0.68808132402381
  H           0.47995512675140      4.66638025968178     -1.07162054253247
  H           2.21289002014475      4.47937324051227     -1.24127688344142
  H           0.13019065201842      2.23853404006445     -0.52905983756420
  C           2.15081359475874      1.62015703508457     -0.88801932174065
  H           3.09207028464191      1.56991264271745     -0.33032067399045
  H           2.31622674672696      2.27093275335426     -1.74737928565708
  C           1.72823694740260      0.23351660001363     -1.34626045254041
  H           0.94451113074617      0.31656068021202     -2.11344073199611
  H           2.55117163135218     -0.28559606797790     -1.84466881296510
  H           0.63003880592818     -2.24640374595821     -1.39349292707213
