51
Coordinates from ORCA-job orca E -1004.405687077445
  C          -1.18331595766721     -1.50145362547315      0.38160632773157
  C          -1.24676271631433     -0.33509880477853      1.23957810698555
  O          -0.35811495480853     -0.03575449218559      2.01297022804438
  O          -2.32192079713488      0.47552881994361      1.17536313548267
  C          -2.28545442316696     -1.80376867918457     -0.57218646956129
  H          -2.93869732856876     -2.57576618172199     -0.13759248704425
  H          -1.85960649663534     -2.22947686870628     -1.48189060231345
  C          -3.48704099147174      0.13513665535799      0.40524110719067
  H          -4.08929621018582     -0.55075624105093      1.01747449409906
  C          -3.09576663383888     -0.55691349826221     -0.88306841677139
  H          -3.99201306802754     -0.81373037070232     -1.44965895871299
  H          -2.49662375599269      0.12480975539653     -1.49368934190265
  C          -0.00643379149320     -2.41947220855037      0.45815634788826
  C           1.39645118053174     -1.86999930185190      0.05015255843190
  H          -0.23445004891416     -3.27512782350013     -0.18005551597347
  H           0.09245197394921     -2.80452634954964      1.47806707044609
  C           1.23942351295524     -0.83355771941547     -1.06293692907563
  C           2.21357869976351     -1.36110011168472      1.26793172871305
  C           2.16588844616481     -3.02823079445061     -0.61911283766281
  O           0.31563267070982     -0.85517384382150     -1.83525824124229
  O           2.20471020594186      0.06789218774972     -1.25276421819057
  H           3.06099970634249     -2.03616958536640      1.41859738854125
  H           1.59961939023041     -1.40188365316064      2.16347993863775
  C           2.73142734589383      0.05652621025296      1.09490757825276
  H           1.64730055069184     -3.37732219365939     -1.51316335651892
  H           3.17523965701533     -2.72350589089483     -0.90279214438567
  H           2.25371295870771     -3.86011393889139      0.08320075515252
  C           3.27269461623628      0.25535485185277     -0.30138888653772
  H           3.51355472825650      0.25917789071822      1.82831099061083
  H           1.92530508733584      0.77516879165164      1.26595257698827
  H           4.04416572340369     -0.49592217545325     -0.51821324862075
  C          -4.25062406802502      1.43425644857877      0.22021537036425
  H          -3.64659311597886      2.10666959036580     -0.39757737927200
  H          -4.34034742313581      1.90903585416364      1.20134547706030
  C           3.82981213730447      1.63841752029852     -0.58477160684822
  H           3.05017627665222      2.37624127980789     -0.36982719586476
  H           4.03380382624138      1.70457356605761     -1.65742262135230
  C          -5.63554127473134      1.25561050539181     -0.39097577280701
  H          -6.20043983706536      0.52266139697565      0.19556795595747
  H          -5.55009523329321      0.84039192999426     -1.39929719620281
  C           5.09507638803362      1.96831144591618      0.19864026830975
  H           4.88270957345853      1.96070968158812      1.27131081777879
  H           5.84513339946861      1.18816215939669      0.02800859057773
  C           5.67302143790078      3.32357487128006     -0.18839483287393
  H           6.56843776895213      3.55488782020079      0.39067652193268
  H           5.94304905426365      3.34893025374310     -1.24662419138918
  H           4.94779997647781      4.12168580161070     -0.01349812516507
  C          -6.41279916430662      2.56415431779515     -0.45273175974646
  H          -7.39788405186582      2.42260799794856     -0.90025892368808
  H          -6.55574078281212      2.98402925445040      0.54560058300299
  H          -5.87975416744914      3.30809749382866     -1.04938465845687
