51
Coordinates from ORCA-job orca E -1004.403947772731
  C      -1.195330     -1.477650      0.354920
  C      -1.254060     -0.285770      1.191530
  O      -0.352370      0.044640      1.937690
  O      -2.342310      0.504280      1.124670
  C      -2.284230     -1.781130     -0.620560
  H      -2.930710     -2.582580     -0.208130
  H      -1.833590     -2.180900     -1.540560
  C      -3.508180      0.138940      0.380710
  H      -4.088630     -0.574050      0.999190
  C      -3.115720     -0.542260     -0.918130
  H      -4.016520     -0.807720     -1.489540
  H      -2.524380      0.159650     -1.528870
  C      -0.016920     -2.396850      0.452370
  C       1.390530     -1.835370      0.068480
  H      -0.233360     -3.261080     -0.192580
  H       0.065420     -2.789150      1.480550
  C       1.236530     -0.784170     -1.038980
  C       2.186420     -1.323430      1.304740
  C       2.184670     -2.981100     -0.600320
  O       0.301800     -0.775510     -1.799320
  O       2.226930      0.088850     -1.228480
  H       3.017720     -2.021270      1.496800
  H       1.539050     -1.326970      2.187620
  C       2.739150      0.082080      1.118220
  H       1.685050     -3.326640     -1.517510
  H       3.205670     -2.664940     -0.862370
  H       2.264150     -3.830010      0.096300
  C       3.291520      0.261890     -0.281110
  H       3.523360      0.283000      1.862320
  H       1.935540      0.819340      1.276030
  H       4.055980     -0.512740     -0.485190
  C      -4.316320      1.417060      0.215980
  H      -3.737590      2.116900     -0.410760
  H      -4.396570      1.885590      1.210230
  C       3.889370      1.629540     -0.571880
  H       3.132670      2.397720     -0.338620
  H       4.068880      1.689060     -1.657750
  C      -5.710550      1.210080     -0.369750
  H      -6.249310      0.453530      0.227480
  H      -5.634180      0.795700     -1.388850
  C       5.186220      1.917540      0.179850
  H       5.002320      1.904580      1.266920
  H       5.910270      1.107290     -0.016550
  C       5.802990      3.257250     -0.207570
  H       6.733320      3.447240      0.347520
  H       6.040010      3.289850     -1.282550
  H       5.110870      4.087340      0.003650
  C      -6.524930      2.498600     -0.414400
  H      -7.523130      2.329230     -0.844210
  H      -6.659910      2.918540      0.594640
  H      -6.021750      3.263760     -1.026050
51
Coordinates from ORCA-job orca E -1004.405461598168
  C      -1.206278     -1.431255      0.359533
  C      -1.288448     -0.246572      1.196071
  O      -0.400473      0.093246      1.951945
  O      -2.389868      0.525856      1.132714
  C      -2.295352     -1.760050     -0.602369
  H      -2.921347     -2.561687     -0.180912
  H      -1.848356     -2.159409     -1.514343
  C      -3.549954      0.136852      0.387048
  H      -4.115592     -0.576752      1.004481
  C      -3.147669     -0.540461     -0.906620
  H      -4.038164     -0.823502     -1.470184
  H      -2.574280      0.163458     -1.517552
  C      -0.020375     -2.338461      0.456558
  C       1.388482     -1.789327      0.063875
  H      -0.236623     -3.199782     -0.179021
  H       0.065679     -2.723820      1.478181
  C       1.252433     -0.732811     -1.036131
  C       2.204900     -1.304059      1.292662
  C       2.154099     -2.942860     -0.616438
  O       0.323132     -0.709042     -1.800757
  O       2.258179      0.121700     -1.229674
  H       3.015966     -2.017347      1.468012
  H       1.571481     -1.302991      2.175307
  C       2.788212      0.087999      1.113774
  H       1.643694     -3.272611     -1.523121
  H       3.170113     -2.646036     -0.883918
  H       2.224529     -3.789182      0.070765
  C       3.333219      0.264658     -0.285299
  H       3.577942      0.261780      1.846824
  H       2.011145      0.838860      1.283021
  H       4.075718     -0.517086     -0.500177
  C      -4.374406      1.399991      0.215128
  H      -3.808200      2.101266     -0.407353
  H      -4.468698      1.868016      1.199634
  C       3.951061      1.621922     -0.568426
  H       3.214122      2.395572     -0.327885
  H       4.128607      1.687844     -1.646259
  C      -5.757656      1.164642     -0.377997
  H      -6.283005      0.406341      0.213898
  H      -5.667625      0.752403     -1.387731
  C       5.250940      1.878842      0.182997
  H       5.069376      1.859561      1.261810
  H       5.956569      1.065436     -0.021337
  C       5.885352      3.210390     -0.194472
  H       6.812150      3.380320      0.356010
  H       6.118997      3.248004     -1.261327
  H       5.211178      4.042212      0.023756
  C      -6.591874      2.437186     -0.429704
  H      -7.576476      2.251674     -0.862347
  H      -6.739178      2.853139      0.569975
  H      -6.101520      3.203710     -1.034807
51
Coordinates from ORCA-job orca E -1004.405373664760
  C      -1.184052     -1.489244      0.361499
  C      -1.224882     -0.301052      1.189640
  O      -0.307347      0.029900      1.913818
  O      -2.300884      0.507831      1.127173
  C      -2.289866     -1.798321     -0.585357
  H      -2.932093     -2.576490     -0.149861
  H      -1.863974     -2.219425     -1.495887
  C      -3.480117      0.144510      0.394078
  H      -4.060702     -0.541421      1.024960
  C      -3.110527     -0.558826     -0.894785
  H      -4.013181     -0.823136     -1.444319
  H      -2.525450      0.119941     -1.519499
  C      -0.010859     -2.409142      0.443532
  C       1.391622     -1.856279      0.049825
  H      -0.234671     -3.264075     -0.194890
  H       0.080089     -2.795495      1.462224
  C       1.243012     -0.819635     -1.063787
  C       2.183988     -1.340381      1.279922
  C       2.174383     -3.011150     -0.608125
  O       0.311744     -0.818883     -1.826144
  O       2.217858      0.072723     -1.249652
  H       3.012820     -2.026823      1.466342
  H       1.543414     -1.354827      2.155902
  C       2.722290      0.069087      1.100727
  H       1.673486     -3.359876     -1.510552
  H       3.186901     -2.707619     -0.873605
  H       2.249946     -3.843938      0.091962
  C       3.277130      0.257299     -0.291712
  H       3.496637      0.271229      1.840065
  H       1.920564      0.794263      1.257614
  H       4.047764     -0.496475     -0.495508
  C      -4.263968      1.431279      0.212723
  H      -3.680206      2.105847     -0.419539
  H      -4.339619      1.912319      1.190396
  C       3.847017      1.635183     -0.573200
  H       3.080749      2.380686     -0.344626
  H       4.036235      1.704588     -1.646849
  C      -5.656098      1.231861     -0.372062
  H      -6.200847      0.496922      0.228117
  H      -5.583553      0.809692     -1.376855
  C       5.126587      1.940810      0.194047
  H       4.932195      1.918232      1.268469
  H       5.863453      1.155584      0.000711
  C       5.714740      3.294043     -0.180552
  H       6.626325      3.499665      0.379429
  H       5.959141      3.336818     -1.242792
  H       5.008312      4.098885      0.026879
  C      -6.450221      2.529294     -0.429798
  H      -7.440508      2.371615     -0.855829
  H      -6.579171      2.956231      0.565643
  H      -5.939748      3.273957     -1.042095
51
Coordinates from ORCA-job orca E -1004.405638327778
  C      -1.192670     -1.471867      0.374569
  C      -1.257620     -0.291671      1.213624
  O      -0.363676      0.030723      1.970777
  O      -2.344281      0.503199      1.149730
  C      -2.284349     -1.782887     -0.588560
  H      -2.925123     -2.572050     -0.167474
  H      -1.842978     -2.191998     -1.498836
  C      -3.509269      0.136293      0.395239
  H      -4.091720     -0.563746      1.010728
  C      -3.113619     -0.548206     -0.896300
  H      -4.006741     -0.816333     -1.461986
  H      -2.526161      0.144423     -1.505706
  C      -0.013372     -2.385648      0.461420
  C       1.389106     -1.832836      0.062159
  H      -0.234911     -3.243244     -0.176374
  H       0.079155     -2.770902      1.481890
  C       1.233185     -0.784413     -1.039191
  C       2.202231     -1.333521      1.286489
  C       2.159698     -2.984136     -0.617295
  O       0.298729     -0.779012     -1.798171
  O       2.217237      0.095671     -1.235246
  H       3.027743     -2.030420      1.456464
  H       1.573313     -1.347853      2.172170
  C       2.754968      0.070856      1.108446
  H       1.646069     -3.321615     -1.518591
  H       3.171604     -2.681013     -0.891726
  H       2.240373     -3.825669      0.074009
  C       3.292660      0.260848     -0.291042
  H       3.543467      0.258541      1.838649
  H       1.963981      0.805572      1.281701
  H       4.051020     -0.502538     -0.511145
  C      -4.304023      1.417545      0.217848
  H      -3.717258      2.106567     -0.398079
  H      -4.399563      1.886138      1.201240
  C       3.876327      1.633488     -0.572598
  H       3.121432      2.387958     -0.329829
  H       4.053210      1.706678     -1.649419
  C      -5.685860      1.211310     -0.390287
  H      -6.232531      0.462469      0.193179
  H      -5.593959      0.802512     -1.400469
  C       5.169625      1.919593      0.180423
  H       4.988084      1.893663      1.258392
  H       5.895438      1.125768     -0.026682
  C       5.769521      3.268222     -0.194524
  H       6.691342      3.460550      0.356272
  H       6.001946      3.313464     -1.260808
  H       5.074101      4.081157      0.025682
  C      -6.492732      2.501726     -0.443448
  H      -7.476132      2.339369     -0.887092
  H      -6.641156      2.914754      0.556706
  H      -5.979998      3.260297     -1.039106
51
Coordinates from ORCA-job orca E -1004.405638947244
  C      -1.195550     -1.465065      0.366274
  C      -1.260382     -0.283819      1.203503
  O      -0.361393      0.045700      1.952053
  O      -2.348087      0.510177      1.141219
  C      -2.296641     -1.787144     -0.582735
  H      -2.932585     -2.572929     -0.147028
  H      -1.864432     -2.204752     -1.493688
  C      -3.517915      0.137646      0.395665
  H      -4.095938     -0.557564      1.021175
  C      -3.130868     -0.556438     -0.893372
  H      -4.028520     -0.831267     -1.449381
  H      -2.549629      0.132292     -1.513684
  C      -0.014343     -2.377409      0.451994
  C       1.391221     -1.826173      0.054167
  H      -0.235933     -3.235785     -0.185277
  H       0.077863     -2.762305      1.472940
  C       1.246929     -0.779874     -1.051644
  C       2.201398     -1.327483      1.280870
  C       2.162693     -2.981274     -0.618013
  O       0.322574     -0.778406     -1.823158
  O       2.235030      0.096704     -1.243642
  H       3.025428     -2.026043      1.453758
  H       1.569705     -1.340584      2.164961
  C       2.758357      0.075312      1.103827
  H       1.652035     -3.320515     -1.520749
  H       3.176836     -2.680672     -0.888784
  H       2.238534     -3.820764      0.076935
  C       3.305391      0.260656     -0.292501
  H       3.543665      0.261667      1.838379
  H       1.968696      0.813223      1.271117
  H       4.062316     -0.506156     -0.507141
  C      -4.313676      1.417837      0.213818
  H      -3.731153      2.101932     -0.412152
  H      -4.402758      1.894355      1.194403
  C       3.894652      1.631219     -0.573434
  H       3.139196      2.388266     -0.338985
  H       4.081354      1.701159     -1.649171
  C      -5.700221      1.206563     -0.382628
  H      -6.242187      0.461116      0.210202
  H      -5.615613      0.791358     -1.391224
  C       5.182141      1.917109      0.190286
  H       4.990892      1.894794      1.267019
  H       5.908851      1.121479     -0.008489
  C       5.787237      3.264085     -0.183416
  H       6.704389      3.457264      0.375622
  H       6.029720      3.305424     -1.248012
  H       5.090255      4.078607      0.027765
  C      -6.508452      2.496364     -0.437800
  H      -7.495217      2.330877     -0.873763
  H      -6.650015      2.915127      0.561394
  H      -5.999992      3.251890     -1.041659
51
Coordinates from ORCA-job orca E -1004.405653082616
  C      -1.192367     -1.473371      0.374216
  C      -1.256056     -0.293427      1.212717
  O      -0.359430      0.030463      1.966693
  O      -2.340942      0.504582      1.148802
  C      -2.292586     -1.791830     -0.576750
  H      -2.932666     -2.574426     -0.141672
  H      -1.860503     -2.212007     -1.486462
  C      -3.509794      0.137477      0.397924
  H      -4.093110     -0.554784      1.021437
  C      -3.121106     -0.557834     -0.889757
  H      -4.018082     -0.829390     -1.448235
  H      -2.535447      0.128456     -1.508354
  C      -0.012235     -2.386921      0.458691
  C       1.391490     -1.836080      0.055706
  H      -0.235821     -3.245496     -0.177345
  H       0.082703     -2.770046      1.479908
  C       1.239693     -0.789604     -1.048281
  C       2.207591     -1.338593      1.278904
  C       2.159119     -2.990421     -0.622143
  O       0.307168     -0.785551     -1.810035
  O       2.220612      0.095041     -1.240843
  H       3.035858     -2.033936      1.443492
  H       1.582094     -1.358405      2.167112
  C       2.757074      0.067312      1.104081
  H       1.643119     -3.328603     -1.522025
  H       3.171462     -2.689263     -0.898398
  H       2.239166     -3.830280      0.071655
  C       3.295581      0.260481     -0.294343
  H       3.545835      0.253874      1.834691
  H       1.965655      0.801350      1.278881
  H       4.054583     -0.501792     -0.516767
  C      -4.298345      1.421645      0.213151
  H      -3.709617      2.103078     -0.409624
  H      -4.390352      1.897950      1.193397
  C       3.875900      1.635245     -0.573180
  H       3.117026      2.387000     -0.333490
  H       4.058687      1.709912     -1.649117
  C      -5.682948      1.217070     -0.390336
  H      -6.230965      0.473265      0.198713
  H      -5.595228      0.803379     -1.399119
  C       5.164278      1.926442      0.187212
  H       4.976670      1.899882      1.264315
  H       5.895239      1.136210     -0.016591
  C       5.759504      3.278421     -0.184567
  H       6.676796      3.476136      0.372380
  H       5.998642      3.324049     -1.249591
  H       5.057716      4.087508      0.030795
  C      -6.485234      2.510576     -0.447074
  H      -7.470297      2.350423     -0.888485
  H      -6.630030      2.927725      0.552170
  H      -5.970242      3.264890     -1.046639
51
Coordinates from ORCA-job orca E -1004.405672504958
  C      -1.188789     -1.488993      0.381523
  C      -1.250473     -0.313980      1.226306
  O      -0.357222     -0.001763      1.989320
  O      -2.330803      0.490387      1.162548
  C      -2.287067     -1.797839     -0.574505
  H      -2.933899     -2.577187     -0.144046
  H      -1.854704     -2.218138     -1.483889
  C      -3.497714      0.134973      0.401946
  H      -4.089635     -0.555198      1.019223
  C      -3.106301     -0.557289     -0.886344
  H      -4.002061     -0.821121     -1.450162
  H      -2.513319      0.127559     -1.499192
  C      -0.010024     -2.403969      0.461897
  C       1.391178     -1.850221      0.056983
  H      -0.234494     -3.260683     -0.175982
  H       0.087326     -2.788367      1.482184
  C       1.231228     -0.805767     -1.046979
  C       2.207094     -1.347477      1.278031
  C       2.161519     -3.002795     -0.621264
  O       0.301268     -0.814290     -1.811966
  O       2.205795      0.085238     -1.242294
  H       3.041447     -2.035993      1.439277
  H       1.584924     -1.373306      2.168328
  C       2.745305      0.062566      1.102298
  H       1.644263     -3.344071     -1.519010
  H       3.171689     -2.697900     -0.900619
  H       2.246862     -3.840999      0.073619
  C       3.281027      0.258770     -0.296661
  H       3.533666      0.254758      1.831656
  H       1.949192      0.791033      1.277830
  H       4.044624     -0.498250     -0.520115
  C      -4.274977      1.425981      0.217653
  H      -3.676623      2.105584     -0.397537
  H      -4.371172      1.898246      1.199225
  C       3.850442      1.637610     -0.577301
  H       3.085044      2.383283     -0.340253
  H       4.034849      1.711979     -1.652777
  C      -5.656510      1.234514     -0.397231
  H      -6.214121      0.491563      0.183482
  H      -5.564176      0.826303     -1.407619
  C       5.134827      1.941438      0.185036
  H       4.945130      1.916295      1.261580
  H       5.872961      1.157304     -0.015391
  C       5.718872      3.297642     -0.189292
  H       6.632421      3.505525      0.369724
  H       5.960731      3.341908     -1.253559
  H       5.009002      4.100627      0.021396
  C      -6.448985      2.534166     -0.452252
  H      -7.431410      2.384035     -0.902492
  H      -6.598657      2.945891      0.548317
  H      -5.923691      3.288199     -1.042832
51
Coordinates from ORCA-job orca E -1004.405680488904
  C      -1.188120     -1.489718      0.381498
  C      -1.249921     -0.315083      1.227032
  O      -0.356212     -0.002696      1.989520
  O      -2.329344      0.490413      1.162574
  C      -2.289054     -1.800440     -0.570972
  H      -2.936145     -2.577299     -0.136104
  H      -1.859745     -2.224389     -1.480101
  C      -3.497016      0.135893      0.402431
  H      -4.089952     -0.551735      1.021690
  C      -3.107516     -0.559764     -0.884550
  H      -4.004362     -0.824191     -1.446556
  H      -2.514580      0.122955     -1.499979
  C      -0.009323     -2.405035      0.461413
  C       1.392614     -1.853035      0.054706
  H      -0.234929     -3.262254     -0.175504
  H       0.088736     -2.788574      1.482026
  C       1.234278     -0.809554     -1.050801
  C       2.210456     -1.350996      1.274864
  C       2.160739     -3.007571     -0.622757
  O       0.304549     -0.818307     -1.816165
  O       2.207104      0.083685     -1.244221
  H       3.046748     -2.038082      1.432852
  H       1.590534     -1.379893      2.166694
  C       2.745952      0.060192      1.100709
  H       1.642037     -3.349173     -1.519644
  H       3.171126     -2.704214     -0.903427
  H       2.245611     -3.844961      0.073305
  C       3.281772      0.258337     -0.297862
  H       3.534074      0.252769      1.830371
  H       1.948773      0.787432      1.276912
  H       4.046453     -0.497527     -0.521851
  C      -4.271780      1.428090      0.215690
  H      -3.672897      2.104813     -0.402306
  H      -4.365870      1.903191      1.196199
  C       3.848893      1.638287     -0.577618
  H       3.081033      2.382323     -0.342933
  H       4.036233      1.712673     -1.652677
  C      -5.654720      1.237625     -0.396523
  H      -6.212716      0.497023      0.186993
  H      -5.564738      0.826909     -1.406208
  C       5.130390      1.945881      0.188245
  H       4.937405      1.921810      1.264323
  H       5.871017      1.163149     -0.008980
  C       5.712391      3.303000     -0.186197
  H       6.623183      3.514421      0.376177
  H       5.958385      3.345956     -1.249673
  H       4.999371      4.104441      0.020232
  C      -6.445008      2.538600     -0.453345
  H      -7.428383      2.389232     -0.901996
  H      -6.592595      2.952734      0.546652
  H      -5.919073      3.290438     -1.046337
51
Coordinates from ORCA-job orca E -1004.405684205268
  C      -1.186499     -1.493717      0.381186
  C      -1.248683     -0.321695      1.230731
  O      -0.356438     -0.013576      1.996673
  O      -2.326549      0.485696      1.166464
  C      -2.288988     -1.802690     -0.570123
  H      -2.938068     -2.577006     -0.133464
  H      -1.862126     -2.228710     -1.479368
  C      -3.493812      0.135896      0.403407
  H      -4.089955     -0.550137      1.021422
  C      -3.104643     -0.560024     -0.883472
  H      -4.001841     -0.822348     -1.446041
  H      -2.509803      0.121480     -1.498515
  C      -0.008252     -2.409952      0.459966
  C       1.394305     -1.859186      0.052440
  H      -0.234871     -3.266891     -0.177017
  H       0.090198     -2.793604      1.480500
  C       1.237253     -0.818551     -1.056304
  C       2.212187     -1.354948      1.271690
  C       2.162463     -3.015619     -0.621639
  O       0.309753     -0.831803     -1.824379
  O       2.207151      0.077973     -1.247948
  H       3.052401     -2.037961      1.426924
  H       1.594513     -1.388111      2.165002
  C       2.741598      0.058452      1.098081
  H       1.643519     -3.359906     -1.517386
  H       3.172683     -2.712343     -0.903490
  H       2.247951     -3.850800      0.077075
  C       3.279450      0.257088     -0.299572
  H       3.527746      0.254310      1.829068
  H       1.941393      0.782847      1.272533
  H       4.046553     -0.497090     -0.521358
  C      -4.264034      1.430772      0.216307
  H      -3.663094      2.105167     -0.402338
  H      -4.356308      1.906600      1.196694
  C       3.842828      1.638302     -0.580306
  H       3.070399      2.379934     -0.352854
  H       4.036647      1.709937     -1.654461
  C      -5.647994      1.244587     -0.394997
  H      -6.208173      0.506477      0.189668
  H      -5.560014      0.832635     -1.404418
  C       5.118102      1.954346      0.192565
  H       4.917780      1.935594      1.267445
  H       5.862816      1.173096      0.004699
  C       5.697820      3.311439     -0.185556
  H       6.602765      3.530426      0.383417
  H       5.952875      3.348609     -1.247168
  H       4.979560      4.111126      0.009540
  C      -6.433803      2.548264     -0.452766
  H      -7.417872      2.401883     -0.901003
  H      -6.579625      2.963814      0.546966
  H      -5.905405      3.297703     -1.046698
51
Coordinates from ORCA-job orca E -1004.405686747445
  C      -1.184528     -1.500186      0.383151
  C      -1.248167     -0.332556      1.239147
  O      -0.357650     -0.029387      2.008979
  O      -2.323483      0.477879      1.173804
  C      -2.286852     -1.804753     -0.569742
  H      -2.939151     -2.576970     -0.134109
  H      -1.860862     -2.231229     -1.479085
  C      -3.489074      0.135118      0.405154
  H      -4.090242     -0.549997      1.019329
  C      -3.098301     -0.559012     -0.882130
  H      -3.994848     -0.817518     -1.447519
  H      -2.500047      0.122045     -1.494379
  C      -0.006801     -2.417244      0.459840
  C       1.395665     -1.867004      0.051067
  H      -0.234460     -3.273346     -0.177911
  H       0.092622     -2.801824      1.479911
  C       1.237601     -0.828727     -1.060019
  C       2.214384     -1.360339      1.268740
  C       2.164014     -3.024340     -0.621089
  O       0.312106     -0.847769     -1.830414
  O       2.203875      0.071578     -1.250749
  H       3.059807     -2.037935      1.419432
  H       1.600329     -1.399425      2.164297
  C       2.735520      0.056114      1.095892
  H       1.644333     -3.371326     -1.515348
  H       3.173411     -2.719982     -0.905002
  H       2.251700     -3.857632      0.079609
  C       3.274241      0.255959     -0.301221
  H       3.519765      0.256172      1.827790
  H       1.931410      0.776440      1.269322
  H       4.044227     -0.495923     -0.521124
  C      -4.253527      1.433468      0.218417
  H      -3.649285      2.105896     -0.399171
  H      -4.344811      1.908817      1.199147
  C       3.832621      1.638813     -0.583359
  H       3.055003      2.377380     -0.363611
  H       4.032872      1.707411     -1.656559
  C      -5.637705      1.253373     -0.394145
  H      -6.201857      0.518479      0.190735
  H      -5.550705      0.840047     -1.403122
  C       5.101251      1.964702      0.196350
  H       4.893244      1.952691      1.269856
  H       5.850187      1.184907      0.019285
  C       5.678485      3.321292     -0.187240
  H       6.576932      3.549155      0.388528
  H       5.943404      3.351172     -1.246668
  H       4.954736      4.119173     -0.005305
  C      -6.417222      2.560698     -0.454155
  H      -7.401533      2.418417     -0.903186
  H      -6.562064      2.978145      0.544942
  H      -5.884711      3.306865     -1.048542
51
Coordinates from ORCA-job orca E -1004.405687077445
  C      -1.183316     -1.501454      0.381606
  C      -1.246763     -0.335099      1.239578
  O      -0.358115     -0.035754      2.012970
  O      -2.321921      0.475529      1.175363
  C      -2.285454     -1.803769     -0.572186
  H      -2.938697     -2.575766     -0.137592
  H      -1.859606     -2.229477     -1.481891
  C      -3.487041      0.135137      0.405241
  H      -4.089296     -0.550756      1.017474
  C      -3.095767     -0.556913     -0.883068
  H      -3.992013     -0.813730     -1.449659
  H      -2.496624      0.124810     -1.493689
  C      -0.006434     -2.419472      0.458156
  C       1.396451     -1.869999      0.050153
  H      -0.234450     -3.275128     -0.180056
  H       0.092452     -2.804526      1.478067
  C       1.239424     -0.833558     -1.062937
  C       2.213579     -1.361100      1.267932
  C       2.165888     -3.028231     -0.619113
  O       0.315633     -0.855174     -1.835258
  O       2.204710      0.067892     -1.252764
  H       3.061000     -2.036170      1.418597
  H       1.599619     -1.401884      2.163480
  C       2.731427      0.056526      1.094908
  H       1.647301     -3.377322     -1.513163
  H       3.175240     -2.723506     -0.902792
  H       2.253713     -3.860114      0.083201
  C       3.272695      0.255355     -0.301389
  H       3.513555      0.259178      1.828311
  H       1.925305      0.775169      1.265953
  H       4.044166     -0.495922     -0.518213
  C      -4.250624      1.434256      0.220215
  H      -3.646593      2.106670     -0.397577
  H      -4.340347      1.909036      1.201345
  C       3.829812      1.638418     -0.584772
  H       3.050176      2.376241     -0.369827
  H       4.033804      1.704574     -1.657423
  C      -5.635541      1.255611     -0.390976
  H      -6.200440      0.522661      0.195568
  H      -5.550095      0.840392     -1.399297
  C       5.095076      1.968311      0.198640
  H       4.882710      1.960710      1.271311
  H       5.845133      1.188162      0.028009
  C       5.673021      3.323575     -0.188395
  H       6.568438      3.554888      0.390677
  H       5.943049      3.348930     -1.246624
  H       4.947800      4.121686     -0.013498
  C      -6.412799      2.564154     -0.452732
  H      -7.397884      2.422608     -0.900259
  H      -6.555741      2.984029      0.545601
  H      -5.879754      3.308097     -1.049385
