41
Coordinates from ORCA-job orca E -848.317109867241
  C          -2.16172982109171     -2.09703206484560      0.83134017234416
  H          -2.09521631986379     -2.47178747246972      1.84614673970197
  C          -1.80391753376699     -0.85490816906968      0.53602752059568
  C          -1.29638236769274      0.14660203866249      1.52961218992450
  H          -0.20787245110532      0.23806684702631      1.43676024085966
  H          -1.50223197808600     -0.19398428165758      2.54557931541150
  C          -1.94293693330675      1.49447012524606      1.24893082729809
  H          -1.57364802090686      2.25117435443441      1.94311428747712
  H          -3.02785012233547      1.42686641849883      1.36637856359210
  C          -1.61982829888378      1.93733939935038     -0.16387744764816
  H          -0.54590108229686      2.14982484193820     -0.24011977018887
  C          -2.41342679068072      3.14668602749194     -0.62571125424454
  C          -2.11421363989403      4.41585547200856      0.16373719132675
  H          -2.40574682031873      4.28272836221784      1.20945652973299
  H          -1.03394699277304      4.60029064373941      0.16653558789040
  C          -2.83699221522233      5.62983792988600     -0.40491303727095
  H          -2.61809346331605      6.52982405678989      0.17210146533305
  H          -3.91907414808798      5.48089374327324     -0.39315020003063
  H          -2.54103455273778      5.81646314469641     -1.43983302718338
  H          -3.47682826240682      2.89741129680761     -0.55910928880462
  H          -2.18845137002459      3.31162962636271     -1.68338499671659
  O          -1.87883530094668      0.90569592505102     -1.14487323444088
  C          -1.96294170309798     -0.40210103441478     -0.88457476784260
  O          -2.18079035066826     -1.15695008092165     -1.79697280092643
  C          -5.29968062283445     -0.48924020685688     -1.63069377948671
  C          -5.31248168463242     -0.22070600265078     -0.21001296265441
  O          -5.58337895620576     -1.31007809080610      0.54117151830128
  C          -5.58182561759260     -1.09965396668325      1.94470539598164
  H          -5.83121142920196     -2.05995019175420      2.38992730081595
  H          -4.59731444196518     -0.77254753385381      2.28350357170294
  H          -6.31849165312158     -0.34680940210535      2.22692617794770
  O          -5.09943914593451      0.86856398066217      0.29505264906005
  C          -5.44471595773591     -1.86194758549536     -2.17729802466933
  H          -5.86688974083992     -2.55630461455572     -1.45541110713657
  H          -6.06271953421401     -1.85450447490730     -3.07882576456838
  H          -4.45555065916220     -2.23243777411951     -2.47264807420025
  C          -4.99837607061514      0.62807559717970     -2.55868529629224
  H          -5.04721132158597      1.59050462761115     -2.05480347066919
  H          -5.68760211954416      0.62258022744784     -3.40767193141752
  H          -3.98709290557303      0.50347282434027     -2.96359117101232
  H          -2.53319759972670     -2.76052456355590      0.06161416210722
