41
Coordinates from ORCA-job orca E -848.313914024388
  C      -2.342923     -2.099982      0.672208
  H      -2.332217     -2.518562      1.682615
  C      -1.915224     -0.853400      0.435322
  C      -1.391163      0.093611      1.481710
  H      -0.287158      0.139463      1.414422
  H      -1.630830     -0.277609      2.490343
  C      -1.971944      1.486296      1.243412
  H      -1.569040      2.204656      1.974225
  H      -3.066769      1.463639      1.354895
  C      -1.618401      1.974858     -0.155385
  H      -0.532430      2.184825     -0.199753
  C      -2.395566      3.209107     -0.599636
  C      -2.111467      4.461998      0.231389
  H      -2.420167      4.297157      1.278509
  H      -1.021157      4.646519      0.260649
  C      -2.825437      5.699851     -0.312361
  H      -2.616285      6.590725      0.301284
  H      -3.918189      5.552094     -0.327915
  H      -2.508508      5.921719     -1.345231
  H      -3.469025      2.957906     -0.567235
  H      -2.142163      3.398965     -1.656556
  O      -1.857869      0.973621     -1.178880
  C      -1.998854     -0.346485     -0.975640
  O      -2.215421     -1.062127     -1.927598
  C      -5.242939     -0.583023     -1.627518
  C      -5.227074     -0.222741     -0.220993
  O      -5.506255     -1.262640      0.607628
  C      -5.501289     -0.976776      1.998243
  H      -5.901816     -1.868328      2.498729
  H      -4.476314     -0.782543      2.353732
  H      -6.121891     -0.097002      2.227122
  O      -4.985229      0.898079      0.212551
  C      -5.369448     -1.996627     -2.081051
  H      -5.723043     -2.662914     -1.284769
  H      -6.047612     -2.072680     -2.949003
  H      -4.378447     -2.352648     -2.423387
  C      -4.987374      0.484825     -2.633613
  H      -5.088369      1.486740     -2.197178
  H      -5.669600      0.383767     -3.495514
  H      -3.956761      0.382028     -3.023680
  H      -2.713399     -2.722970     -0.143633
41
Coordinates from ORCA-job orca E -848.316239292646
  C      -2.327625     -2.083760      0.673047
  H      -2.316127     -2.498317      1.674228
  C      -1.907760     -0.845713      0.436716
  C      -1.390597      0.100775      1.478841
  H      -0.296688      0.149343      1.413506
  H      -1.630633     -0.266084      2.478407
  C      -1.975352      1.485485      1.239585
  H      -1.577825      2.199222      1.963910
  H      -3.063432      1.462282      1.348344
  C      -1.620734      1.970144     -0.154131
  H      -0.544135      2.179577     -0.199565
  C      -2.399624      3.196896     -0.597382
  C      -2.113950      4.441809      0.233760
  H      -2.422123      4.277528      1.270892
  H      -1.033157      4.623901      0.262216
  C      -2.824264      5.674323     -0.309889
  H      -2.615502      6.556413      0.298014
  H      -3.907006      5.527987     -0.324428
  H      -2.509276      5.892463     -1.333370
  H      -3.466287      2.949167     -0.565870
  H      -2.147409      3.388172     -1.644812
  O      -1.859522      0.974728     -1.176795
  C      -1.996816     -0.338763     -0.970176
  O      -2.210875     -1.050087     -1.919055
  C      -5.247263     -0.577677     -1.625025
  C      -5.238086     -0.219215     -0.223992
  O      -5.515760     -1.254994      0.600420
  C      -5.499033     -0.964321      1.987624
  H      -5.894428     -1.847251      2.484740
  H      -4.479980     -0.770752      2.336758
  H      -6.115010     -0.093667      2.214446
  O      -4.996774      0.895800      0.207627
  C      -5.365319     -1.987996     -2.076571
  H      -5.715639     -2.648958     -1.287939
  H      -6.036270     -2.064479     -2.936772
  H      -4.380614     -2.338880     -2.413799
  C      -4.990686      0.487213     -2.627470
  H      -5.091200      1.480453     -2.194949
  H      -5.667512      0.386242     -3.480386
  H      -3.968098      0.387551     -3.014565
  H      -2.696680     -2.703172     -0.133679
41
Coordinates from ORCA-job orca E -848.316411611138
  C      -2.313217     -2.080611      0.674854
  H      -2.301502     -2.494052      1.675930
  C      -1.897222     -0.844315      0.437617
  C      -1.384499      0.104065      1.478938
  H      -0.291459      0.155298      1.416029
  H      -1.627439     -0.262096      2.477421
  C      -1.972833      1.485884      1.237679
  H      -1.577431      2.200584      1.961139
  H      -3.060359      1.461822      1.345320
  C      -1.617791      1.969559     -0.155148
  H      -0.542326      2.180495     -0.200592
  C      -2.398345      3.195142     -0.597278
  C      -2.112683      4.438121      0.236307
  H      -2.422180      4.272479      1.271958
  H      -1.032718      4.620162      0.264914
  C      -2.822517      5.670778     -0.306609
  H      -2.612964      6.551748      0.301642
  H      -3.904551      5.524406     -0.320325
  H      -2.507474      5.888703     -1.329326
  H      -3.464363      2.947873     -0.565646
  H      -2.146585      3.389193     -1.643571
  O      -1.854490      0.974310     -1.177832
  C      -1.988842     -0.337426     -0.969206
  O      -2.201000     -1.049239     -1.917189
  C      -5.254252     -0.579127     -1.626087
  C      -5.250371     -0.220518     -0.225766
  O      -5.529774     -1.253972      0.598698
  C      -5.507071     -0.960000      1.985474
  H      -5.900963     -1.842040      2.484411
  H      -4.487538     -0.766297      2.330130
  H      -6.122961     -0.090108      2.211822
  O      -5.010136      0.894083      0.204645
  C      -5.368330     -1.989003     -2.077982
  H      -5.719093     -2.650457     -1.290747
  H      -6.037982     -2.065420     -2.938396
  H      -4.383414     -2.338339     -2.412889
  C      -4.997237      0.485039     -2.627894
  H      -5.097885      1.477908     -2.195741
  H      -5.674706      0.383388     -3.479388
  H      -3.975439      0.386886     -3.014978
  H      -2.683130     -2.701515     -0.129881
41
Coordinates from ORCA-job orca E -848.316595968655
  C      -2.285213     -2.078060      0.679255
  H      -2.271789     -2.489608      1.681145
  C      -1.876762     -0.842057      0.439737
  C      -1.371410      0.110416      1.480254
  H      -0.278809      0.167846      1.421972
  H      -1.619461     -0.255771      2.477409
  C      -1.967163      1.487306      1.234265
  H      -1.576841      2.205163      1.957067
  H      -3.054579      1.460415      1.339340
  C      -1.610440      1.970291     -0.157496
  H      -0.535812      2.184277     -0.202102
  C      -2.393263      3.194871     -0.597773
  C      -2.108140      4.435598      0.240291
  H      -2.420138      4.267307      1.274390
  H      -1.028545      4.618027      0.269377
  C      -2.817949      5.669316     -0.301017
  H      -2.606794      6.549093      0.308320
  H      -3.899790      5.522729     -0.312938
  H      -2.502979      5.887380     -1.323487
  H      -3.458652      2.947694     -0.565185
  H      -2.142738      3.394095     -1.643178
  O      -1.842678      0.973926     -1.180190
  C      -1.972101     -0.336092     -0.967890
  O      -2.180116     -1.051183     -1.914001
  C      -5.267942     -0.583330     -1.628029
  C      -5.273286     -0.224639     -0.227955
  O      -5.557672     -1.255259      0.596199
  C      -5.527311     -0.956441      1.982713
  H      -5.917493     -1.838156      2.485261
  H      -4.506049     -0.761593      2.317869
  H      -6.144286     -0.087573      2.208542
  O      -5.036814      0.890867      0.200981
  C      -5.376144     -1.992545     -2.081881
  H      -5.728635     -2.656275     -1.297294
  H      -6.043504     -2.068184     -2.944113
  H      -4.389848     -2.339208     -2.412541
  C      -5.011927      0.480320     -2.629246
  H      -5.112967      1.473104     -2.197038
  H      -5.692065      0.377429     -3.478442
  H      -3.991258      0.384476     -3.017594
  H      -2.655707     -2.702581     -0.122534
41
Coordinates from ORCA-job orca E -848.316697358712
  C      -2.261202     -2.078128      0.683784
  H      -2.244079     -2.488261      1.686523
  C      -1.860110     -0.839835      0.442196
  C      -1.360261      0.116084      1.482714
  H      -0.267750      0.179963      1.427565
  H      -1.610689     -0.251347      2.479021
  C      -1.962932      1.489109      1.232624
  H      -1.578272      2.210381      1.955477
  H      -3.050671      1.458266      1.334901
  C      -1.604344      1.972380     -0.158514
  H      -0.529825      2.188390     -0.201719
  C      -2.387959      3.196548     -0.598233
  C      -2.103124      4.436537      0.242095
  H      -2.417698      4.267474      1.275440
  H      -1.023240      4.618282      0.272621
  C      -2.811372      5.671633     -0.299382
  H      -2.598904      6.550968      0.310527
  H      -3.893548      5.526099     -0.311214
  H      -2.495261      5.889267     -1.321810
  H      -3.453276      2.949026     -0.564530
  H      -2.138397      3.398646     -1.643504
  O      -1.833096      0.974615     -1.181114
  C      -1.958326     -0.335392     -0.966463
  O      -2.162260     -1.054365     -1.910867
  C      -5.280237     -0.586780     -1.629065
  C      -5.291915     -0.228848     -0.228685
  O      -5.579871     -1.259553      0.593866
  C      -5.546926     -0.959723      1.980907
  H      -5.932591     -1.842635      2.485232
  H      -4.523918     -0.762628      2.307930
  H      -6.165892     -0.092323      2.207442
  O      -5.060093      0.887950      0.200647
  C      -5.384198     -1.995475     -2.085817
  H      -5.738613     -2.662115     -1.304145
  H      -6.048756     -2.070137     -2.950598
  H      -4.395927     -2.339627     -2.413082
  C      -5.026234      0.477577     -2.629785
  H      -5.127735      1.470173     -2.196856
  H      -5.708797      0.374191     -3.477355
  H      -4.006367      0.382896     -3.020014
  H      -2.630402     -2.705895     -0.116300
41
Coordinates from ORCA-job orca E -848.316752334651
  C      -2.238724     -2.079406      0.688721
  H      -2.215481     -2.488419      1.692090
  C      -1.846173     -0.837379      0.445550
  C      -1.350778      0.121389      1.486431
  H      -0.258365      0.191956      1.432721
  H      -1.600592     -0.247935      2.482350
  C      -1.960146      1.491093      1.233003
  H      -1.582173      2.215948      1.956288
  H      -3.048307      1.454914      1.331928
  C      -1.599239      1.974900     -0.157596
  H      -0.524488      2.191823     -0.198658
  C      -2.382514      3.198751     -0.598411
  C      -2.097933      4.439435      0.241547
  H      -2.415027      4.271683      1.274630
  H      -1.017567      4.619729      0.274317
  C      -2.803463      5.675391     -0.302303
  H      -2.590533      6.555071      0.307341
  H      -3.886119      5.531644     -0.315878
  H      -2.485076      5.891781     -1.324590
  H      -3.447881      2.950822     -0.563728
  H      -2.133446      3.400950     -1.644002
  O      -1.825258      0.975836     -1.179935
  C      -1.946377     -0.335205     -0.964019
  O      -2.145776     -1.057839     -1.906887
  C      -5.292470     -0.588590     -1.629420
  C      -5.308571     -0.232666     -0.228363
  O      -5.598392     -1.265921      0.591189
  C      -5.565641     -0.969009      1.979451
  H      -5.945631     -1.854699      2.483442
  H      -4.541236     -0.768425      2.299472
  H      -6.187236     -0.103909      2.208509
  O      -5.081910      0.884842      0.203379
  C      -5.393109     -1.996568     -2.090129
  H      -5.749791     -2.666591     -1.312048
  H      -6.053774     -2.069832     -2.958281
  H      -4.402640     -2.338160     -2.414372
  C      -5.040435      0.477821     -2.628993
  H      -5.142121      1.469787     -2.194429
  H      -5.724752      0.375274     -3.475633
  H      -4.021336      0.383311     -3.021542
  H      -2.604590     -2.710208     -0.110683
41
Coordinates from ORCA-job orca E -848.316776006867
  C      -2.233531     -2.080633      0.691870
  H      -2.206663     -2.489311      1.695365
  C      -1.844422     -0.836795      0.448051
  C      -1.349329      0.122846      1.488657
  H      -0.256953      0.195445      1.433447
  H      -1.596177     -0.247032      2.485181
  C      -1.960662      1.491865      1.234696
  H      -1.585546      2.218138      1.958188
  H      -3.048910      1.452672      1.332088
  C      -1.598852      1.975409     -0.155968
  H      -0.523714      2.191404     -0.196056
  C      -2.381016      3.199382     -0.598441
  C      -2.096249      4.441502      0.239133
  H      -2.413754      4.275894      1.272615
  H      -1.015605      4.620859      0.272846
  C      -2.800306      5.677154     -0.307072
  H      -2.587937      6.557616      0.301775
  H      -3.883182      5.534328     -0.322386
  H      -2.480576      5.892516     -1.329294
  H      -3.446434      2.951332     -0.563417
  H      -2.131815      3.399113     -1.644567
  O      -1.825435      0.975962     -1.177804
  C      -1.945736     -0.335950     -0.961871
  O      -2.144052     -1.059276     -1.904446
  C      -5.295699     -0.587281     -1.629136
  C      -5.311102     -0.233635     -0.227475
  O      -5.599688     -1.269788      0.589673
  C      -5.569626     -0.976732      1.978809
  H      -5.946833     -1.864726      2.480770
  H      -4.545524     -0.773509      2.298268
  H      -6.193162     -0.113378      2.209754
  O      -5.086400      0.883342      0.206996
  C      -5.395885     -1.994593     -2.092399
  H      -5.753719     -2.666289     -1.316259
  H      -6.054247     -2.066729     -2.962469
  H      -4.404547     -2.335158     -2.415716
  C      -5.044578      0.481204     -2.627171
  H      -5.145818      1.472467     -2.190909
  H      -5.729067      0.380510     -3.474011
  H      -4.026013      0.385715     -3.020799
  H      -2.596305     -2.712470     -0.108054
41
Coordinates from ORCA-job orca E -848.316811000865
  C      -2.225433     -2.082691      0.699428
  H      -2.191675     -2.490526      1.703048
  C      -1.842859     -0.836257      0.454116
  C      -1.347952      0.125364      1.493167
  H      -0.255796      0.201116      1.433644
  H      -1.587691     -0.244609      2.491411
  C      -1.962939      1.492967      1.238717
  H      -1.593064      2.221783      1.962356
  H      -3.051284      1.447495      1.333186
  C      -1.599717      1.975167     -0.152174
  H      -0.523886      2.188723     -0.190790
  C      -2.379529      3.199264     -0.598427
  C      -2.093903      4.444685      0.233182
  H      -2.411786      4.284317      1.267576
  H      -1.012844      4.622100      0.268118
  C      -2.795005      5.679074     -0.318748
  H      -2.583964      6.561536      0.287742
  H      -3.878161      5.537935     -0.337542
  H      -2.472596      5.891523     -1.340860
  H      -3.444981      2.951211     -0.562698
  H      -2.130015      3.392810     -1.645700
  O      -1.828407      0.975098     -1.172573
  C      -1.947165     -0.338007     -0.956348
  O      -2.144683     -1.061740     -1.898513
  C      -5.301160     -0.582588     -1.628549
  C      -5.314199     -0.234935     -0.225400
  O      -5.598749     -1.277452      0.586162
  C      -5.573340     -0.992979      1.976914
  H      -5.944653     -1.886206      2.473694
  H      -4.550667     -0.783620      2.297307
  H      -6.201685     -0.134118      2.212190
  O      -5.092656      0.880080      0.215571
  C      -5.400374     -1.988027     -2.097648
  H      -5.760834     -2.663104     -1.325787
  H      -6.053799     -2.057194     -2.971670
  H      -4.407410     -2.326620     -2.418866
  C      -5.050575      0.490623     -2.622129
  H      -5.150154      1.480057     -2.181494
  H      -5.734986      0.395222     -3.469708
  H      -4.032938      0.392566     -3.017731
  H      -2.581554     -2.716654     -0.101715
41
Coordinates from ORCA-job orca E -848.316831536611
  C      -2.220373     -2.084073      0.706201
  H      -2.182541     -2.491153      1.709896
  C      -1.841903     -0.836656      0.459506
  C      -1.347272      0.127097      1.496561
  H      -0.255353      0.204606      1.433476
  H      -1.581813     -0.241920      2.496390
  C      -1.965146      1.493372      1.241606
  H      -1.598791      2.223997      1.965064
  H      -3.053460      1.443185      1.334050
  C      -1.601276      1.974021     -0.149562
  H      -0.525096      2.185889     -0.187661
  C      -2.379701      3.198008     -0.598650
  C      -2.093171      4.445954      0.228239
  H      -2.411289      4.289761      1.263221
  H      -1.011933      4.622107      0.263439
  C      -2.792318      5.679026     -0.328445
  H      -2.582269      6.563172      0.275859
  H      -3.875525      5.538731     -0.349435
  H      -2.467996      5.888662     -1.350514
  H      -3.445089      2.950088     -0.562169
  H      -2.130190      3.386811     -1.646775
  O      -1.831799      0.973234     -1.168457
  C      -1.949148     -0.340145     -0.951293
  O      -2.147479     -1.063886     -1.893038
  C      -5.304608     -0.577572     -1.628308
  C      -5.315764     -0.235562     -0.223769
  O      -5.596371     -1.282840      0.583300
  C      -5.573159     -1.004783      1.975151
  H      -5.939541     -1.902343      2.467592
  H      -4.552179     -0.790183      2.297493
  H      -6.206201     -0.150330      2.214011
  O      -5.095962      0.877525      0.222517
  C      -5.403367     -1.981183     -2.102450
  H      -5.766376     -2.658719     -1.334090
  H      -6.053142     -2.047194     -2.979356
  H      -4.409343     -2.318663     -2.421590
  C      -5.052846      0.499435     -2.617436
  H      -5.150314      1.487153     -2.172626
  H      -5.737189      0.409422     -3.465633
  H      -4.035836      0.399150     -3.014322
  H      -2.571942     -2.719814     -0.095529
41
Coordinates from ORCA-job orca E -848.316869130308
  C      -2.213763     -2.086218      0.717435
  H      -2.171952     -2.492016      1.721349
  C      -1.839998     -0.838374      0.468236
  C      -1.346087      0.129429      1.501497
  H      -0.254554      0.208796      1.433703
  H      -1.574334     -0.236924      2.503740
  C      -1.968250      1.493426      1.244958
  H      -1.606380      2.226642      1.967739
  H      -3.056401      1.436781      1.334722
  C      -1.604098      1.971247     -0.146850
  H      -0.527647      2.181326     -0.185130
  C      -2.381316      3.194686     -0.599817
  C      -2.093379      4.446168      0.220559
  H      -2.411364      4.295584      1.256338
  H      -1.012047      4.621323      0.254839
  C      -2.791122      5.676917     -0.342492
  H      -2.582212      6.563592      0.258342
  H      -3.874246      5.536832     -0.365069
  H      -2.465084      5.882162     -1.364796
  H      -3.446581      2.947071     -0.561789
  H      -2.132334      3.377268     -1.649104
  O      -1.837214      0.968712     -1.162904
  C      -1.952209     -0.344326     -0.943073
  O      -2.153587     -1.068443     -1.883660
  C      -5.308323     -0.568556     -1.628290
  C      -5.317014     -0.235793     -0.221493
  O      -5.591583     -1.289547      0.579011
  C      -5.570131     -1.020435      1.972371
  H      -5.928525     -1.924710      2.458283
  H      -4.552192     -0.797543      2.298628
  H      -6.211469     -0.173779      2.216790
  O      -5.099081      0.874319      0.232472
  C      -5.407751     -1.969117     -2.110459
  H      -5.775570     -2.649851     -1.347410
  H      -6.052581     -2.029102     -2.991291
  H      -4.412510     -2.306091     -2.425831
  C      -5.052643      0.514064     -2.609854
  H      -5.145701      1.498853     -2.157823
  H      -5.737202      0.433747     -3.458796
  H      -4.036525      0.410161     -3.008370
  H      -2.560110     -2.724888     -0.084254
41
Coordinates from ORCA-job orca E -848.316907298770
  C      -2.204009     -2.089026      0.731332
  H      -2.159413     -2.492984      1.735787
  C      -1.835441     -0.841044      0.478654
  C      -1.343457      0.132426      1.507208
  H      -0.252356      0.214167      1.435829
  H      -1.567151     -0.230061      2.511853
  C      -1.971120      1.493097      1.247206
  H      -1.614131      2.229535      1.968856
  H      -3.059097      1.429646      1.334120
  C      -1.607149      1.967400     -0.145504
  H      -0.530680      2.176688     -0.184903
  C      -2.384084      3.189597     -0.602363
  C      -2.094471      4.444633      0.211674
  H      -2.411963      4.299452      1.248245
  H      -1.013160      4.619425      0.243736
  C      -2.792044      5.672728     -0.357469
  H      -2.583566      6.562112      0.239335
  H      -3.875016      5.532156     -0.379751
  H      -2.465399      5.872892     -1.380463
  H      -3.449181      2.942437     -0.561857
  H      -2.136444      3.366713     -1.652838
  O      -1.842457      0.961921     -1.157769
  C      -1.954161     -0.350139     -0.933382
  O      -2.160289     -1.076009     -1.871569
  C      -5.311636     -0.557158     -1.628376
  C      -5.318679     -0.235495     -0.218963
  O      -5.587323     -1.295927      0.574051
  C      -5.566937     -1.036518      1.969090
  H      -5.914815     -1.948775      2.447729
  H      -4.552668     -0.803492      2.299532
  H      -6.219232     -0.200264      2.220192
  O      -5.102839      0.871535      0.243213
  C      -5.413539     -1.953956     -2.120390
  H      -5.788189     -2.637924     -1.363658
  H      -6.053127     -2.005509     -3.005395
  H      -4.417248     -2.291846     -2.430685
  C      -5.049722      0.531823     -2.600663
  H      -5.136263      1.512839     -2.139308
  H      -5.735345      0.464198     -3.449816
  H      -4.034777      0.423694     -3.001100
  H      -2.546493     -2.731598     -0.068960
41
Coordinates from ORCA-job orca E -848.316946903124
  C      -2.191172     -2.092771      0.747562
  H      -2.144975     -2.494124      1.753015
  C      -1.828364     -0.844616      0.490262
  C      -1.339308      0.135767      1.513616
  H      -0.248613      0.220465      1.440747
  H      -1.561345     -0.222026      2.520282
  C      -1.973165      1.492345      1.247872
  H      -1.621051      2.232628      1.967810
  H      -3.060945      1.422466      1.332194
  C      -1.610165      1.962485     -0.146205
  H      -0.533931      2.172247     -0.187908
  C      -2.388012      3.182674     -0.606815
  C      -2.096511      4.441149      0.201391
  H      -2.412277      4.300449      1.238967
  H      -1.015323      4.616652      0.229402
  C      -2.796195      5.666328     -0.372164
  H      -2.587029      6.558411      0.220284
  H      -3.878974      5.524328     -0.391150
  H      -2.471301      5.861438     -1.396597
  H      -3.453029      2.936208     -0.562761
  H      -2.142690      3.355589     -1.658485
  O      -1.847028      0.952616     -1.153746
  C      -1.954874     -0.358019     -0.922837
  O      -2.167238     -1.087610     -1.856961
  C      -5.313478     -0.543482     -1.628408
  C      -5.320052     -0.234102     -0.216181
  O      -5.583612     -1.301148      0.568718
  C      -5.564365     -1.052103      1.965646
  H      -5.899077     -1.973408      2.436523
  H      -4.554233     -0.807197      2.300026
  H      -6.230048     -0.228786      2.224339
  O      -5.106742      0.869991      0.254355
  C      -5.420661     -1.935888     -2.131839
  H      -5.804450     -2.622706     -1.382259
  H      -6.054829     -1.976559     -3.021152
  H      -4.423799     -2.277023     -2.435994
  C      -5.043061      0.552351     -2.590199
  H      -5.120676      1.528788     -2.117607
  H      -5.730743      0.500305     -3.438804
  H      -4.029557      0.439392     -2.992883
  H      -2.532174     -2.740113     -0.049597
41
Coordinates from ORCA-job orca E -848.316985178921
  C      -2.172402     -2.097927      0.767768
  H      -2.124069     -2.495074      1.774937
  C      -1.817980     -0.848913      0.503833
  C      -1.333200      0.139923      1.521361
  H      -0.242905      0.229203      1.449317
  H      -1.556371     -0.212552      2.529621
  C      -1.974613      1.491206      1.247099
  H      -1.628015      2.236551      1.964482
  H      -3.062166      1.414697      1.329106
  C      -1.613551      1.956135     -0.148994
  H      -0.537774      2.167505     -0.194237
  C      -2.393471      3.173370     -0.613588
  C      -2.099498      4.435631      0.188504
  H      -2.412040      4.299229      1.227562
  H      -1.018425      4.612376      0.210790
  C      -2.802888      5.657727     -0.388190
  H      -2.591258      6.552707      0.199020
  H      -3.885554      5.514294     -0.400677
  H      -2.482390      5.847323     -1.415025
  H      -3.458534      2.927953     -0.564480
  H      -2.151694      3.342731     -1.666667
  O      -1.851413      0.940137     -1.150555
  C      -1.954476     -0.368863     -0.910885
  O      -2.174068     -1.104755     -1.838746
  C      -5.314029     -0.526414     -1.627944
  C      -5.321688     -0.231421     -0.212565
  O      -5.580874     -1.306151      0.562361
  C      -5.564076     -1.069801      1.961627
  H      -5.881140     -2.002067      2.423377
  H      -4.558868     -0.809667      2.299224
  H      -6.246571     -0.263258      2.229482
  O      -5.112366      0.869536      0.267716
  C      -5.429808     -1.913195     -2.145599
  H      -5.826046     -2.602860     -1.404967
  H      -6.057347     -1.939541     -3.040027
  H      -4.432935     -2.260487     -2.442366
  C      -5.032929      0.577548     -2.577221
  H      -5.098315      1.548049     -2.090569
  H      -5.723879      0.545178     -3.424213
  H      -4.021422      0.458759     -2.983099
  H      -2.514022     -2.751428     -0.024112
41
Coordinates from ORCA-job orca E -848.317009339603
  C      -2.159675     -2.101286      0.779555
  H      -2.109188     -2.494820      1.788219
  C      -1.811215     -0.851221      0.510836
  C      -1.329242      0.142207      1.525588
  H      -0.239113      0.234857      1.456392
  H      -1.555812     -0.207724      2.533946
  C      -1.974508      1.490442      1.245323
  H      -1.630197      2.239095      1.960511
  H      -3.061921      1.411588      1.327376
  C      -1.615396      1.951915     -0.152386
  H      -0.539981      2.164862     -0.200360
  C      -2.397162      3.167138     -0.618761
  C      -2.101569      4.431199      0.180537
  H      -2.410400      4.295998      1.220897
  H      -1.020572      4.609259      0.198403
  C      -2.808780      5.651774     -0.395204
  H      -2.594312      6.548037      0.189116
  H      -3.891451      5.507575     -0.401303
  H      -2.493642      5.839317     -1.424145
  H      -3.462353      2.922728     -0.566115
  H      -2.158019      3.335555     -1.672637
  O      -1.853245      0.931811     -1.150396
  C      -1.953686     -0.376479     -0.905138
  O      -2.176386     -1.117445     -1.828298
  C      -5.312123     -0.516273     -1.627093
  C      -5.321953     -0.228561     -0.210157
  O      -5.580331     -1.307439      0.559010
  C      -5.566298     -1.078450      1.959667
  H      -5.871822     -2.017058      2.416477
  H      -4.563855     -0.808561      2.297814
  H      -6.258853     -0.282098      2.232493
  O      -5.115779      0.870922      0.275523
  C      -5.435051     -1.899531     -2.153120
  H      -5.839661     -2.590286     -1.417849
  H      -6.058799     -1.916642     -3.050407
  H      -4.439143     -2.252717     -2.446331
  C      -5.024764      0.592035     -2.569668
  H      -5.081939      1.558922     -2.074903
  H      -5.718111      0.571251     -3.415124
  H      -4.014528      0.469932     -2.977725
  H      -2.504235     -2.758436     -0.008105
41
Coordinates from ORCA-job orca E -848.317030329295
  C      -2.151743     -2.103626      0.786706
  H      -2.098010     -2.493627      1.796687
  C      -1.807654     -0.852519      0.514134
  C      -1.327010      0.142963      1.527766
  H      -0.236916      0.237922      1.461956
  H      -1.557494     -0.206179      2.535514
  C      -1.973604      1.489852      1.243550
  H      -1.629104      2.240840      1.956385
  H      -3.060873      1.411348      1.327745
  C      -1.616958      1.948600     -0.155771
  H      -0.541792      2.162637     -0.206144
  C      -2.400236      3.162571     -0.622790
  C      -2.103410      4.427547      0.175020
  H      -2.407874      4.292188      1.216748
  H      -1.022449      4.606873      0.189177
  C      -2.814384      5.647290     -0.397706
  H      -2.596879      6.544137      0.184725
  H      -3.897139      5.502931     -0.397540
  H      -2.505398      5.834609     -1.428663
  H      -3.465647      2.919244     -0.567564
  H      -2.163107      3.330829     -1.677207
  O      -1.854734      0.925774     -1.151638
  C      -1.953832     -0.382519     -0.902907
  O      -2.176491     -1.127443     -1.822714
  C      -5.308053     -0.509804     -1.625811
  C      -5.320551     -0.225391     -0.208162
  O      -5.579812     -1.306817      0.557414
  C      -5.569197     -1.082358      1.958929
  H      -5.866550     -2.024908      2.412965
  H      -4.568553     -0.805143      2.296552
  H      -6.268139     -0.292306      2.234099
  O      -5.117063      0.873285      0.280995
  C      -5.437499     -1.890538     -2.157110
  H      -5.848203     -2.581654     -1.425421
  H      -6.059067     -1.900965     -3.056087
  H      -4.443387     -2.249711     -2.449688
  C      -5.017192      0.600852     -2.564915
  H      -5.068527      1.565585     -2.065551
  H      -5.712177      0.586897     -3.409197
  H      -4.007814      0.476821     -2.974548
  H      -2.500548     -2.762697      0.002530
41
Coordinates from ORCA-job orca E -848.317046043884
  C      -2.149330     -2.104843      0.791202
  H      -2.091661     -2.492095      1.801974
  C      -1.807496     -0.853342      0.515852
  C      -1.326421      0.142802      1.528669
  H      -0.236346      0.238668      1.463894
  H      -1.558075     -0.206272      2.536208
  C      -1.973091      1.489527      1.243105
  H      -1.627115      2.241965      1.953756
  H      -3.060186      1.412005      1.330200
  C      -1.618868      1.946179     -0.157617
  H      -0.543738      2.160172     -0.209727
  C      -2.402697      3.159708     -0.624999
  C      -2.104688      4.425413      0.171149
  H      -2.405298      4.290192      1.214086
  H      -1.023750      4.605514      0.182483
  C      -2.818324      5.644353     -0.399305
  H      -2.598924      6.541703      0.181700
  H      -3.901120      5.500032     -0.394952
  H      -2.513983      5.831826     -1.431680
  H      -3.468321      2.917171     -0.568365
  H      -2.166689      3.326919     -1.679863
  O      -1.857423      0.922076     -1.152156
  C      -1.955770     -0.386502     -0.901814
  O      -2.176818     -1.133259     -1.820304
  C      -5.303957     -0.505700     -1.624585
  C      -5.318286     -0.223242     -0.206564
  O      -5.578054     -1.306690      0.556533
  C      -5.570320     -1.084915      1.958496
  H      -5.862393     -2.029821      2.410893
  H      -4.571218     -0.802074      2.296045
  H      -6.273173     -0.298493      2.234288
  O      -5.116538      0.874520      0.285409
  C      -5.437908     -1.884572     -2.159164
  H      -5.852336     -2.576143     -1.429983
  H      -6.058274     -1.890460     -3.059086
  H      -4.445559     -2.248080     -2.452782
  C      -5.011317      0.606411     -2.561682
  H      -5.059266      1.570127     -2.060183
  H      -5.706766      0.596023     -3.405612
  H      -4.002448      0.481259     -2.972205
  H      -2.501125     -2.764668      0.009146
41
Coordinates from ORCA-job orca E -848.317057872575
  C      -2.148778     -2.105851      0.796881
  H      -2.086036     -2.490322      1.808308
  C      -1.808416     -0.854544      0.518436
  C      -1.325690      0.142487      1.529523
  H      -0.235729      0.238653      1.463461
  H      -1.555974     -0.206271      2.537503
  C      -1.972609      1.489169      1.243705
  H      -1.624429      2.243073      1.951690
  H      -3.059427      1.412399      1.334498
  C      -1.621577      1.943368     -0.158659
  H      -0.546425      2.156753     -0.212793
  C      -2.405703      3.156584     -0.626603
  C      -2.106375      4.423500      0.166804
  H      -2.403318      4.289428      1.210970
  H      -1.025484      4.604176      0.175238
  C      -2.822272      5.641160     -0.402797
  H      -2.601675      6.539463      0.176271
  H      -3.905048      5.496744     -0.395116
  H      -2.521775      5.828040     -1.436419
  H      -3.471434      2.914657     -0.568725
  H      -2.170728      3.321553     -1.682062
  O      -1.861965      0.918233     -1.151475
  C      -1.958908     -0.390551     -0.899686
  O      -2.177862     -1.138390     -1.817619
  C      -5.299761     -0.500701     -1.623307
  C      -5.315742     -0.221578     -0.204723
  O      -5.575392     -1.307738      0.555103
  C      -5.570222     -1.088882      1.957533
  H      -5.856248     -2.036451      2.408004
  H      -4.573345     -0.799037      2.295632
  H      -6.277786     -0.306819      2.233798
  O      -5.115519      0.874600      0.291140
  C      -5.438029     -1.877301     -2.161851
  H      -5.856258     -2.569841     -1.435818
  H      -6.057128     -1.877955     -3.062737
  H      -4.447573     -2.244958     -2.456890
  C      -5.004914      0.613346     -2.557475
  H      -5.049673      1.576050     -2.053834
  H      -5.700315      0.606853     -3.401446
  H      -3.996548      0.486875     -2.968812
  H      -2.502979     -2.766581      0.016808
41
Coordinates from ORCA-job orca E -848.317074826518
  C      -2.150928     -2.105552      0.799866
  H      -2.084758     -2.488760      1.811495
  C      -1.809757     -0.855043      0.519689
  C      -1.324631      0.142328      1.529157
  H      -0.234808      0.237981      1.460063
  H      -1.551780     -0.206239      2.537877
  C      -1.971564      1.489173      1.244682
  H      -1.620816      2.243591      1.950789
  H      -3.058158      1.413368      1.338821
  C      -1.623154      1.942067     -0.158761
  H      -0.547956      2.154797     -0.214331
  C      -2.407266      3.155400     -0.626524
  C      -2.107332      4.422818      0.165475
  H      -2.402808      4.289471      1.210121
  H      -1.026496      4.603680      0.172586
  C      -2.824016      5.639778     -0.404256
  H      -2.603482      6.538568      0.174035
  H      -3.906731      5.495110     -0.395842
  H      -2.524547      5.826327     -1.438204
  H      -3.472914      2.913455     -0.568345
  H      -2.172712      3.318990     -1.682287
  O      -1.865371      0.916784     -1.150605
  C      -1.960771     -0.392130     -0.898535
  O      -2.177275     -1.139865     -1.817002
  C      -5.297724     -0.498787     -1.622875
  C      -5.314771     -0.221480     -0.204052
  O      -5.574785     -1.308777      0.554174
  C      -5.570204     -1.090384      1.956709
  H      -5.853147     -2.038951      2.406867
  H      -4.574673     -0.796338      2.295038
  H      -6.280221     -0.310351      2.232397
  O      -5.114824      0.873621      0.293939
  C      -5.437544     -1.874372     -2.163030
  H      -5.857080     -2.567634     -1.438520
  H      -6.056613     -1.872621     -3.063987
  H      -4.448225     -2.243812     -2.459564
  C      -5.001999      0.615931     -2.555757
  H      -5.046337      1.578665     -2.052210
  H      -5.696789      0.610077     -3.400225
  H      -3.993675      0.489174     -2.967119
  H      -2.506424     -2.766668      0.020709
41
Coordinates from ORCA-job orca E -848.317077325053
  C      -2.153498     -2.104952      0.804649
  H      -2.084313     -2.487005      1.816485
  C      -1.810342     -0.855838      0.522088
  C      -1.321717      0.142567      1.528748
  H      -0.232160      0.237438      1.454559
  H      -1.543837     -0.205157      2.538876
  C      -1.969216      1.489350      1.245898
  H      -1.615131      2.244334      1.949672
  H      -3.055513      1.414578      1.344257
  C      -1.624675      1.940640     -0.159031
  H      -0.549533      2.152912     -0.217034
  C      -2.409254      3.153852     -0.626344
  C      -2.108820      4.421825      0.164273
  H      -2.403426      4.289393      1.209217
  H      -1.028085      4.602971      0.169987
  C      -2.826220      5.637982     -0.406271
  H      -2.606177      6.537341      0.171249
  H      -3.908795      5.492624     -0.397559
  H      -2.526958      5.823729     -1.440363
  H      -3.474693      2.911447     -0.567584
  H      -2.175513      3.316257     -1.682474
  O      -1.869583      0.914831     -1.149201
  C      -1.962080     -0.394030     -0.896326
  O      -2.176341     -1.142009     -1.815134
  C      -5.296179     -0.496220     -1.622962
  C      -5.314428     -0.221754     -0.203667
  O      -5.575168     -1.310200      0.552593
  C      -5.570630     -1.092463      1.955337
  H      -5.848955     -2.042548      2.405085
  H      -4.576958     -0.792770      2.293973
  H      -6.284594     -0.316011      2.230864
  O      -5.114228      0.872049      0.296825
  C      -5.437626     -1.870661     -2.165337
  H      -5.858847     -2.564745     -1.442657
  H      -6.056704     -1.865949     -3.066310
  H      -4.449329     -2.241855     -2.462821
  C      -4.998772      0.619412     -2.553877
  H      -5.042997      1.582118     -2.050251
  H      -5.692778      0.614602     -3.399019
  H      -3.990413      0.492306     -2.965013
  H      -2.510584     -2.767003      0.027061
41
Coordinates from ORCA-job orca E -848.317084111278
  C      -2.156322     -2.103867      0.808573
  H      -2.086160     -2.485423      1.820569
  C      -1.810149     -0.856263      0.524034
  C      -1.317839      0.142993      1.528028
  H      -0.228540      0.236966      1.448776
  H      -1.535183     -0.203704      2.539528
  C      -1.965692      1.489786      1.246647
  H      -1.608194      2.244931      1.948532
  H      -3.051722      1.416440      1.348974
  C      -1.625060      1.939888     -0.159674
  H      -0.550073      2.152110     -0.220447
  C      -2.410585      3.152831     -0.626034
  C      -2.110232      4.420919      0.164392
  H      -2.404842      4.288611      1.209300
  H      -1.029608      4.602533      0.169370
  C      -2.828278      5.636684     -0.406593
  H      -2.608997      6.536203      0.170931
  H      -3.910699      5.490342     -0.398073
  H      -2.528520      5.822128     -1.440559
  H      -3.475745      2.909539     -0.566684
  H      -2.177758      3.315320     -1.682357
  O      -1.872590      0.913470     -1.148325
  C      -1.962014     -0.395276     -0.894634
  O      -2.174756     -1.143921     -1.813325
  C      -5.295459     -0.494878     -1.623628
  C      -5.314474     -0.222123     -0.204048
  O      -5.576884     -1.310695      0.551200
  C      -5.572062     -1.093051      1.954046
  H      -5.846401     -2.044281      2.403857
  H      -4.579813     -0.788862      2.292644
  H      -6.289549     -0.319848      2.229637
  O      -5.113155      0.870928      0.297600
  C      -5.437972     -1.868822     -2.167168
  H      -5.860090     -2.563164     -1.445252
  H      -6.057530     -1.862474     -3.067826
  H      -4.450239     -2.241032     -2.464985
  C      -4.996706      0.621034     -2.553495
  H      -5.041746      1.583968     -2.050346
  H      -5.690013      0.616231     -3.399259
  H      -3.988103      0.494000     -2.964021
  H      -2.515318     -2.766779      0.032556
41
Coordinates from ORCA-job orca E -848.317091579146
  C      -2.159032     -2.102276      0.814289
  H      -2.089054     -2.483041      1.826672
  C      -1.808836     -0.856562      0.526887
  C      -1.311724      0.143824      1.527374
  H      -0.222767      0.236926      1.442003
  H      -1.523485     -0.201251      2.540625
  C      -1.959979      1.490614      1.247149
  H      -1.598316      2.245969      1.946725
  H      -3.045670      1.419162      1.354405
  C      -1.624788      1.939067     -0.161086
  H      -0.550082      2.151561     -0.226144
  C      -2.412250      3.151248     -0.625995
  C      -2.112337      4.419342      0.164714
  H      -2.407267      4.286783      1.209464
  H      -1.031841      4.601637      0.169220
  C      -2.831176      5.634836     -0.406478
  H      -2.612714      6.534345      0.171363
  H      -3.913419      5.487273     -0.398178
  H      -2.530761      5.820201     -1.440253
  H      -3.477005      2.906482     -0.565424
  H      -2.181014      3.314672     -1.682538
  O      -1.875890      0.911409     -1.147540
  C      -1.961234     -0.397146     -0.892337
  O      -2.173099     -1.147529     -1.809960
  C      -5.294995     -0.493146     -1.624876
  C      -5.314435     -0.222226     -0.204933
  O      -5.579508     -1.310747      0.549153
  C      -5.574933     -1.093861      1.952170
  H      -5.843231     -2.046979      2.401738
  H      -4.584592     -0.783591      2.290520
  H      -6.297604     -0.325760      2.228662
  O      -5.111115      0.870059      0.297757
  C      -5.439149     -1.866537     -2.169882
  H      -5.862470     -2.560827     -1.448570
  H      -6.059033     -1.858435     -3.070292
  H      -4.451783     -2.239866     -2.467320
  C      -4.994443      0.623150     -2.553572
  H      -5.040495      1.586150     -2.050577
  H      -5.687046      0.618640     -3.399986
  H      -3.985488      0.496250     -2.963180
  H      -2.521012     -2.766429      0.040694
41
Coordinates from ORCA-job orca E -848.317097676862
  C      -2.160758     -2.100588      0.819318
  H      -2.091983     -2.480366      1.832236
  C      -1.807100     -0.856392      0.529301
  C      -1.305846      0.144667      1.527005
  H      -0.217172      0.237221      1.437084
  H      -1.513523     -0.198970      2.541582
  C      -1.954096      1.491647      1.247355
  H      -1.589005      2.247133      1.945099
  H      -3.039512      1.421993      1.358732
  C      -1.623801      1.938593     -0.162599
  H      -0.549405      2.151355     -0.231815
  C      -2.413359      3.149916     -0.626036
  C      -2.114036      4.417909      0.165271
  H      -2.409216      4.284773      1.209888
  H      -1.033612      4.600797      0.169837
  C      -2.833522      5.633370     -0.405561
  H      -2.615568      6.532670      0.172828
  H      -3.915666      5.484973     -0.397416
  H      -2.532800      5.819176     -1.439188
  H      -3.477713      2.903618     -0.564094
  H      -2.183822      3.314726     -1.682756
  O      -1.878094      0.909657     -1.147166
  C      -1.960283     -0.398781     -0.890539
  O      -2.172082     -1.151113     -1.806644
  C      -5.295201     -0.492109     -1.626278
  C      -5.314243     -0.221963     -0.206126
  O      -5.582053     -1.310223      0.547220
  C      -5.578337     -1.094450      1.950346
  H      -5.841026     -2.049399      2.399440
  H      -4.589608     -0.778978      2.288307
  H      -6.305560     -0.331032      2.228118
  O      -5.108586      0.869797      0.296976
  C      -5.440556     -1.865229     -2.172108
  H      -5.864496     -2.559212     -1.450796
  H      -6.060422     -1.856449     -3.072499
  H      -4.453138     -2.238998     -2.468813
  C      -4.993601      0.624348     -2.554549
  H      -5.040723      1.587353     -2.051641
  H      -5.685608      0.619723     -3.401496
  H      -3.984214      0.497797     -2.963154
  H      -2.525725     -2.765566      0.047793
41
Coordinates from ORCA-job orca E -848.317101351656
  C      -2.162002     -2.099119      0.822360
  H      -2.094944     -2.477902      1.835796
  C      -1.805954     -0.855833      0.530648
  C      -1.302019      0.145240      1.526879
  H      -0.213458      0.237437      1.434886
  H      -1.507971     -0.197445      2.542115
  C      -1.949647      1.492655      1.247318
  H      -1.582423      2.248139      1.944001
  H      -3.034889      1.424386      1.361267
  C      -1.622487      1.938514     -0.163744
  H      -0.548289      2.151315     -0.235941
  C      -2.413640      3.149216     -0.626010
  C      -2.114834      4.417027      0.165972
  H      -2.409898      4.283150      1.210560
  H      -1.034429      4.600345      0.170906
  C      -2.834830      5.632602     -0.403938
  H      -2.616921      6.531614      0.174950
  H      -3.916958      5.483929     -0.395608
  H      -2.534518      5.819207     -1.437572
  H      -3.477690      2.901698     -0.562938
  H      -2.185413      3.315290     -1.682833
  O      -1.878906      0.908690     -1.147173
  C      -1.959947     -0.399690     -0.889648
  O      -2.172508     -1.153353     -1.804444
  C      -5.295881     -0.492063     -1.627561
  C      -5.313661     -0.221502     -0.207406
  O      -5.583451     -1.309352      0.545872
  C      -5.580753     -1.094531      1.948998
  H      -5.839816     -2.050740      2.397566
  H      -4.593026     -0.775964      2.286795
  H      -6.310683     -0.334038      2.227884
  O      -5.105675      0.869977      0.295425
  C      -5.441556     -1.865304     -2.173161
  H      -5.865120     -2.558839     -1.451167
  H      -6.061237     -1.857193     -3.073641
  H      -4.453745     -2.238608     -2.469257
  C      -4.994237      0.624204     -2.556316
  H      -5.042360      1.587302     -2.053657
  H      -5.685665      0.618794     -3.403717
  H      -3.984358      0.498206     -2.963893
  H      -2.529271     -2.764071      0.051888
41
Coordinates from ORCA-job orca E -848.317104891879
  C      -2.162125     -2.097979      0.826075
  H      -2.096009     -2.475173      1.840116
  C      -1.804799     -0.855343      0.532568
  C      -1.298905      0.145880      1.527504
  H      -0.210415      0.237957      1.434440
  H      -1.504041     -0.195884      2.543243
  C      -1.946073      1.493567      1.247547
  H      -1.577528      2.249409      1.943145
  H      -3.031157      1.425981      1.363443
  C      -1.621401      1.938106     -0.164489
  H      -0.547360      2.150776     -0.239181
  C      -2.413896      3.148162     -0.626124
  C      -2.115231      4.416166      0.165604
  H      -2.409483      4.282108      1.210429
  H      -1.034847      4.599823      0.170412
  C      -2.835902      5.631503     -0.403565
  H      -2.617686      6.530559      0.175160
  H      -3.918050      5.482840     -0.394446
  H      -2.536765      5.818541     -1.437491
  H      -3.477668      2.899678     -0.561688
  H      -2.187034      3.314622     -1.683180
  O      -1.879610      0.907388     -1.146732
  C      -1.960521     -0.400863     -0.888077
  O      -2.174524     -1.155609     -1.801599
  C      -5.296950     -0.491191     -1.628750
  C      -5.313052     -0.220977     -0.208453
  O      -5.583939     -1.309169      0.544154
  C      -5.582324     -1.096056      1.947392
  H      -5.837247     -2.053923      2.394793
  H      -4.595865     -0.773901      2.285326
  H      -6.315221     -0.338864      2.227691
  O      -5.102983      0.869837      0.294908
  C      -5.442825     -1.864235     -2.174680
  H      -5.866170     -2.557725     -1.452533
  H      -6.061747     -1.856387     -3.075631
  H      -4.454521     -2.236867     -2.470142
  C      -4.995245      0.625373     -2.557419
  H      -5.043633      1.588207     -2.054312
  H      -5.686027      0.619981     -3.405295
  H      -3.984905      0.499775     -2.964075
  H      -2.531389     -2.762703      0.056371
41
Coordinates from ORCA-job orca E -848.317107010746
  C      -2.161612     -2.097451      0.828009
  H      -2.095717     -2.473568      1.842428
  C      -1.804186     -0.854950      0.533787
  C      -1.297803      0.146305      1.528313
  H      -0.209299      0.238326      1.435601
  H      -1.503433     -0.194976      2.544067
  C      -1.944650      1.494069      1.247953
  H      -1.575975      2.250244      1.943088
  H      -3.029681      1.426447      1.364323
  C      -1.620543      1.937938     -0.164344
  H      -0.546540      2.150473     -0.239746
  C      -2.413539      3.147692     -0.625940
  C      -2.114747      4.416024      0.165129
  H      -2.408107      4.282177      1.210252
  H      -1.034376      4.599847      0.169540
  C      -2.835960      5.631009     -0.403713
  H      -2.617415      6.530307      0.174521
  H      -3.918120      5.482471     -0.393777
  H      -2.537961      5.818099     -1.437968
  H      -3.477151      2.898811     -0.560643
  H      -2.187432      3.313797     -1.683202
  O      -1.879139      0.906858     -1.146136
  C      -1.961317     -0.401246     -0.886881
  O      -2.176894     -1.156113     -1.799851
  C      -5.298425     -0.490751     -1.629597
  C      -5.313023     -0.220826     -0.209201
  O      -5.583992     -1.309382      0.542977
  C      -5.582518     -1.097383      1.946298
  H      -5.835380     -2.056201      2.392785
  H      -4.596720     -0.773537      2.284516
  H      -6.316715     -0.341761      2.227468
  O      -5.101635      0.869431      0.294630
  C      -5.443662     -1.863778     -2.175538
  H      -5.866328     -2.557535     -1.453302
  H      -6.062031     -1.856512     -3.076841
  H      -4.454824     -2.235257     -2.470759
  C      -4.997113      0.626000     -2.558276
  H      -5.045732      1.588687     -2.054907
  H      -5.687302      0.620357     -3.406562
  H      -3.986373      0.500855     -2.964220
  H      -2.531700     -2.761606      0.058179
41
Coordinates from ORCA-job orca E -848.317109867241
  C      -2.161730     -2.097032      0.831340
  H      -2.095216     -2.471787      1.846147
  C      -1.803918     -0.854908      0.536028
  C      -1.296382      0.146602      1.529612
  H      -0.207872      0.238067      1.436760
  H      -1.502232     -0.193984      2.545579
  C      -1.942937      1.494470      1.248931
  H      -1.573648      2.251174      1.943114
  H      -3.027850      1.426866      1.366379
  C      -1.619828      1.937339     -0.163877
  H      -0.545901      2.149825     -0.240120
  C      -2.413427      3.146686     -0.625711
  C      -2.114214      4.415855      0.163737
  H      -2.405747      4.282728      1.209457
  H      -1.033947      4.600291      0.166536
  C      -2.836992      5.629838     -0.404913
  H      -2.618093      6.529824      0.172101
  H      -3.919074      5.480894     -0.393150
  H      -2.541035      5.816463     -1.439833
  H      -3.476828      2.897411     -0.559109
  H      -2.188451      3.311630     -1.683385
  O      -1.878835      0.905696     -1.144873
  C      -1.962942     -0.402101     -0.884575
  O      -2.180790     -1.156950     -1.796973
  C      -5.299681     -0.489240     -1.630694
  C      -5.312482     -0.220706     -0.210013
  O      -5.583379     -1.310078      0.541172
  C      -5.581826     -1.099654      1.944705
  H      -5.831211     -2.059950      2.389927
  H      -4.597314     -0.772548      2.283504
  H      -6.318492     -0.346809      2.226926
  O      -5.099439      0.868564      0.295053
  C      -5.444716     -1.861948     -2.177298
  H      -5.866890     -2.556305     -1.455411
  H      -6.062720     -1.854504     -3.078826
  H      -4.455551     -2.232438     -2.472648
  C      -4.998376      0.628076     -2.558685
  H      -5.047211      1.590505     -2.054803
  H      -5.687602      0.622580     -3.407672
  H      -3.987093      0.503473     -2.963591
  H      -2.533198     -2.760525      0.061614
