104
Coordinates from ORCA-job orca E -2044.683438838216
  C           0.27413213981026      0.53166254658949     -1.60534296524040
  C           0.91329000188760      0.58318882308617     -0.19414689186620
  O           1.70769937124543     -0.26801199745806      0.14756550348269
  O           0.61914184181453      1.55488328380084      0.65244742671337
  C          -0.85521603983961      1.58127886670811     -1.75299363069603
  H          -1.76083333996019      1.21824528912051     -1.25525799338452
  H          -1.08964415588387      1.71555479847447     -2.82144968968502
  C          -0.26672943488525      2.67400996138254      0.39692455854143
  H          -1.23048837085520      2.38744540877575      0.85296928615729
  C          -0.46098046121367      2.89764886875401     -1.09386654591812
  H          -1.25726689581358      3.64454994793485     -1.23721739549195
  H           0.46596522136949      3.31061740111148     -1.52155021289379
  C          -0.15677937679873     -0.94028911148570     -1.88438597129615
  H           0.73681593503646     -1.54632045860111     -1.68926740788791
  H          -0.34848474000725     -1.02502972735736     -2.96616203371000
  C           1.34801232340454      0.88864224956340     -2.64536910796640
  C           3.49860162873478      0.79872797970073     -2.24640386937989
  H           1.39191451770724      1.94705642453860     -2.90037450849247
  H           1.37566210448335      0.22923520531551     -3.51869173356141
  C           3.53410059791825      1.77597881165478     -1.08668631793616
  C           3.81534841863778     -0.67197979361903     -1.95981228433079
  C           3.98608840434339      1.36508028260206     -3.42497580479792
  O           2.86655089228217      2.78160601848388     -1.02158126720644
  O           4.43350864564713      1.51121465491685     -0.12928457755960
  H           4.40632057442182     -1.06172630379974     -2.80398823862049
  H           2.89299048908362     -1.26254352173660     -1.91184979144967
  C           4.58493421205081     -0.84959958813497     -0.63891386308615
  H           3.96232660911772      2.44723090303180     -3.57623130555849
  H           4.30172284815713      0.73598262411486     -4.26215355401100
  C           5.35970382302733      0.40930125936737     -0.28003330207088
  H           5.27647250712349     -1.70271996635511     -0.71374321495322
  H           3.87893700046856     -1.04907637500027      0.17926608235242
  H           6.05420714241534      0.67225100971535     -1.10164699218705
  C           0.33943759934064      3.85099355921537      1.15099789497198
  H           1.32377109942929      4.07264667031518      0.70561060547617
  H           0.53040318248282      3.51759870746145      2.18526659640078
  C           6.13320446110350      0.33813855588584      1.02937751771701
  H           5.42976877376956      0.06541046605556      1.83566050593190
  H           6.48870618151990      1.35678139011202      1.26035561286046
  C          -4.10328598632154     -1.70373654921218     -1.55138444311307
  C          -4.20608805844980     -2.02209639533315     -0.04922946396225
  O          -3.67269201436840     -3.00147026647854      0.41969877936712
  O          -4.96237167742485     -1.25923691755110      0.74605152604216
  C          -5.08340438109434     -0.57416775788416     -1.93170730245484
  H          -6.11170855019549     -0.97564438889045     -1.96353083108614
  H          -4.85636003433491     -0.22189958337482     -2.95155302431175
  C          -5.46949684148673      0.06410979405173      0.44355493910310
  H          -6.56916505291002     -0.05369923364607      0.43126772888089
  C          -5.01833707135506      0.56315895482201     -0.92248303450448
  H          -5.67099084506148      1.39593694490088     -1.22663732565526
  H          -3.99324492191480      0.95550949091376     -0.84947420480731
  C          -4.52913703852285     -2.98896809084623     -2.29246025937511
  H          -3.87679080346461     -3.83755919658376     -2.05409123344273
  H          -4.50397190580037     -2.81727209115627     -3.38086937275329
  C          -2.65958933481519     -1.26260119001415     -1.98398826284241
  C          -1.38683306763370     -1.63850239565365     -1.18078950478213
  H          -2.67027405380009     -0.17445847890512     -2.08859425832229
  H          -2.50730290786495     -1.65314127998195     -3.00388995271281
  C          -1.48800555536431     -1.08870684808049      0.24738406782275
  C          -1.12746140958702     -3.17914898414494     -1.21935125797861
  O          -2.17977577750429     -0.12404848565086      0.51137707868788
  O          -0.74538015449701     -1.63232246474408      1.20052797440150
  H          -0.38746471676427     -3.37648086593847     -2.01215164766893
  H          -2.04340730290494     -3.69699825883910     -1.51685493702681
  C          -0.65268626835839     -3.77563470600727      0.11171824514240
  C           0.12493170644819     -2.76222240782797      0.93178804334659
  H          -0.02791014830665     -4.66357165471183     -0.07099600263023
  H          -1.52506780905605     -4.09125405858492      0.70303403266548
  H           0.98809927476387     -2.37119421441169      0.37222137441689
  C          -5.06417709463270      0.95434270229569      1.61510278643590
  H          -3.96415205122458      0.94950187080244      1.67151784501104
  H          -5.42831753614850      0.47753678304515      2.54108351586809
  C           0.60642568457534     -3.24167227077814      2.29212201752039
  H          -0.24890571605119     -3.65960583277003      2.85228895493565
  H           0.94429933462750     -2.35065521762536      2.84724005754347
  H          -5.55670131983770     -3.27632243975073     -2.01830054164368
  C          -5.59439203857933      2.38680162465103      1.52734212862211
  H          -6.69561632941149      2.37262577939710      1.42231302059925
  H          -5.20934064027163      2.87449203895697      0.61446359076136
  C           1.74673996093617     -4.25895778642050      2.21570403706152
  H           1.41150782600998     -5.16442451696912      1.67932798451476
  H           2.56950005846267     -3.83446733234979      1.61099294996951
  C          -0.54809757891049      5.09713458148953      1.16862056741672
  H          -1.55548410023579      4.82648372999314      1.53761155835003
  H          -0.69221011722628      5.47203001251555      0.13992572051855
  C           7.31880103043208     -0.62873928504592      1.00593921075493
  H           6.96347788460934     -1.65690994958342      0.81693250903595
  H           7.97994043238058     -0.37578082324568      0.15640255224644
  C           8.12405262101357     -0.60606685508390      2.30528851383421
  H           8.96953575147186     -1.31151308441895      2.26946906159291
  H           8.53356029895878      0.39851985334546      2.50411325881989
  H           7.49478695154427     -0.88105270706857      3.16832441486624
  C           0.02959866230189      6.21750892998921      2.03363675959246
  H           1.02654208515624      6.52209872997416      1.67356406410728
  H          -0.61675440586708      7.11000496973279      2.02744405808394
  H           0.14408890133957      5.89346516269299      3.08170896308994
  C          -5.20548956206297      3.22868338943946      2.74310637050167
  H          -5.59261896536420      4.25749694583094      2.66611672110359
  H          -5.59937733504195      2.79085125914629      3.67561792454990
  H          -4.10896939098580      3.28870125979037      2.84728277925103
  C           2.27611260993886     -4.65732738043139      3.59335553072616
  H           1.48038214439699     -5.10709371133921      4.21072349508319
  H           3.09475839653731     -5.39099900302406      3.51693165119645
  H           2.66076052253207     -3.78065497165961      4.14106737826534
