104
Coordinates from ORCA-job orca E -2044.711888489123
  C          -0.05081646514411     -0.05950489650728     -2.43300281362688
  C           1.02433960899643     -0.19454935992707     -1.31089008236405
  O           1.72937183219586     -1.17845211052585     -1.24044371508929
  O           1.25464860591570      0.81795272329920     -0.47366646538861
  C          -0.93652184683165      1.19672758428494     -2.27656522480095
  H          -1.75425551738906      0.99287855138731     -1.57898949318102
  H          -1.38174556399624      1.43754163895775     -3.25505730209649
  C           0.38743531066935      1.98120558863176     -0.34573846952362
  H          -0.44827643078650      1.65695464925770      0.29686456733966
  C          -0.14813930821027      2.37387163625874     -1.71093337085714
  H          -0.80962283499065      3.24743911235648     -1.60087253840319
  H           0.69362390273204      2.67526767757520     -2.35578587866784
  C          -0.80784644889856     -1.41431637189236     -2.56121940379967
  H          -0.01777031678518     -2.17406616058491     -2.62140503275309
  H          -1.30744920413556     -1.41824979382751     -3.54363515969545
  C           0.77812443107013      0.09076907262505     -3.68374858023400
  C           4.44996699238999      0.25110233436171     -2.10518431897825
  H           1.17612733073779      1.06945812885354     -3.95877073993917
  H           1.23991253725672     -0.79416684613211     -4.12817125970898
  C           3.91394619927576      1.62506482324688     -1.81691124878730
  C           4.91848146433573     -0.62117020916689     -0.95870651574408
  C           4.45574834888387     -0.14205925068053     -3.38584204522982
  O           3.22647873384566      2.25324762290722     -2.59162708266937
  O           4.22223446120592      2.17963462700705     -0.62955255153816
  H           6.00911148186163     -0.77912378036055     -1.04309081871225
  H           4.43611779556242     -1.60642283124570     -1.04239571798220
  C           4.59675183859117      0.01411002272380      0.39085695527612
  H           4.09543416754194      0.52521884163693     -4.17136422584111
  H           4.81708100842508     -1.13442691502692     -3.67130521597950
  C           4.99793134254727      1.48049939690115      0.37217030410508
  H           5.12648017068445     -0.51080445864740      1.20033085545887
  H           3.51540875724700     -0.05315917060155      0.59089188340566
  H           6.06427206684115      1.57082129784552      0.08438138129906
  C           1.19983798886154      3.04372590851722      0.37675502632127
  H           2.03907602738294      3.36170445034175     -0.26149986213716
  H           1.64736116769782      2.56780322900856      1.26541828613425
  C           4.77425525620385      2.23204713258708      1.67836221084259
  H           3.73036138904129      2.07752508163930      2.00031488943330
  H           4.87700589402571      3.30977434068755      1.46520408099877
  C          -4.54839114009344     -1.45959361866940     -1.05130165832034
  C          -4.25177033959960     -1.80509462490139      0.41850504330277
  O          -3.79013283642718     -2.87989857697941      0.72724076172244
  O          -4.58596350233345     -0.94719069323531      1.38784924783598
  C          -5.36978873024600     -0.15623972241630     -1.14415493093559
  H          -6.41699217540410     -0.36038254789502     -0.85868464312966
  H          -5.39558914648409      0.18465118838297     -2.19236680619952
  C          -4.90345615430974      0.45676013535853      1.22337765545021
  H          -5.95828154373404      0.54488036339310      1.54405997982941
  C          -4.79660078251580      0.91364600436752     -0.22555960239620
  H          -5.34472811214515      1.86184302846269     -0.33704582117971
  H          -3.74273856354355      1.10894850924345     -0.47264799438008
  C          -5.40903928468202     -2.61919152644471     -1.59684326558012
  H          -4.88271624768579     -3.58012194064114     -1.54842207000128
  H          -5.68535813475865     -2.41730722816004     -2.64444180779308
  C          -3.24651532449228     -1.27862778638282     -1.91030723101323
  C          -1.88442144928519     -1.90694772848935     -1.51742639621217
  H          -3.08695768134826     -0.20409414448972     -2.03551057217609
  H          -3.48018099200191     -1.65848613344136     -2.91865270145717
  C          -1.44802927647956     -1.40150802418265     -0.13968660222827
  C          -1.92951751533755     -3.46575322782154     -1.60459025142633
  O          -1.84309041276628     -0.34104242190147      0.30647157122768
  O          -0.55040280908114     -2.09422900868366      0.54790502205723
  H          -1.50238415416304     -3.76163730419388     -2.57641772443394
  H          -2.97034666199011     -3.80173189789977     -1.60934176656029
  C          -1.20195467634770     -4.18358493442655     -0.46157223908139
  C          -0.03819571784856     -3.36737572536788      0.07232752552754
  H          -0.83858389658123     -5.16577611593370     -0.80086996391401
  H          -1.90530667151580     -4.35047125568552      0.36787410553945
  H           0.69409817689642     -3.13881468187571     -0.71781193867610
  C          -4.00813502675059      1.21240917973428      2.20178772057175
  H          -2.96292631739770      0.99381246824001      1.93223282346736
  H          -4.17040041143064      0.78295260101061      3.20516910710780
  C           0.69590503225328     -3.97672125283221      1.25765765081282
  H          -0.03595775829480     -4.20888636742453      2.05161098717306
  H           1.36364477422264     -3.19739574399133      1.66201652114026
  H          -6.33845479746467     -2.72222264121339     -1.01458106082485
  C          -4.24984939725996      2.72262123712579      2.23958528728796
  H          -5.31518916179653      2.92707328079027      2.45656495536117
  H          -4.05355711486685      3.15879262630780      1.24435937830954
  C           1.51561086250464     -5.21968018239614      0.90502761065635
  H           0.84994050879524     -6.01947172769038      0.53541933696489
  H           2.19620060511889     -4.97958953177812      0.06761066997405
  C           0.36988038180461      4.25050127688528      0.82054570302966
  H          -0.50530409533857      3.90453712894365      1.40162642786860
  H          -0.03948923717443      4.77301217361163     -0.06194136828301
  C           5.73580650093753      1.83569670464823      2.80054988190272
  H           5.62625082104752      0.76106046490522      3.02912837292270
  H           6.77740442773452      1.96682323538789      2.45369379915823
  C           5.51463374348334      2.64675512217123      4.07744249690186
  H           6.21471622555233      2.34757635267397      4.87371931764574
  H           5.65547417932891      3.72541692824324      3.89514044779465
  H           4.49060694866738      2.50928361755965      4.46339963766230
  C           1.18264562615534      5.23964917963591      1.65621465003893
  H           2.05120009616199      5.61547375072663      1.08999506802103
  H           0.57777911470819      6.10899948652417      1.96049147757409
  H           1.56938993365532      4.76316243028208      2.57291398750752
  C          -3.37098420734144      3.42733415744441      3.27350541303202
  H          -3.54762550760118      4.51491184790406      3.28431253763485
  H          -3.56350008618904      3.04535947045204      4.29004012170897
  H          -2.30161693876895      3.26285020103473      3.05872918612056
  C           2.32605756840287     -5.74712542370022      2.08912553425881
  H           1.66894910752426     -6.02170087203295      2.93140492793077
  H           2.90927211243697     -6.64099140295581      1.81541607670976
  H           3.03288506862585     -4.98540145309062      2.45898508257270
