104
Coordinates from ORCA-job orca E -2044.712537475167
  C           0.04727849440316     -0.06434945791725     -2.28893669436861
  C           1.06177089937054     -0.19624579320493     -1.11631756966096
  O           1.73975687459562     -1.19343962018581     -0.98530079743803
  O           1.29472611668110      0.84635911032767     -0.31668169225890
  C          -0.85373982601195      1.18560828586908     -2.17852204590167
  H          -1.69803984382563      0.97349522000475     -1.51593803625823
  H          -1.25848785047249      1.41548137898840     -3.17709052690305
  C           0.40572498985977      1.99628554161827     -0.21103403124173
  H          -0.43762499348350      1.66029764106215      0.41570868400436
  C          -0.10804303478883      2.37850197580816     -1.58787484354012
  H          -0.79682745703602      3.23231857544733     -1.48949876889215
  H           0.73783536991201      2.70741895625651     -2.21237571642654
  C          -0.69520223329972     -1.41983666065388     -2.46741476499776
  H           0.09861237638150     -2.17754825248887     -2.48634628899366
  H          -1.14104571649766     -1.42042977692747     -3.47532906841562
  C           0.96160752917507      0.09623949133788     -3.47742440282166
  C           4.31430461159861      0.41968476135252     -2.28257733155319
  H           1.36149549190574      1.07894266913639     -3.73089588429521
  H           1.43207797006148     -0.78751958060075     -3.91305499338396
  C           3.82493327572185      1.78694499564015     -1.90204941523122
  C           4.82937849913321     -0.51564077919526     -1.20621202366283
  C           4.28458262652037      0.09965051960492     -3.58333688619600
  O           3.11521226642556      2.46524386731533     -2.61312277370305
  O           4.20216659373182      2.27670587544916     -0.70872805655285
  H           5.90249125163583     -0.70996764366137     -1.38388038086015
  H           4.30218134073352     -1.47760270649097     -1.28877568454089
  C           4.63709334952394      0.06664667328071      0.19169393955681
  H           3.91698941498104      0.81327307474052     -4.32312330388009
  H           4.62740270333861     -0.87875858866185     -3.93294948618221
  C           5.04351354253561      1.53098454911868      0.20432375820826
  H           5.23767493523702     -0.49436730533411      0.92376115120656
  H           3.58050997362087     -0.01120283822872      0.49144285992173
  H           6.08677762913136      1.63325072771309     -0.15478070546940
  C           1.18945235366118      3.07268789622212      0.52381512921782
  H           2.03602242137457      3.40044342231155     -0.10011758964228
  H           1.62587439927140      2.60661167278191      1.42388744251714
  C           4.91216477184158      2.22842464871801      1.55216436091315
  H           3.88358203815262      2.08042315750013      1.92298190978030
  H           5.02806558963959      3.31206321424794      1.37922438178056
  C          -4.50747883817282     -1.47233379176839     -1.14579983672888
  C          -4.28310725935604     -1.82561702801098      0.33492637947728
  O          -3.84194979639069     -2.90408273299890      0.66020710600075
  O          -4.65700728427803     -0.97009784445645      1.29169146858490
  C          -5.32215437938630     -0.16759827403054     -1.27108109157445
  H          -6.38157073027500     -0.37191087699158     -1.03515573642614
  H          -5.29920561589752      0.17814291859910     -2.31777642202622
  C          -4.96697571855460      0.43446500504192      1.11877308036642
  H          -6.03561617593039      0.52101025602621      1.39067601440318
  C          -4.79186673108867      0.89743130508356     -0.32145867015847
  H          -5.33292811259174      1.84687308684964     -0.45471009610784
  H          -3.72718887401610      1.09301549534360     -0.51636116038499
  C          -5.34056153800317     -2.62867695519370     -1.73855248779325
  H          -4.82025745865141     -3.59095864562334     -1.66093700742921
  H          -5.55794603571717     -2.42577221944302     -2.79970464029264
  C          -3.16479270953654     -1.28742443734196     -1.93900743385153
  C          -1.82430908123895     -1.92063075930648     -1.48400533311830
  H          -2.99886206802349     -0.21252443367198     -2.04952629183203
  H          -3.34863250861013     -1.66064760406710     -2.96009531076237
  C          -1.45617322898286     -1.42663992059142     -0.08162768565266
  C          -1.86634067435469     -3.47868466380306     -1.58934666242831
  O          -1.85934207246312     -0.36102304632357      0.34550666139518
  O          -0.61070285704006     -2.13480936148798      0.65366261825560
  H          -1.37485416628558     -3.76557210845347     -2.53304012266952
  H          -2.90473084468687     -3.81326138482544     -1.66984857363801
  C          -1.21655862347411     -4.21121131730225     -0.40996837805396
  C          -0.08116186500233     -3.40815409716518      0.19960417216431
  H          -0.84029823128967     -5.19316415689810     -0.73568676284203
  H          -1.96945769471097     -4.38015968217677      0.37420471968270
  H           0.69824128039284     -3.17910013888224     -0.54399403478471
  C          -4.11883146042901      1.18649331494022      2.14093134068054
  H          -3.06150609166438      0.97784546961362      1.91386415268232
  H          -4.32017716870285      0.74645681294265      3.13255135416686
  C           0.57456359363586     -4.03207654905410      1.42255682514307
  H          -0.20707050101333     -4.26082555113730      2.16872837737976
  H           1.22408087766760     -3.26196697762216      1.87175465522616
  H          -6.30098811311118     -2.72949205085196     -1.20847685184458
  C          -4.37401896897425      2.69444898708414      2.18223172047016
  H          -5.44913414633122      2.88798817684179      2.35690138618719
  H          -4.14089368964310      3.14158877945550      1.19987755008585
  C           1.40088011875218     -5.28187062642074      1.11297014829152
  H           0.75269434827288     -6.06815431100156      0.68748782754612
  H           2.14222032247102     -5.04190269766741      0.32868013833646
  C           0.33345792103105      4.26997389187818      0.94367914045894
  H          -0.54852299364393      3.91385238368233      1.50812757312514
  H          -0.06476627632555      4.78061100433424      0.04933773358429
  C           5.92552551945883      1.76336721997040      2.59970290463852
  H           5.79380437112096      0.68546216462676      2.79863503212904
  H           6.94820966954796      1.87390623432958      2.19410846908671
  C           5.80956950397452      2.53613290763593      3.91355873504281
  H           6.54572828597760      2.18676630660988      4.65499848381677
  H           5.97653412308915      3.61535146902254      3.75847025973028
  H           4.80666465176666      2.41899573108594      4.35742169120386
  C           1.11287328221449      5.27659765806803      1.79002446844956
  H           1.98785984721693      5.66205971410002      1.24039188296658
  H           0.48827858826376      6.13867972668374      2.07441099562550
  H           1.48606416520761      4.81251281155024      2.71862165188561
  C          -3.54502278949247      3.39702254570985      3.25799593044596
  H          -3.73294028852918      4.48267017501946      3.27207781206852
  H          -3.77517013958700      3.00304469400338      4.26205544349643
  H          -2.46605469453601      3.24519294260120      3.08602097204962
  C           2.11794687911919     -5.83443357562311      2.34487939723742
  H           1.39830419813700     -6.10761133250215      3.13484881404708
  H           2.70587067436839     -6.73422766184620      2.10247498692681
  H           2.80791752956559     -5.08804127249533      2.77324666202345
