104
Coordinates from ORCA-job orca E -2044.697889924711
  C           0.31989048816776     -0.04804109684704     -1.82677279953282
  C           1.12583218558919     -0.20701314925769     -0.51521323310731
  O           1.73010064167586     -1.22996803490811     -0.27249870080440
  O           1.29480537572724      0.84743291644980      0.28235489722245
  C          -0.60738369089826      1.18391023007101     -1.82462618990357
  H          -1.52134589498934      0.94538454467322     -1.27368526667681
  H          -0.88987225953169      1.41653978019700     -2.86411203431016
  C           0.42090287289896      2.01377350454669      0.27803269420507
  H          -0.47965146784067      1.70588667455010      0.83670834455385
  C           0.03185777460093      2.38839059637492     -1.14172965442195
  H          -0.69717517200278      3.21319447883847     -1.09769093380758
  H           0.90757738894511      2.76382055533789     -1.69168105627383
  C          -0.37808504537722     -1.40320578425558     -2.15855128181140
  H           0.41361500911941     -2.15914341724685     -2.08620805547675
  H          -0.67699226722919     -1.37108944396117     -3.21902623279708
  C           1.42482967949314      0.13297697734811     -2.85393753602063
  C           3.95818602700898      0.76854088448546     -2.72155208646276
  H           1.44241928861486      1.03461760576601     -3.46359693040753
  H           1.92331676226481     -0.76355425875830     -3.21971219360028
  C           3.53114327569967      2.10284736257679     -2.18440937720057
  C           4.42955883703789     -0.31831075117390     -1.76849285504742
  C           4.15315065574604      0.69907725107846     -4.05129236366620
  O           2.84002313874203      2.88626987996861     -2.79694825948289
  O           3.96439890108026      2.43240481370186     -0.95570872207420
  H           5.38446776154365     -0.71543055809003     -2.15008083785887
  H           3.71498796405294     -1.15556990490403     -1.76968942609865
  C           4.59822432551347      0.17721235102799     -0.32571020329458
  H           3.86916342968403      1.53169859700347     -4.69903015832322
  H           4.56947135713887     -0.19909184362592     -4.51752021498058
  C           4.98228858538809      1.64618346490807     -0.28576773884742
  H           5.37011910857796     -0.41976390831201      0.18318315336355
  H           3.66688819937729      0.04318197693357      0.24134975573472
  H           5.92986004761437      1.80779667041348     -0.83605440888700
  C           1.16851580942124      3.08904359675310      1.05277187679031
  H           2.06610937032611      3.37833613182582      0.48189322927203
  H           1.52288270758498      2.63275436955489      1.99330521845749
  C           5.10449791337893      2.23739835115520      1.11200419483597
  H           4.15662625515630      2.05807526540505      1.64785609207373
  H           5.20148165226796      3.33136794604407      1.00449349293952
  C          -4.33878601068162     -1.49546659924440     -1.38703122784858
  C          -4.32478084405727     -1.86747661564927      0.10581193942536
  O          -3.94069169805784     -2.95370074577141      0.47463351294777
  O          -4.81836761629234     -1.01903440325010      1.01297660325242
  C          -5.13305196445611     -0.19099199330889     -1.60785764336886
  H          -6.21393904303285     -0.39883586886313     -1.51796176857368
  H          -4.97058364361631      0.16549651323569     -2.63844747610749
  C          -5.09778911866388      0.38875955078624      0.81504023362944
  H          -6.19224054584839      0.47800594722237      0.94689975583639
  C          -4.73511561551870      0.86406557345270     -0.58527506450223
  H          -5.25293994022408      1.81576346131365     -0.78021900283242
  H          -3.65411140762851      1.06135167665025     -0.63675682849527
  C          -5.07161457484457     -2.64713622348731     -2.10647013893575
  H          -4.56820578745865     -3.60939906194423     -1.95472805118874
  H          -5.12651451104460     -2.43848193466153     -3.18713174440659
  C          -2.89851300071650     -1.29104599909258     -1.97751688239604
  C          -1.63319940634158     -1.94324025989147     -1.36194011230734
  H          -2.72095400125575     -0.21429770865405     -2.02729099049763
  H          -2.93960954827449     -1.62889009799680     -3.02630872664645
  C          -1.46600941465966     -1.49946274967867      0.09600631798164
  C          -1.65324850319524     -3.49609462357593     -1.53476380602000
  O          -1.89167773492356     -0.42718636415253      0.48421497659616
  O          -0.77176684092618     -2.25471493427623      0.93286140714387
  H          -0.99170682885348     -3.75189490304773     -2.37824546471722
  H          -2.65673380363725     -3.82029370278689     -1.82832532348483
  C          -1.23629367245397     -4.28035468670740     -0.28614506879971
  C          -0.20137164334701     -3.52632277941388      0.52927340937601
  H          -0.83502812055206     -5.26388606942831     -0.57535440727002
  H          -2.11512882966099     -4.44572538175992      0.35361265598796
  H           0.69529284390215     -3.29602408517130     -0.06846055880653
  C          -4.38449505614335      1.12738919079262      1.94408096403189
  H          -3.30730383209643      0.91828543421251      1.84911822148886
  H          -4.70855742559365      0.67700438269152      2.89775071121555
  C           0.22983099975654     -4.20412797374222      1.82165120893487
  H          -0.66825397739940     -4.42024622084726      2.42694667821927
  H           0.82534973705578     -3.47059736668336      2.39072009274118
  H          -6.10096988545076     -2.75167278087191     -1.72813866038073
  C          -4.64107835763185      2.63540942423106      1.96956031628956
  H          -5.72877889411452      2.82934548901152      2.02550980548769
  H          -4.30056993265782      3.09100323705433      1.02302437380295
  C           1.05075074860728     -5.47758817774703      1.60931316901616
  H           0.44524086362919     -6.23368943751009      1.07901651351432
  H           1.90571194200050     -5.25273251225387      0.94531346025783
  C           0.31814708269018      4.31998120057931      1.37459254888790
  H          -0.60914765410788      4.00307528399803      1.88753220723767
  H          -0.00372294272126      4.80960660132349      0.43896888650849
  C           6.28222686987951      1.69448128359315      1.92382856071006
  H           6.17136434383586      0.60543202446634      2.06580996061968
  H           7.21774941033371      1.83280169683472      1.35078553091568
  C           6.41344646600090      2.36894205967501      3.28949162764956
  H           7.26395144512698      1.96390641633694      3.86069028391232
  H           6.56662020767440      3.45631722780677      3.18556931968435
  H           5.50331646529648      2.22106738003593      3.89461936049026
  C           1.06299356553237      5.33539687235755      2.24125732112844
  H           1.98023289158209      5.68649185318163      1.73946968607372
  H           0.44037929742621      6.21830159662290      2.45772388319713
  H           1.36387719972327      4.89269087832053      3.20582600724191
  C          -3.93489815234550      3.32753017249037      3.13590904877957
  H          -4.12564257420989      4.41276795529966      3.14062433370641
  H          -4.27118037989691      2.92287682689211      4.10516981279088
  H          -2.84320612609821      3.17861232838666      3.07988042209638
  C           1.56449559035174     -6.07353055376458      2.91998656211077
  H           0.73091808500920     -6.33321368383314      3.59414850880756
  H           2.15109123838070     -6.98996060094842      2.74608835623699
  H           2.21051457532655     -5.35839706448832      3.45643619335085
