104
Coordinates from ORCA-job orca E -2044.704303803537
  C           0.25991858017001     -0.05247745876730     -1.89489960731651
  C           1.10184327099143     -0.19585989991822     -0.60094481571156
  O           1.71847072145434     -1.21337146020848     -0.36438828163824
  O           1.28848031738930      0.86737438580354      0.18148773105695
  C          -0.66695638129653      1.18034807031810     -1.88322304410885
  H          -1.56948940904771      0.94847846867534     -1.31073651563736
  H          -0.97079569888314      1.40318270321318     -2.91884047676827
  C           0.40643063615877      2.02733330194847      0.18942072133269
  H          -0.48198160393060      1.71640784283635      0.76571879316956
  C          -0.00984041536643      2.39018991826952     -1.22586923571855
  H          -0.73449418760365      3.21848081988464     -1.17679414305096
  H           0.86028587755233      2.75570308040434     -1.79231798645527
  C          -0.43847363060982     -1.41143572447574     -2.20009314344939
  H           0.35717743803030     -2.16437256033605     -2.13812569612772
  H          -0.75851642647339     -1.38892415396522     -3.25450858450319
  C           1.34623018212559      0.13338326802405     -2.93144401451417
  C           4.08741069171041      0.78686598809764     -2.69071699822132
  H           1.47661436059934      1.09074951224290     -3.43184337712516
  H           1.89140903070788     -0.74071041049853     -3.28540578874945
  C           3.61763201207535      2.09875008948744     -2.13533648328860
  C           4.50388622291585     -0.32243833245708     -1.74157506250385
  C           4.26967520237509      0.72573082016845     -4.01900305562098
  O           2.90675784310044      2.87191880344801     -2.73897925117331
  O           4.03325569095154      2.41853488233994     -0.89904692392353
  H           5.46071818738997     -0.73972471519861     -2.09608037142287
  H           3.76499338024190     -1.13797597446042     -1.78343309617245
  C           4.62756068360044      0.14976337522046     -0.28619514583432
  H           3.98828777679900      1.56575438103965     -4.65835332644334
  H           4.68402212112999     -0.16843587962116     -4.49469756784429
  C           5.02581512831665      1.61403641448697     -0.21303190849797
  H           5.37272849784298     -0.46322681463721      0.24288493785849
  H           3.67197035446712      0.01949923482662      0.24109903454075
  H           5.99010583171026      1.77351778759229     -0.73435157465365
  C           1.15975047318324      3.11117381087385      0.94653405861146
  H           2.04653126233500      3.40558399194072      0.36181883996953
  H           1.53311186462882      2.66078912234651      1.88261664955100
  C           5.11504448777656      2.18534136972004      1.19538187921885
  H           4.14915749548573      2.01402570909776      1.70102079901813
  H           5.23129577126634      3.27899051508348      1.10504179180558
  C          -4.38145512031044     -1.50772095741573     -1.34494964548880
  C          -4.33462109998733     -1.87159264338371      0.14923168869427
  O          -3.93884293933689     -2.95429452731756      0.51598409732430
  O          -4.81379848997803     -1.02057338570728      1.06184734174142
  C          -5.18327961437279     -0.20631582724586     -1.55626175938196
  H          -6.26167966782860     -0.41642691143126     -1.44419552587268
  H          -5.04221944852178      0.14545208465442     -2.59162875744488
  C          -5.10323819890458      0.38487645052448      0.86222188463003
  H          -6.19554913010225      0.47000034933465      1.01339093585992
  C          -4.76828491539024      0.85468398579927     -0.54675559025986
  H          -5.29218350207386      1.80417189465705     -0.73621217940531
  H          -3.68890233816395      1.05389630670825     -0.61977091844826
  C          -5.12748409153952     -2.66450337490796     -2.04248914447951
  H          -4.61837651812110     -3.62497784442847     -1.89869092934597
  H          -5.20754435632117     -2.46051567634818     -3.12248800617434
  C          -2.95447161813352     -1.30416977943929     -1.96756590904528
  C          -1.67450278912362     -1.94603234709496     -1.37191075687064
  H          -2.78189492506229     -0.22725823732851     -2.03188445999032
  H          -3.01619960984178     -1.65268998399186     -3.01185502752228
  C          -1.47727577098109     -1.48521435409105      0.07686735743058
  C          -1.69464373123932     -3.50083312608995     -1.52529456181283
  O          -1.90469691379330     -0.41381763536316      0.46552287608612
  O          -0.75729010634234     -2.22693116648377      0.90446101979561
  H          -1.06055593831525     -3.76426797607532     -2.38740065135969
  H          -2.70600657591950     -3.83215485121606     -1.78061274032046
  C          -1.23492717021960     -4.26878042611964     -0.28109662796106
  C          -0.18540468861116     -3.49708227993271      0.49790748698666
  H          -0.83241989335552     -5.25139713729181     -0.57165566238554
  H          -2.09389960545922     -4.43624953235340      0.38478558425089
  H           0.69192688172276     -3.26437443677529     -0.12662113859209
  C          -4.37352324781616      1.13243186712065      1.97472954248256
  H          -3.29706121728703      0.92832000531779      1.86191084740959
  H          -4.67866350967145      0.68533231124511      2.93617177325795
  C           0.28891633939235     -4.15684144981770      1.78441804670796
  H          -0.58907149435069     -4.37550060612938      2.41778742680613
  H           0.89296801763991     -3.41133730317909      2.32840338570212
  H          -6.14773333906667     -2.76997810575766     -1.64045627699095
  C          -4.63769363045649      2.63923354831003      1.99701156395193
  H          -5.72565547594259      2.82751835212762      2.06593216868638
  H          -4.31167920012664      3.09224126494204      1.04416073674016
  C           1.11641605364843     -5.42426528734399      1.56202465114313
  H           0.50469747803306     -6.19091691784049      1.05449537714749
  H           1.95146363082362     -5.19733743368008      0.87379760819193
  C           0.30500880821537      4.33632299186273      1.27882695807046
  H          -0.61197760240604      4.01371292098578      1.80651916586359
  H          -0.03496407559741      4.82142957274258      0.34719441330605
  C           6.26015808653751      1.61437217465421      2.03423242226192
  H           6.12595652777429      0.52631860735803      2.16302297150372
  H           7.21363716390616      1.74072022177962      1.48861006746892
  C           6.36553163654365      2.27437313038913      3.40922486701203
  H           7.19123737808611      1.84765296075480      4.00065973968511
  H           6.54297456481187      3.35931933745485      3.31957372033145
  H           5.43571693170472      2.13949057705293      3.98682751563071
  C           1.05534693859519      5.35947288496718      2.13156173504473
  H           1.96260664389905      5.71535281421249      1.61525627454788
  H           0.42982312411680      6.23862503276431      2.35486891802590
  H           1.37356868447142      4.92154073889279      3.09274207842776
  C          -3.92091124350198      3.34038068506951      3.15141171556497
  H          -4.11644883125335      4.42477872061661      3.15289738584137
  H          -4.24416565408242      2.93921903786746      4.12655233343049
  H          -2.82930813638334      3.19600328914256      3.08355686089361
  C           1.66973609624317     -6.00340310958943      2.86405584356208
  H           0.85633044448448     -6.26460289072265      3.56186163973625
  H           2.26029061840063     -6.91592796043038      2.68316985518165
  H           2.32257973497103     -5.27753291983169      3.37734662707696
