104
Coordinates from ORCA-job orca E -2044.711492010843
  C           0.10447487955219     -0.07066791031912     -2.18779545068839
  C           1.07362457696287     -0.19913967591419     -0.97976775763148
  O           1.73182759168355     -1.20375118185089     -0.80765177289698
  O           1.30412064514220      0.86022315418422     -0.20095230048820
  C          -0.80547965754465      1.17489406739154     -2.11126920112319
  H          -1.66735500562241      0.95869034230507     -1.47331360011882
  H          -1.18124645268542      1.39705009222211     -3.12292114394258
  C           0.40699513500402      2.00639107846207     -0.11909116256083
  H          -0.44370331947113      1.67056578522955      0.49790405936320
  C          -0.08748311757617      2.37746051059923     -1.50623582694336
  H          -0.79057414558622      3.22106924450132     -1.42057900070952
  H           0.76282375197614      2.71869763273724     -2.11719724541417
  C          -0.62784381716576     -1.42710038562497     -2.39749966580050
  H           0.16630305098535     -2.18447868705285     -2.39141167137568
  H          -1.03935035445619     -1.42450966381430     -3.41991687775137
  C           1.07565477963818      0.09332845885483     -3.33066056357871
  C           4.27688073066176      0.54704905779727     -2.41319992512332
  H           1.44629172878167      1.08255554794377     -3.59953629179574
  H           1.57758245246386     -0.78789065811765     -3.73372261263368
  C           3.77727760335930      1.89122415871235     -1.96898496486049
  C           4.76424225885763     -0.44893814852856     -1.37746952052239
  C           4.31341346855546      0.31438995888215     -3.73211235218576
  O           3.05608544389356      2.59456653316510     -2.64319792939054
  O           4.16575664114540      2.32980835707416     -0.76065166760756
  H           5.81582837408108     -0.70381716161137     -1.59761200020356
  H           4.17512782281610     -1.37396604897685     -1.46923011654555
  C           4.64306532180504      0.09352237394461      0.04610633271057
  H           3.96335752160844      1.06712489103299     -4.44134124825236
  H           4.68986042178555     -0.63345963822371     -4.12878201654185
  C           5.04789076301586      1.55719748751149      0.09078591199871
  H           5.27836173464646     -0.49030637406353      0.72930874622309
  H           3.60398154624155      0.00066849455387      0.39605876823042
  H           6.07445437446668      1.67641072979333     -0.30888848175780
  C           1.17646683212770      3.09238054895619      0.61725471276930
  H           2.02099680157587      3.42699604141240     -0.00598878595690
  H           1.61445994155918      2.63256262295147      1.51994318310066
  C           4.96789184974516      2.20908117115977      1.46495569675725
  H           3.95123693048486      2.05300644752839      1.86452887828096
  H           5.08442044118826      3.29730658455950      1.32424446250957
  C          -4.48001184547676     -1.48203074347254     -1.19341306916657
  C          -4.30036765168518     -1.83553495780658      0.29331705467468
  O          -3.87291702555119     -2.91550721828027      0.63155018151916
  O          -4.69811640670721     -0.97821678090788      1.23880113306009
  C          -5.29002697362627     -0.17693261635351     -1.34215896316911
  H          -6.35563687951192     -0.38053507880283     -1.13535759998795
  H          -5.23807806292604      0.16816608418262     -2.38802910772389
  C          -5.00125568197254      0.42664296040040      1.05642436141248
  H          -6.07690835481820      0.51474157421082      1.29861682827503
  C          -4.78545507226599      0.88812372125292     -0.37864275194575
  H          -5.32098543093015      1.83832960308740     -0.52785713172415
  H          -3.71549800732833      1.08227070670013     -0.54367697452088
  C          -5.29474307896498     -2.63823048833989     -1.81116303957229
  H          -4.77868523771892     -3.60096127588714     -1.71352505254434
  H          -5.47613526361534     -2.43761574957654     -2.87947933124598
  C          -3.11395577075728     -1.29667883561271     -1.94573521347126
  C          -1.78830170711804     -1.93267982880587     -1.45266620604745
  H          -2.94445550671232     -0.22184073169867     -2.04876768291189
  H          -3.26769734864339     -1.66713201020274     -2.97285177107389
  C          -1.46235217367564     -1.44466925556768     -0.03741064635393
  C          -1.82921103304912     -3.49035800615506     -1.56702783532006
  O          -1.86814560962927     -0.37464052517803      0.37658594026023
  O          -0.65140820095152     -2.16249659028132      0.72608516391308
  H          -1.29940402663644     -3.77417410132017     -2.49077941693853
  H          -2.86391248499776     -3.82257880175988     -1.69409256435781
  C          -1.22978428985733     -4.23094417141589     -0.36636042088811
  C          -0.11255362537393     -3.43635776026657      0.28571567631148
  H          -0.84814668747693     -5.21436308076197     -0.68127931757754
  H          -2.01145367240992     -4.39692801935989      0.38965144748880
  H           0.69285017771566     -3.20836993032308     -0.43005364025432
  C          -4.18084928204206      1.17868805238574      2.10091321962778
  H          -3.11769737395485      0.97088581989172      1.90193914055145
  H          -4.40809764174091      0.73825625196733      3.08672671880646
  C           0.49806042838495     -4.06777138985185      1.52797775812863
  H          -0.30905604865291     -4.29136850709155      2.24820169304875
  H           1.13893312756631     -3.30373814530667      1.99935559520128
  H          -6.27258667860608     -2.73662529366600     -1.31339724775420
  C          -4.43845695584838      2.68641800151361      2.13568888618063
  H          -5.51806685164186      2.87862965063078      2.28187117568751
  H          -4.18006911309119      3.13410754055467      1.15990204162510
  C           1.32335978141659     -5.32401046190229      1.24301256806097
  H           0.68274015343674     -6.10390528121213      0.79486646914232
  H           2.09218754936271     -5.08919268673702      0.48396669770127
  C           0.30629736930819      4.28219525672791      1.02924159806712
  H          -0.57261938522772      3.91846270512451      1.59355812490723
  H          -0.09599588399780      4.78319185510182      0.13127324763832
  C           6.01354248649943      1.70353685355941      2.46073433963601
  H           5.87799435757181      0.62141912450101      2.63199284200316
  H           7.02207574830749      1.81706645262784      2.02181591183812
  C           5.95273517378152      2.43719386523926      3.80044772598243
  H           6.71119706688868      2.05850986077331      4.50403739882325
  H           6.12537290056040      3.51900087666253      3.67189305685760
  H           4.96519373390658      2.31593419556106      4.27648779352011
  C           1.07172635244385      5.30259743741598      1.87178697393296
  H           1.94254587118278      5.69661415123885      1.32158629385680
  H           0.43577439992599      6.15806082739743      2.15087436129779
  H           1.44916397972552      4.84784084399005      2.80326996229546
  C          -3.63918765478763      3.38992380875526      3.23312219388222
  H          -3.82881680769756      4.47533926343954      3.24212687134759
  H          -3.89549929569126      2.99569531197149      4.23072812561157
  H          -2.55574052951715      3.23967433991375      3.09008674235442
  C           1.99478120645393     -5.88493646905587      2.49664122523602
  H           1.24722168304433     -6.15292668860395      3.26210683700122
  H           2.58226614368817     -6.78961317364074      2.27193331983235
  H           2.67701337601069     -5.14546818094256      2.94873069040834
