104
Coordinates from ORCA-job orca E -2044.712568715447
  C           0.00109873764985     -0.06508459261346     -2.36273599554589
  C           1.04990258756159     -0.20172229370317     -1.21793492307051
  O           1.74317242147934     -1.19202917928488     -1.12223902196930
  O           1.28140678532190      0.82272951046268     -0.39502850422326
  C          -0.88990236341781      1.18983870960831     -2.22507375258361
  H          -1.72136356304563      0.98227831655458     -1.54505339531237
  H          -1.31507864321289      1.42860188560690     -3.21296762482542
  C           0.40323783190445      1.97907110551888     -0.27389445100418
  H          -0.43745917005127      1.64638909851316      0.35793082094491
  C          -0.11962846137003      2.37176626508461     -1.64418586490692
  H          -0.79290239929549      3.23678377779574     -1.53757940393184
  H           0.72545829324378      2.68637175247462     -2.27775510202777
  C          -0.75117589875207     -1.41928442440762     -2.51423224330106
  H           0.04016949752954     -2.17898438662953     -2.55267481440269
  H          -1.22388056152354     -1.42237920540420     -3.50984969952079
  C           0.86660362970514      0.09005585081796     -3.58768539347030
  C           4.38216997547587      0.33918556679527     -2.20212882811014
  H           1.27453874012887      1.06885815813040     -3.84590412242179
  H           1.32471189979169     -0.79574951520233     -4.03352604923953
  C           3.87262938433200      1.71193259228726     -1.86659344503868
  C           4.89243467757022     -0.55882041237908     -1.09360669557942
  C           4.34337808868474     -0.02628083945253     -3.49055116241293
  O           3.17017252882770      2.36497915358609     -2.60720332433651
  O           4.21994092653362      2.23542992119734     -0.67713113484360
  H           5.97766611119384     -0.71883804934418     -1.22872171995321
  H           4.40245302334876     -1.54015233917339     -1.17752061943751
  C           4.63201041282273      0.04645512374541      0.28258348101139
  H           3.96715181786652      0.66088369776433     -4.25074518399599
  H           4.68765743668615     -1.01492346234155     -3.80829266269667
  C           5.02962882590388      1.51361436941139      0.28177186878574
  H           5.20099305722836     -0.49471220856867      1.05383664485284
  H           3.56223733615967     -0.03087407717801      0.53312735564228
  H           6.08526503249496      1.61352770491027     -0.03998448896682
  C           1.20038664642008      3.04484542305825      0.46136712015138
  H           2.04917143815030      3.36492969380288     -0.16322461357159
  H           1.63406674847683      2.57146153381619      1.35868281814977
  C           4.84668901713917      2.23543772689811      1.61081455020359
  H           3.81137690992520      2.07600307515005      1.95713593951251
  H           4.94778359206379      3.31743180648069      1.41958629157195
  C          -4.53011441390562     -1.46396567890053     -1.10250722444395
  C          -4.27175013043975     -1.81379558504757      0.37350195286483
  O          -3.82104501123650     -2.89065932961144      0.69102755884990
  O          -4.62719148020717     -0.95732686521479      1.33646824065879
  C          -5.34735088399298     -0.15942574594071     -1.21281728482155
  H          -6.40161875363039     -0.36318445935916     -0.95435810930827
  H          -5.34639533474973      0.18428036064299     -2.26042664022659
  C          -4.94117559513423      0.44686563829301      1.16756653647141
  H          -6.00388135622126      0.53366037543345      1.46163203915045
  C          -4.79697166969591      0.90743674918334     -0.27689392159541
  H          -5.34117324110534      1.85645168609353     -0.39998764751825
  H          -3.73683732850731      1.10269826207646     -0.49551739345595
  C          -5.37730048387340     -2.62123255967584     -1.67337946361434
  H          -4.85431161913612     -3.58315449601924     -1.61067552844983
  H          -5.62315601998680     -2.41791376280344     -2.72824517190160
  C          -3.20611738583483     -1.28186254855987     -1.92687480880141
  C          -1.85552967098551     -1.91332083863015     -1.50059746123601
  H          -3.04231961824225     -0.20724416925922     -2.04491657000394
  H          -3.41350210388798     -1.65866895532850     -2.94208569032208
  C          -1.45413858506269     -1.41292602177659     -0.11008404162539
  C          -1.90028083735143     -3.47176428584065     -1.59521554753207
  O          -1.85534208602188     -0.35087381668225      0.32706732582933
  O          -0.58014214255236     -2.11167348932132      0.60121398513065
  H          -1.44287076512469     -3.76428812064155     -2.55416394599077
  H          -2.94083159125135     -3.80638619401645     -1.63497378691107
  C          -1.20991063334061     -4.19586285953646     -0.43356932858747
  C          -0.05969914089241     -3.38593260466466      0.13826986917831
  H          -0.83967591281469     -5.17792153261637     -0.76578519059536
  H          -1.93817916503176     -4.36402233971055      0.37381748836539
  H           0.69766378049025     -3.15860872944302     -0.62828325385066
  C          -4.07177995718422      1.20075132424195      2.17032787177399
  H          -3.01958414992772      0.98900924705928      1.92329070545051
  H          -4.25454613373643      0.76454491136755      3.16723294957423
  C           0.63324261597046     -4.00203197636465      1.34466938742620
  H          -0.12576994896259     -4.23355676739904      2.11294977072055
  H           1.29023699210800     -3.22672686640170      1.77358211377155
  H          -6.32316180984424     -2.72309686580139     -1.11797768692715
  C          -4.32267618414311      2.70941196637433      2.21137883428150
  H          -5.39376119030783      2.90628117560654      2.40593273178348
  H          -4.10721617968693      3.15257588914782      1.22321787417844
  C           1.45881427887198     -5.24740438168717      1.01542736624506
  H           0.80385361112779     -6.03987076913079      0.61239101285228
  H           2.17459287255699     -5.00515861402878      0.20850622294076
  C           0.35917318298377      4.24981519198757      0.88874347672953
  H          -0.52579939776279      3.90168064451601      1.45352261713017
  H          -0.03485145358468      4.77006450653803     -0.00193045577331
  C           5.83812048947322      1.81000358664334      2.69564463450821
  H           5.72741539445881      0.73176079610216      2.90563234444930
  H           6.86991838958101      1.94115637116990      2.32056061158471
  C           5.66119647066326      2.59649457940460      3.99456168890912
  H           6.38216302162441      2.27595649926717      4.76342886522743
  H           5.80527145191596      3.67759099240053      3.82997833525231
  H           4.64800359279397      2.45888996805840      4.40808743370415
  C           1.15295267733422      5.24237909856886      1.73843463746390
  H           2.03165027642681      5.61922150040875      1.18875542266482
  H           0.54008427623587      6.11091621639840      2.02865125992143
  H           1.52232267258836      4.76880787248056      2.66376810337890
  C          -3.47132913672449      3.41344058776875      3.26854522765081
  H          -3.65588857228349      4.49967271862367      3.28226066894323
  H          -3.68325617061129      3.02371674804381      4.27825561598514
  H          -2.39633838176801      3.25791392320003      3.07627272549061
  C           2.21642348250972     -5.78989089284816      2.22738188493280
  H           1.52300071931422     -6.06612998026174      3.03943829058154
  H           2.80419193347200     -6.68578924859833      1.97059245437390
  H           2.91271709329177     -5.03642486976769      2.63249536698658
