104
Coordinates from ORCA-job orca E -2044.693826417960
  C           0.34880461967365     -0.04884762935444     -1.80422428649654
  C           1.13964322936960     -0.21570306425737     -0.48668797825337
  O           1.73776069233674     -1.24157281198096     -0.24189790921166
  O           1.30082577092945      0.83389942134067      0.31861954989921
  C          -0.57861541605562      1.18300631791192     -1.80395776239637
  H          -1.49766383296032      0.93924762702571     -1.26409732486690
  H          -0.85137090645492      1.42235341341583     -2.84447676134582
  C           0.42794713527709      2.00120817314440      0.31400048781094
  H          -0.47637321374434      1.69056344467859      0.86487626458081
  C           0.04861620913389      2.38468884788976     -1.10590133148473
  H          -0.68593998590565      3.20457020813018     -1.06057108610079
  H           0.92459819222748      2.77014143283131     -1.64765548719057
  C          -0.35262705222890     -1.40134106366574     -2.14526474898288
  H           0.43576915029823     -2.16016556966124     -2.06862215277671
  H          -0.64336241589787     -1.36550583788518     -3.20795623385286
  C           1.45608547903913      0.12472679119027     -2.83793628229756
  C           3.88222054479042      0.75173177698838     -2.71840769257063
  H           1.41495152796189      0.99297379011875     -3.49447923612171
  H           1.91551922158392     -0.78767298596996     -3.21683121357689
  C           3.48182121956491      2.09965916832620     -2.19269648948556
  C           4.38822475946386     -0.32123540703533     -1.76462484202839
  C           4.09615006062096      0.68204043029318     -4.04954562423810
  O           2.80021132517576      2.88717144867572     -2.81005490580210
  O           3.92981053328392      2.43677574015911     -0.97096872893190
  H           5.34237530818105     -0.70409532627081     -2.16219651781154
  H           3.69004499653556     -1.17137435853414     -1.74300444966426
  C           4.58165974521977      0.18886941596044     -0.33042593268336
  H           3.81250907827020      1.51078972017568     -4.70228551528970
  H           4.51932069303795     -0.21630003002544     -4.50910050034994
  C           4.96126541861997      1.65921507332552     -0.31165591734622
  H           5.36615415066207     -0.40046066123680      0.16815571100964
  H           3.66318686746413      0.05653170456445      0.25722028954407
  H           5.89807108435582      1.81826325008650     -0.88070605610668
  C           1.17113533906019      3.07188951874142      1.09925083772786
  H           2.07144706985353      3.36404302140556      0.53421710392501
  H           1.52026043568514      2.61055514878587      2.03926958946886
  C           5.10745187896873      2.26352235967756      1.07824166283849
  H           4.17241290084015      2.08139390593600      1.63523137395691
  H           5.19373640078437      3.35723323547326      0.95961477932709
  C          -4.32095884871713     -1.48795445713083     -1.40962291736928
  C          -4.32036045402991     -1.86404073803924      0.08228609277782
  O          -3.94341333530885     -2.95279020453034      0.45104870382081
  O          -4.81833386878105     -1.01648948902232      0.98780409411979
  C          -5.10908681348691     -0.18024690102396     -1.63327319594163
  H          -6.19133598453960     -0.38474645119995     -1.55275318832997
  H          -4.93695306487302      0.17860700502610     -2.66146360560318
  C          -5.09206798649215      0.39263769296838      0.79143997825150
  H          -6.18734722397992      0.48461920596327      0.91418277294843
  C          -4.71599958484837      0.87060232482491     -0.60442504305429
  H          -5.22883219237226      1.82465778347300     -0.80100326183239
  H          -3.63385237010986      1.06424819925293     -0.64613924174195
  C          -5.05135524365423     -2.63537546204801     -2.13828895273000
  H          -4.55247558294366     -3.59967018672187     -1.98463979021994
  H          -5.09630303876543     -2.42380631743652     -3.21883764065719
  C          -2.87526140870006     -1.28585791395369     -1.98734784857091
  C          -1.61649864916780     -1.94127711291086     -1.36168111345880
  H          -2.69532164375096     -0.20944903799397     -2.03376991625423
  H          -2.90777020668666     -1.62195727555517     -3.03700398255462
  C          -1.46317954341043     -1.50216026067358      0.09911699479958
  C          -1.63630353539281     -3.49361811129074     -1.53979795009239
  O          -1.89056196645121     -0.42992054194465      0.48555550803025
  O          -0.78010579680538     -2.26146510128913      0.94132583028105
  H          -0.96445468727111     -3.74767660390581     -2.37559719245834
  H          -2.63638668442272     -3.81526606498572     -1.84745189006344
  C          -1.23610718771959     -4.28256414570372     -0.28879523796287
  C          -0.20884889968604     -3.53373167564831      0.54107451984675
  H          -0.83390931941078     -5.26622061603213     -0.57628057957170
  H          -2.12282123990490     -4.44758712290273      0.33999667358944
  H           0.69567813298705     -3.30447816113899     -0.04518160934543
  C          -4.38648742592009      1.12605448416268      1.92872777902614
  H          -3.30890661004252      0.91537053716030      1.84172663519520
  H          -4.71899146398671      0.67276424753168      2.87809812424971
  C           0.20433607179379     -4.21658062406362      1.83668944953027
  H          -0.70191861111815     -4.43186485877420      2.42994359075910
  H           0.79476700098820     -3.48652022293150      2.41543280791218
  H          -6.08424788713110     -2.73743863112952     -1.76905782192328
  C          -4.64087775306213      2.63440408049465      1.95777259392541
  H          -5.72873081633532      2.82974401350908      2.00501485389976
  H          -4.29151364942084      3.09317486886065      1.01600893427086
  C           1.02419861529729     -5.49181384952751      1.63083969833189
  H           0.42327476204258     -6.24452949037529      1.09060542829326
  H           1.88818548951209     -5.26745465724125      0.97848310054224
  C           0.31931550986671      4.30146379194371      1.42243277206618
  H          -0.61088968635835      3.98220951804376      1.92853753147690
  H           0.00288545172819      4.79579673908629      0.48744624372848
  C           6.30585558167583      1.73661706057422      1.87018933561164
  H           6.20820766178549      0.64747287243700      2.02101553743000
  H           7.22856325471129      1.88005652824835      1.27799097647391
  C           6.45739588977561      2.42081318978493      3.22886222785476
  H           7.32332184842094      2.02798928965588      3.78523952305793
  H           6.59719330229991      3.50904275569935      3.11545975152225
  H           5.56118581556430      2.26735340712597      3.85309413137274
  C           1.05941013708434      5.31227426590537      2.29849359137270
  H           1.97955641537035      5.66587907915303      1.80381489985705
  H           0.43569631731162      6.19416268031049      2.51592943426828
  H           1.35472399298949      4.86460320136821      3.26249053378215
  C          -3.94407435743148      3.32102026945102      3.13302127696278
  H          -4.13364050463137      4.40644480421088      3.14040600086733
  H          -4.28923404179814      2.91289058786642      4.09768808358682
  H          -2.85211547916535      3.17117341033525      3.08592839657035
  C           1.51949694907430     -6.09320012304560      2.94613550799638
  H           0.67664528879790     -6.35260676680846      3.60876137935941
  H           2.10576064579963     -7.01071381625458      2.77689488613062
  H           2.16055229818547     -5.38148454156896      3.49297111116038
