104
Coordinates from ORCA-job orca E -2044.712139436349
  C           0.37476633281255      0.56763124787881     -1.43965719640586
  C           0.92339040208831      0.61710606825081      0.00439520129532
  O           1.73218685514379     -0.20703190539800      0.38121698980120
  O           0.51889085584502      1.54475323051143      0.85526432991380
  C          -0.75271680681784      1.60283861505515     -1.65635260300151
  H          -1.69238632819662      1.22446476886609     -1.24200618655742
  H          -0.90482031008746      1.75291379977550     -2.73796509161898
  C          -0.35063110885096      2.66369733335832      0.55068533908958
  H          -1.34450312842589      2.36566676049522      0.92758621897709
  C          -0.43240730830095      2.91303725154886     -0.94681022130719
  H          -1.22661274971124      3.65132507787070     -1.13816547205759
  H           0.51867195099346      3.34475443225889     -1.29467711329013
  C          -0.04938053498088     -0.90373876919243     -1.74187296110655
  H           0.82121643933841     -1.52163653231722     -1.49700351613875
  H          -0.17929437901125     -0.98851080796736     -2.83274547713431
  C           1.51067351416022      0.94284649441321     -2.44976498922539
  C           3.21910460150755      0.73892565813483     -2.06505493592767
  H           1.45348569409196      2.00966541854997     -2.68570435135713
  H           1.37486563524669      0.37517877422581     -3.38089134113903
  C           3.51241868285760      1.69619324139084     -0.89873183630374
  C           3.61933139171342     -0.73505182250774     -1.81923937301933
  C           3.93572589569253      1.32169672250095     -3.23208319995885
  O           2.83910218214958      2.67007510909875     -0.65924708291958
  O           4.63166425418249      1.47588748688003     -0.19964244380451
  H           4.08733582969982     -1.11881236252508     -2.74043558913652
  H           2.73174447101355     -1.34661149691001     -1.63390947395967
  C           4.58320378920787     -0.89471502274344     -0.63697322398087
  H           3.90402585175635      2.39971580101108     -3.41061224556934
  H           4.39401318554501      0.67943321158545     -3.98832884117950
  C           5.46930735862363      0.33110836700030     -0.48208839562919
  H           5.20434451771408     -1.79382656935410     -0.76870375112959
  H           4.01011814948809     -1.00842877563155      0.29541615779455
  H           6.00508513737148      0.53560339195419     -1.42975863895134
  C           0.18760136210702      3.83123414364450      1.36847401239370
  H           1.20186247156711      4.06719283286893      1.00443658476502
  H           0.30094908357681      3.48146070601228      2.40868232210708
  C           6.47525855853679      0.26454490114472      0.65899945887083
  H           5.93100415820653      0.03488434821552      1.59209177147177
  H           6.89647535044523      1.27611286173042      0.78808519805166
  C          -4.00887715233124     -1.69155973381911     -1.65799970553600
  C          -4.20515147427961     -2.00813692550432     -0.16474620924125
  O          -3.69438362938117     -2.98162808491061      0.34022342063683
  O          -5.01996348326278     -1.25243573877073      0.57767478854176
  C          -4.97216535650009     -0.57091100327790     -2.10295734913304
  H          -5.99223356425276     -0.98232769068946     -2.20214200870786
  H          -4.68213220665645     -0.21736627515255     -3.10631813065640
  C          -5.52004500940852      0.06499307428947      0.24058348001918
  H          -6.61522297325009     -0.06466282785832      0.15584363198430
  C          -4.98516608833703      0.56788755611760     -1.09356722738471
  H          -5.62572302874551      1.39313184062394     -1.44097062006502
  H          -3.97139833395522      0.97127737898068     -0.95411690144919
  C          -4.37720513808731     -2.98140710090127     -2.42162706439168
  H          -3.73039272024973     -3.82263919136064     -2.14528881413746
  H          -4.29058145652951     -2.80954229877164     -3.50684896479375
  C          -2.54321080220676     -1.24193911198946     -1.99992729304130
  C          -1.32235482485957     -1.60005786882567     -1.11221344057911
  H          -2.55561719008881     -0.15492445502739     -2.11560987380608
  H          -2.32103582272888     -1.64067575439639     -3.00364175970303
  C          -1.51986797856045     -1.04059236273426      0.30123805032170
  C          -1.05237693388172     -3.13950462503960     -1.11714677648769
  O          -2.24788073818510     -0.09088889170296      0.51626986488184
  O          -0.82079035831728     -1.55900374375245      1.30067892518229
  H          -0.26866743820641     -3.34265494168219     -1.86516482456289
  H          -1.94764526909371     -3.66713773852933     -1.45709846692408
  C          -0.65212318472763     -3.71605851091649      0.24690210816995
  C           0.06793032658317     -2.68954560354772      1.10292025284930
  H          -0.01175485161564     -4.60144995480073      0.11297227057667
  H          -1.55684807296895     -4.03056706477520      0.78798513668945
  H           0.96737966479345     -2.30332137631492      0.59963181064164
  C          -5.20327760971962      0.96030315952327      1.43516600754628
  H          -4.10919127204358      0.97201393234377      1.56176344121221
  H          -5.61863945421639      0.47722887720598      2.33600216093709
  C           0.45656762124909     -3.15163836011948      2.49885241474845
  H          -0.43912906953053     -3.54680266782586      3.01021914579590
  H           0.77260006222534     -2.25564617049092      3.05876567481702
  H          -5.41578978938663     -3.27981846831783     -2.20748788734407
  C          -5.74903479022948      2.38442122259651      1.31331542000294
  H          -6.84082388022773      2.35293388245980      1.13736610718047
  H          -5.31353153039567      2.87915356371730      0.42726157038942
  C           1.58249997503150     -4.18752641982163      2.51295315069105
  H           1.26352292319630     -5.10125821453426      1.98068447893525
  H           2.44579967777748     -3.79154293339992      1.94690834591766
  C          -0.70749540358993      5.07175214095161      1.33805514137422
  H          -1.73784976048439      4.78817479777829      1.62456820055641
  H          -0.77589041989375      5.46203885438799      0.30726153351947
  C           7.60818310190841     -0.74064209020752      0.44229861109612
  H           7.19557761707361     -1.76005578609419      0.34347110235727
  H           8.11175512835575     -0.52382963164416     -0.51804087354741
  C           8.63579632392589     -0.72156703442196      1.57406479395023
  H           9.44274167584666     -1.45135563728750      1.40063086693748
  H           9.09994978682099      0.27381615578155      1.67521436687129
  H           8.16645161149935     -0.96518016487472      2.54195674563538
  C          -0.20667317204437      6.18197587543092      2.26195452070792
  H           0.81175939203329      6.50057586532363      1.98324640908888
  H          -0.85868259487960      7.06941497606879      2.22085426349756
  H          -0.16883848442375      5.84174778197484      3.31044172478906
  C          -5.45279357000284      3.23077645348592      2.55181616431667
  H          -5.84939980708891      4.25380369032296      2.44997130669768
  H          -5.89989678113954      2.78600823357184      3.45662001830635
  H          -4.36641664117205      3.30694148132084      2.72722310656276
  C           2.02566082990382     -4.55859471512538      3.92822072726372
  H           1.18897129130797     -4.98047718497769      4.51016323220052
  H           2.83492069578405     -5.30644592021892      3.91671222480851
  H           2.39344009752066     -3.67425451152893      4.47510943956370
