104
Coordinates from ORCA-job orca E -2044.687325360846
  C           0.29635545914554      0.56388069026517     -1.55535181168039
  C           0.90804697392830      0.61666176764348     -0.13304027061193
  O           1.71459261652054     -0.21993276544111      0.21676603891736
  O           0.56562731715784      1.56537111532810      0.72128334365268
  C          -0.83890964701732      1.60399235322492     -1.72170305267528
  H          -1.75407033533071      1.22984565382242     -1.25065707979744
  H          -1.04887358871927      1.74544154738753     -2.79445072225421
  C          -0.31485548076397      2.68444739277061      0.45098148181062
  H          -1.28919756524611      2.39396548681184      0.88118696857532
  C          -0.47181164389016      2.91801636949660     -1.04261244766042
  H          -1.26845963449211      3.66128158329677     -1.20169615943287
  H           0.46372597331738      3.33959674113640     -1.44261686903001
  C          -0.12307825126298     -0.91082491612598     -1.84114303397285
  H           0.76818633233119     -1.51396290291123     -1.62975059990522
  H          -0.29469460664617     -0.99760188529050     -2.92606293583765
  C           1.37741679855895      0.93639291514399     -2.59161345329889
  C           3.41112919460009      0.76463091350460     -2.17716118014679
  H           1.40325339530435      2.00253737459461     -2.82075450326091
  H           1.33698120159913      0.32356203045499     -3.49934225951119
  C           3.53622248122689      1.73000710668086     -1.00608424584003
  C           3.74542010030531     -0.71060832335910     -1.91163433541261
  C           3.98417976426642      1.34103052982683     -3.34922027970034
  O           2.86704055232325      2.72764154751404     -0.87620533145863
  O           4.51839808887448      1.47101829711590     -0.13227243194965
  H           4.29874405982546     -1.09521920400876     -2.78349430405445
  H           2.82986726654221     -1.30536076564784     -1.82312346968421
  C           4.57920397498376     -0.89202059524094     -0.63249039629789
  H           3.98682052454334      2.42461966205571     -3.49196190509714
  H           4.30527687769119      0.70974590958274     -4.18233642651939
  C           5.40831322419678      0.34872226965695     -0.33864427625995
  H           5.23806293175814     -1.76858799994988     -0.72857713521020
  H           3.91250721844820     -1.05569027357617      0.22636059177703
  H           6.04944411354931      0.59028596173767     -1.20890133425473
  C           0.27012481349302      3.85768690188542      1.22756342315262
  H           1.26676835627589      4.08142941330791      0.81118278052658
  H           0.43238654156314      3.51898408355741      2.26496960127456
  C           6.26990460266013      0.26925949624048      0.91400803825750
  H           5.62095587301212      0.00943410359469      1.76883322662596
  H           6.65545261810068      1.28321284634293      1.11547573338051
  C          -4.07032261033823     -1.70511352652850     -1.58710271756064
  C          -4.20155988473238     -2.02038816236810     -0.08651039869254
  O          -3.67031761662596     -2.99430135669222      0.39602918028909
  O          -4.98261985697159     -1.26335347257540      0.69013772533772
  C          -5.05221209292077     -0.58514741420555     -1.99089126058603
  H          -6.07584630613423     -0.99621473937625     -2.04362468486506
  H          -4.80683104265241     -0.23317943726497     -3.00659834406531
  C          -5.49532338155785      0.05452910918893      0.37378316624006
  H          -6.59332315674121     -0.07357993460806      0.33771207988985
  C          -5.01935364351471      0.55495801868352     -0.98330826233596
  H          -5.67316013074039      1.38085574508542     -1.30335611152412
  H          -3.99978861429447      0.95704777208530     -0.88942017216757
  C          -4.46999723074384     -2.99590160668573     -2.33309077313599
  H          -3.81420040221163     -3.83767758922021     -2.08050606930210
  H          -4.42589654299311     -2.82630843057610     -3.42122450892418
  C          -2.62152555035243     -1.25361255627822     -1.99149635619500
  C          -1.36278967745200     -1.61529195915634     -1.16015897465448
  H          -2.63896554538150     -0.16604251565097     -2.10157901608828
  H          -2.44466407783631     -1.64762377846307     -3.00603893762760
  C          -1.49862920667010     -1.06126865772875      0.26331099802997
  C          -1.09054420347925     -3.15408085136745     -1.18572224592929
  O          -2.20966716471335     -0.10646867964821      0.51103728396083
  O          -0.76548194892865     -1.59044651069973      1.23192106856723
  H          -0.33468352211027     -3.35004058041297     -1.96377088873525
  H          -1.99683541824804     -3.68094416816342     -1.49665408732528
  C          -0.63649562775154     -3.73931685345975      0.15751447950095
  C           0.11778010895936     -2.71590784641475      0.98711287058668
  H          -0.00180841253327     -4.62356103429327     -0.00785151564125
  H          -1.51783713101691     -4.05787808313045      0.73374274411831
  H           0.98993721504485     -2.32250616137148      0.44339094620171
  C          -5.12415198488822      0.95097721605645      1.55177575616592
  H          -4.02560849857077      0.95749375402019      1.63182110290842
  H          -5.50326684570443      0.47224146409045      2.47072594109150
  C           0.57402815017568     -3.18444708476223      2.35993001658955
  H          -0.29166074141830     -3.59873896483349      2.90669443728394
  H           0.90055176057676     -2.28878975300743      2.91436399612251
  H          -5.49979545293481     -3.29240057345163     -2.07772371114581
  C          -5.66713937634980      2.37768109827007      1.44938701347408
  H          -6.76551457927643      2.35171704649703      1.31967056892916
  H          -5.26674429654816      2.86781863811855      0.54443585902870
  C           1.71603780466808     -4.20163562634191      2.31341134548047
  H           1.39030264385187     -5.11308028358034      1.78131348035855
  H           2.54874093797661     -3.78329272168710      1.71817447532921
  C          -0.61749445169803      5.10391370717899      1.22659928805447
  H          -1.63545520971088      4.83057863954165      1.56313356491394
  H          -0.73069661394844      5.48532179958460      0.19642886906977
  C           7.43707555298878     -0.71480361263363      0.81221160600632
  H           7.05533553592577     -1.73790083891193      0.64875944151920
  H           8.04335916250526     -0.47183569286090     -0.08006707421449
  C           8.32799526510740     -0.70350507687623      2.05456326715745
  H           9.15961287849083     -1.42022854585393      1.96227507354609
  H           8.76344904228930      0.29538718415873      2.22491807113234
  H           7.75459344081392     -0.97044621379315      2.95810455304705
  C          -0.06681702764820      6.21880129000064      2.11591974743270
  H           0.94036682815348      6.52634526557741      1.78827086385049
  H          -0.71324192077034      7.11103178104749      2.09586083001038
  H           0.01601914620370      5.88805216973419      3.16485898877424
  C          -5.31445111309630      3.22553253013268      2.67199298919141
  H          -5.70989105098506      4.25031433189519      2.58423083385697
  H          -5.72510410633939      2.78537816081408      3.59613171661542
  H          -4.22124299258640      3.29660828135243      2.80104881623602
  C           2.22251815736552     -4.58476177719084      3.70396210051148
  H           1.41670743924767     -5.02770945730654      4.31314392021884
  H           3.04214702080290     -5.31926289740823      3.64907543591769
  H           2.59834967823826     -3.70210240870469      4.24813062103390
