104
Coordinates from ORCA-job orca E -2044.689651840143
  C           0.37687916903282     -0.04809553412848     -1.78743085406466
  C           1.15387833798433     -0.22158949550359     -0.46481918257079
  O           1.74573584441814     -1.25034472352889     -0.21745133093903
  O           1.30893461879586      0.82409090974555      0.34656600166680
  C          -0.55097648033836      1.18361051562990     -1.78872769390753
  H          -1.47456778421489      0.93436644398610     -1.25931055426919
  H          -0.81491474511324      1.42912799277141     -2.83001451299001
  C           0.43569134684946      1.99135901634426      0.34300847352740
  H          -0.47125357225667      1.67684480494123      0.88713851383150
  C           0.06374170319610      2.38313696762495     -1.07649356450796
  H          -0.67734154524494      3.19704065000178     -1.02916735445452
  H           0.93902439540189      2.77984523211352     -1.61053234381931
  C          -0.32864318219739     -1.39794933908933     -2.13419998979056
  H           0.45672506530958     -2.15940709005734     -2.05412735991277
  H          -0.61396341891882     -1.35989230616976     -3.19831938353709
  C           1.48245914472332      0.11715506151592     -2.83339982665446
  C           3.80163709066567      0.73073971387906     -2.70943684291161
  H           1.38818592993131      0.95810342643275     -3.52042762983024
  H           1.89334366821220     -0.81005915104700     -3.23365512495904
  C           3.43583380618551      2.09458034580801     -2.19616832780860
  C           4.34791762650093     -0.32777885862426     -1.75792127207083
  C           4.04315681136036      0.66379197320026     -4.04409302561322
  O           2.76814933879146      2.88883547969499     -2.81941999828531
  O           3.89694109508523      2.43612704606389     -0.98032658695816
  H           5.30242083221936     -0.69102388819690     -2.17251991922060
  H           3.66968801960120     -1.19261021077278     -1.71722303689293
  C           4.56432453314812      0.19403635959317     -0.33182902809133
  H           3.76239956300510      1.48978653453515     -4.70138573913821
  H           4.47378407456767     -0.23460679000428     -4.49624633310034
  C           4.94008213801240      1.66515953750513     -0.33152248304624
  H           5.36064025094600     -0.38891342273116      0.15557114355322
  H           3.65845103723828      0.06267912123567      0.27488295097444
  H           5.86674668733411      1.82148683782897     -0.91761442634266
  C           1.17368668612877      3.05842960548915      1.13795557994462
  H           2.07553761050396      3.35516650713669      0.57789863121541
  H           1.51954781835703      2.59247480014314      2.07687999818206
  C           5.10895285220548      2.28091618415735      1.05076356805646
  H           4.18555524432505      2.09843408829008      1.62667722053555
  H           5.18788808654512      3.37405989123438      0.92240274624968
  C          -4.30265241195336     -1.48001258477413     -1.42630424425097
  C          -4.31423302264115     -1.85853376773051      0.06493237367894
  O          -3.94136480639640     -2.94832739651521      0.43476400752659
  O          -4.81904324403049     -1.01226111865105      0.96778254149317
  C          -5.08821573162859     -0.17146667359970     -1.65417181802702
  H          -6.17117772887310     -0.37549137830374     -1.58262926645772
  H          -4.90758628550670      0.18897811736899     -2.68034357962434
  C          -5.09071678500275      0.39730561678737      0.77152818151915
  H          -6.18692183810512      0.48956699911501      0.88553278126883
  C          -4.70295277587858      0.87742840331524     -0.62040050708930
  H          -5.21364217436990      1.83210087523215     -0.81954142209515
  H          -3.62040136954907      1.07059610681704     -0.65274984387097
  C          -5.02774945478828     -2.62586836409042     -2.16264798745893
  H          -4.53050713156042     -3.59064826129566     -2.00657239609134
  H          -5.06400065670019     -2.41252024856338     -3.24316758973638
  C          -2.85227950836217     -1.27797191195578     -1.99222625432322
  C          -1.59869822278326     -1.93670652050374     -1.35943489343811
  H          -2.67092891486594     -0.20160194953856     -2.03450485555851
  H          -2.87709973031587     -1.61113826882424     -3.04302663991620
  C          -1.45409042821864     -1.50167741388309      0.10347221221753
  C          -1.61994266128075     -3.48865565413229     -1.54197656759971
  O          -1.88253647413972     -0.42977702788993      0.48974864404776
  O          -0.78028363169409     -2.26533886351287      0.94905067227435
  H          -0.94135798797666     -3.74179249246860     -2.37254709002109
  H          -2.61796434820596     -3.80722138327967     -1.85955286609284
  C          -1.23211607631760     -4.28215389931666     -0.29004753862900
  C          -0.20976778378856     -3.53857233965337      0.55057944178089
  H          -0.82996855505307     -5.26592027833163     -0.57720732679110
  H          -2.12438734403344     -4.44689323877617      0.33085463870898
  H           0.70053604527884     -3.31077147517598     -0.02722783381365
  C          -4.39409692003513      1.12845819108002      1.91571269954904
  H          -3.31582825441408      0.91826543480048      1.83646792865169
  H          -4.73364451192961      0.67297930024927      2.86153024621377
  C           0.18943789887788     -4.22603143675249      1.84813291876634
  H          -0.72293684010436     -4.43979101144748      2.43247262688551
  H           0.77695221094635     -3.49947079813180      2.43420517809163
  H          -6.06357894941812     -2.72806651740668     -1.80178424170491
  C          -4.64913698275320      2.63664667172748      1.94602042340852
  H          -5.73734420869577      2.83155269457191      1.98631921529936
  H          -4.29355637837097      3.09745690719955      1.00757887636339
  C           1.00686193687892     -5.50354176053431      1.64664254573632
  H           0.40860280685059     -6.25264541994102      1.09848913474029
  H           1.87798044338511     -5.28041764597810      1.00344002138747
  C           0.31851295489325      4.28499006022910      1.46371702791732
  H          -0.61344529051499      3.96163286641890      1.96389977089837
  H           0.00556327620106      4.78363974952221      0.52986283812254
  C           6.32436296304997      1.76557371459300      1.82433898069932
  H           6.23532023982078      0.67699419228188      1.98430849139784
  H           7.23537404098511      1.90972792032768      1.21448307530244
  C           6.49691435068703      2.45979720983697      3.17539106982913
  H           7.37500364550125      2.07540834783284      3.71844058889135
  H           6.62859772024793      3.54798005463018      3.05221443449492
  H           5.61311814231349      2.30574020306658      3.81695146471372
  C           1.05293099449799      5.29236259894923      2.34844764315906
  H           1.97476087650845      5.65015420567908      1.85992350325753
  H           0.42675171185547      6.17206729789440      2.56761410696297
  H           1.34455701807420      4.84015207110374      3.31144721493154
  C          -3.96037554314940      3.32098425726494      3.12729069971268
  H          -4.15022084326271      4.40635008371373      3.13564618739092
  H          -4.31182995302913      2.91076537198364      4.08878842722134
  H          -2.86810607788487      3.17141446970910      3.08708771246976
  C           1.48704629709336     -6.11028773132354      2.96510255531490
  H           0.63675126421956     -6.36851914242257      3.61859918044549
  H           2.07174920645208     -7.02937904638687      2.79909425873717
  H           2.12513209466591     -5.40233120925935      3.52022711906057
