104
Coordinates from ORCA-job orca E -2044.708281878992
  C           0.19864863842191     -0.06510371284415     -1.99051027492474
  C           1.08298364069171     -0.19553394915673     -0.72180376489007
  O           1.71528421885172     -1.20711240062893     -0.49956947988959
  O           1.28555660090341      0.87251771873854      0.05062874988149
  C          -0.72568853193996      1.17049465713831     -1.96421788006458
  H          -1.61608988298806      0.94378777956983     -1.37104094463498
  H          -1.05152444036261      1.38788988154521     -2.99422208469330
  C           0.39195605440540      2.02355854675970      0.08033246162111
  H          -0.48256591440564      1.70167468283426      0.67146347941955
  C          -0.05252738052022      2.38256651580474     -1.32714368512221
  H          -0.77369657516199      3.21326300763850     -1.26832271746906
  H           0.80981900716554      2.74246287798343     -1.90915131647639
  C          -0.50841745101474     -1.42579848586511     -2.26137466211411
  H           0.28849724664417     -2.17866965101742     -2.21492288102820
  H          -0.85744481779951     -1.41346012994013     -3.30665208942428
  C           1.25254431633977      0.11374463496060     -3.05697183841363
  C           4.18939484640443      0.76776035461277     -2.61345775235585
  H           1.48515152237230      1.10024176883137     -3.45440104358815
  H           1.81966214948712     -0.75206362998006     -3.39935267286350
  C           3.68415433730075      2.06806588154075     -2.06193061136430
  C           4.58436934173461     -0.34134559236008     -1.65640625539087
  C           4.35968786190784      0.69623757384858     -3.94150493870898
  O           2.95626543483965      2.82211885361072     -2.66985235490143
  O           4.08612207508780      2.39967923027605     -0.82473559242335
  H           5.55600182010309     -0.75131327381305     -1.97843713250660
  H           3.84995173130297     -1.15904631737515     -1.72903265757463
  C           4.65239026265686      0.12885838306640     -0.19748066935176
  H           4.07131469851048      1.53094799397769     -4.58468531454033
  H           4.77804069614529     -0.19823255644983     -4.41306972192328
  C           5.05631429060916      1.59135124933556     -0.11201938123319
  H           5.37125099089940     -0.48814372393961      0.36239622038031
  H           3.67312810048697      0.00636078403256      0.28767905506716
  H           6.03551664593452      1.74526208110826     -0.60680486150310
  C           1.14645438305046      3.11314139834397      0.82772869657251
  H           2.01932411779712      3.42221260791099      0.23032038914967
  H           1.54244040541243      2.66312703760186      1.75468713916304
  C           5.11067186159207      2.16362752530433      1.29774997118965
  H           4.13122388507607      1.99729467825698      1.77866131195308
  H           5.23333332955010      3.25671447285138      1.20923272568428
  C          -4.42590714267146     -1.50987523880496     -1.29354607503582
  C          -4.33585482734719     -1.86401206435019      0.20103549840374
  O          -3.92820699113226     -2.94374688887450      0.56354522187503
  O          -4.78973254992239     -1.00746149315454      1.12149636254949
  C          -5.23192416869848     -0.20877044225921     -1.49037010002909
  H          -6.30700451635900     -0.41701798876070     -1.34708512561858
  H          -5.11957729629406      0.13651549464575     -2.53142653223998
  C          -5.08641877664436      0.39631291852566      0.92097791249220
  H          -6.17464640083095      0.48098961325926      1.09966603277575
  C          -4.78862531822179      0.85790377906546     -0.49900253680612
  H          -5.31676016059862      1.80673638898444     -0.67985687729154
  H          -3.71138256181494      1.05528359135421     -0.60172514319021
  C          -5.19395588352825     -2.66994527188252     -1.96129255026220
  H          -4.68144975586196     -3.63021332576281     -1.82827644356105
  H          -5.30675361196765     -2.47171847168356     -3.03945526557489
  C          -3.01737444987545     -1.31377749036289     -1.95949911647101
  C          -1.72110064828752     -1.94906209331131     -1.39291782387896
  H          -2.84688145656007     -0.23770849389337     -2.04224306359041
  H          -3.10859825723349     -1.67512432697865     -2.99728432718683
  C          -1.48263778538973     -1.47222729324001      0.04409124977919
  C          -1.74763762432154     -3.50560076557740     -1.52561124520739
  O          -1.90472779320493     -0.40003980222512      0.43623788395638
  O          -0.73038508132381     -2.20087817263892      0.85488766472160
  H          -1.14869619755829     -3.77979737804490     -2.40927278824376
  H          -2.76843524418542     -3.83956366055062     -1.73532467721057
  C          -1.23903753740335     -4.25775136022971     -0.29063745350243
  C          -0.16647549536804     -3.47267746134878      0.44200669477594
  H          -0.84190025557370     -5.24145539925362     -0.58481096350403
  H          -2.07238168658373     -4.42269469583759      0.40790784338336
  H           0.68648943186101     -3.24254214108483     -0.21601634718252
  C          -4.33023346376999      1.15178967416949      2.01024877231987
  H          -3.25652820796810      0.94845820862302      1.87240161896273
  H          -4.61123462994608      0.71062891093906      2.98175333846320
  C           0.35741714137511     -4.11548470778301      1.71773075269017
  H          -0.49583865117673     -4.33235303083720      2.38479163709192
  H           0.97579087230456     -3.36041392230210      2.23162827844366
  H          -6.20159440406752     -2.77215059456517     -1.52782971185896
  C          -4.59622103168225      2.65835325657151      2.02917929531197
  H          -5.68305118972387      2.84545951743864      2.11681077366858
  H          -4.28822643895042      3.10637531705805      1.06801065723368
  C           1.18438459315312     -5.38039404589104      1.47998319165901
  H           0.56136256675692     -6.15436122496357      0.99797542495466
  H           1.99641245456644     -5.15491437587860      0.76427886584062
  C           0.28129812133976      4.32474208972434      1.18217145359781
  H          -0.62292474370716      3.98678451614586      1.72212553738591
  H          -0.08006605097221      4.81154966231786      0.25944540976508
  C           6.23152188094677      1.58922102365986      2.16651154408556
  H           6.08956202432842      0.50191294230391      2.29341177932187
  H           7.19907192796004      1.71051072354447      1.64502028238099
  C           6.30523380793322      2.25109717235029      3.54264118023671
  H           7.11371108636495      1.82155780819447      4.15543312635669
  H           6.49011965800410      3.33500630146092      3.45562905138063
  H           5.36053210641967      2.12180741294796      4.09691075457497
  C           1.03188658599735      5.35202604010046      2.02969824932282
  H           1.92694055442482      5.72198233906763      1.50211839857985
  H           0.39916347017429      6.22208479607694      2.26793417274814
  H           1.36988415720510      4.91220961311305      2.98324122212961
  C          -3.86012629509881      3.36703093443256      3.16669926832197
  H          -4.05592740343825      4.45138159479492      3.16450978083959
  H          -4.16683043545864      2.97211239881793      4.14971170091664
  H          -2.76977261523404      3.22252931873493      3.08154045883238
  C           1.78047325950553     -5.94604308869384      2.76901381570530
  H           0.98992642457723     -6.20561021927664      3.49318228554291
  H           2.37011187987504     -6.85698146769119      2.57753795866899
  H           2.44466151339072     -5.21274371454307      3.25657614469164
