104
Coordinates from ORCA-job orca E -2044.712658021024
  C           0.02541175310366     -0.06578456426528     -2.32256941409323
  C           1.05870050987263     -0.19873174101111     -1.16453061323398
  O           1.74741767853123     -1.19087983944867     -1.05358376411707
  O           1.28974016557996      0.83470853996486     -0.35272535766526
  C          -0.87052428486415      1.18691618016462     -2.19959281871841
  H          -1.70980353695724      0.97765243116497     -1.52975767416757
  H          -1.28365883408351      1.42149360658823     -3.19362199816606
  C           0.40377510402959      1.98604772233822     -0.23856443875650
  H          -0.43869339121232      1.64935651331515      0.38879170230133
  C          -0.11279122894342      2.37411429738980     -1.61270175915024
  H          -0.79368164928412      3.23375594136801     -1.51097851183993
  H           0.73380082220327      2.69531555837816     -2.24056211994249
  C          -0.72103759862393     -1.42104323713254     -2.48647289562665
  H           0.07196814322685     -2.17941642121803     -2.51301973218741
  H          -1.17906532245367     -1.42463411572381     -3.48894318328094
  C           0.91719485522828      0.09163312352046     -3.52827036420594
  C           4.35957134578215      0.40304750919837     -2.26388709501520
  H           1.32989584758746      1.07120193411439     -3.77495306029981
  H           1.38879023790266     -0.79357599385242     -3.96058895994042
  C           3.85347986004464      1.76757631308963     -1.89234749013386
  C           4.87120108976954     -0.52348251853308     -1.17914658052026
  C           4.33218615142415      0.07622121912768     -3.56298206859267
  O           3.14354448721441      2.43684118890435     -2.61122240157272
  O           4.21555154516690      2.26471606347311     -0.69678994191764
  H           5.95119135628103     -0.69816533180432     -1.33534764124384
  H           4.36452571289462     -1.49551614668065     -1.27209832276553
  C           4.64169151923211      0.05774797087146      0.21333643997292
  H           3.96210194366944      0.78454962876889     -4.30671432464232
  H           4.68353360448018     -0.90111078552212     -3.90721054155543
  C           5.04300365220088      1.52357933111166      0.23255281640243
  H           5.22482058916748     -0.50067425796738      0.96128050106627
  H           3.57750366386764     -0.02164375718050      0.48496534600426
  H           6.09227483435457      1.62838764102588     -0.10786505385072
  C           1.19139287694954      3.05701985339946      0.49975494242859
  H           2.04298960304702      3.37920831420840     -0.11998695873522
  H           1.62059978657794      2.58775293227961      1.40160602644237
  C           4.88582595736675      2.22236854233900      1.57692313677387
  H           3.85137242946276      2.07287535021374      1.93015777201912
  H           5.00223173502339      3.30608169807625      1.40473332754859
  C          -4.51832115943834     -1.47106993058869     -1.12358133607548
  C          -4.27789810738660     -1.82017313527540      0.35563588241642
  O          -3.83066139696866     -2.89671733325094      0.67904640097788
  O          -4.64401111954436     -0.96306626308088      1.31399729315114
  C          -5.33616218697033     -0.16785975456664     -1.24408794220073
  H          -6.39297642472787     -0.37317351104469     -0.99756238477980
  H          -5.32374970421149      0.17533327367224     -2.29179329737766
  C          -4.95844608099573      0.44044501722159      1.14065240605943
  H          -6.02456085878152      0.52557594140049      1.42268251029325
  C          -4.79839513510684      0.90032880727194     -0.30233827643489
  H          -5.34253840908510      1.84844761847718     -0.43235705121217
  H          -3.73608875146328      1.09727383483973     -0.50849083671746
  C          -5.35617700372870     -2.62990011476567     -1.70477342093605
  H          -4.83316829450953     -3.59114686014364     -1.63275103521886
  H          -5.58695408414516     -2.42855919032297     -2.76340099402628
  C          -3.18428989004311     -1.28683965103236     -1.93122171284207
  C          -1.83876555220114     -1.91765644693585     -1.48847507618757
  H          -3.02012283941279     -0.21200399116045     -2.04627064468710
  H          -3.37848946055096     -1.66298069117169     -2.94929095754866
  C          -1.45563595438942     -1.41851027344216     -0.09228901489695
  C          -1.88080314484267     -3.47605504179976     -1.58619086684463
  O          -1.85952759182228     -0.35489383176874      0.33873744952000
  O          -0.59317293944541     -2.11888670665012      0.63115178858783
  H          -1.40521790826377     -3.76681266463877     -2.53679665866557
  H          -2.92008840244353     -3.81177824231247     -1.64659565449741
  C          -1.21104895606653     -4.20191593761272     -0.41380130211770
  C          -0.06863138220324     -3.39438915451969      0.17673775765513
  H          -0.83712316862271     -5.18425541277735     -0.74097881021420
  H          -1.95233865904676     -4.36969046460419      0.38169942150404
  H           0.70152516516952     -3.16893911706105     -0.57760694001619
  C          -4.10190605922373      1.19662024493383      2.15271962568224
  H          -3.04643851519464      0.98906204096037      1.91624196465549
  H          -4.29310144658771      0.75890547262426      3.14737149696452
  C           0.60249771403565     -4.01131966553609      1.39499018480222
  H          -0.16941942112234     -4.23122891627475      2.15380042397417
  H           1.26104995432288     -3.24014852644877      1.82900487670776
  H          -6.30984964278663     -2.73191527441386     -1.16289106111058
  C          -4.35921043377466      2.70424180706699      2.19243260641289
  H          -5.43284738329519      2.89645800645962      2.37731021069491
  H          -4.13664807250067      3.14899871638874      1.20655537971547
  C           1.41988656063211     -5.26667239903177      1.08406361247194
  H           0.76204385753317     -6.05562170216411      0.67891636881349
  H           2.14781774730398     -5.03749068580452      0.28416810229535
  C           0.34157119224144      4.25948536392614      0.91726877776093
  H          -0.54624635316377      3.90863664169433      1.47588410409543
  H          -0.04766278139885      4.77523928302402      0.02193077199984
  C           5.88173111505418      1.76113044607896      2.64276296425954
  H           5.75041777362861      0.68277895316817      2.83952621063141
  H           6.91124862218340      1.87539661421623      2.25595307661996
  C           5.73873076479686      2.53346474873379      3.95425216816183
  H           6.46216736718828      2.18665960016371      4.70928135411691
  H           5.90471778819530      3.61327106695116      3.80228348375634
  H           4.72811516455253      2.41267139871775      4.37919635291757
  C           1.12352142412268      5.25834722928588      1.77050396962761
  H           2.00500853273116      5.63778238540166      1.22709557816428
  H           0.50403800534684      6.12483825101463      2.05266539034029
  H           1.48718147618803      4.78953850963419      2.70050862457920
  C          -3.52062635703870      3.41122224400392      3.25779413544540
  H          -3.71104651982284      4.49644165499177      3.27137319623418
  H          -3.73919746908585      3.01900622959020      4.26512397162639
  H          -2.44317857483944      3.26169011344345      3.07468907228138
  C           2.15735116825616     -5.80782448985017      2.30900804343295
  H           1.45125164589260     -6.07020652426440      3.11470558837259
  H           2.73836078522197     -6.71195538676447      2.06608804891933
  H           2.85688675683504     -5.05876491833179      2.71669770288645
