104
Coordinates from ORCA-job orca E -2044.706562879855
  C           0.23095669189126     -0.06006211522158     -1.93634456669671
  C           1.09290087370875     -0.19798824171761     -0.65379916439129
  O           1.71777095439829     -1.21248713938817     -0.42484877288007
  O           1.28595068279290      0.86659947207509      0.12541501100630
  C          -0.69430173191879      1.17435357222876     -1.91759320907650
  H          -1.59187420589063      0.94515795255951     -1.33629624167046
  H          -1.00744100737355      1.39542514242473     -2.95079695491098
  C           0.39917082583654      2.02293299981728      0.14322990388399
  H          -0.48327359281144      1.70752163699602      0.72612368279011
  C          -0.02930158289399      2.38466173111916     -1.26866867764594
  H          -0.75202135291434      3.21433873732120     -1.21510381557661
  H           0.83795545472889      2.74731280014978     -1.84155166904599
  C          -0.47160362271987     -1.41963405467771     -2.22617402798385
  H           0.32439743571768     -2.17280088504429     -2.17087235842084
  H          -0.80433550970823     -1.40163299106082     -3.27669411264050
  C           1.30302592040040      0.12365819909424     -2.98537759200363
  C           4.14334724491556      0.78781141338280     -2.66222978122269
  H           1.48440489040749      1.09868639480866     -3.43342650803534
  H           1.86515438032516     -0.74376723110642     -3.33026825035035
  C           3.65232250938251      2.09083242535270     -2.10441216879588
  C           4.54216580985212     -0.32608988121276     -1.71186218831486
  C           4.32338544501646      0.72694281980757     -3.99001483094148
  O           2.93102776204320      2.85486335207230     -2.70751234384118
  O           4.05999630365207      2.41247456938132     -0.86623822152567
  H           5.50287726392666     -0.74640446912444     -2.05218896036508
  H           3.79885482892248     -1.13681671577996     -1.77016823852673
  C           4.64182405166243      0.14135779367870     -0.25318041698068
  H           4.04116897043415      1.56710840755823     -4.62883310596691
  H           4.74080215303136     -0.16559670340298     -4.46608966722310
  C           5.04309834421029      1.60454004116082     -0.17066941931057
  H           5.37510107727375     -0.47517614991044      0.28819956670196
  H           3.67529670163976      0.01355525479877      0.25502149306821
  H           6.01393064092565      1.76274518248576     -0.68021592833108
  C           1.15380257621628      3.10865131938957      0.89628540634538
  H           2.03547940949579      3.40806065346519      0.30666885148907
  H           1.53567883592297      2.65820858755284      1.82892700092552
  C           5.11753175020685      2.17262480799051      1.23986683042760
  H           4.14542882420413      2.00346919456918      1.73432348793420
  H           5.23800656911057      3.26610437273352      1.15310913543091
  C          -4.40393282352339     -1.51002454229713     -1.32249639193801
  C          -4.33863250062115     -1.86856567454567      0.17230504880316
  O          -3.93751285772406     -2.94959909543732      0.53817944888898
  O          -4.80773050519200     -1.01474046965213      1.08760584737237
  C          -5.20761588199017     -0.20894923174240     -1.52878628521441
  H          -6.28474569914449     -0.41823227257198     -1.40364655769006
  H          -5.07844728865048      0.13934456345548     -2.56687764552352
  C          -5.10064602169917      0.38974678334094      0.88644120127758
  H          -6.19142922458055      0.47442487396144      1.04864853893631
  C          -4.78087061417571      0.85515800148220     -0.52748651073152
  H          -5.30650532709342      1.80424939007283     -0.71413436660159
  H          -3.70225292269970      1.05343611205564     -0.61288716986975
  C          -5.15950176348345     -2.66873551286909     -2.00654739377815
  H          -4.64885596740218     -3.62902284955062     -1.86690728306082
  H          -5.25376435062258     -2.46789560296794     -3.08599956759920
  C          -2.98463477224263     -1.31015936174566     -1.96381767241278
  C          -1.69760316845563     -1.94846516323668     -1.37983772980927
  H          -2.81296644834792     -0.23360155489722     -2.03711962753398
  H          -3.05894597510189     -1.66523172287461     -3.00508702657745
  C          -1.48242528293410     -1.47899564072642      0.06342516827328
  C          -1.72066669785842     -3.50422106765539     -1.52213950108898
  O          -1.90913818784888     -0.40776466687709      0.45318982407914
  O          -0.74670394924333     -2.21336936441088      0.88399861975643
  H          -1.10321168874320     -3.77340261220664     -2.39451971583476
  H          -2.73670858293451     -3.83722248993481     -1.75535900496406
  C          -1.23767955356359     -4.26349551853646     -0.28128716422062
  C          -0.17764112819774     -3.48432462533562      0.47556924450876
  H          -0.83724602409774     -5.24672359860319     -0.57260930899320
  H          -2.08483261854838     -4.42956395182033      0.40004745054253
  H           0.68838968726679     -3.25284383807656     -0.16480275738988
  C          -4.36048662008591      1.14174606102326      1.98900948511259
  H          -3.28493714913360      0.93855440553475      1.86616636452161
  H          -4.65555502899488      0.69757720073850      2.95495030844474
  C           0.32026680610974     -4.13465916235194      1.75790960097483
  H          -0.54612794558174     -4.35240303550178      2.40743802345869
  H           0.93080598850049     -3.38380624131809      2.28710944034997
  H          -6.17440599753993     -2.77264853914339     -1.59080015604755
  C          -4.62637599279510      2.64830171625298      2.00879093242388
  H          -5.71406295841288      2.83537328198796      2.08506974828431
  H          -4.30790178638239      3.09879394660017      1.05220827716433
  C           1.14826849166709     -5.40065044181018      1.52953134427979
  H           0.53162965685525     -6.17150233885034      1.03448179941578
  H           1.97261237603632     -5.17451208880853      0.82826333599671
  C           0.29596729437980      4.32931518653377      1.23703727346098
  H          -0.61640521467931      4.00160163342825      1.76953653774890
  H          -0.05185593750803      4.81533473011304      0.30875836901190
  C           6.25138139568511      1.59660072017562      2.09051642108515
  H           6.11200093142049      0.50884749763146      2.21637784550875
  H           7.21122254768100      1.72023495353473      1.55552173940005
  C           6.34412448855559      2.25446902458570      3.46744027736259
  H           7.16154315038387      1.82375217217533      4.06741216695946
  H           6.52684917748029      3.33880437809055      3.38112297819767
  H           5.40745862034245      2.12259275390108      4.03457166016087
  C           1.04732329090303      5.35352055812075      2.08760865209050
  H           1.95015201866382      5.71403426062340      1.56677396237549
  H           0.41971583196233      6.22971977951347      2.31664428965250
  H           1.37293149516773      4.91464023301533      3.04587835227086
  C          -3.90234535654192      3.35387812881642      3.15592945714778
  H          -4.09874662102620      4.43812381621180      3.15508584060698
  H          -4.21874146272078      2.95575867729984      4.13456244588754
  H          -2.81110741797220      3.21018049953311      3.08129702575924
  C           1.72181148094673     -5.97204612881773      2.82622456932117
  H           0.91907867048486     -6.23237971709670      3.53659509681775
  H           2.31251987436998     -6.88364249810619      2.64123396990341
  H           2.37959746521101     -5.24187697576029      3.32697167595577
