104
Coordinates from ORCA-job orca E -2044.710635183199
  C           0.13618949464455     -0.07242623007318     -2.11503767166060
  C           1.07616693234428     -0.20119007068323     -0.88496230314004
  O           1.72818326409886     -1.20721233009085     -0.69648581244508
  O           1.29518903389365      0.86048020105423     -0.10680342316858
  C          -0.77807925584058      1.17081885121185     -2.05746379540221
  H          -1.65259648921990      0.95167980150925     -1.43810080657012
  H          -1.13266662450814      1.39215495505677     -3.07697149872042
  C           0.39682623848977      2.00654583448675     -0.04290822718977
  H          -0.46451093808589      1.67259593216314      0.56028913838479
  C          -0.07566405134034      2.37573281222517     -1.43829019408209
  H          -0.78440001555891      3.21562274225037     -1.36323738413843
  H           0.78082054875867      2.72234137642371     -2.03726967688970
  C          -0.58843572315120     -1.42959937193865     -2.34630027233620
  H           0.20590213087984     -2.18642789201458     -2.32539180419144
  H          -0.97730851759927     -1.42297651620262     -3.37751936076386
  C           1.14020961598666      0.09657564683306     -3.22858471739766
  C           4.26537591171086      0.64222961628524     -2.50306634790774
  H           1.48259510971474      1.08980331680983     -3.51746472169234
  H           1.66580057834852     -0.78044046462940     -3.60930173960434
  C           3.74913458609080      1.96226141598656     -2.00971676672037
  C           4.71626075353574     -0.40493744080783     -1.50127073177923
  C           4.36341026328869      0.48327407012326     -3.83026126926098
  O           3.02217218510825      2.68437305877450     -2.65727008065072
  O           4.13346457337464      2.35403617157748     -0.78485022089331
  H           5.74426312237626     -0.71563353610051     -1.75519503199501
  H           4.07264987142989     -1.29285474472760     -1.59971063998829
  C           4.65547797860969      0.10183012413320     -0.05820101447293
  H           4.03407959937913      1.27128259402330     -4.51109779891561
  H           4.76752811558961     -0.43748360641239     -4.26194970494440
  C           5.05355137112755      1.56650466177987      0.01164638086313
  H           5.32268059252695     -0.49698007509092      0.58004024380248
  H           3.63493424058883     -0.00793484920377      0.33726062283201
  H           6.06307397681313      1.70528689661144     -0.42346474310847
  C           1.15686468781769      3.09121685175697      0.70544123525808
  H           2.02361272539730      3.40901223361040      0.10420498356026
  H           1.56278252336128      2.63402649918851      1.62458132487607
  C           5.02064652049974      2.18080531321417      1.40458794569197
  H           4.01763696468591      2.01571114920872      1.83422973782745
  H           5.13565777046841      3.27226900735925      1.29000705448860
  C          -4.46637376016296     -1.49357659189598     -1.22852167963076
  C          -4.31940273110881     -1.84455702811845      0.26237960001045
  O          -3.89901943734520     -2.92377379036954      0.61165803037128
  O          -4.73787503166407     -0.98576798273309      1.19753199773736
  C          -5.27527334916740     -0.19026254578556     -1.39707126713445
  H          -6.34469996647990     -0.39525644998263     -1.21261945336888
  H          -5.20159292210448      0.15291126331551     -2.44227160158001
  C          -5.03831144090031      0.41845890997855      1.00597399899644
  H          -6.11890972734276      0.50602353879621      1.22518338563938
  C          -4.79266752978318      0.87722569033923     -0.42505844275062
  H          -5.32569064194136      1.82664462652044     -0.58761783123943
  H          -3.71963905510377      1.07223348258424     -0.56790263716887
  C          -5.26452348870133     -2.65227585469168     -1.86285067559275
  H          -4.74992291963905     -3.61407152249518     -1.75003084247987
  H          -5.42038109531320     -2.45479004272115     -2.93576814258678
  C          -3.08417696736957     -1.30562450443317     -1.94996366763191
  C          -1.76881209249418     -1.93994668342265     -1.42814447698322
  H          -2.91416301735762     -0.23047466216216     -2.04797501351977
  H          -3.21490106414296     -1.67514082664547     -2.98062296537864
  C          -1.47517823959247     -1.45255032030750     -0.00553515106832
  C          -1.80433796476868     -3.49758082850903     -1.54504382532233
  O          -1.88885571760160     -0.38172524791003      0.39867861617570
  O          -0.68289762465239     -2.17104126481386      0.77634720816893
  H          -1.25022905066668     -3.77999075124497     -2.45491889228893
  H          -2.83471976316666     -3.83150150926296     -1.69996544051235
  C          -1.23526979016838     -4.23867598963618     -0.32991854934385
  C          -0.13348686305716     -3.44443397176237      0.34788275750085
  H          -0.84720240065812     -5.22259022024171     -0.63530903810097
  H          -2.03484031071058     -4.40334518429118      0.40735197610990
  H           0.68786047623739     -3.21601664792285     -0.34943849824903
  C          -4.24060839962447      1.17353994583334      2.06568684670162
  H          -3.17332375360891      0.96646476800077      1.88932273139739
  H          -4.48778845261583      0.73503687515139      3.04755108895944
  C           0.44942587940982     -4.07564286873107      1.60345573055803
  H          -0.37294878127528     -4.29670325542192      2.30702524346055
  H           1.08185258374755     -3.31226831326956      2.08713356085265
  H          -6.25399694270521     -2.75072105448532     -1.38859551109648
  C          -4.50046674205264      2.68106270021838      2.09162634469078
  H          -5.58297952995437      2.87235434267712      2.21597113247367
  H          -4.22349598501877      3.12672927504949      1.12001223857564
  C           1.27784210394360     -5.33396844035066      1.33755535880591
  H           0.64449488402157     -6.11396615611588      0.87934261758150
  H           2.06149677267292     -5.10256106019467      0.59273084145011
  C           0.29067042883530      4.29571522179986      1.08104444326543
  H          -0.60948854469254      3.94839301644828      1.62183377809205
  H          -0.07764508804517      4.79385785280779      0.16715278243918
  C           6.09767003525980      1.64656024401623      2.35093415981207
  H           5.96180243044327      0.56141924264747      2.50138157427891
  H           7.09112547253633      1.76553582602959      1.88015488697683
  C           6.08736497441134      2.34840870127748      3.70896897701014
  H           6.86653995464718      1.94830597518453      4.37715911585340
  H           6.26296785601263      3.43191018747069      3.60032133394105
  H           5.11562656658921      2.22167687845703      4.21508533670100
  C           1.04374305704995      5.31362716942685      1.93763589768854
  H           1.93555248805013      5.69177672827965      1.41035805580817
  H           0.41080426009891      6.17951666025545      2.19012681911841
  H           1.38727121133501      4.86242407914009      2.88385061800440
  C          -3.72374913962474      3.38819489112460      3.20282061320484
  H          -3.91449857706254      4.47345063216162      3.20523381960664
  H          -3.99941432976573      2.99629661382058      4.19617281120513
  H          -2.63752489831944      3.23853438493059      3.08171217363495
  C           1.92437949300434     -5.89253397947990      2.60522506974672
  H           1.16207908051211     -6.15706496500942      3.35727849456866
  H           2.51432778006265     -6.79891784632596      2.39422319688292
  H           2.59931567301372     -5.15296536868093      3.06795743141607
