104
Coordinates from ORCA-job orca E -2044.693888222018
  C           0.32127764893044      0.57105901626000     -1.51302113916040
  C           0.90864859510977      0.62327726884045     -0.08152599948670
  O           1.71667485596165     -0.20766538368016      0.27922056476435
  O           0.53899259935791      1.56206063260111      0.77260111231929
  C          -0.81215514790138      1.60880271354693     -1.69871344650826
  H          -1.73715041217819      1.23209368660013     -1.24995717318887
  H          -0.99977605525617      1.75413338153848     -2.77521910775285
  C          -0.33705790497406      2.68100499995066      0.48875689036657
  H          -1.31980050053439      2.38755945186454      0.89727163383916
  C          -0.46298924748831      2.92106588942618     -1.00681666884763
  H          -1.25779495991890      3.66326502405797     -1.17948884658260
  H           0.47995098884519      3.34585275704705     -1.38525822129608
  C          -0.09789260788594     -0.90319282664370     -1.80498317023412
  H           0.78699428125988     -1.51029810675905     -1.58096752160005
  H          -0.25340578813167     -0.98941373123768     -2.89236136040876
  C           1.42039762805340      0.94561350041864     -2.54150462713595
  C           3.34127021954386      0.74397090884238     -2.12376260306282
  H           1.42075971865759      2.01362022440725     -2.77018707428487
  H           1.34164001058384      0.35252682065744     -3.46130463949393
  C           3.53465888842790      1.70941602319622     -0.95576826623703
  C           3.69647947694101     -0.73095240824288     -1.86077108324127
  C           3.97867346949669      1.31754798050960     -3.29678910142824
  O           2.86100023201767      2.69700218576720     -0.78194712765088
  O           4.57876967379839      1.46859458270357     -0.15212469929865
  H           4.21623978585844     -1.11953225703117     -2.75149977750034
  H           2.78952162456846     -1.32979284814923     -1.73019841343819
  C           4.58409160968158     -0.89961734900611     -0.61814480262434
  H           3.99026962267822      2.40016427876950     -3.44682277237885
  H           4.31767857497296      0.67681847014600     -4.11524542971632
  C           5.44434627706426      0.33360651079188     -0.38966579065586
  H           5.22329614496855     -1.78951130553842     -0.72373267863430
  H           3.95418022126169     -1.03342501182936      0.27355797966281
  H           6.03938768755209      0.55369411813851     -1.29758875119766
  C           0.22919810882574      3.85167308174928      1.28291563461681
  H           1.23372499931912      4.08010652319701      0.88843932065728
  H           0.37091318020561      3.50804767600247      2.32169968891216
  C           6.37237630014918      0.26323275693643      0.81517229148672
  H           5.76884360155226      0.02298646921408      1.70820956465246
  H           6.77809697596827      1.27597821624131      0.97977355020210
  C          -4.04956513559826     -1.69938729193654     -1.61670023644793
  C          -4.20556661925416     -2.01594998379405     -0.11873870620579
  O          -3.68098765840659     -2.98929678891982      0.37215903542695
  O          -5.00070755874757     -1.26064920142579      0.64516752661134
  C          -5.02571503180264     -0.58003061073697     -2.03598856814550
  H          -6.04776874287553     -0.99234289345114     -2.10666921968095
  H          -4.76353349397169     -0.22681613230772     -3.04707408293603
  C          -5.51000015835238      0.05669421218317      0.32130554389232
  H          -6.60701918033584     -0.07314871274490      0.26623182723634
  C          -5.01162314046001      0.55917129153035     -1.02698555497441
  H          -5.66121603120362      1.38436379960910     -1.35728978380431
  H          -3.99441589263405      0.96261914632198     -0.91536268151644
  C          -4.43585794731069     -2.98990032101519     -2.37021116819177
  H          -3.78232955339804     -3.83078120359186     -2.10897449005632
  H          -4.37571745890444     -2.81879867610255     -3.45734283743140
  C          -2.59440475361138     -1.24701140312987     -1.99695968114116
  C          -1.34961616479040     -1.60624240183563     -1.14370502707702
  H          -2.61102560894352     -0.15964274960605     -2.10903156838041
  H          -2.39962220589272     -1.64245804421350     -3.00763392622623
  C          -1.51006410398864     -1.05062510651897      0.27635040225419
  C          -1.07636135850525     -3.14495872831173     -1.16178056691365
  O          -2.22859756867542     -0.09833700046416      0.51154034102073
  O          -0.78980405688278     -1.57538643694474      1.25702239361433
  H          -0.30957431997849     -3.34264000287682     -1.92860061609632
  H          -1.97800745989235     -3.67304109740562     -1.48384502404399
  C          -0.64206703983011     -3.72672976964362      0.18949974492062
  C           0.09763639493136     -2.70137200176266      1.02986413414661
  H          -0.00376988730016     -4.61046820450402      0.03594342297810
  H          -1.53210760452286     -4.04517485523972      0.75223120328861
  H           0.97989289095362     -2.30905468942104      0.50176831730271
  C          -5.16072538188741      0.95250355795964      1.50641495577885
  H          -4.06367793763066      0.96197549546707      1.60459812241715
  H          -5.55362285074632      0.47131710715376      2.41827251012590
  C           0.52867377419766     -3.16750483817497      2.41171136701940
  H          -0.34814190470058     -3.57611466962976      2.94481613946372
  H           0.84980620182995     -2.27151507547557      2.96873230322084
  H          -5.46884908899476     -3.28849919691055     -2.13071380049200
  C          -5.70617418521730      2.37775470399631      1.39713975198675
  H          -6.80213018095722      2.34868231222613      1.24890708336096
  H          -5.29208437338603      2.87060746257546      0.49984756238640
  C           1.66643715756701     -4.19022387465708      2.38794668905957
  H           1.34475396862576     -5.10268915424740      1.85513516866550
  H           2.51045652327661     -3.77875878239069      1.80403265689001
  C          -0.66122690724764      5.09582979218149      1.27004518294936
  H          -1.68509139569176      4.81812375361170      1.58432594666805
  H          -0.75447950777000      5.48202642056811      0.23965233943237
  C           7.52298341604187     -0.73411057744481      0.66563255002154
  H           7.12354448915010     -1.75544085890145      0.53715113029775
  H           8.08365296951899     -0.50989739976129     -0.26075222593565
  C           8.47834609669545     -0.71458184061015      1.85899777004791
  H           9.29793511731955     -1.44000216625067      1.73303892218124
  H           8.93059296182040      0.28247532577701      1.99240733744012
  H           7.95126530221273     -0.96421927787580      2.79511967498580
  C          -0.13187088695938      6.20768955489545      2.17591900928774
  H           0.88080650651213      6.51985566593693      1.87029096485929
  H          -0.78036689759180      7.09817834850832      2.14722261017175
  H          -0.06932339157987      5.87187891682473      3.22465116677233
  C          -5.37669600547982      3.22454320979511      2.62692366129822
  H          -5.77353268375865      4.24834805827996      2.53421162918501
  H          -5.80166316150475      2.78159777409722      3.54322243650175
  H          -4.28604584382840      3.29847478060341      2.77462472145937
  C           2.14921485596104     -4.56909491353352      3.78807513848299
  H           1.33197487330827     -5.00548529535350      4.38669204309388
  H           2.96611037012889     -5.30766591469190      3.74939019375265
  H           2.52074407360784     -3.68565646759319      4.33390919530629
