104
Coordinates from ORCA-job orca E -2044.712293394093
  C          -0.02496512597473     -0.06318830185355     -2.39876778965815
  C           1.03705912451762     -0.20039240181752     -1.26533410698811
  O           1.73578529355640     -1.18790713967426     -1.18299287722710
  O           1.26869397408217      0.81769625714378     -0.43479039564308
  C          -0.91250942437886      1.19292324662789     -2.25121204221983
  H          -1.73737556915591      0.98746022602314     -1.56255837862308
  H          -1.34745146979303      1.43345446302384     -3.23439880825388
  C           0.39624563723865      1.97772251409774     -0.30957187941693
  H          -0.44227586660834      1.64896982798907      0.32710202530300
  C          -0.13234420107986      2.37160024521722     -1.67723680766036
  H          -0.79899819018072      3.24144014604155     -1.56860109237463
  H           0.71154947898785      2.67908481144054     -2.31613080783894
  C          -0.78055282455925     -1.41705353001304     -2.53954595933074
  H           0.00975647751761     -2.17724605609900     -2.58944842532325
  H          -1.26680351887459     -1.41956064711862     -3.52863962880175
  C           0.82270939518419      0.08972167322514     -3.63650459867544
  C           4.41535259924061      0.29141546136332     -2.14942436873728
  H           1.23023512602127      1.06754226054924     -3.89989011262526
  H           1.28093488327222     -0.79595024079300     -4.08288555430309
  C           3.89365913296285      1.66647539544893     -1.84211565765674
  C           4.90832971703458     -0.58853350026876     -1.01906506192551
  C           4.39466881200037     -0.09440893227093     -3.43223767784568
  O           3.19819091829122      2.30487375729498     -2.60153232031892
  O           4.22290301412246      2.21000700236401     -0.65585938093999
  H           5.99699634977331     -0.74468529508078     -1.12879169957020
  H           4.42515319863611     -1.57362123055556     -1.09898055033038
  C           4.61615373673371      0.03593281975444      0.34209897955005
  H           4.02431493060216      0.57893651617927     -4.20770116024001
  H           4.74624112319696     -1.08671525450605     -3.72985315103758
  C           5.01480261679737      1.50287144289768      0.32790406083564
  H           5.16541142814417     -0.49463369110564      1.13470690653432
  H           3.54010526706317     -0.03600869688352      0.56677727544697
  H           6.07623799417308      1.59748067605990      0.02400729283197
  C           1.20120363833226      3.04091892765717      0.42050351351781
  H           2.04683779120376      3.35855586456516     -0.20947693952138
  H           1.63961271511266      2.56583460902871      1.31439889267410
  C           4.80968463004942      2.24341711489094      1.64340462300863
  H           3.77079729125220      2.08402382368481      1.97885240109886
  H           4.90775510055832      3.32300448197742      1.43762729865593
  C          -4.54038543628554     -1.46032792846631     -1.07787636212502
  C          -4.26290312939166     -1.80975100664811      0.39473844496718
  O          -3.80724704965745     -2.88616415477382      0.70670919218942
  O          -4.60737747013001     -0.95347122035579      1.36188786583731
  C          -5.35871569076935     -0.15560295823889     -1.17790444587927
  H          -6.40964472889852     -0.35898632002749     -0.90590355984118
  H          -5.37108859915836      0.18783521081995     -2.22552547655004
  C          -4.92132728230246      0.45121229979927      1.19682590399105
  H          -5.97993051003502      0.53969297418577      1.50475676578453
  C          -4.79577814828028      0.91134145155882     -0.24957365981889
  H          -5.34124176329135      1.86050613544663     -0.36573014669988
  H          -3.73858856082042      1.10600487527839     -0.48251650942968
  C          -5.39553051517856     -2.61750332578029     -1.63700624936923
  H          -4.87150747295264     -3.57938224237138     -1.58269499995254
  H          -5.65698427936131     -2.41356948706778     -2.68800940456466
  C          -3.22741040160739     -1.27911169855802     -1.91984158686264
  C          -1.87135942157160     -1.91044704800162     -1.51106598620920
  H          -3.06487165227579     -0.20455740457282     -2.04059828656802
  H          -3.44853242535884     -1.65641182585731     -2.93196293540943
  C          -1.45182357966248     -1.40908140746107     -0.12643928626819
  C          -1.91756295650874     -3.46891069308665     -1.60350395173647
  O          -1.84889759809210     -0.34771548845038      0.31598376269415
  O          -0.56682620940759     -2.10631918389710      0.57268377809013
  H          -1.47577600833881     -3.76248063417700     -2.56944812922215
  H          -2.95867866488244     -3.80335062776497     -1.62580725993797
  C          -1.20886754451439     -4.19165349794639     -0.45191282059863
  C          -0.05134780229164     -3.37996957840614      0.10230499208938
  H          -0.84246855619393     -5.17351179230834     -0.78891996545857
  H          -1.92495623601088     -4.35993477063925      0.36627802823389
  H           0.69413813948423     -3.15176714194867     -0.67553992834997
  C          -4.03735579067021      1.20364703156505      2.18793290805032
  H          -2.98907810409266      0.98670068129270      1.92916550623041
  H          -4.21045995134625      0.77037120340035      3.18784642039429
  C           0.66108223014488     -3.99454134749797      1.29811364089411
  H          -0.08516114738668     -4.22632555130810      2.07869904342560
  H           1.32413343445278     -3.21828774144626      1.71586970988547
  H          -6.33307114490064     -2.71987167254474     -1.06777902253524
  C          -4.28058262071570      2.71355876015487      2.22864500604892
  H          -5.34820025080044      2.91632309291254      2.43578494967794
  H          -4.07488621199027      3.15345106143370      1.23695972237073
  C           1.48271048122362     -5.23923845927557      0.95648228904593
  H           0.82160417101157     -6.03431181183923      0.56894181272033
  H           2.18181833513370     -4.99799015768791      0.13479516209016
  C           0.36675423436634      4.24812418791958      0.85461878559690
  H          -0.51478893807600      3.90255261666158      1.42627089124050
  H          -0.03274391795876      4.77002655110384     -0.03267955861125
  C           5.78841690861766      1.83928617023717      2.74778808942471
  H           5.68336335550165      0.76276333925135      2.96940847872894
  H           6.82453352109374      1.97431627948619      2.38628882378384
  C           5.58587710199561      2.64001227314263      4.03424482516350
  H           6.29814759560687      2.33515297699862      4.81745452611787
  H           5.72314526786535      3.72021430010080      3.85841171081710
  H           4.56790014299285      2.49864197757705      4.43452884302755
  C           1.17039446276154      5.23778885855802      1.69844451105129
  H           2.04544996329033      5.61267228105225      1.14167900468654
  H           0.56244542957983      6.10772775967127      1.99476748903328
  H           1.54640276543560      4.76223711916243      2.62008641284137
  C          -3.41266378534148      3.41540727263434      3.27371900038477
  H          -3.59063076277227      4.50274554331837      3.28676172681667
  H          -3.61473373614896      3.02952428782649      4.28691715530117
  H          -2.34103331705444      3.25288180212086      3.06890938622058
  C           2.26553963353203     -5.77623083081342      2.15477271633816
  H           1.58928371633844     -6.05186991081417      2.98139190404406
  H           2.85037995993177     -6.67141114379719      1.88895943445390
  H           2.96780331707038     -5.01973895734661      2.54360487584398
