104
Coordinates from ORCA-job orca E -2044.686345399309
  C           0.42589534134710     -0.08497084829785     -1.77236852865746
  C           1.19751591456632     -0.28239474294339     -0.45232918461007
  O           1.79697556271606     -1.31195416134126     -0.22787423752957
  O           1.33351700133275      0.74093799399442      0.39009898410005
  C          -0.48628684905178      1.15897079600276     -1.76865875530437
  H          -1.42722355126908      0.90569028429606     -1.27365978871495
  H          -0.71862036769686      1.43378724629505     -2.80998376745531
  C           0.45785255896054      1.90679423160514      0.40543073056083
  H          -0.45623451396788      1.57602688019817      0.92673234975769
  C           0.10872017808908      2.33808617980443     -1.00787211348603
  H          -0.64040791609371      3.14392407161590     -0.94882912422015
  H           0.98701774037409      2.76044345539912     -1.51539282410432
  C          -0.30908005144306     -1.42106217995191     -2.12378655941448
  H           0.45976766999151     -2.19847200945175     -2.03974703202820
  H          -0.58726285304055     -1.37663766493259     -3.18955588869173
  C           1.52308050464481      0.04525475640302     -2.84099241418236
  C           3.72067086625738      0.69672615940635     -2.71371042446299
  H           1.34742069640399      0.81242585402635     -3.59715792220174
  H           1.90333526707679     -0.90775307175894     -3.21331934929139
  C           3.37436688103223      2.07853720422920     -2.22948377098454
  C           4.34653209253722     -0.31916090976458     -1.75939951335470
  C           3.99241269329655      0.62308194269583     -4.05797693618779
  O           2.70581215384155      2.85959447046155     -2.86694859221422
  O           3.84528742183916      2.44754255635449     -1.02439278710248
  H           5.31552638481068     -0.62426461629508     -2.18742267585263
  H           3.72534849086205     -1.22410400764771     -1.69933167015538
  C           4.56339452474390      0.23031414981500     -0.34545907482074
  H           3.69520307319194      1.43204223241258     -4.72872559184176
  H           4.44734332578873     -0.27207724559355     -4.49179783595900
  C           4.91265434201258      1.70711053166948     -0.37880430335440
  H           5.37548335390801     -0.32924079156305      0.14354801174897
  H           3.66712278369426      0.09498535902130      0.27391316536643
  H           5.82576169588362      1.86773923526860     -0.98471474237883
  C           1.18207053977711      2.95361967088547      1.23889465038860
  H           2.08676092515425      3.27080107928605      0.69500886078745
  H           1.52102449318444      2.46334289090780      2.16786602767049
  C           5.09830610961195      2.35159128879030      0.98816373663758
  H           4.19643423700828      2.15348755489720      1.59212563802881
  H           5.14301271517983      3.44410121425206      0.83945301531680
  C          -4.29374557072386     -1.44842976066658     -1.46130505475995
  C          -4.32714542759797     -1.82847380185238      0.02926865082246
  O          -3.96761969445516     -2.92159151513608      0.40266524708301
  O          -4.83687365380722     -0.97918900173270      0.92643357427697
  C          -5.05975432108941     -0.12974715752381     -1.69745745296883
  H          -6.14603912399981     -0.32062863563236     -1.64206742233688
  H          -4.85986176159846      0.23049744195671     -2.72010522642718
  C          -5.09297516838922      0.43313166713107      0.72858871253283
  H          -6.19009254173061      0.53506446864910      0.82433555864682
  C          -4.67745063617183      0.91221160362078     -0.65567496424317
  H          -5.17370962045500      1.87333281168247     -0.86019825875116
  H          -3.59219333802553      1.09194238673125     -0.67034093895237
  C          -5.02549176096373     -2.58360507962357     -2.20781748961100
  H          -4.54077497836455     -3.55483169847489     -2.05198360668084
  H          -5.05004904615294     -2.36568663738552     -3.28776521957228
  C          -2.83410192546887     -1.26584814263557     -2.01050457515670
  C          -1.59639399637402     -1.93570391758738     -1.35907343899640
  H          -2.63995830876585     -0.19161587393225     -2.05670108066090
  H          -2.84957202498433     -1.60456090076823     -3.05969362260193
  C          -1.46102461444609     -1.49543222139809      0.10233799986547
  C          -1.63611796581541     -3.48847768499825     -1.52988411282495
  O          -1.89686841637194     -0.42578580066983      0.48594249661043
  O          -0.78135062175483     -2.25241745219758      0.95012460233243
  H          -0.96583550894691     -3.75574401367148     -2.36281326693530
  H          -2.64002009314883     -3.79759754309497     -1.83718298570459
  C          -1.25123136874030     -4.27513695350579     -0.27262490144905
  C          -0.22142871335610     -3.53416164062095      0.56125107174166
  H          -0.85810655708968     -5.26464204616809     -0.55229132092691
  H          -2.14416512603646     -4.42729417093840      0.35073763900066
  H           0.69072349516291     -3.31903666386596     -0.01810794759289
  C          -4.40961610234915      1.15561476897497      1.88615972454586
  H          -3.33176777975952      0.93784922939593      1.82363168859622
  H          -4.76768913451574      0.69947761681468      2.82479429396820
  C           0.17265363504933     -4.21464948029180      1.86399720037004
  H          -0.74102593917891     -4.41748287602262      2.45019747719479
  H           0.76583838939969     -3.48814406932183      2.44437888202536
  H          -6.06550104590865     -2.67524410093560     -1.85630075150772
  C          -4.65434792477421      2.66546312601700      1.91762851970867
  H          -5.74167006244283      2.86797077276440      1.94059327247485
  H          -4.28006188761161      3.12711968401824      0.98690984546579
  C           0.98098013740121     -5.49937186638352      1.67164521422262
  H           0.37785578171223     -6.24771897383131      1.12778708808663
  H           1.85426010957598     -5.28654720087751      1.02797344223639
  C           0.31747211092002      4.16670116347038      1.58909014905873
  H          -0.61778873893246      3.82498995915900      2.07035348094858
  H           0.01156595886678      4.68885341689998      0.66585794183706
  C           6.34745277235615      1.88387130993551      1.73813280529841
  H           6.29555099149950      0.79541051652555      1.91469083294352
  H           7.23838406731380      2.04666489024742      1.10386652519565
  C           6.53187776980019      2.60179092298673      3.07514771614494
  H           7.43452928111701      2.25185650881647      3.60093828341302
  H           6.62693767004321      3.69164659769039      2.93439247049519
  H           5.66940873026800      2.42994455783615      3.74078300543623
  C           1.03702313689734      5.15286038863205      2.50908579602454
  H           1.96202648567416      5.52945164589351      2.04098839091376
  H           0.40361923305789      6.02272661745400      2.74601457440661
  H           1.32090976016256      4.67557187601333      3.46224080149723
  C          -3.98060836603610      3.34068463508274      3.11271992319586
  H          -4.16377587480968      4.42717509258699      3.12245405004900
  H          -4.35006009369432      2.92875174845116      4.06668677557460
  H          -2.88877364181370      3.18465010794638      3.08934356805322
  C           1.45536161674119     -6.10093479461746      2.99457928058942
  H           0.60250654805473     -6.34916987251424      3.64861638396890
  H           2.03393961411671     -7.02503309955435      2.83511619258434
  H           2.09765974490527     -5.39382992540553      3.54590272742178
