104
Coordinates from ORCA-job orca E -2044.701431613999
  C           0.28892301640207     -0.04598952705503     -1.85906948652313
  C           1.11305484618040     -0.19528681683162     -0.55588777041641
  O           1.72264797629770     -1.21552751777643     -0.31409563062008
  O           1.29364486849014      0.86584201875871      0.23058793843479
  C          -0.63948348077038      1.18537214154979     -1.85261259089216
  H          -1.54658181534037      0.95023574572992     -1.28879704900859
  H          -0.93464568453859      1.41106980427677     -2.89012460050990
  C           0.41503235711844      2.02845926919261      0.23170691180875
  H          -0.47826922118791      1.71979408066276      0.80164183657901
  C           0.00940516311676      2.39419392581026     -1.18588908735385
  H          -0.71769081915315      3.22053408620123     -1.13959055688839
  H           0.88156363041918      2.76379816559121     -1.74611765141816
  C          -0.40675838942426     -1.40401337194382     -2.17756440392734
  H           0.38808120761882     -2.15722174247005     -2.10990784865962
  H          -0.71589868964071     -1.37741994761252     -3.23520208265849
  C           1.38563003500098      0.14027780309882     -2.88864377617251
  C           4.02537392994545      0.77952785777517     -2.71264480388219
  H           1.46295940713300      1.07533237650576     -3.43982413404902
  H           1.90552972373838     -0.74364217903967     -3.25541982876009
  C           3.57824784208974      2.10147665613650     -2.16213006435866
  C           4.46735169835972     -0.32200320062384     -1.76442841617599
  C           4.21100968301511      0.71689432136700     -4.04176376372645
  O           2.87846348864525      2.88283233187967     -2.76795591614900
  O           4.00222670978252      2.42170490582293     -0.92847527618467
  H           5.42265336670156     -0.72988200373175     -2.13359946767269
  H           3.73895356748255     -1.14734260041626     -1.78858748528302
  C           4.61376717710571      0.15682075694396     -0.31341561207816
  H           3.92859446485653      1.55513084207272     -4.68297023581794
  H           4.62421737341202     -0.17878922885106     -4.51557301099099
  C           5.00527768171735      1.62316822161596     -0.25095680314839
  H           5.37246703600373     -0.45002964452126      0.20347133838423
  H           3.67001415611520      0.02209206908176      0.23312998107974
  H           5.96281148631434      1.78543916831380     -0.78366149597351
  C           1.16601854593077      3.11035344278816      0.99392701801494
  H           2.05546785068997      3.40403499446145      0.41275788607332
  H           1.53455464054055      2.65859963696850      1.93122851451907
  C           5.10744361328546      2.19915714083017      1.15473611455402
  H           4.14804665990794      2.02407117865848      1.67122796801417
  H           5.21708172295433      3.29311649964737      1.06002446400864
  C          -4.35872386867236     -1.50365907119920     -1.36540151161034
  C          -4.32822816360861     -1.87180843937948      0.12814087587139
  O          -3.93766429712414     -2.95608995389150      0.49583161878414
  O          -4.81605618838280     -1.02288326922615      1.03804053053577
  C          -5.15821638990029     -0.20159681925793     -1.58149771330595
  H          -6.23770840386049     -0.41183781698517     -1.48093024469815
  H          -5.00649645262628      0.15289867837606     -2.61441849063175
  C          -5.10197178563631      0.38346458016178      0.83943617739985
  H          -6.19554151001296      0.46938292847272      0.98062504140339
  C          -4.75322646708121      0.85669250928526     -0.56507715273024
  H          -5.27509077884958      1.80674829138924     -0.75726358939603
  H          -3.67316963814569      1.05616331248656     -0.62697842491749
  C          -5.09675587479173     -2.65861556909569     -2.07429134826295
  H          -4.58949201116047     -3.61944848155600     -1.92648934802985
  H          -5.16415860844591     -2.45223428318151     -3.15469167372008
  C          -2.92511490106464     -1.29784106237181     -1.97156784622711
  C          -1.65172192420151     -1.94315819801410     -1.36551057011912
  H          -2.75139944474978     -0.22076707247291     -2.02852116813951
  H          -2.97581466131974     -1.64106335578349     -3.01819761619741
  C          -1.47060834363068     -1.49030392327788      0.08798670124855
  C          -1.66949662841081     -3.49704736256502     -1.52874346492565
  O          -1.89846493905350     -0.41873488532609      0.47579915293002
  O          -0.76443233416818     -2.23849551277260      0.92134860683153
  H          -1.02058120928633     -3.75555626262846     -2.38120903968940
  H          -2.67637220845442     -3.82635546772702     -1.80403472961726
  C          -1.23099066730592     -4.27284246433448     -0.28195306090011
  C          -0.19082742203077     -3.50835727841878      0.51666798502180
  H          -0.82695890636758     -5.25505714422912     -0.57177879047126
  H          -2.10036871190441     -4.44116655299760      0.36993942422378
  H           0.69654795670929     -3.27522798115094     -0.09351785216145
  C          -4.38160521694539      1.12714622868227      1.96060252107771
  H          -3.30441759830659      0.92208426133260      1.85685156245300
  H          -4.69579484752170      0.67766313132799      2.91800081015766
  C           0.26163250209619     -4.17671724378540      1.80664643749504
  H          -0.62682282627985     -4.39522201481410      2.42521754891924
  H           0.86016842902447     -3.43650679890050      2.36379130914798
  H          -6.12162429970170     -2.76479930208170     -1.68439945783892
  C          -4.64410762878239      2.63419314291241      1.98487743084961
  H          -5.73224758213933      2.82371347325315      2.04716943161166
  H          -4.31131445782555      3.08926269911243      1.03535661203631
  C           1.08754774600418     -5.44619151460100      1.58996983811499
  H           0.47992367734610     -6.20853420703312      1.07115649091354
  H           1.93250154429866     -5.21943399449359      0.91389004250379
  C           0.31161230454581      4.33655949631277      1.32321293964718
  H          -0.60762362595509      4.01490109680440      1.84754687911349
  H          -0.02439111389407      4.82213816343991      0.39040513862509
  C           6.26456027023671      1.63646101798698      1.98258966239074
  H           6.13783020178321      0.54797641481869      2.11520079711577
  H           7.21145899360397      1.76695940324203      1.42659983279188
  C           6.38068443904793      2.30013208910363      3.35493420654331
  H           7.21524020305123      1.87971092801093      3.93840836934493
  H           6.55056748468245      3.38593644664940      3.26106844881489
  H           5.45793947102463      2.16091171168812      3.94275608473512
  C           1.06003501362402      5.35868726265627      2.17884023809998
  H           1.96929286665947      5.71406511741896      1.66569653069142
  H           0.43451912815595      6.23828309786409      2.40037626652771
  H           1.37469050011913      4.92013985761999      3.14090954896035
  C          -3.93380927671009      3.33146180725436      3.14562954195376
  H          -4.12835708353729      4.41603025364471      3.14895673203334
  H          -4.26331541657403      2.92786356123716      4.11766298225058
  H          -2.84194372960990      3.18622574611742      3.08392797390056
  C           1.62163114699266     -6.03263397033536      2.89677334634046
  H           0.79829333891681     -6.29383301225942      3.58283272615414
  H           2.21132841871245     -6.94648841599927      2.71982526740735
  H           2.27024498107838     -5.31114966738416      3.42147230844575
