104
Coordinates from ORCA-job orca E -2044.723307784259
  C           0.42714592002985      0.56059395710507     -1.38615001780303
  C           0.95358776642798      0.61025678294497      0.06337109236995
  O           1.76525832818169     -0.20825208047944      0.44834823907670
  O           0.53062673725918      1.53254077280426      0.91153528036303
  C          -0.69904770839994      1.59133423938107     -1.62086372435804
  H          -1.64533258366189      1.20939031303924     -1.22685200477883
  H          -0.83044247928256      1.74347897684664     -2.70498764044920
  C          -0.34203962731054      2.64671973603172      0.59633806825669
  H          -1.33935320648363      2.34000595276105      0.95664489887511
  C          -0.40311480014018      2.90187008462832     -0.90149915202189
  H          -1.20321849069576      3.63165766272722     -1.10098800398246
  H           0.54764659602552      3.34526308856825     -1.23384454425891
  C          -0.00325779703797     -0.90944095201291     -1.68979986724749
  H           0.85270693687745     -1.53635373425245     -1.42202189275045
  H          -0.11109185416959     -0.99977327768733     -2.78267628072569
  C           1.59063934278430      0.93820624481324     -2.38720273525316
  C           3.09597611910463      0.75091510353628     -2.06879541406952
  H           1.47337689206038      2.00328972119859     -2.62151304267794
  H           1.39128931278439      0.39794599783584     -3.32616495633024
  C           3.48622372877170      1.70173065590101     -0.90562750491373
  C           3.55024786119057     -0.72171894774044     -1.84700048049115
  C           3.85867950015367      1.35211170961950     -3.22397196912788
  O           2.82510058654305      2.67042286857532     -0.61589846529925
  O           4.65475988208351      1.49044397692776     -0.29112847722996
  H           3.98600674243617     -1.08654830194758     -2.79134113991832
  H           2.68302851845761     -1.35355164721016     -1.63830864837672
  C           4.55649854192509     -0.88402693840158     -0.70447407224675
  H           3.59821908336095      2.35317025592113     -3.57776626017772
  H           4.75622475508345      0.87506899736421     -3.62302335965268
  C           5.46396511794422      0.32871536974402     -0.58041829123046
  H           5.16269267920603     -1.79008566918022     -0.85726975357501
  H           4.01769665215876     -0.99112148925928      0.24883187487950
  H           5.98985729014778      0.51645414297309     -1.53633922630065
  C           0.17416277322063      3.81544061320723      1.42626911525625
  H           1.19057804686595      4.06363408089146      1.07655391116994
  H           0.27700146026871      3.46264252964743      2.46653798824216
  C           6.49121210332018      0.25284489445523      0.54188353131386
  H           5.96116717392761      0.03816800109162      1.48654086365413
  H           6.93144167450183      1.25810077645788      0.65581952860812
  C          -3.96875178159373     -1.68680110175947     -1.68173289865119
  C          -4.19439958759267     -2.00287975524225     -0.19246385616036
  O          -3.69429990160220     -2.97642197388138      0.32297209035881
  O          -5.02520039900476     -1.24794804942525      0.53281713954706
  C          -4.92214294867378     -0.56527657710476     -2.14561244460784
  H          -5.94020995569368     -0.97598615602375     -2.26617236077103
  H          -4.61131195023855     -0.21138358803505     -3.14261334468046
  C          -5.51766633850269      0.06982969692358      0.18643320313399
  H          -6.61100162464694     -0.05922591145406      0.07964755797271
  C          -4.95552316518836      0.57318007471248     -1.13637802556790
  H          -5.58907471498895      1.39841196441402     -1.49642597835605
  H          -3.94488023257992      0.97656480365695     -0.97589358057875
  C          -4.32422903903814     -2.97631769792442     -2.45212385053238
  H          -3.68262322923776     -3.81796694557818     -2.16510153239935
  H          -4.21863223972986     -2.80400643876688     -3.53558826526821
  C          -2.49606949609856     -1.23940631976609     -1.99586394044516
  C          -1.29361501537402     -1.59610385920594     -1.08314322064820
  H          -2.50549754675593     -0.15284636366310     -2.11532106545709
  H          -2.25395607511935     -1.64148750175837     -2.99364906539048
  C          -1.51548800624972     -1.03148797362913      0.32425269865951
  C          -1.02855537656912     -3.13651499168327     -1.07577377542745
  O          -2.25169157313060     -0.08520035942200      0.52544726052616
  O          -0.82824338307533     -1.54254202246105      1.33614630820951
  H          -0.23626804585040     -3.34645047093290     -1.81276212241472
  H          -1.92132352863444     -3.66324661867661     -1.42326479838952
  C          -0.64844027462124     -3.70612194136093      0.29701767073911
  C           0.06003267270189     -2.67682284097076      1.15948354953404
  H          -0.00735873191361     -4.59301005909230      0.17728847345957
  H          -1.56165272751643     -4.01669418010293      0.82603009523923
  H           0.96995149444354     -2.29673939284727      0.67051191353966
  C          -5.22498918057356      0.96427945237275      1.38775566579353
  H          -4.13360720343863      0.97750251023268      1.53547975979255
  H          -5.65699944909508      0.47977179139149      2.27994693472520
  C           0.42287683777495     -3.13305998062836      2.56441780189044
  H          -0.48290549723384     -3.52270312691213      3.06206663508637
  H           0.73224359675173     -2.23535515169283      3.12527798692816
  H          -5.36648119484999     -3.27436717139075     -2.25612669898010
  C          -5.77007716875399      2.38789301878522      1.25709101408771
  H          -6.85874056281154      2.35540956198363      1.06291670828846
  H          -5.32019388737824      2.88352123804366      0.37875886537467
  C           1.54483002461324     -4.17265326291170      2.60345223751044
  H           1.23205233430884     -5.08807347403871      2.07039315968184
  H           2.41926561984233     -3.78239415323032      2.05076069911571
  C          -0.73245823639627      5.04746219678896      1.38892176754997
  H          -1.76320975133335      4.75308414813439      1.66274097418433
  H          -0.79267034744542      5.43998558955970      0.35848770618821
  C           7.60302371624328     -0.77236614255633      0.30999223353228
  H           7.17187537897005     -1.78545700839000      0.22687236827532
  H           8.09101711394228     -0.57047084203367     -0.66164352545662
  C           8.65312177990523     -0.76203273437137      1.42107247916285
  H           9.44480315552497     -1.50572514611840      1.23683453869235
  H           9.13473168928462      0.22655788366127      1.50586005637672
  H           8.19920036346305     -0.99152296989182      2.39967365131799
  C          -0.25313479009394      6.15994675097225      2.32150548796197
  H           0.76518003686450      6.48932188137823      2.05514919791861
  H          -0.91337697740855      7.04102339698050      2.27526849869728
  H          -0.22389896206581      5.81718234500487      3.36943925068455
  C          -5.49519305760026      3.23380871171277      2.50082749089850
  H          -5.89069557532881      4.25663764317699      2.39295526036289
  H          -5.95697423414115      2.78816876893440      3.39779192052891
  H          -4.41188511824576      3.31041041185462      2.69412267719722
  C           1.96189950073139     -4.53784285261822      4.02819428208574
  H           1.11419416238926     -4.95538943328487      4.59716024091657
  H           2.76977491910574     -5.28724777186927      4.03453558290880
  H           2.32181411063310     -3.65156799679587      4.57716578872901
