104
Coordinates from ORCA-job orca E -2044.712140216483
  C           0.07458563233661     -0.06515999155962     -2.24041829540447
  C           1.06795090474379     -0.19451530031397     -1.05086775381847
  O           1.73752765097990     -1.19475139367030     -0.89972174056592
  O           1.29860215645351      0.85584124147581     -0.26023952805757
  C          -0.83207463830996      1.18199617389914     -2.14479498574998
  H          -1.68329929438497      0.96785463397742     -1.49189779939834
  H          -1.22514373234138      1.40710423015472     -3.14914566939511
  C           0.40705083331445      2.00515232034254     -0.16808457318691
  H          -0.44041633840020      1.67129773110991      0.45440382755193
  C          -0.09841060701630      2.38025993296220     -1.55011126897417
  H          -0.79339385060767      3.22975012990235     -1.45756253454541
  H           0.74814010618766      2.71318843568238     -2.17116380046308
  C          -0.66207274416535     -1.42157785637256     -2.43327775755805
  H           0.13229904617598     -2.17880778447268     -2.43960941516166
  H          -1.09118833029967     -1.42112323821546     -3.44845286983636
  C           1.01467867731002      0.09842918716775     -3.40843888230745
  C           4.29323494079192      0.47756306699316     -2.34536388584435
  H           1.41114132194024      1.08328649535596     -3.65742443370572
  H           1.49790534048308     -0.78524238827527     -3.82947471960874
  C           3.80414305613899      1.83661959478670     -1.93573610856767
  C           4.80274878789095     -0.48370947920354     -1.28853397573687
  C           4.28438220491296      0.19391324811631     -3.65478813321745
  O           3.08997089902639      2.52831361682661     -2.62917730789107
  O           4.18856229882661      2.30255807313257     -0.73579377935192
  H           5.86860232474761     -0.69703354946132     -1.48533699253474
  H           4.25423718187415     -1.43325909189090     -1.37780377130227
  C           4.63814570101852      0.07824759000917      0.12186776519690
  H           3.92210983605829      0.92338756107161     -4.38172153745866
  H           4.63887301557476     -0.77286220627404     -4.02498311637170
  C           5.04452609220492      1.54209914158261      0.15179393082345
  H           5.25322980561865     -0.49384578427320      0.83299314794361
  H           3.58823869771241     -0.00822272823176      0.44084476515830
  H           6.08172486839952      1.65057548739486     -0.22271614828364
  C           1.18615411566177      3.08541026899702      0.56620254849215
  H           2.03835554156040      3.40586681151745     -0.05388718051760
  H           1.61441704602423      2.62458096737451      1.47300575153883
  C           4.93367896925423      2.21832596335246      1.51205299358846
  H           3.90857382915599      2.07105162965872      1.89267460473379
  H           5.05530192339323      3.30383478239929      1.35551685571408
  C          -4.49403642634071     -1.47746598030002     -1.16815757080576
  C          -4.29066773467624     -1.83255818310552      0.31515601113777
  O          -3.85575293698448     -2.91204366973989      0.64537015191315
  O          -4.67651352635906     -0.97759549979654      1.26767091798733
  C          -5.30735341981736     -0.17286161902502     -1.30294867362251
  H          -6.36965602189608     -0.37783111359407     -1.08099503543425
  H          -5.27095556652480      0.17388692854037     -2.34893222235517
  C          -4.98390404140780      0.42719867714098      1.09203861907825
  H          -6.05594743671023      0.51365935048483      1.35024357037231
  C          -4.78995860603807      0.89136975001355     -0.34534458452402
  H          -5.32922137306587      1.84092829561529     -0.48492000659818
  H          -3.72284876098047      1.08732143005234     -0.52594297310271
  C          -5.31785410080891     -2.63337150907305     -1.77446061973063
  H          -4.79882978055992     -3.59567147582682     -1.68900902318791
  H          -5.51847029612590     -2.42997939006443     -2.83881155358098
  C          -3.14011190039485     -1.29087177868749     -1.94169275145724
  C          -1.80638432136971     -1.92516223816476     -1.46866230900042
  H          -2.97306635899985     -0.21582945364391     -2.04782674016266
  H          -3.30912385655014     -1.66219675807893     -2.96605441017075
  C          -1.45871397063931     -1.43481974330862     -0.05960386713616
  C          -1.84739339929910     -3.48301599206590     -1.57931022646299
  O          -1.86367261444410     -0.36756289735942      0.36198528883228
  O          -0.62900784451485     -2.14765036614717      0.68867055006317
  H          -1.33778908377607     -3.76753147372991     -2.51410436153607
  H          -2.88415837283545     -3.81684624348147     -1.68180116621337
  C          -1.22064564442369     -4.21988805660756     -0.39032867386216
  C          -0.09416574608873     -3.42050393700212      0.24002538175468
  H          -0.84097296116982     -5.20193000496809     -0.71182416610464
  H          -1.98706737705996     -4.38878147815994      0.38058251141663
  H           0.69740340444656     -3.19070027118522     -0.49040230887800
  C          -4.14887225097312      1.17822649345877      2.12564217993910
  H          -3.08870128471957      0.97044886732257      1.91143983787032
  H          -4.36226225944004      0.73682172435280      3.11412350667768
  C           0.54070015286773     -4.04859433912888      1.47178278664696
  H          -0.25302387020749     -4.27583746010472      2.20558235125239
  H           1.18585972314821     -3.28140307530114      1.93209217292313
  H          -6.28655271567251     -2.73451132246387     -1.25968581366922
  C          -4.40541855148083      2.68598631645042      2.16564473771424
  H          -5.48263620947565      2.87861331673061      2.32796293672266
  H          -4.16118180042133      3.13444907648031      1.18658447057142
  C           1.36718534631029     -5.30086636742217      1.17296180528908
  H           0.72292154684653     -6.08383493734089      0.73555719373361
  H           2.12197417400092     -5.06230629700292      0.40113326842865
  C           0.32962779633114      4.28774773816726      0.96990262797267
  H          -0.55826647084794      3.93768185661903      1.52890132313752
  H          -0.05920701509539      4.79298852510500      0.06843979150855
  C           5.95618963694711      1.72920679759020      2.53971599373086
  H           5.81634195969533      0.65007021029204      2.72575077765340
  H           6.97454585592854      1.83536470888387      2.12219076204653
  C           5.86505450888037      2.48488472666077      3.86540438851991
  H           6.60701553425169      2.11780070073967      4.59235950524603
  H           6.04110622088281      3.56441376775940      3.72305723206968
  H           4.86679907146914      2.37166626798495      4.32063247815311
  C           1.10384607450858      5.29856121251384      1.81606124162826
  H           1.98489174557935      5.67761451227198      1.27166697955348
  H           0.47895819859663      6.16438420693443      2.08812474179990
  H           1.46707536438490      4.84044184232191      2.75154362361347
  C          -3.58951015723649      3.38793179191224      3.25178077873976
  H          -3.77815062048584      4.47347976112542      3.26460662094416
  H          -3.83132029998191      2.99296661012821      4.25271107465159
  H          -2.50846046793184      3.23684413896612      3.09250809933013
  C           2.06222001529412     -5.85857516728935      2.41511953625291
  H           1.32886183986090     -6.13028613129126      3.19289509617427
  H           2.65032318127897     -6.76031223349834      2.18047185492746
  H           2.74822283207538     -5.11578066168859      2.85592605369094
