104
Coordinates from ORCA-job orca E -2044.702569970013
  C           0.34744014685883      0.56889813895859     -1.47309971001362
  C           0.91509757744882      0.61966227298701     -0.03499456622914
  O           1.72375905073441     -0.20753325339763      0.33407391990242
  O           0.52588988863771      1.55161591080703      0.81818828039953
  C          -0.78329961809983      1.60502652990427     -1.67464609598882
  H          -1.71613916867596      1.22719786276231     -1.24403962637314
  H          -0.95247255855933      1.75319892710046     -2.75391578842878
  C          -0.34643092449039      2.67081987308869      0.52366353061692
  H          -1.33522269054352      2.37520400330540      0.91559549680228
  C          -0.44916583915387      2.91606983509508     -0.97303398643314
  H          -1.24364768367343      3.65631825033128     -1.15537558957460
  H           0.49824031335996      3.34451309629253     -1.33531319778175
  C          -0.07335936323420     -0.90415831427548     -1.77044594657161
  H           0.80461145297339     -1.51623089454114     -1.53514199587940
  H          -0.21508753457827     -0.98982935057878     -2.85975704068457
  C           1.46404958963069      0.94432005162985     -2.49293084577181
  C           3.27777490885206      0.73837990558440     -2.08887239666103
  H           1.43550522636322      2.01201218107167     -2.72538961452276
  H           1.35584153045868      0.36444475693648     -3.41900382128822
  C           3.52472303815385      1.70142404036822     -0.92309756853757
  C           3.65764257001053     -0.73503755925496     -1.83261189791570
  C           3.95850055492124      1.31542973275838     -3.26083431986755
  O           2.84829557558631      2.67978015362425     -0.71245450557110
  O           4.61453091704142      1.47601397909551     -0.17899811088257
  H           4.14966101869283     -1.12252104445753     -2.73958316374103
  H           2.76116330617707     -1.34092392197069     -1.67008773507241
  C           4.58836042985651     -0.89475447674729     -0.62249480798567
  H           3.95337517943287      2.39647809539786     -3.42268037525622
  H           4.34625686299855      0.67164944529703     -4.05463278704777
  C           5.46449127697191      0.33473398770803     -0.44004916267389
  H           5.21680822753656     -1.79088498087189     -0.73914627273479
  H           3.98994460699982     -1.01294751077371      0.29308387533443
  H           6.02516679443729      0.54322222342936     -1.37231469957796
  C           0.20546376074999      3.83957847010783      1.33060982606640
  H           1.21525740430888      4.07191698801284      0.95214070361488
  H           0.33223498545659      3.49240225515752      2.37014058584104
  C           6.43855600938498      0.27003782821102      0.72834944282419
  H           5.86949730096645      0.03806356510065      1.64592727932030
  H           6.85318326390088      1.28268112173769      0.86975981516159
  C          -4.02989416327312     -1.69465474709822     -1.63905137190713
  C          -4.20920121791724     -2.01031832605468     -0.14347948358179
  O          -3.69462131835295     -2.98481412945924      0.35563443325197
  O          -5.01539101544648     -1.25402158352052      0.60769163155289
  C          -4.99805534520510     -0.57408973963375     -2.07346408095953
  H          -6.01936230728087     -0.98525644264888     -2.15998436816442
  H          -4.71989821560477     -0.22142660601754     -3.08047499442699
  C          -5.51819950851770      0.06373504386168      0.27580788204565
  H          -6.61439558950607     -0.06492689166897      0.20387893188693
  C          -4.99850739417823      0.56540195771841     -1.06474834849988
  H          -5.64235763157029      1.39095574511375     -1.40525329651263
  H          -3.98285702877583      0.96808145561143     -0.93748660671099
  C          -4.40711066671939     -2.98483309788795     -2.39774569609058
  H          -3.75797210486147     -3.82628789633983     -2.12758522965230
  H          -4.33191763891634     -2.81384025963863     -3.48395517325152
  C          -2.56831408882023     -1.24507051279611     -1.99823986807498
  C          -1.33634238755248     -1.60431126170699     -1.12635531991107
  H          -2.58188269129354     -0.15789812657519     -2.11250408889869
  H          -2.35888803838438     -1.64252398694019     -3.00518387806965
  C          -1.51685519949796     -1.04764700546254      0.29066187160670
  C          -1.06414443545000     -3.14332188556820     -1.13856495233394
  O          -2.24074915854414     -0.09704400260816      0.51571765245719
  O          -0.80779917646518     -1.56945519100916      1.28113976939822
  H          -0.28750633293974     -3.34293763944080     -1.89487995654418
  H          -1.96186086500190     -3.67131654822341     -1.47149268187745
  C          -0.64878522453793     -3.72334469293320      0.21939678505981
  C           0.08003550898154     -2.69813066243736      1.06949103359689
  H          -0.00918545008507     -4.60781552505940      0.07594829056723
  H          -1.54703031573380     -4.04013897366638      0.76979744211736
  H           0.97212529883080     -2.30905879038944      0.55554606620743
  C          -5.18644665633467      0.95931838205375      1.46607732405079
  H          -4.09101123840784      0.96868983041115      1.58060405364893
  H          -5.59291532747007      0.47799759731627      2.37189775575751
  C           0.48688108647806     -3.16347728787875      2.45905188490924
  H          -0.40119770811815     -3.56370558213455      2.97969512654838
  H           0.80628626215392     -2.26830745320272      3.01838141436957
  H          -5.44355671608935     -3.28242224856207     -2.17238541822846
  C          -5.73008432069909      2.38461637423314      1.34890230882569
  H          -6.82382029969535      2.35572092642314      1.18502455064715
  H          -5.30311196602846      2.87740551070344      0.45762695658195
  C           1.61670375539716     -4.19520978363098      2.45597733210711
  H           1.29513763317566     -5.10774528657876      1.92323400906946
  H           2.47210109197602     -3.79348452615802      1.88199872284957
  C          -0.68727107588046      5.08196695136052      1.30894888253509
  H          -1.71469369734474      4.80117925989102      1.60847980736830
  H          -0.76733970209273      5.47070829169520      0.27840612366178
  C           7.57980402737185     -0.73181995626509      0.54201423658962
  H           7.17291696608840     -1.75246473599893      0.43276905660057
  H           8.10770093727421     -0.51382168234687     -0.40489708317377
  C           8.57740689607451     -0.70960382461625      1.70025641120396
  H           9.39042104189460     -1.43743755781012      1.54824545739864
  H           9.03629157870007      0.28696999911463      1.81303850984401
  H           8.08363394307765     -0.95401838634151      2.65571881043127
  C          -0.17278063852886      6.19254532588894      2.22488537894194
  H           0.84300510572679      6.50822801675621      1.93350196575404
  H          -0.82314734146038      7.08145819547553      2.19015210984403
  H          -0.12319218317986      5.85391732421637      3.27340304569431
  C          -5.41795870849189      3.23133372333501      2.58323242352777
  H          -5.81302176451304      4.25529407616107      2.48483448271462
  H          -5.85614983371365      2.78854725164197      3.49335502367924
  H          -4.32949648986404      3.30480154285594      2.74650998094189
  C           2.07700409365651     -4.57092226569737      3.86451323583204
  H           1.24830201138270     -4.99826607254993      4.45384518027230
  H           2.88867114551640     -5.31586131568605      3.84065952968077
  H           2.44776440669442     -3.68771246658799      4.41122188842273
