104
Coordinates from ORCA-job orca E -2044.720018812346
  C           0.40192137083954      0.56293202311404     -1.40600607151143
  C           0.93530634482393      0.61160055366670      0.04235967732550
  O           1.74413485675485     -0.21013880289374      0.42549433784747
  O           0.51968612291544      1.53669478339380      0.89086382615646
  C          -0.72306816318120      1.59706363716518     -1.63513008335469
  H          -1.66790835412248      1.21778386033567     -1.23432112161370
  H          -0.86100432914180      1.74859838497028     -2.71849247932345
  C          -0.34978200324049      2.65389219113529      0.57864909558981
  H          -1.34686134793422      2.35190390538048      0.94366384811903
  C          -0.41580421574304      2.90686421445890     -0.91919131266466
  H          -1.21134275201153      3.64201470742976     -1.11708479843143
  H           0.53695620297021      3.34311813033622     -1.25591937538609
  C          -0.02605917816173     -0.90687747379222     -1.71191463440640
  H           0.83667217818470     -1.53070122378592     -1.45683125188259
  H          -0.14407829776123     -0.99168009916855     -2.80415894731559
  C           1.55518410530329      0.93837047137158     -2.40842771043792
  C           3.16049900024238      0.73959905929331     -2.05133068896585
  H           1.46947405251370      2.00446505150396     -2.64468094545409
  H           1.38927834791626      0.38457449190689     -3.34442221424180
  C           3.49984358943916      1.69461063229738     -0.88635884936545
  C           3.58336046482565     -0.73357832837972     -1.81314475319839
  C           3.90497414564605      1.32870524522201     -3.21322704327099
  O           2.83118609296188      2.66529639898825     -0.62208345220344
  O           4.64457636081425      1.47969524777464     -0.22955849295441
  H           4.02843758957630     -1.11430284167883     -2.74689045603438
  H           2.70566546535744     -1.35171588999224     -1.60643276518605
  C           4.57680072245761     -0.89138794423848     -0.65694510585430
  H           3.79278246162531      2.39096079463037     -3.44575800119427
  H           4.52520066783281      0.71045582269991     -3.86623793671666
  C           5.47078981079429      0.33122058060456     -0.52715377001004
  H           5.19140191273396     -1.79299789466007     -0.80175874621457
  H           4.02732279505065     -1.00117137805371      0.29012711664188
  H           5.98692632492756      0.53112046434120     -1.48647163531524
  C           0.17541346604418      3.82122485676378      1.40501615450524
  H           1.19208349390658      4.06294133592329      1.05153747455286
  H           0.28005609469334      3.46908354080014      2.44533509556598
  C           6.50216464876274      0.26399062917842      0.59124049004706
  H           5.97834848556167      0.03688746829679      1.53654913501903
  H           6.92853583004938      1.27473879947120      0.70930081931518
  C          -3.98889206809686     -1.68771150234413     -1.67413103375258
  C          -4.20277058371417     -2.00361541386861     -0.18313549019491
  O          -3.69948527014355     -2.97783279937004      0.32791233356343
  O          -5.02564612719410     -1.24711111576289      0.54947835123240
  C          -4.94553528099607     -0.56599374020104     -2.13067102119857
  H          -5.96473320912887     -0.97634958438989     -2.24256045548033
  H          -4.64286343373269     -0.21266806730294     -3.13038219331855
  C          -5.52126835220706      0.07027959646405      0.20605612475099
  H          -6.61539743416588     -0.05905370230003      0.10806541658082
  C          -4.96997131646953      0.57282050737703     -1.12155123094537
  H          -5.60590103053026      1.39837475356462     -1.47663467726809
  H          -3.95776589245173      0.97568061066780     -0.96973175750585
  C          -4.35002319992872     -2.97722270736416     -2.44175045357072
  H          -3.70697186988774     -3.81904551681889     -2.15851313485152
  H          -4.25142937170633     -2.80539413570524     -3.52595448224176
  C          -2.51868277207928     -1.24025729256405     -1.99909901988375
  C          -1.30901374973806     -1.59856456602958     -1.09638582362584
  H          -2.52851943670889     -0.15342494518594     -2.11646323675567
  H          -2.28470534587985     -1.64068486528731     -2.99946910688186
  C          -1.52163208059703     -1.03693599809254      0.31378327397727
  C          -1.04205565875775     -3.13855258254727     -1.09516909737541
  O          -2.25367972363153     -0.08854851508597      0.52045436544740
  O          -0.83101238486840     -1.55237696969160      1.32082518584889
  H          -0.25241069166188     -3.34511336454055     -1.83595714279369
  H          -1.93545918877260     -3.66532215620576     -1.44116622698549
  C          -0.65522362370170     -3.71232278599651      0.27396007632603
  C           0.05760405812986     -2.68511567698641      1.13523095084197
  H          -0.01474941321643     -4.59882218455147      0.14822072362707
  H          -1.56564707390334     -4.02449617843135      0.80681246216267
  H           0.96373159579844     -2.30198905589492      0.64153395665984
  C          -5.21900527492370      0.96577164249060      1.40424564217728
  H          -4.12645364882848      0.97872022839207      1.54330838458064
  H          -5.64405311037364      0.48209146543534      2.30022167238648
  C           0.42961135405579     -3.14478927693373      2.53655599960868
  H          -0.47309616076970     -3.53491795572980      3.03937774421998
  H           0.74319173862981     -2.24842951530259      3.09725230605186
  H          -5.39112652459453     -3.27471844246312     -2.23891891930753
  C          -5.76507185819015      2.38924507081208      1.27634736384701
  H          -6.85482242011371      2.35640360846882      1.08840109256405
  H          -5.32045669348862      2.88455847131519      0.39514746821981
  C           1.55116111460013     -4.18508810945545      2.56580330567959
  H           1.23401839727311     -5.09940519420871      2.03343941427108
  H           2.42188863817789     -3.79455837107832      2.00743297145721
  C          -0.72467615326954      5.05799573078987      1.36923212274070
  H          -1.75618225473534      4.76941486141845      1.64641661741707
  H          -0.78597652864039      5.44987359640719      0.33860300140943
  C           7.62760127991063     -0.74411617754355      0.35044753314249
  H           7.21046771889413     -1.76259401720906      0.26144258345565
  H           8.11041204144385     -0.52908204420667     -0.62089273138215
  C           8.67985943549886     -0.72655507215301      1.45936393432901
  H           9.48131651435740     -1.45807979844764      1.26871633345041
  H           9.14809074235120      0.26795504889742      1.54969271620170
  H           8.23130746874793     -0.96865612743253      2.43742902600792
  C          -0.23660175080532      6.16869986089884      2.29935159327790
  H           0.78265819222457      6.49243466184429      2.02971402319572
  H          -0.89225319316008      7.05326868630578      2.25442450921283
  H          -0.20598216712576      5.82669119472708      3.34749520850039
  C          -5.48346580917146      3.23594932132992      2.51800592607928
  H          -5.88018606799836      4.25848870406723      2.41181168772364
  H          -5.93988639925858      2.79061492274746      3.41786509604527
  H          -4.39916213459454      3.31345624077602      2.70525918067828
  C           1.97815733232164     -4.55296772533083      3.98686951597424
  H           1.13392613978690     -4.96982717727415      4.56150398925787
  H           2.78470675109235     -5.30382591970982      3.98629304181512
  H           2.34352885639016     -3.66812784400960      4.53455858114454
