104
Coordinates from ORCA-job orca E -2044.709590802297
  C           0.17126687783472     -0.07230383852916     -2.04415207191907
  C           1.08208749284485     -0.20361371027676     -0.79342868498213
  O           1.72383317393822     -1.21298921732129     -0.58815288602460
  O           1.29241853158567      0.86049264325000     -0.01701508305438
  C          -0.74719642301664      1.16787373402232     -2.00331528770549
  H          -1.63220751738938      0.94509758298915     -1.40058550537514
  H          -1.08353333693449      1.38893933332745     -3.02911755363387
  C           0.39498501718838      2.00792836984929      0.03069929911917
  H          -0.47423783457608      1.67774250268721      0.62476555618582
  C          -0.06009298137564      2.37498310856959     -1.37119755214909
  H          -0.77466834864782      3.21067332031220     -1.30457222440301
  H           0.80100797912117      2.72822416245589     -1.95941247074079
  C          -0.54563352392096     -1.43062179190301     -2.29740718302712
  H           0.24917645318590     -2.18635128226467     -2.26177490554612
  H          -0.91199228887333     -1.42057074051756     -3.33674053316162
  C           1.20238616069570      0.10107314129727     -3.13254208635125
  C           4.23822533213357      0.72048013870686     -2.57682198007765
  H           1.48510007879642      1.09421884031517     -3.47923981083491
  H           1.76039427372125     -0.76825427326304     -3.48233619513453
  C           3.71664075178614      2.02426707204936     -2.04856246006534
  C           4.65211552229293     -0.36539606155960     -1.60116031619409
  C           4.38686062331693      0.61744398762357     -3.90510507284887
  O           2.98709458836926      2.76194884758582     -2.67478897240870
  O           4.10259184250964      2.37966127368521     -0.81316116488096
  H           5.64833120840336     -0.73810698372367     -1.89293724253457
  H           3.95172504454173     -1.21094873626671     -1.68865054830158
  C           4.66410786535020      0.11883557996246     -0.14668815455326
  H           4.08034549346150      1.43311296022302     -4.56394199127851
  H           4.80740030493233     -0.28432974443023     -4.36054607211902
  C           5.05712173223910      1.58449398260472     -0.06584359185896
  H           5.36625058653587     -0.48743254910214      0.44525818247628
  H           3.66777402061555     -0.00483511250349      0.30241088274645
  H           6.04865483110846      1.73795667796475     -0.53581200658519
  C           1.14920795766144      3.09376086632866      0.78355247983378
  H           2.02078322194156      3.40914592214982      0.18782870313709
  H           1.54714404797895      2.63829859221435      1.70705713743466
  C           5.07163631331929      2.17318021375776      1.33819335691495
  H           4.08137231616752      2.00587749141358      1.79583232565972
  H           5.18938271109735      3.26599004821638      1.24001378107287
  C          -4.44678065544913     -1.50179930603081     -1.26484749374507
  C          -4.33253772325415     -1.85262809787529      0.22889379551662
  O          -3.92030462085513     -2.93199730095214      0.58728216531398
  O          -4.77176143570089     -0.99392052249826      1.15451212479166
  C          -5.25323544077077     -0.19945019182035     -1.45142482365681
  H          -6.32627069718820     -0.40531622340126     -1.29040055895830
  H          -5.15701393274958      0.14348507547609     -2.49486572714283
  C          -5.06886352413375      0.41007690647131      0.95603418630057
  H          -6.15400622027712      0.49712077092060      1.15159874955691
  C          -4.79247623875235      0.86846344724011     -0.46938457666668
  H          -5.32190948077290      1.81777978352208     -0.64381611360750
  H          -3.71665966014751      1.06375234341949     -0.58920385530852
  C          -5.22872633081324     -2.66163187114690     -1.91690035885374
  H          -4.71602100378965     -3.62279464781828     -1.79107173200493
  H          -5.35971846859935     -2.46522523573497     -2.99333615957575
  C          -3.04909349591525     -1.31119892413712     -1.95488143379931
  C          -1.74493588575157     -1.94628571411210     -1.40657976722333
  H          -2.87791855646970     -0.23571311775812     -2.04569606024532
  H          -3.15751509336223     -1.67744691966271     -2.98930181355432
  C          -1.48175412726925     -1.46305775982377      0.02359489670118
  C          -1.77669655296998     -3.50347076716281     -1.53003444289723
  O          -1.90114502573897     -0.39168297537529      0.42060824841562
  O          -0.71072499543385     -2.18604310504023      0.82213000567900
  H          -1.19824350747209     -3.78295575582000     -2.42560464016737
  H          -2.80241948478470     -3.83705480160676     -1.71434038873450
  C          -1.24081269715706     -4.24914940549159     -0.30265835734483
  C          -0.15397212005961     -3.45954253591178      0.40372204990220
  H          -0.84856317224949     -5.23370662682958     -0.60051618664283
  H          -2.05899719448678     -4.41233408612213      0.41411696190437
  H           0.68472258339168     -3.23162933700774     -0.27298542802160
  C          -4.29448926843616      1.16603537076136      2.03217999113106
  H          -3.22350154042216      0.95981855628779      1.87854271623598
  H          -4.56192835474789      0.72763413939597      3.00875199684952
  C           0.39686614640836     -4.09516494021125      1.67154457010009
  H          -0.44233614593598     -4.31115014702030      2.35653968631424
  H           1.02338829046780     -3.33618541825734      2.16958150134168
  H          -6.22892102077181     -2.76078883569518     -1.46582988311753
  C          -4.55624931584063      2.67333108459201      2.05195212692750
  H          -5.64129746444372      2.86354225768792      2.15390402351623
  H          -4.25996562116060      3.11882917059458      1.08596120765057
  C           1.22229732795534     -5.35905966624763      1.42335399191317
  H           0.59294428796077     -6.13559576228913      0.95387654695362
  H           2.02182547694683     -5.13384383407870      0.69365306880551
  C           0.28152535396946      4.30050569843810      1.14840734692454
  H          -0.62247010125706      3.95597386414724      1.68454000743705
  H          -0.08016826548993      4.79511905791549      0.22997347665549
  C           6.17392244205397      1.61635350089512      2.24146550538918
  H           6.03480619923760      0.52992015947160      2.37872152960835
  H           7.15328360728741      1.73643426851765      1.74221779091744
  C           6.21040339858687      2.29589656502874      3.61043111345605
  H           7.00589299227530      1.87864521625605      4.24820554398458
  H           6.39164108069910      3.37963892443897      3.51420224339230
  H           5.25317166179529      2.16832514726187      4.14321959179950
  C           1.02952743444432      5.32137960806367      2.00588827468456
  H           1.92462517513927      5.69748942782058      1.48272866828874
  H           0.39518408770287      6.18829950286325      2.25118489859078
  H           1.36713630806660      4.87363368918426      2.95586811844409
  C          -3.80311710057992      3.38188590077544      3.17834975483279
  H          -3.99481464850319      4.46697686257528      3.17607310459010
  H          -4.09873030416015      2.99041028183435      4.16610940688618
  H          -2.71448990955512      3.23314237978582      3.07959588806545
  C           1.84059873790586     -5.92004650791531      2.70395667006265
  H           1.06235806926211     -6.17922242234801      3.44145167683932
  H           2.42896215474180     -6.83027047170784      2.50534020966580
  H           2.51102348743925     -5.18410207863277      3.17884227210086
