104
Coordinates from ORCA-job orca E -2047.545175227965
  C           0.44714128454373      0.58002754889258     -1.29733467323431
  C           0.96752704296232      0.65917957952047      0.14773154623590
  O           1.77350327079386     -0.14822974853538      0.55021943492525
  O           0.55807122402604      1.59851494510133      0.97677618582331
  C          -0.66994281198255      1.60424643333268     -1.55396090827495
  H          -1.61216684098357      1.23492270971400     -1.15791817596228
  H          -0.79292708167343      1.73766307517787     -2.63238569662252
  C          -0.34821506024008      2.67196368255675      0.63927590123051
  H          -1.33564246888627      2.33354267086458      0.97258279882304
  C          -0.37771165874653      2.91829041810510     -0.85303685216348
  H          -1.16439955428811      3.64241800796103     -1.07198074440845
  H           0.57465546208236      3.35081311195101     -1.16873465477038
  C           0.02017718022330     -0.88861738459265     -1.58752599426779
  H           0.86045025690627     -1.51130913065376     -1.29600672232506
  H          -0.06596174458763     -0.98963780088985     -2.67314524967844
  C           1.60754398972539      0.94551940769402     -2.29696259561429
  C           3.11807700124953      0.73479734459361     -2.00682105108686
  H           1.50401447899542      2.00519885202170     -2.52370955849123
  H           1.39287475790947      0.41443177241745     -3.22825411823081
  C           3.55660419543212      1.68209175532396     -0.87209220333025
  C           3.54439561466838     -0.73697628177685     -1.79134066156929
  C           3.84408629094708      1.31097224584277     -3.19191215133955
  O           2.93782330377110      2.67319681691790     -0.58704017189004
  O           4.72294722615098      1.44808107445928     -0.27443433801329
  H           3.93671776785874     -1.11565520317360     -2.73840099818399
  H           2.68112937459201     -1.34513965629748     -1.54725951641424
  C           4.58319359878643     -0.91338361563098     -0.68885161782264
  H           3.70773852819490      2.35464338920526     -3.44560008242788
  H           4.49830073821607      0.70335150558434     -3.80179254961984
  C           5.50258961554236      0.28514867745513     -0.61035652875867
  H           5.16590378631375     -1.81884926531523     -0.86461138338445
  H           4.08375371731323     -1.01463391124394      0.27722589210554
  H           5.97278353326795      0.47102835773952     -1.58554196607815
  C           0.10313713392035      3.85915189844678      1.46880008270114
  H           1.10940044179310      4.14317957004303      1.14595554407894
  H           0.18744807182948      3.52693731127604      2.50729291211261
  C           6.57856682084269      0.19513647306015      0.45580360007376
  H           6.09440973399435      0.02925545580544      1.42341359976357
  H           7.06793514311090      1.17144948732851      0.51735171329042
  C          -3.93258454932727     -1.65616100964637     -1.67698941899597
  C          -4.21448375727785     -1.97517762948452     -0.20551378198782
  O          -3.74945542086971     -2.95632344944200      0.31733986419371
  O          -5.05051617997917     -1.22007244110360      0.50117277773041
  C          -4.85382105892876     -0.53083153673328     -2.16966431929120
  H          -5.86080651238366     -0.93022764457662     -2.33019674535835
  H          -4.50054421451260     -0.17736051846470     -3.14193277326912
  C          -5.53252107151957      0.08937676845503      0.12941188233583
  H          -6.61050645567304     -0.04451693927917     -0.02096750848620
  C          -4.91779972060001      0.59681917702035     -1.15977858482539
  H          -5.52873797879799      1.41963947120166     -1.53460450915217
  H          -3.92022620693615      0.99234587175668     -0.95457392752960
  C          -4.27594489959125     -2.92973185069043     -2.46550654045610
  H          -3.65973339427392     -3.77575735930156     -2.17219348299040
  H          -4.13681137562078     -2.74612033007925     -3.53348188884998
  C          -2.45519641768869     -1.21702049259518     -1.94050556654594
  C          -1.27395374590205     -1.57724483341498     -1.01025014720227
  H          -2.46247672270672     -0.13860997648674     -2.06088326221904
  H          -2.19063699701182     -1.61741648523205     -2.92462034835510
  C          -1.51072297972798     -1.03998164462937      0.39845372041913
  C          -1.00914111157199     -3.10829981982770     -1.02672447461157
  O          -2.23894380766020     -0.09725314231408      0.60817948129862
  O          -0.85006333448740     -1.57167640277139      1.41154830969657
  H          -0.22905691132433     -3.30339120643860     -1.76735509851958
  H          -1.89970535373370     -3.62269087584413     -1.37177432469282
  C          -0.62058209714357     -3.69855936354935      0.32818885821286
  C           0.05911788582218     -2.67705905008925      1.21113148143625
  H           0.03531214432984     -4.55971835579333      0.19080824967442
  H          -1.51917722434068     -4.04191268444668      0.84476109785928
  H           0.95860200267815     -2.27026272998365      0.74136921559794
  C          -5.29188906986946      0.98757464369096      1.33123733982691
  H          -4.21433773676645      1.02639422855994      1.51029352741920
  H          -5.73983238751190      0.50754502035309      2.20576413563797
  C           0.42126258498175     -3.16597677970702      2.59932702454128
  H          -0.45917352308980     -3.62629564323368      3.05944195233542
  H           0.67181517369727     -2.28734671116675      3.19969456455570
  H          -5.31814471046701     -3.21211312326609     -2.30341763578765
  C          -5.85941330975728      2.39336434696517      1.17068065385408
  H          -6.92906953855978      2.33704494851769      0.93872764629655
  H          -5.38654801021141      2.89201134706275      0.31913609709558
  C           1.59769710892445     -4.13519902902801      2.60597415586560
  H           1.35545801060026     -5.02681483690632      2.01948327601000
  H           2.45240110376050     -3.66219413040564      2.11042245554933
  C          -0.84287457324286      5.05187639562747      1.38963149223407
  H          -1.86010559138192      4.73035335011770      1.64075398265392
  H          -0.88469649625413      5.42856433674173      0.36334281015662
  C           7.62291678428415     -0.88382040522998      0.19428972931872
  H           7.15306568330672     -1.87129353879732      0.21006134285214
  H           8.03650338049169     -0.75675331800840     -0.81228646409313
  C           8.75273701134963     -0.85039133372079      1.21557254296187
  H           9.48756990523742     -1.63366056296101      1.02277844423907
  H           9.27391620343498      0.10936191244504      1.19351037159574
  H           8.36935545142896     -0.99419989478198      2.22834860143471
  C          -0.42238009913694      6.18367034861025      2.31832029240326
  H           0.58322910638184      6.53410182309917      2.07486465416211
  H          -1.10069100539161      7.03530248688851      2.24247014841344
  H          -0.41377512189204      5.85482908211611      3.35999734469286
  C          -5.65118015965981      3.23947963181818      2.42021061081148
  H          -6.06346243100261      4.24256920957104      2.29766993130515
  H          -6.13239615365769      2.78392997459047      3.28859157064841
  H          -4.58763582992220      3.33981263531389      2.64943384853627
  C           1.99403414491882     -4.55390565240400      4.01571765825930
  H           1.16796236990840     -5.05846110812435      4.52223994814152
  H           2.84544098963683     -5.23663975967387      4.00465550656310
  H           2.26983483761631     -3.68586499117224      4.61882415719207
