34
Coordinates from ORCA-job orca E -731.563934541483
  C       1.445820     -1.932700      1.460370
  C       0.837420     -1.047460      0.407370
  H       1.773840     -1.509280      2.412690
  H       1.745020     -2.952900      1.207530
  C       0.002220      0.044050      1.122130
  C       2.041950     -0.450300     -0.341680
  C       0.019920     -1.890270     -0.576900
  C      -0.826720      1.043350      0.282520
  H      -0.683610     -0.473750      1.808870
  H       0.690160      0.633130      1.747560
  O       2.392630     -0.762580     -1.448800
  O       2.709210      0.436580      0.408130
  H       0.637020     -2.696870     -0.995090
  H      -0.842330     -2.333780     -0.059670
  H      -0.342120     -1.291840     -1.423950
  C       0.004460      1.769290     -0.777570
  C      -2.013220      0.365620     -0.403110
  C       3.851340      1.026110     -0.188470
  H       0.862910      2.265990     -0.303060
  H       0.378160      1.084030     -1.550790
  H      -0.603130      2.527600     -1.290020
  O      -2.339000      0.526380     -1.550450
  O      -2.706990     -0.410750      0.440210
  H       3.570530      1.592520     -1.088740
  H       4.278640      1.699000      0.563360
  H       4.584940      0.258890     -0.474490
  C      -3.836360     -1.072960     -0.101630
  H      -4.284680     -1.640910      0.721190
  H      -4.559860     -0.350170     -0.504980
  H      -3.535320     -1.752800     -0.912340
  C      -1.427080      2.078010      1.257610
  H      -0.619170      2.656040      1.731300
  H      -2.083210      2.783940      0.725990
  H      -2.013000      1.587650      2.047890
34
Coordinates from ORCA-job orca E -731.564952044462
  C       1.458148     -1.921778      1.440497
  C       0.859784     -1.039129      0.385725
  H       1.763580     -1.506209      2.391984
  H       1.759884     -2.930942      1.191344
  C       0.001050      0.035930      1.095362
  C       2.072131     -0.430298     -0.338626
  C       0.073139     -1.890141     -0.611452
  C      -0.845168      1.025076      0.262912
  H      -0.670919     -0.492500      1.774320
  H       0.670297      0.631449      1.720327
  O       2.447563     -0.741773     -1.436283
  O       2.732172      0.442498      0.434604
  H       0.703914     -2.681909     -1.013861
  H      -0.784920     -2.343483     -0.113536
  H      -0.278225     -1.302040     -1.459339
  C      -0.037690      1.751458     -0.810594
  C      -2.044485      0.348292     -0.398100
  C       3.896569      1.020447     -0.137716
  H       0.818861      2.250947     -0.354609
  H       0.323800      1.072537     -1.583399
  H      -0.652876      2.499764     -1.309585
  O      -2.392556      0.511671     -1.537083
  O      -2.740609     -0.402461      0.466983
  H       3.643707      1.588131     -1.034813
  H       4.310045      1.680875      0.620466
  H       4.621092      0.250959     -0.406085
  C      -3.898340     -1.039030     -0.053903
  H      -4.342931     -1.583808      0.775263
  H      -4.603036     -0.305077     -0.446095
  H      -3.630607     -1.726980     -0.857564
  C      -1.426789      2.061501      1.241476
  H      -0.616407      2.639829      1.689741
  H      -2.090885      2.756201      0.722794
  H      -1.988901      1.578856      2.041826
34
Coordinates from ORCA-job orca E -731.564650486501
  C       1.427366     -1.940251      1.460389
  C       0.832816     -1.048959      0.413323
  H       1.752387     -1.531909      2.404814
  H       1.696898     -2.955136      1.211832
  C       0.001104      0.040246      1.126880
  C       2.043992     -0.460977     -0.328953
  C       0.014817     -1.882927     -0.571017
  C      -0.820067      1.041452      0.288896
  H      -0.680559     -0.474938      1.802097
  H       0.679198      0.620674      1.751778
  O       2.390168     -0.770037     -1.436149
  O       2.687856      0.456555      0.406368
  H       0.622698     -2.683082     -0.984102
  H      -0.839771     -2.321742     -0.059452
  H      -0.341488     -1.288136     -1.409104
  C       0.013732      1.758044     -0.769345
  C      -2.015063      0.379201     -0.392438
  C       3.829887      1.045324     -0.205941
  H       0.864174      2.248420     -0.298042
  H       0.382850      1.076416     -1.532618
  H      -0.582479      2.510473     -1.278751
  O      -2.329364      0.530767     -1.542167
  O      -2.693840     -0.421558      0.442152
  H       3.549285      1.567197     -1.118651
  H       4.229705      1.745445      0.519305
  H       4.570851      0.287948     -0.450413
  C      -3.823528     -1.081808     -0.117450
  H      -4.257025     -1.665785      0.686967
  H      -4.545669     -0.361084     -0.493642
  H      -3.520771     -1.731697     -0.935891
  C      -1.403892      2.082211      1.259969
  H      -0.594896      2.652508      1.713958
  H      -2.055304      2.779560      0.734699
  H      -1.975680      1.606446      2.053678
34
Coordinates from ORCA-job orca E -731.565122335730
  C       1.451021     -1.925283      1.447099
  C       0.848315     -1.038283      0.399565
  H       1.770623     -1.513813      2.395340
  H       1.731601     -2.939976      1.197337
  C       0.002606      0.041005      1.113805
  C       2.055613     -0.436076     -0.338280
  C       0.042457     -1.880486     -0.589197
  C      -0.834231      1.031396      0.276853
  H      -0.672382     -0.483981      1.791754
  H       0.675270      0.632206      1.738344
  O       2.417942     -0.751791     -1.438737
  O       2.716774      0.450254      0.419599
  H       0.662384     -2.674214     -1.003337
  H      -0.809737     -2.331392     -0.079599
  H      -0.319677     -1.287014     -1.428579
  C      -0.014068      1.756693     -0.787278
  C      -2.024311      0.352691     -0.397688
  C       3.876499      1.023894     -0.173329
  H       0.833361      2.260426     -0.319855
  H       0.361556      1.076710     -1.551989
  H      -0.623843      2.501503     -1.297096
  O      -2.356410      0.511970     -1.541670
  O      -2.719254     -0.414133      0.455300
  H       3.613365      1.571594     -1.078829
  H       4.288728      1.700828      0.570285
  H       4.602174      0.252144     -0.428985
  C      -3.866759     -1.058150     -0.086511
  H      -4.311938     -1.615867      0.733190
  H      -4.573959     -0.326159     -0.475903
  H      -3.581909     -1.733224     -0.894024
  C      -1.427278      2.066591      1.250088
  H      -0.621929      2.648761      1.701252
  H      -2.091023      2.756680      0.725807
  H      -1.991193      1.583355      2.048247
34
Coordinates from ORCA-job orca E -731.565105144637
  C       1.449734     -1.933111      1.441583
  C       0.854537     -1.043885      0.391672
  H       1.762804     -1.523712      2.393443
  H       1.730348     -2.948402      1.192079
  C       0.001097      0.032412      1.103705
  C       2.068697     -0.438159     -0.331991
  C       0.060623     -1.885890     -0.607351
  C      -0.836577      1.025293      0.268729
  H      -0.674765     -0.496184      1.778712
  H       0.670091      0.624071      1.732585
  O       2.442700     -0.749935     -1.429714
  O       2.713171      0.456463      0.430691
  H       0.686691     -2.678614     -1.015340
  H      -0.796741     -2.339055     -0.107663
  H      -0.292555     -1.292161     -1.450641
  C      -0.020797      1.743658     -0.803689
  C      -2.038050      0.354560     -0.393762
  C       3.874427      1.038954     -0.152139
  H       0.834753      2.241779     -0.344101
  H       0.342945      1.060321     -1.571625
  H      -0.629976      2.493017     -1.308542
  O      -2.379429      0.514158     -1.535022
  O      -2.728936     -0.408163      0.466342
  H       3.615674      1.578954     -1.063916
  H       4.270236      1.724236      0.593364
  H       4.610678      0.272323     -0.394234
  C      -3.885212     -1.046229     -0.065449
  H      -4.325637     -1.601128      0.759273
  H      -4.591562     -0.309455     -0.448342
  H      -3.610409     -1.723125     -0.875410
  C      -1.414377      2.067840      1.243484
  H      -0.600747      2.646522      1.685348
  H      -2.078530      2.760563      0.722261
  H      -1.974517      1.590943      2.048639
34
Coordinates from ORCA-job orca E -731.565138362507
  C       1.448751     -1.927996      1.443317
  C       0.850198     -1.039152      0.395138
  H       1.769176     -1.517763      2.392089
  H       1.723458     -2.944829      1.194645
  C       0.001395      0.039134      1.108693
  C       2.061927     -0.436849     -0.335412
  C       0.048901     -1.880453     -0.598437
  C      -0.836443      1.030782      0.273061
  H      -0.673662     -0.488042      1.785297
  H       0.672118      0.630596      1.735523
  O       2.432582     -0.754849     -1.432421
  O       2.714974      0.453841      0.424714
  H       0.671203     -2.673906     -1.010223
  H      -0.805363     -2.332580     -0.092795
  H      -0.309737     -1.286571     -1.439140
  C      -0.019660      1.753586     -0.795550
  C      -2.032647      0.355947     -0.394563
  C       3.878990      1.027171     -0.163024
  H       0.831647      2.254932     -0.332023
  H       0.350281      1.072767     -1.562493
  H      -0.629930      2.500714     -1.301953
  O      -2.370571      0.515673     -1.536775
  O      -2.720842     -0.414487      0.460984
  H       3.621139      1.565840     -1.075516
  H       4.280472      1.711862      0.579680
  H       4.609193      0.254783     -0.404033
  C      -3.871752     -1.058031     -0.077248
  H      -4.310512     -1.618816      0.744100
  H      -4.581293     -0.324012     -0.458813
  H      -3.589681     -1.729511     -0.888842
  C      -1.421955      2.069405      1.247432
  H      -0.612315      2.651495      1.691627
  H      -2.088147      2.759149      0.725271
  H      -1.981504      1.589031      2.050669
34
Coordinates from ORCA-job orca E -731.565124647981
  C       1.452943     -1.931207      1.446185
  C       0.851025     -1.042500      0.399927
  H       1.779950     -1.520397      2.392230
  H       1.723076     -2.949113      1.197812
  C       0.003859      0.035552      1.114573
  C       2.060211     -0.439840     -0.334478
  C       0.045742     -1.882778     -0.591111
  C      -0.831173      1.026685      0.276562
  H      -0.672213     -0.491444      1.789993
  H       0.674208      0.626367      1.742110
  O       2.427486     -0.757986     -1.432546
  O       2.709278      0.459116      0.419443
  H       0.666622     -2.674799     -1.007325
  H      -0.805226     -2.336663     -0.081786
  H      -0.318330     -1.287681     -1.428549
  C      -0.009539      1.750711     -0.787376
  C      -2.022453      0.349847     -0.397677
  C       3.868688      1.036379     -0.175011
  H       0.837865      2.253664     -0.318767
  H       0.366548      1.070449     -1.551722
  H      -0.618036      2.496503     -1.297494
  O      -2.357162      0.513460     -1.540239
  O      -2.720712     -0.412660      0.456959
  H       3.605208      1.564795     -1.091553
  H       4.265075      1.730284      0.561590
  H       4.603969      0.267111     -0.409479
  C      -3.873921     -1.049396     -0.086022
  H      -4.320696     -1.604102      0.734889
  H      -4.575370     -0.310842     -0.473088
  H      -3.591856     -1.725041     -0.893823
  C      -1.423435      2.063599      1.248834
  H      -0.617140      2.647511      1.696285
  H      -2.089119      2.751587      0.724074
  H      -1.984983      1.581689      2.049559
34
Coordinates from ORCA-job orca E -731.565138736232
  C       1.450080     -1.929653      1.442463
  C       0.850718     -1.039757      0.395658
  H       1.775410     -1.519637      2.389625
  H       1.720335     -2.947642      1.193821
  C       0.001803      0.037581      1.110134
  C       2.062292     -0.436685     -0.334495
  C       0.048750     -1.879595     -0.598539
  C      -0.835234      1.028764      0.273564
  H      -0.673488     -0.490275      1.785905
  H       0.671826      0.629042      1.737648
  O       2.433260     -0.754544     -1.431440
  O       2.713251      0.456230      0.424894
  H       0.671086     -2.671736     -1.012709
  H      -0.804297     -2.333471     -0.092442
  H      -0.311875     -1.284262     -1.437394
  C      -0.017165      1.750458     -0.794761
  C      -2.030903      0.353581     -0.394680
  C       3.876919      1.030740     -0.163783
  H       0.833325      2.252432     -0.330481
  H       0.354215      1.068831     -1.560353
  H      -0.626845      2.496903     -1.302809
  O      -2.368685      0.514062     -1.536823
  O      -2.721636     -0.413981      0.461514
  H       3.618463      1.563676     -1.079303
  H       4.274007      1.720292      0.576720
  H       4.609717      0.259078     -0.398824
  C      -3.874136     -1.055295     -0.077448
  H      -4.314505     -1.613846      0.744493
  H      -4.581003     -0.319310     -0.459927
  H      -3.592379     -1.728061     -0.887950
  C      -1.421585      2.068247      1.246686
  H      -0.612274      2.651433      1.689971
  H      -2.088240      2.756754      0.723555
  H      -1.980816      1.588505      2.050487
34
Coordinates from ORCA-job orca E -731.565143596576
  C       1.450852     -1.929148      1.443273
  C       0.850674     -1.040287      0.396020
  H       1.778764     -1.517734      2.388966
  H       1.719259     -2.947985      1.196018
  C       0.001635      0.037255      1.110297
  C       2.062055     -0.437531     -0.334736
  C       0.048856     -1.881483     -0.597171
  C      -0.835082      1.029063      0.273966
  H      -0.673884     -0.490651      1.785821
  H       0.671530      0.628395      1.738267
  O       2.433204     -0.756578     -1.431292
  O       2.712574      0.456584      0.423586
  H       0.671564     -2.673652     -1.010776
  H      -0.803736     -2.335428     -0.090318
  H      -0.312451     -1.287306     -1.436505
  C      -0.016778      1.751855     -0.793490
  C      -2.030776      0.354642     -0.395038
  C       3.876095      1.030940     -0.165820
  H       0.833530      2.253466     -0.328439
  H       0.354955      1.071115     -1.559669
  H      -0.626408      2.498765     -1.300949
  O      -2.368495      0.516371     -1.537037
  O      -2.721479     -0.413932      0.460243
  H       3.617615      1.560793     -1.083117
  H       4.271550      1.723091      0.573149
  H       4.609985      0.259363     -0.397815
  C      -3.874006     -1.054728     -0.079547
  H      -4.314151     -1.614344      0.741811
  H      -4.580886     -0.318196     -0.460976
  H      -3.592005     -1.726373     -0.890904
  C      -1.421818      2.067795      1.247705
  H      -0.612674      2.650891      1.691458
  H      -2.088591      2.756485      0.724912
  H      -1.981090      1.587347      2.051084
