34
Coordinates from ORCA-job orca E -731.565143596576
  C           1.45085150811969     -1.92914826490019      1.44327278744626
  C           0.85067427259645     -1.04028677155030      0.39601970133617
  H           1.77876411193385     -1.51773413252657      2.38896601326379
  H           1.71925902163690     -2.94798480589681      1.19601834002806
  C           0.00163512272796      0.03725469849776      1.11029713547796
  C           2.06205490013789     -0.43753098450234     -0.33473579673923
  C           0.04885589013827     -1.88148309523752     -0.59717058429372
  C          -0.83508209764009      1.02906283898533      0.27396643763367
  H          -0.67388355640466     -0.49065065466280      1.78582142464159
  H           0.67152963001654      0.62839457819464      1.73826661835713
  O           2.43320413161688     -0.75657770010537     -1.43129247122132
  O           2.71257449254787      0.45658430893511      0.42358617560190
  H           0.67156400153174     -2.67365190957138     -1.01077558248389
  H          -0.80373575877205     -2.33542834089025     -0.09031792110451
  H          -0.31245122432175     -1.28730584229386     -1.43650457148992
  C          -0.01677750687222      1.75185481770808     -0.79349016618890
  C          -2.03077562925397      0.35464222689820     -0.39503774009332
  C           3.87609487860754      1.03093964015316     -0.16581993564109
  H           0.83353035039956      2.25346587338387     -0.32843850243943
  H           0.35495453089234      1.07111474096553     -1.55966864732590
  H          -0.62640793554744      2.49876514717445     -1.30094859561371
  O          -2.36849464722432      0.51637145433711     -1.53703675252142
  O          -2.72147880388358     -0.41393247654093      0.46024333221879
  H           3.61761537829194      1.56079325992536     -1.08311710838896
  H           4.27154995563998      1.72309115426640      0.57314889346937
  H           4.60998482960702      0.25936333348179     -0.39781537780212
  C          -3.87400557639659     -1.05472837215421     -0.07954713135444
  H          -4.31415130201766     -1.61434363221128      0.74181105590506
  H          -4.58088577019413     -0.31819637698264     -0.46097602062378
  H          -3.59200490622279     -1.72637250042619     -0.89090449163330
  C          -1.42181778935391      2.06779499014611      1.24770498792020
  H          -0.61267389954265      2.65089131828615      1.69145825173652
  H          -2.08859081268314      2.75648484618270      0.72491209963439
  H          -1.98108979011149      1.58734663293087      2.05108414228807
