104
Coordinates from ORCA-job orca E -2047.519468316262
  C       0.479638      0.298262     -1.101045
  C       0.922843      0.273512      0.371272
  O       1.351428     -0.719413      0.910890
  O       0.986343      1.439774      1.033443
  C      -0.549971      1.425206     -1.337176
  H      -1.494659      1.148805     -0.856723
  H      -0.735071      1.523663     -2.419069
  C       0.131235      2.581670      0.756081
  H      -0.833030      2.351439      1.244858
  C      -0.099796      2.754195     -0.736734
  H      -0.887021      3.510410     -0.884082
  H       0.809830      3.148412     -1.216322
  C       0.029691     -1.109985     -1.555062
  H       0.832300     -1.794227     -1.256652
  H       0.034610     -1.120991     -2.657311
  C       1.763895      0.680910     -1.932398
  C       2.854713     -0.343300     -2.161748
  H       2.206790      1.570439     -1.470288
  H       1.400801      1.008628     -2.918615
  C       4.059420      3.132243     -0.873420
  C       3.707961     -0.826921     -1.007603
  C       3.085193     -0.795558     -3.404004
  O       3.355439      4.016871     -1.245464
  O       4.646580      2.210431     -1.611455
  H       4.475214     -1.508750     -1.411395
  H       3.084807     -1.419595     -0.321756
  C       4.407828      0.246339     -0.157016
  H       2.479760     -0.469723     -4.255198
  H       3.890941     -1.505604     -3.614466
  C       5.380924      1.151402     -0.912555
  H       4.967741     -0.278075      0.633417
  H       3.681243      0.879550      0.379672
  H       5.835266      0.599962     -1.750543
  C       0.787096      3.768712      1.447403
  H       1.741610      3.988783      0.940475
  H       1.034559      3.459608      2.477124
  C       6.486038      1.761512     -0.052947
  H       6.034616      2.230759      0.839272
  H       6.954427      2.575559     -0.632783
  C      -3.973985     -1.548347     -1.846043
  C      -4.308491     -2.031469     -0.424174
  O      -3.934805     -3.110994     -0.026985
  O      -5.085812     -1.290997      0.371937
  C      -4.808702     -0.299896     -2.201454
  H      -5.849407     -0.602039     -2.414290
  H      -4.418753      0.145856     -3.131516
  C      -5.461329      0.092595      0.170090
  H      -6.555055      0.066335      0.006240
  C      -4.799771      0.704118     -1.057354
  H      -5.347129      1.618770     -1.332789
  H      -3.769337      0.998498     -0.808610
  C      -4.378296     -2.695225     -2.795969
  H      -3.838117     -3.623025     -2.572819
  H      -4.174049     -2.405575     -3.839448
  C      -2.457071     -1.180592     -2.019815
  C      -1.336342     -1.771244     -1.124140
  H      -2.384487     -0.093531     -1.957284
  H      -2.189121     -1.435884     -3.058621
  C      -1.590539     -1.395607      0.342843
  C      -1.179361     -3.309147     -1.354227
  O      -2.172958     -0.368418      0.639318
  O      -1.117714     -2.167804      1.307948
  H      -0.309512     -3.463500     -2.012943
  H      -2.045693     -3.689484     -1.903529
  C      -1.019165     -4.137206     -0.074549
  C      -0.327878     -3.347562      1.021875
  H      -0.448080     -5.053786     -0.288968
  H      -2.010257     -4.432889      0.298210
  H       0.664168     -2.993960      0.697176
  C      -5.161022      0.809630      1.483139
  H      -4.078272      0.725641      1.669906
  H      -5.663467      0.250996      2.291129
  C      -0.181781     -4.071481      2.352292
  H      -1.178645     -4.415229      2.680783
  H       0.155007     -3.326710      3.092854
  H      -5.454734     -2.912645     -2.708931
  C      -5.605510      2.273056      1.512249
  H      -6.678380      2.343025      1.251171
  H      -5.067295      2.844653      0.735573
  C       0.801882     -5.242758      2.316724
  H       0.450557     -6.009871      1.604335
  H       1.774485     -4.889385      1.927105
  C      -0.086667      5.024727      1.482094
  H      -1.061961      4.781321      1.942986
  H      -0.309738      5.355595      0.452664
  C       7.565145      0.759728      0.367543
  H       7.111280     -0.064279      0.945318
  H       7.998469      0.292891     -0.535945
  C       8.676168      1.403960      1.196730
  H       9.441590      0.666245      1.485025
  H       9.180646      2.207980      0.635100
  H       8.275275      1.849287      2.122571
  C       0.571171      6.174124      2.245767
  H       1.533460      6.454439      1.785869
  H      -0.068664      7.071023      2.258120
  H       0.774856      5.893097      3.292794
  C      -5.366363      2.930113      2.872140
  H      -5.682719      3.985635      2.874892
  H      -5.923148      2.410645      3.669973
  H      -4.298113      2.897782      3.144634
  C       1.003639     -5.885800      3.688933
  H       0.052947     -6.276205      4.089482
  H       1.716465     -6.724842      3.642698
  H       1.391662     -5.154910      4.418127
104
Coordinates from ORCA-job orca E -2047.524290726642
  C       0.473222      0.278788     -0.999200
  C       0.931826      0.274238      0.465600
  O       1.368758     -0.704499      1.012148
  O       0.990426      1.438490      1.120954
  C      -0.549082      1.403089     -1.237945
  H      -1.485565      1.139428     -0.751373
  H      -0.737948      1.491077     -2.311540
  C       0.131294      2.567800      0.833695
  H      -0.827031      2.340324      1.317157
  C      -0.090211      2.730441     -0.655108
  H      -0.866144      3.483690     -0.809629
  H       0.819292      3.109539     -1.130382
  C       0.021632     -1.129524     -1.445717
  H       0.819893     -1.809111     -1.150327
  H       0.030116     -1.136614     -2.540736
  C       1.737602      0.652920     -1.851443
  C       2.825967     -0.366100     -2.095958
  H       2.183589      1.543241     -1.410677
  H       1.357438      0.967364     -2.826464
  C       4.074261      3.125277     -0.970247
  C       3.718961     -0.821547     -0.967552
  C       3.020144     -0.832267     -3.327710
  O       3.371234      3.995326     -1.358773
  O       4.644741      2.183455     -1.687690
  H       4.472319     -1.498612     -1.381168
  H       3.128237     -1.402672     -0.257211
  C       4.432844      0.272446     -0.166122
  H       2.390437     -0.528527     -4.156534
  H       3.817374     -1.533122     -3.549098
  C       5.386945      1.152992     -0.963984
  H       5.006130     -0.224385      0.619950
  H       3.720676      0.915469      0.362119
  H       5.829504      0.582024     -1.784357
  C       0.782047      3.756341      1.513699
  H       1.733593      3.967371      1.015044
  H       1.017788      3.465204      2.541730
  C       6.491368      1.796450     -0.138791
  H       6.049304      2.282429      0.738517
  H       6.944059      2.590272     -0.741840
  C      -3.972322     -1.525294     -1.824160
  C      -4.397690     -1.984462     -0.424557
  O      -4.100514     -3.075440     -0.009572
  O      -5.194530     -1.223320      0.321944
  C      -4.746207     -0.261443     -2.227409
  H      -5.775133     -0.531931     -2.489534
  H      -4.297442      0.160948     -3.130862
  C      -5.510486      0.165964      0.090717
  H      -6.585389      0.175221     -0.129258
  C      -4.764783      0.746287     -1.094831
  H      -5.262697      1.668343     -1.401421
  H      -3.747888      1.006363     -0.791154
  C      -4.371068     -2.655811     -2.785842
  H      -3.880506     -3.594089     -2.540182
  H      -4.110669     -2.377653     -3.810142
  C      -2.444311     -1.196545     -1.940662
  C      -1.340909     -1.803060     -1.036827
  H      -2.356572     -0.118462     -1.872257
  H      -2.158784     -1.445019     -2.968351
  C      -1.604681     -1.476299      0.435728
  C      -1.164855     -3.324045     -1.310286
  O      -2.197849     -0.471575      0.764164
  O      -1.130033     -2.267882      1.377322
  H      -0.297992     -3.444065     -1.965905
  H      -2.018732     -3.696458     -1.867331
  C      -0.992002     -4.184840     -0.061537
  C      -0.318193     -3.416738      1.052051
  H      -0.406373     -5.074537     -0.301597
  H      -1.969128     -4.510710      0.298220
  H       0.659028     -3.034595      0.739779
  C      -5.250685      0.880097      1.406385
  H      -4.191483      0.755595      1.647717
  H      -5.813352      0.359708      2.187391
  C      -0.157847     -4.177767      2.353192
  H      -1.138071     -4.552740      2.667145
  H       0.162733     -3.459227      3.113366
  H      -5.448616     -2.831389     -2.747932
  C      -5.627862      2.355931      1.391079
  H      -6.675289      2.470175      1.086421
  H      -5.033897      2.884260      0.637898
  C       0.848028     -5.319447      2.269815
  H       0.514202     -6.061185      1.537102
  H       1.803236     -4.931970      1.896509
  C      -0.090207      5.006534      1.518446
  H      -1.060875      4.773444      1.971832
  H      -0.300426      5.317926      0.490381
  C       7.577561      0.817048      0.293937
  H       7.141096      0.012107      0.893171
  H       8.003545      0.336432     -0.593894
  C       8.684354      1.493488      1.091648
  H       9.453496      0.778052      1.387371
  H       9.168806      2.281442      0.509457
  H       8.289841      1.952051      2.001797
  C       0.562441      6.161526      2.266121
  H       1.520179      6.429232      1.812893
  H      -0.069989      7.051253      2.257857
  H       0.754276      5.898947      3.309735
  C      -5.411820      3.016004      2.746160
  H      -5.673470      4.075714      2.722943
  H      -6.018755      2.538870      3.519781
  H      -4.366402      2.935110      3.056044
  C       1.064550     -6.003146      3.613258
  H       0.131325     -6.424727      3.995639
  H       1.789006     -6.816248      3.535914
  H       1.434451     -5.296078      4.360165
104
Coordinates from ORCA-job orca E -2047.524033377002
  C       0.498563      0.295582     -1.068202
  C       0.966631      0.258968      0.390758
  O       1.407364     -0.731491      0.909269
  O       1.026766      1.403852      1.075938
  C      -0.520447      1.426654     -1.273240
  H      -1.452495      1.155582     -0.784225
  H      -0.718554      1.538549     -2.340303
  C       0.166772      2.537050      0.818221
  H      -0.788860      2.298134      1.296202
  C      -0.055423      2.737207     -0.663516
  H      -0.827821      3.493946     -0.798096
  H       0.852409      3.123500     -1.129832
  C       0.029927     -1.099802     -1.525186
  H       0.820170     -1.789072     -1.237753
  H       0.027798     -1.102117     -2.618062
  C       1.758779      0.669884     -1.921068
  C       2.840961     -0.351958     -2.171690
  H       2.210023      1.552174     -1.474127
  H       1.380464      0.992404     -2.891413
  C       4.104693      3.121623     -0.985125
  C       3.720180     -0.824750     -1.041737
  C       3.038616     -0.805774     -3.403103
  O       3.428606      4.009201     -1.374529
  O       4.679765      2.185085     -1.703196
  H       4.477234     -1.493014     -1.455781
  H       3.121204     -1.416998     -0.350942
  C       4.419483      0.256097     -0.213310
  H       2.418028     -0.489634     -4.230853
  H       3.829670     -1.509213     -3.625681
  C       5.395753      1.140702     -0.975096
  H       4.970958     -0.251264      0.577906
  H       3.698643      0.894530      0.304195
  H       5.855381      0.579731     -1.789876
  C       0.817352      3.708267      1.524120
  H       1.768273      3.927970      1.032296
  H       1.050032      3.397658      2.544165
  C       6.479049      1.765423     -0.111408
  H       6.016509      2.233953      0.761602
  H       6.948997      2.566681     -0.685886
  C      -3.948760     -1.544625     -1.843119
  C      -4.289791     -2.026102     -0.431681
  O      -3.886253     -3.083447     -0.022344
  O      -5.076401     -1.301871      0.359001
  C      -4.783195     -0.310703     -2.207624
  H      -5.807733     -0.618904     -2.431341
  H      -4.386479      0.133600     -3.121929
  C      -5.468286      0.069329      0.141412
  H      -6.547259      0.024171     -0.036677
  C      -4.798052      0.686711     -1.068093
  H      -5.345726      1.585732     -1.347168
  H      -3.783369      0.988280     -0.803505
  C      -4.336567     -2.688178     -2.789928
  H      -3.799247     -3.603705     -2.566298
  H      -4.128475     -2.398215     -3.820179
  C      -2.443975     -1.170223     -2.001772
  C      -1.333942     -1.749007     -1.099491
  H      -2.380274     -0.091650     -1.948839
  H      -2.170217     -1.434395     -3.026479
  C      -1.588466     -1.365982      0.356445
  C      -1.195983     -3.279650     -1.316518
  O      -2.159828     -0.339491      0.644475
  O      -1.128321     -2.128600      1.327371
  H      -0.337399     -3.448332     -1.967836
  H      -2.062466     -3.647230     -1.854853
  C      -1.047911     -4.094962     -0.036563
  C      -0.345639     -3.304740      1.040560
  H      -0.493063     -5.009298     -0.241928
  H      -2.032252     -4.375106      0.339020
  H       0.636249     -2.959705      0.706432
  C      -5.195367      0.801168      1.443702
  H      -4.123438      0.743460      1.640595
  H      -5.691473      0.253330      2.246850
  C      -0.193381     -4.021176      2.366299
  H      -1.177827     -4.354918      2.703237
  H       0.157146     -3.288185      3.094902
  H      -5.400918     -2.907644     -2.709643
  C      -5.665241      2.249824      1.440266
  H      -6.726653      2.293569      1.179546
  H      -5.138726      2.810198      0.664539
  C       0.775857     -5.193983      2.312020
  H       0.409107     -5.951638      1.616533
  H       1.734004     -4.850916      1.912518
  C      -0.054461      4.956633      1.552242
  H      -1.023103      4.715195      1.999434
  H      -0.261523      5.288217      0.532959
  C       7.549515      0.774867      0.329344
  H       7.097208     -0.039368      0.898225
  H       7.999193      0.315110     -0.554271
  C       8.632330      1.433324      1.170764
  H       9.391451      0.712961      1.470206
  H       9.130108      2.231951      0.620682
  H       8.212856      1.869240      2.077449
  C       0.598473      6.093718      2.323473
  H       1.553857      6.368973      1.876633
  H      -0.031775      6.981559      2.333215
  H       0.788797      5.809407      3.358617
  C      -5.441317      2.930345      2.783065
  H      -5.781605      3.964713      2.767526
  H      -5.976973      2.415048      3.580397
  H      -4.383459      2.931904      3.047241
  C       0.991552     -5.828580      3.677674
  H       0.053850     -6.203055      4.088900
  H       1.687211     -6.664562      3.622264
  H       1.394760     -5.105325      4.386643
104
Coordinates from ORCA-job orca E -2047.524991352145
  C       0.474743      0.272662     -1.063518
  C       0.920501      0.270441      0.403460
  O       1.359849     -0.706757      0.950310
  O       0.976292      1.434389      1.058079
  C      -0.547448      1.394399     -1.308315
  H      -1.485502      1.132853     -0.822159
  H      -0.734310      1.478269     -2.381915
  C       0.123885      2.565183      0.760493
  H      -0.837367      2.345757      1.240381
  C      -0.089369      2.722610     -0.729209
  H      -0.862765      3.475767     -0.890985
  H       0.821991      3.098774     -1.200376
  C       0.021125     -1.134560     -1.502311
  H       0.816446     -1.814539     -1.201426
  H       0.027268     -1.149390     -2.596635
  C       1.745635      0.640469     -1.906276
  C       2.839471     -0.377345     -2.126906
  H       2.185454      1.535034     -1.468392
  H       1.377432      0.944578     -2.888350
  C       4.072033      3.135499     -0.977806
  C       3.712607     -0.821685     -0.979311
  C       3.053670     -0.852326     -3.349648
  O       3.399335      4.017684     -1.387949
  O       4.659993      2.189739     -1.674722
  H       4.482506     -1.489216     -1.375611
  H       3.111998     -1.410605     -0.284716
  C       4.392537      0.279388     -0.159534
  H       2.437535     -0.556260     -4.190978
  H       3.854946     -1.553749     -3.552213
  C       5.373473      1.159329     -0.922488
  H       4.937706     -0.211341      0.649048
  H       3.658982      0.921701      0.338424
  H       5.847046      0.587906     -1.724308
  C       0.778585      3.754843      1.434596
  H       1.738371      3.948345      0.944858
  H       0.998492      3.476113      2.468685
  C       6.444475      1.801425     -0.053940
  H       5.968607      2.278793      0.809342
  H       6.917265      2.599614     -0.633970
  C      -3.968354     -1.514298     -1.817112
  C      -4.337764     -1.994176     -0.410815
  O      -4.005171     -3.083381     -0.019115
  O      -5.109933     -1.250254      0.376806
  C      -4.757775     -0.247492     -2.175919
  H      -5.793096     -0.517465     -2.408609
  H      -4.339253      0.190844     -3.085666
  C      -5.447471      0.137740      0.171893
  H      -6.527910      0.136441     -0.014971
  C      -4.743938      0.740927     -1.027034
  H      -5.256233      1.664006     -1.302388
  H      -3.719335      1.001937     -0.751417
  C      -4.394342     -2.635026     -2.777460
  H      -3.891833     -3.573853     -2.560769
  H      -4.170817     -2.342544     -3.805859
  C      -2.448821     -1.184109     -1.970821
  C      -1.341285     -1.793260     -1.080874
  H      -2.357422     -0.105904     -1.906853
  H      -2.183669     -1.441710     -3.001170
  C      -1.589385     -1.446719      0.386864
  C      -1.195155     -3.319022     -1.337637
  O      -2.173682     -0.434945      0.705355
  O      -1.117690     -2.232387      1.335152
  H      -0.340624     -3.464226     -2.003070
  H      -2.064866     -3.681299     -1.876478
  C      -1.023601     -4.165876     -0.079609
  C      -0.323816     -3.394244      1.014540
  H      -0.456653     -5.068178     -0.314055
  H      -2.001484     -4.470924      0.296248
  H       0.653924     -3.030029      0.684143
  C      -5.155914      0.842155      1.486311
  H      -4.086308      0.741167      1.688864
  H      -5.678306      0.301432      2.280268
  C      -0.157589     -4.142927      2.322245
  H      -1.139268     -4.494265      2.655652
  H       0.190479     -3.424003      3.068775
  H      -5.468528     -2.815791     -2.703734
  C      -5.570780      2.308424      1.502706
  H      -6.629947      2.397047      1.235641
  H      -5.016608      2.861548      0.738428
  C       0.821958     -5.307141      2.236023
  H       0.458678     -6.051264      1.521250
  H       1.778045     -4.945918      1.842430
  C      -0.079215      5.014642      1.411772
  H      -1.056510      4.799210      1.857495
  H      -0.272479      5.314582      0.377949
  C       7.516762      0.822289      0.411919
  H       7.061796      0.010300      0.985838
  H       7.980844      0.354341     -0.462463
  C       8.586426      1.497373      1.259443
  H       9.348063      0.783831      1.576580
  H       9.086681      2.294532      0.705189
  H       8.152676      1.941671      2.157928
  C       0.579263      6.171002      2.151675
  H       1.543980      6.421032      1.704787
  H      -0.042155      7.067469      2.125026
  H       0.756414      5.919207      3.199781
  C      -5.330302      2.957515      2.859300
  H      -5.628216      4.007334      2.859116
  H      -5.894290      2.450241      3.645114
  H      -4.273577      2.909687      3.131986
  C       1.046588     -5.975600      3.585527
  H       0.111109     -6.369168      3.989669
  H       1.750407     -6.805852      3.507021
  H       1.446195     -5.266087      4.313509
104
Coordinates from ORCA-job orca E -2047.524701091309
  C       0.482021      0.292284     -1.020205
  C       0.959750      0.253484      0.437033
  O       1.398004     -0.740921      0.953787
  O       1.020975      1.398161      1.125039
  C      -0.541815      1.423121     -1.216502
  H      -1.470571      1.150938     -0.719363
  H      -0.749595      1.535964     -2.284290
  C       0.163219      2.535922      0.872680
  H      -0.790924      2.300784      1.360674
  C      -0.072946      2.735201     -0.608938
  H      -0.848938      3.493063     -0.737576
  H       0.831364      3.124465     -1.084384
  C       0.018665     -1.106206     -1.481736
  H       0.817055     -1.792227     -1.201110
  H       0.014874     -1.102012     -2.576817
  C       1.734323      0.677438     -1.883394
  C       2.814164     -0.340248     -2.168143
  H       2.193368      1.555110     -1.429566
  H       1.342200      1.016135     -2.845471
  C       4.103152      3.124795     -0.988703
  C       3.722568     -0.820842     -1.062749
  C       2.985105     -0.781573     -3.410920
  O       3.426163      4.017835     -1.368170
  O       4.677278      2.192414     -1.715069
  H       4.478049     -1.477884     -1.503837
  H       3.142421     -1.429837     -0.367434
  C       4.430849      0.254031     -0.232477
  H       2.342542     -0.459116     -4.223215
  H       3.776170     -1.480707     -3.660126
  C       5.401285      1.144616     -0.996822
  H       4.990611     -0.260664      0.551801
  H       3.714061      0.890240      0.297807
  H       5.856778      0.586992     -1.819416
  C       0.825835      3.707227      1.571854
  H       1.777763      3.918192      1.072872
  H       1.063179      3.397909      2.594083
  C       6.492247      1.763603     -0.135404
  H       6.034959      2.224761      0.747344
  H       6.959014      2.572132     -0.707235
  C      -3.970875     -1.552166     -1.831300
  C      -4.363669     -2.004688     -0.421447
  O      -4.021103     -3.078705      0.003729
  O      -5.171945     -1.259531      0.328217
  C      -4.779152     -0.311928     -2.240524
  H      -5.802938     -0.610931     -2.491411
  H      -4.347784      0.113287     -3.151261
  C      -5.534221      0.115651      0.080647
  H      -6.610609      0.087223     -0.130204
  C      -4.815908      0.704781     -1.116931
  H      -5.343101      1.608865     -1.427893
  H      -3.804709      0.997273     -0.823814
  C      -4.355833     -2.704122     -2.772572
  H      -3.839040     -3.627886     -2.523904
  H      -4.117624     -2.431371     -3.803844
  C      -2.452886     -1.195597     -1.966267
  C      -1.339890     -1.775210     -1.059628
  H      -2.382702     -0.115607     -1.916178
  H      -2.170543     -1.459516     -2.991102
  C      -1.596361     -1.416621      0.405029
  C      -1.168855     -3.301836     -1.298081
  O      -2.177814     -0.399044      0.712308
  O      -1.116179     -2.185445      1.363336
  H      -0.310374     -3.440886     -1.961044
  H      -2.032441     -3.683733     -1.834211
  C      -0.986090     -4.133354     -0.030833
  C      -0.304275     -3.339605      1.059488
  H      -0.402012     -5.028254     -0.254878
  H      -1.959931     -4.452704      0.344400
  H       0.670847     -2.964842      0.731348
  C      -5.285759      0.859104      1.382599
  H      -4.220323      0.776535      1.614421
  H      -5.822034      0.334775      2.179293
  C      -0.136730     -4.071966      2.376770
  H      -1.116578     -4.433942      2.706353
  H       0.195353     -3.339794      3.118734
  H      -5.428217     -2.904667     -2.715052
  C      -5.714134      2.321365      1.346897
  H      -6.771937      2.392530      1.066417
  H      -5.155624      2.854431      0.570604
  C       0.860278     -5.223509      2.312291
  H       0.514901     -5.980043      1.600654
  H       1.816369     -4.852615      1.925840
  C      -0.035901      4.964776      1.603212
  H      -1.005653      4.731849      2.058782
  H      -0.247195      5.297137      0.582203
  C       7.567895      0.768873      0.289705
  H       7.118402     -0.054410      0.853136
  H       8.014824      0.318718     -0.603637
  C       8.655890      1.419238      1.134319
  H       9.419716      0.694393      1.421790
  H       9.150882      2.227167      0.589529
  H       8.239687      1.845012      2.050794
  C       0.632097      6.099392      2.368914
  H       1.588450      6.367435      1.912784
  H       0.007013      6.994526      2.382626
  H       0.828889      5.813901      3.405593
  C      -5.489421      3.015870      2.683778
  H      -5.795991      4.063384      2.647625
  H      -6.055140      2.528754      3.482020
  H      -4.433064      2.985130      2.964567
  C       1.078876     -5.876213      3.671188
  H       0.143857     -6.280452      4.067764
  H       1.796445     -6.697015      3.608866
  H       1.459078     -5.153368      4.397575
104
Coordinates from ORCA-job orca E -2047.525061255175
  C       0.480359      0.296691     -1.052495
  C       0.947179      0.285869      0.408422
  O       1.397306     -0.694081      0.941815
  O       1.002611      1.443526      1.074144
  C      -0.545217      1.420240     -1.276942
  H      -1.476700      1.154893     -0.781110
  H      -0.745847      1.512199     -2.347698
  C       0.145100      2.574744      0.794521
  H      -0.810947      2.348865      1.282247
  C      -0.083503      2.744652     -0.691718
  H      -0.860507      3.497392     -0.839233
  H       0.821921      3.127483     -1.169385
  C       0.023623     -1.109860     -1.494863
  H       0.822760     -1.789624     -1.202833
  H       0.023292     -1.119514     -2.589552
  C       1.739512      0.668933     -1.909996
  C       2.822493     -0.353198     -2.163413
  H       2.193183      1.554310     -1.466386
  H       1.357751      0.990032     -2.881787
  C       4.096294      3.123225     -0.996137
  C       3.708150     -0.822404     -1.035112
  C       3.013719     -0.811362     -3.396507
  O       3.434224      4.015305     -1.402113
  O       4.685701      2.181461     -1.697374
  H       4.472869     -1.482589     -1.454017
  H       3.113767     -1.425640     -0.346977
  C       4.397392      0.260350     -0.199774
  H       2.386404     -0.498602     -4.223751
  H       3.806943     -1.515219     -3.622470
  C       5.388438      1.140675     -0.948819
  H       4.936146     -0.246280      0.603642
  H       3.668981      0.903280      0.305242
  H       5.864037      0.573424     -1.752733
  C       0.803971      3.760291      1.472511
  H       1.759771      3.958248      0.976304
  H       1.032923      3.474196      2.502934
  C       6.457260      1.767186     -0.065781
  H       5.978082      2.236198      0.800563
  H       6.939226      2.569844     -0.632434
  C      -3.965206     -1.534973     -1.810074
  C      -4.331685     -2.004606     -0.399415
  O      -3.970364     -3.078330      0.010455
  O      -5.117597     -1.264882      0.378387
  C      -4.776555     -0.287487     -2.188455
  H      -5.805741     -0.579686     -2.422800
  H      -4.361386      0.147318     -3.101696
  C      -5.481885      0.113462      0.153192
  H      -6.562033      0.088748     -0.035394
  C      -4.787279      0.715129     -1.051974
  H      -5.318113      1.623878     -1.340796
  H      -3.769555      1.001434     -0.776338
  C      -4.368371     -2.674253     -2.758696
  H      -3.849366     -3.601670     -2.530886
  H      -4.147602     -2.388798     -3.789972
  C      -2.449768     -1.181967     -1.962039
  C      -1.334905     -1.776617     -1.070073
  H      -2.373436     -0.102757     -1.902027
  H      -2.179690     -1.439256     -2.991508
  C      -1.583821     -1.432014      0.398842
  C      -1.179229     -3.301690     -1.325913
  O      -2.166397     -0.419343      0.718867
  O      -1.111416     -2.217302      1.347456
  H      -0.325828     -3.442126     -1.994373
  H      -2.049332     -3.668686     -1.861408
  C      -1.000905     -4.148973     -0.068831
  C      -0.309375     -3.373732      1.028075
  H      -0.425725     -5.046112     -0.304441
  H      -1.976502     -4.463944      0.305322
  H       0.667051     -3.003044      0.701116
  C      -5.205655      0.842438      1.457548
  H      -4.134506      0.764414      1.662349
  H      -5.719101      0.305216      2.260053
  C      -0.142954     -4.122581      2.335833
  H      -1.123457     -4.483345      2.663454
  H       0.195189     -3.401664      3.085403
  H      -5.439545     -2.873522     -2.684973
  C      -5.645916      2.301613      1.451077
  H      -6.709448      2.367121      1.193765
  H      -5.108450      2.850117      0.671360
  C       0.848031     -5.277888      2.254458
  H       0.497138     -6.023782      1.535025
  H       1.804565     -4.906788      1.870374
  C      -0.055391      5.019553      1.468406
  H      -1.028461      4.799126      1.921790
  H      -0.257933      5.328797      0.438895
  C       7.520698      0.775716      0.395384
  H       7.056458     -0.042638      0.953102
  H       7.990869      0.318890     -0.481930
  C       8.585908      1.432687      1.263237
  H       9.341550      0.710430      1.575942
  H       9.094741      2.236203      0.725662
  H       8.145812      1.865000      2.164803
  C       0.609330      6.169842      2.212870
  H       1.569077      6.425363      1.757797
  H      -0.013739      7.065830      2.201441
  H       0.797722      5.907752      3.256765
  C      -5.401380      2.979261      2.793097
  H      -5.720305      4.023101      2.778363
  H      -5.945031      2.474463      3.595032
  H      -4.339870      2.957011      3.051922
  C       1.066745     -5.947747      3.604758
  H       0.131071     -6.352031      3.998440
  H       1.779906     -6.770778      3.530684
  H       1.452091     -5.235657      4.338307
104
Coordinates from ORCA-job orca E -2047.525009693242
  C       0.471526      0.272034     -1.082472
  C       0.916179      0.262242      0.384682
  O       1.348935     -0.719887      0.928107
  O       0.967882      1.420726      1.048542
  C      -0.552237      1.393460     -1.319342
  H      -1.488263      1.130416     -0.829652
  H      -0.743965      1.481117     -2.391638
  C       0.122384      2.556657      0.752611
  H      -0.839556      2.342257      1.233036
  C      -0.091850      2.719070     -0.736486
  H      -0.864323      3.473579     -0.895346
  H       0.819253      3.095900     -1.207420
  C       0.016753     -1.133379     -1.524689
  H       0.812347     -1.814280     -1.226887
  H       0.019003     -1.146579     -2.618964
  C       1.741487      0.644618     -1.924134
  C       2.834525     -0.372240     -2.153555
  H       2.183594      1.535644     -1.480660
  H       1.372979      0.956013     -2.903710
  C       4.088952      3.128204     -1.021938
  C       3.711079     -0.820979     -1.010171
  C       3.043351     -0.842582     -3.378603
  O       3.434690      4.014905     -1.450857
  O       4.689289      2.176637     -1.699977
  H       4.485017     -1.479944     -1.412780
  H       3.113462     -1.420620     -0.322338
  C       4.382764      0.276107     -0.179745
  H       2.423300     -0.544576     -4.216127
  H       3.844691     -1.541839     -3.587470
  C       5.382614      1.149503     -0.924597
  H       4.910129     -0.216792      0.639016
  H       3.644645      0.923043      0.304639
  H       5.874186      0.572990     -1.711627
  C       0.785494      3.741137      1.427771
  H       1.749129      3.923668      0.941519
  H       0.998828      3.462751      2.463203
  C       6.432967      1.792887     -0.032069
  H       5.937047      2.269831      0.819894
  H       6.920459      2.590585     -0.600196
  C      -3.972494     -1.515437     -1.817979
  C      -4.324475     -1.998909     -0.408711
  O      -3.986605     -3.089955     -0.025970
  O      -5.093008     -1.261832      0.388364
  C      -4.765079     -0.247735     -2.165778
  H      -5.801653     -0.517091     -2.392709
  H      -4.352470      0.194981     -3.075922
  C      -5.439386      0.124726      0.188322
  H      -6.520612      0.117870      0.007108
  C      -4.744613      0.734804     -1.012148
  H      -5.260552      1.658022     -1.279564
  H      -3.718729      0.996020     -0.741364
  C      -4.410117     -2.633283     -2.776779
  H      -3.907102     -3.573634     -2.569531
  H      -4.197641     -2.337372     -3.806418
  C      -2.454921     -1.184734     -1.984708
  C      -1.343512     -1.788733     -1.096704
  H      -2.363630     -0.106153     -1.928320
  H      -2.195880     -1.450202     -3.014572
  C      -1.583518     -1.431080      0.369128
  C      -1.200947     -3.316109     -1.342398
  O      -2.156061     -0.411086      0.682334
  O      -1.106768     -2.209007      1.321487
  H      -0.354321     -3.467985     -2.016237
  H      -2.077703     -3.680956     -1.867181
  C      -1.018101     -4.153227     -0.079303
  C      -0.313548     -3.372244      1.005280
  H      -0.450002     -5.055361     -0.311229
  H      -1.992305     -4.459220      0.305135
  H       0.662225     -3.010141      0.667027
  C      -5.144779      0.828933      1.502215
  H      -4.072596      0.740061      1.695991
  H      -5.654805      0.281879      2.299599
  C      -0.140991     -4.111149      2.317703
  H      -1.121378     -4.458401      2.658578
  H       0.212724     -3.387915      3.057148
  H      -5.483572     -2.812336     -2.691426
  C      -5.576631      2.290608      1.525544
  H      -6.640166      2.365800      1.273049
  H      -5.039177      2.851372      0.755243
  C       0.835739     -5.278282      2.235961
  H       0.468070     -6.026837      1.528396
  H       1.791588     -4.922202      1.837804
  C      -0.059533      5.009516      1.401108
  H      -1.039756      4.804601      1.845004
  H      -0.246173      5.310890      0.366723
  C       7.493244      0.812868      0.459214
  H       7.023889     -0.001463      1.017639
  H       7.981537      0.349292     -0.403988
  C       8.538715      1.485699      1.338422
  H       9.292595      0.771772      1.672202
  H       9.051945      2.286008      0.801138
  H       8.080255      1.924997      2.226807
  C       0.609522      6.159227      2.142187
  H       1.576742      6.399476      1.695782
  H      -0.003056      7.061530      2.115054
  H       0.782880      5.905102      3.190165
  C      -5.327510      2.941063      2.880246
  H      -5.643919      3.985258      2.886487
  H      -5.870840      2.422202      3.672747
  H      -4.266319      2.911744      3.136884
  C       1.062404     -5.937044      3.590192
  H       0.127049     -6.325715      3.998805
  H       1.764490     -6.768929      3.515931
  H       1.465006     -5.222466      4.311247
104
Coordinates from ORCA-job orca E -2047.525125299819
  C       0.473806      0.285902     -1.066394
  C       0.936286      0.270843      0.395510
  O       1.383761     -0.711202      0.927298
  O       0.993298      1.426760      1.063623
  C      -0.552124      1.409013     -1.288468
  H      -1.482983      1.143693     -0.790992
  H      -0.754508      1.501736     -2.358657
  C       0.142625      2.562624      0.782698
  H      -0.813873      2.343533      1.272327
  C      -0.087721      2.732429     -0.703343
  H      -0.863367      3.486542     -0.850026
  H       0.817555      3.113639     -1.182277
  C       0.016876     -1.119246     -1.510971
  H       0.815652     -1.799843     -1.220251
  H       0.014664     -1.127970     -2.605533
  C       1.734833      0.661534     -1.919805
  C       2.822274     -0.357201     -2.167200
  H       2.184351      1.548644     -1.475340
  H       1.356286      0.980225     -2.893491
  C       4.095245      3.127144     -1.018825
  C       3.706100     -0.819006     -1.034442
  C       3.018556     -0.818811     -3.397979
  O       3.442563      4.019450     -1.438864
  O       4.691007      2.179037     -1.705929
  H       4.475865     -1.475825     -1.449112
  H       3.111798     -1.424346     -0.348228
  C       4.385952      0.268441     -0.197956
  H       2.392292     -0.511738     -4.227936
  H       3.815499     -1.519669     -3.619453
  C       5.385072      1.144658     -0.940641
  H       4.915803     -0.233377      0.614121
  H       3.652542      0.914026      0.295879
  H       5.871929      0.572354     -1.733977
  C       0.810351      3.745005      1.457392
  H       1.767897      3.933451      0.960907
  H       1.036818      3.460549      2.488670
  C       6.441129      1.778505     -0.047667
  H       5.950100      2.250541      0.810171
  H       6.928790      2.579250     -0.611861
  C      -3.973021     -1.531832     -1.810900
  C      -4.332629     -2.003337     -0.399097
  O      -3.980005     -3.083128      0.002341
  O      -5.112004     -1.263486      0.384923
  C      -4.777073     -0.276963     -2.179730
  H      -5.809304     -0.560322     -2.410733
  H      -4.362628      0.159108     -3.092528
  C      -5.470715      0.117248      0.165857
  H      -6.551125      0.098115     -0.020999
  C      -4.775297      0.719905     -1.038201
  H      -5.300045      1.634080     -1.320365
  H      -3.754294      0.996311     -0.764301
  C      -4.391134     -2.664857     -2.760590
  H      -3.878059     -3.597131     -2.540020
  H      -4.175201     -2.377245     -3.792150
  C      -2.456768     -1.187555     -1.971855
  C      -1.340747     -1.782897     -1.082384
  H      -2.375194     -0.108385     -1.916487
  H      -2.192584     -1.450529     -3.001295
  C      -1.583799     -1.431796      0.385355
  C      -1.187359     -3.308741     -1.333108
  O      -2.165306     -0.417742      0.702482
  O      -1.108131     -2.213071      1.335620
  H      -0.338748     -3.452262     -2.006757
  H      -2.061351     -3.677457     -1.860548
  C      -1.000976     -4.150552     -0.073449
  C      -0.306082     -3.369727      1.017492
  H      -0.424871     -5.047175     -0.308242
  H      -1.973954     -4.466430      0.306489
  H       0.668672     -2.999376      0.684986
  C      -5.189312      0.840160      1.472483
  H      -4.118125      0.758231      1.675070
  H      -5.702920      0.301945      2.273974
  C      -0.133886     -4.113309      2.327448
  H      -1.113171     -4.471066      2.661441
  H       0.209424     -3.390180      3.072292
  H      -5.463185     -2.855845     -2.680198
  C      -5.625356      2.300743      1.472519
  H      -6.689067      2.369695      1.217651
  H      -5.087955      2.850827      0.694119
  C       0.854260     -5.271046      2.245989
  H       0.498106     -6.019427      1.531965
  H       1.809595     -4.903834      1.855881
  C      -0.038814      5.011075      1.449741
  H      -1.013189      4.799930      1.904301
  H      -0.239014      5.319116      0.419573
  C       7.500602      0.791521      0.431923
  H       7.030852     -0.026038      0.985851
  H       7.984269      0.333183     -0.437019
  C       8.551672      1.454231      1.312486
  H       9.304810      0.735194      1.637827
  H       9.065443      2.257337      0.779296
  H       8.097947      1.888215      2.206256
  C       0.635769      6.157879      2.190743
  H       1.596740      6.404605      1.733785
  H       0.019752      7.058516      2.177874
  H       0.823217      5.896713      3.234867
  C      -5.377572      2.972523      2.817003
  H      -5.695642      4.016503      2.807134
  H      -5.920190      2.464879      3.617618
  H      -4.315843      2.948372      3.073834
  C       1.078230     -5.935028      3.598368
  H       0.143710     -6.335275      3.998398
  H       1.789186     -6.759774      3.524485
  H       1.468801     -5.220258      4.326270
104
Coordinates from ORCA-job orca E -2047.525110553724
  C       0.474880      0.292512     -1.058536
  C       0.933944      0.282749      0.404833
  O       1.373552     -0.698900      0.943971
  O       0.983134      1.439601      1.072027
  C      -0.551838      1.413913     -1.286672
  H      -1.483811      1.148580     -0.791064
  H      -0.751410      1.503497     -2.357756
  C       0.133771      2.574623      0.783638
  H      -0.824611      2.357343      1.270543
  C      -0.091489      2.739677     -0.703710
  H      -0.867874      3.492191     -0.855233
  H       0.814659      3.121062     -1.180881
  C       0.019792     -1.114195     -1.500998
  H       0.818726     -1.793726     -1.208012
  H       0.019724     -1.124500     -2.595654
  C       1.736955      0.665781     -1.911850
  C       2.819842     -0.356595     -2.165833
  H       2.191108      1.549591     -1.465176
  H       1.358139      0.989893     -2.883747
  C       4.106250      3.117482     -1.027332
  C       3.708041     -0.823378     -1.038430
  C       3.008981     -0.816195     -3.398572
  O       3.457150      4.011086     -1.450224
  O       4.702478      2.167489     -1.711468
  H       4.475701     -1.479081     -1.459048
  H       3.116089     -1.431279     -0.352465
  C       4.392118      0.260228     -0.200637
  H       2.379730     -0.505551     -4.225063
  H       3.802963     -1.518882     -3.625328
  C       5.393885      1.133739     -0.942809
  H       4.920528     -0.244453      0.610724
  H       3.661447      0.908028      0.294530
  H       5.881529      0.559334     -1.734253
  C       0.799089      3.759433      1.456656
  H       1.759573      3.944537      0.964389
  H       1.019910      3.479467      2.490493
  C       6.449155      1.767341     -0.048561
  H       5.957188      2.241099      0.807891
  H       6.939354      2.566759     -0.612619
  C      -3.969688     -1.529975     -1.805685
  C      -4.330459     -2.002054     -0.394459
  O      -3.970963     -3.078637      0.009746
  O      -5.111537     -1.263326      0.388905
  C      -4.778083     -0.278600     -2.177482
  H      -5.808993     -0.566041     -2.409798
  H      -4.363710      0.157853     -3.090219
  C      -5.474952      0.115933      0.167563
  H      -6.555438      0.092992     -0.019062
  C      -4.781612      0.719701     -1.037237
  H      -5.310254      1.631265     -1.320949
  H      -3.762129      1.001096     -0.763079
  C      -4.380854     -2.665500     -2.755377
  H      -3.863660     -3.595337     -2.533387
  H      -4.164395     -2.377421     -3.786795
  C      -2.454026     -1.180975     -1.962955
  C      -1.338446     -1.778802     -1.074514
  H      -2.374698     -0.101785     -1.903450
  H      -2.187632     -1.439374     -2.993076
  C      -1.582266     -1.434536      0.394976
  C      -1.186884     -3.303760     -1.331846
  O      -2.158150     -0.418746      0.717128
  O      -1.106042     -2.219960      1.341584
  H      -0.340211     -3.445152     -2.008499
  H      -2.062929     -3.669506     -1.858336
  C      -0.998168     -4.151177     -0.076163
  C      -0.303266     -3.374570      1.017790
  H      -0.421066     -5.046033     -0.315586
  H      -1.970463     -4.470132      0.303209
  H       0.670860     -3.001914      0.686154
  C      -5.195257      0.841506      1.473048
  H      -4.123386      0.764072      1.674475
  H      -5.705977      0.302342      2.275873
  C      -0.129089     -4.123854      2.324224
  H      -1.107552     -4.485347      2.656933
  H       0.213125     -3.403466      3.072353
  H      -5.452225     -2.861418     -2.676624
  C      -5.636761      2.300502      1.472027
  H      -6.701410      2.365165      1.219505
  H      -5.103034      2.851579      0.691700
  C       0.861817     -5.278875      2.237018
  H       0.507476     -6.024560      1.519153
  H       1.816464     -4.907315      1.848962
  C      -0.048606      5.026438      1.439019
  H      -1.025559      4.818393      1.889654
  H      -0.243164      5.330245      0.406422
  C       7.506087      0.779089      0.434381
  H       7.033697     -0.037516      0.987663
  H       7.991237      0.319460     -0.433165
  C       8.556101      1.440626      1.317212
  H       9.307330      0.720497      1.644872
  H       9.072481      2.242569      0.784562
  H       8.100931      1.876166      2.209605
  C       0.623552      6.175809      2.178465
  H       1.586953      6.419680      1.724861
  H       0.008330      7.076988      2.158899
  H       0.805799      5.918784      3.224642
  C      -5.388326      2.974762      2.815189
  H      -5.710388      4.017620      2.804941
  H      -5.927181      2.465860      3.617683
  H      -4.325779      2.954666      3.069527
  C       1.087122     -5.949199      3.586175
  H       0.153399     -6.353951      3.983793
  H       1.800338     -6.771757      3.508266
  H       1.475623     -5.237008      4.317850
104
Coordinates from ORCA-job orca E -2047.525143238223
  C       0.473476      0.289646     -1.063970
  C       0.936342      0.276907      0.397997
  O       1.384211     -0.704152      0.931355
  O       0.988402      1.432692      1.066630
  C      -0.554131      1.411115     -1.286855
  H      -1.484183      1.144975     -0.788109
  H      -0.757678      1.502206     -2.357014
  C       0.139592      2.569058      0.782482
  H      -0.817030      2.352588      1.273107
  C      -0.091583      2.735998     -0.703757
  H      -0.868488      3.488729     -0.851198
  H       0.812607      3.117931     -1.184157
  C       0.017363     -1.116321     -1.507523
  H       0.816411     -1.796515     -1.216503
  H       0.015485     -1.125468     -2.602149
  C       1.733849      0.664714     -1.918703
  C       2.817938     -0.356627     -2.170750
  H       2.187051      1.549452     -1.472832
  H       1.354359      0.987057     -2.890881
  C       4.106440      3.117952     -1.043330
  C       3.704265     -0.821432     -1.041074
  C       3.008604     -0.818092     -3.402489
  O       3.461818      4.011113     -1.473805
  O       4.705524      2.164282     -1.719803
  H       4.473263     -1.476989     -1.459365
  H       3.111117     -1.429145     -0.355860
  C       4.385527      0.263508     -0.202884
  H       2.380030     -0.509277     -4.230117
  H       3.803292     -1.520539     -3.627300
  C       5.391937      1.133746     -0.942451
  H       4.909330     -0.239519      0.612417
  H       3.653451      0.913596      0.287112
  H       5.884454      0.555950     -1.728334
  C       0.809147      3.752395      1.453833
  H       1.768021      3.936445      0.958055
  H       1.033592      3.471342      2.486551
  C       6.441656      1.770811     -0.044168
  H       5.944517      2.247672      0.807505
  H       6.935364      2.568128     -0.608053
  C      -3.972693     -1.530464     -1.806926
  C      -4.330889     -2.002622     -0.395053
  O      -3.975892     -3.081895      0.005900
  O      -5.110848     -1.264171      0.389663
  C      -4.779064     -0.277055     -2.176075
  H      -5.810802     -0.562063     -2.407484
  H      -4.364896      0.159739     -3.088694
  C      -5.473148      0.115606      0.169840
  H      -6.553603      0.093845     -0.016857
  C      -4.779261      0.719655     -1.034428
  H      -5.306108      1.632748     -1.316377
  H      -3.758924      0.998218     -0.760506
  C      -4.388819     -2.664386     -2.756418
  H      -3.873678     -3.595712     -2.536365
  H      -4.173930     -2.376133     -3.788073
  C      -2.456850     -1.183857     -1.967517
  C      -1.340407     -1.780349     -1.079288
  H      -2.376491     -0.104654     -1.910569
  H      -2.192286     -1.444878     -2.997423
  C      -1.583050     -1.433080      0.389517
  C      -1.188401     -3.305659     -1.333904
  O      -2.160378     -0.417532      0.709658
  O      -1.107134     -2.217050      1.337465
  H      -0.343139     -3.447787     -2.012112
  H      -2.065274     -3.672940     -1.857644
  C      -0.996702     -4.150633     -0.076958
  C      -0.302779     -3.370955      1.015432
  H      -0.417804     -5.044564     -0.315342
  H      -1.967964     -4.471191      0.303630
  H       0.670686     -2.997427      0.682883
  C      -5.192924      0.839702      1.476066
  H      -4.121231      0.761067      1.677786
  H      -5.704375      0.300453      2.278292
  C      -0.127033     -4.117759      2.323032
  H      -1.104839     -4.479824      2.656898
  H       0.214809     -3.395762      3.069711
  H      -5.460499     -2.857482     -2.675427
  C      -5.633103      2.299168      1.476237
  H      -6.697655      2.364800      1.223766
  H      -5.098942      2.850382      0.696376
  C       0.865143     -5.271771      2.237205
  H       0.511228     -6.019144      1.520955
  H       1.819099     -4.899808      1.847992
  C      -0.036932      5.020500      1.440802
  H      -1.012316      4.813247      1.895123
  H      -0.235143      5.325702      0.409359
  C       7.495571      0.784315      0.448884
  H       7.019750     -0.030485      1.001792
  H       7.986328      0.321910     -0.413961
  C       8.539817      1.448858      1.336243
  H       9.288960      0.729928      1.671057
  H       9.059456      2.249024      0.804169
  H       8.078963      1.887396      2.224176
  C       0.639663      6.168159      2.178868
  H       1.601331      6.411477      1.721421
  H       0.025368      7.069985      2.163105
  H       0.826054      5.909542      3.223869
  C      -5.384520      2.972326      2.819971
  H      -5.706609      4.015129      2.810534
  H      -5.923367      2.462811      3.622019
  H      -4.322038      2.952145      3.074327
  C       1.092070     -5.939361      3.587446
  H       0.159093     -6.344424      3.986359
  H       1.806193     -6.761162      3.510539
  H       1.480221     -5.225355      4.317460
104
Coordinates from ORCA-job orca E -2047.525150400687
  C       0.468272      0.289506     -1.068777
  C       0.928213      0.274430      0.393897
  O       1.374230     -0.707762      0.926740
  O       0.981479      1.429397      1.063606
  C      -0.557985      1.411969     -1.291251
  H      -1.487988      1.147316     -0.791794
  H      -0.761940      1.503312     -2.361255
  C       0.138729      2.569625      0.777419
  H      -0.818796      2.358836      1.268658
  C      -0.092350      2.735959     -0.708921
  H      -0.867378      3.490502     -0.856636
  H       0.812531      3.115165     -1.190101
  C       0.011882     -1.115730     -1.514482
  H       0.811810     -1.796005     -1.226278
  H       0.007784     -1.123033     -2.609042
  C       1.730437      0.665937     -1.920398
  C       2.814997     -0.355164     -2.171091
  H       2.182874      1.549909     -1.472110
  H       1.353268      0.989744     -2.892933
  C       4.111503      3.119618     -1.049488
  C       3.699932     -0.819384     -1.040070
  C       3.007115     -0.817073     -3.402352
  O       3.473733      4.014822     -1.485718
  O       4.710695      2.161893     -1.720114
  H       4.469897     -1.474388     -1.457355
  H       3.105811     -1.427703     -0.356356
  C       4.379501      0.265214     -0.200147
  H       2.379525     -0.508715     -4.230825
  H       3.802286     -1.519262     -3.625997
  C       5.391034      1.132468     -0.936066
  H       4.898667     -0.237864      0.618012
  H       3.646984      0.917446      0.286219
  H       5.887510      0.551912     -1.717342
  C       0.814465      3.750545      1.446806
  H       1.774509      3.928415      0.950977
  H       1.037255      3.470162      2.480023
  C       6.436392      1.770351     -0.033310
  H       5.935240      2.249198      0.814836
  H       6.933854      2.566178     -0.595914
  C      -3.978782     -1.533703     -1.804593
  C      -4.333203     -2.005256     -0.391487
  O      -3.975384     -3.083475      0.009736
  O      -5.109214     -1.265636      0.396026
  C      -4.785305     -0.279866     -2.171676
  H      -5.817901     -0.563991     -2.400054
  H      -4.373316      0.156344     -3.085509
  C      -5.472259      0.113912      0.176049
  H      -6.553071      0.091842     -0.008234
  C      -4.781221      0.717075     -1.030247
  H      -5.308051      1.630547     -1.310819
  H      -3.759835      0.994678     -0.759192
  C      -4.398574     -2.667369     -2.752755
  H      -3.883774     -3.599157     -2.534355
  H      -4.186454     -2.379287     -3.784992
  C      -2.463379     -1.187131     -1.969840
  C      -1.344039     -1.781520     -1.083721
  H      -2.383533     -0.107857     -1.914827
  H      -2.201445     -1.449508     -3.000036
  C      -1.583728     -1.433773      0.385373
  C      -1.189619     -3.306584     -1.338098
  O      -2.167120     -0.421910      0.706049
  O      -1.106504     -2.217576      1.332821
  H      -0.346995     -3.447069     -2.019863
  H      -2.067812     -3.675990     -1.857797
  C      -0.991344     -4.150897     -0.081607
  C      -0.298763     -3.368817      1.009911
  H      -0.408995     -5.042194     -0.321223
  H      -1.960401     -4.475865      0.300830
  H       0.673169     -2.992274      0.676308
  C      -5.189414      0.839017      1.481151
  H      -4.117355      0.760779      1.680875
  H      -5.699179      0.300381      2.284786
  C      -0.119286     -4.115159      2.317282
  H      -1.095821     -4.478767      2.653029
  H       0.222823     -3.392609      3.063233
  H      -5.470160     -2.859383     -2.668626
  C      -5.629967      2.298395      1.481106
  H      -6.694905      2.363390      1.230333
  H      -5.097319      2.849227      0.700020
  C       0.874334     -5.267803      2.229710
  H       0.520121     -6.015759      1.514289
  H       1.827024     -4.894696      1.838788
  C      -0.024885      5.023044      1.431656
  H      -1.001382      4.821540      1.886046
  H      -0.221250      5.327872      0.399804
  C       7.486820      0.783791      0.467063
  H       7.007411     -0.029691      1.018693
  H       7.981790      0.319609     -0.392353
  C       8.526887      1.448883      1.358845
  H       9.273593      0.729916      1.698792
  H       9.049932      2.247647      0.828077
  H       8.061799      1.889446      2.243495
  C       0.657481      6.168156      2.168375
  H       1.620182      6.406214      1.710464
  H       0.047597      7.072883      2.151771
  H       0.842748      5.909702      3.213556
  C      -5.379862      2.972645      2.824015
  H      -5.702963      4.015069      2.814323
  H      -5.917076      2.463219      3.627150
  H      -4.317074      2.953685      3.076910
  C       1.104658     -5.934857      3.579634
  H       0.172987     -6.340973      3.980365
  H       1.819696     -6.755672      3.501462
  H       1.493299     -5.220198      4.308667
104
Coordinates from ORCA-job orca E -2047.525162041416
  C       0.467486      0.290539     -1.070167
  C       0.930595      0.277413      0.391430
  O       1.381733     -0.702937      0.923366
  O       0.981253      1.432507      1.060936
  C      -0.562067      1.410293     -1.290767
  H      -1.489818      1.143805     -0.787891
  H      -0.769773      1.499947     -2.360177
  C       0.138701      2.572603      0.774220
  H      -0.817272      2.363732      1.269288
  C      -0.097771      2.736008     -0.711616
  H      -0.875027      3.488558     -0.857672
  H       0.804225      3.116490     -1.196970
  C       0.012006     -1.115475     -1.514340
  H       0.812393     -1.795365     -1.226584
  H       0.006808     -1.123281     -2.608871
  C       1.727790      0.668538     -1.923910
  C       2.810824     -0.353283     -2.178054
  H       2.181996      1.551087     -1.474383
  H       1.349089      0.994746     -2.895038
  C       4.114370      3.115548     -1.051120
  C       3.695259     -0.821751     -1.048333
  C       3.001189     -0.812967     -3.410377
  O       3.483704      4.014413     -1.490003
  O       4.714622      2.156703     -1.719230
  H       4.465819     -1.474569     -1.467942
  H       3.100570     -1.433547     -0.368142
  C       4.373755      0.258909     -0.202661
  H       2.373530     -0.501872     -4.237758
  H       3.795110     -1.515882     -3.636115
  C       5.389729      1.126220     -0.932149
  H       4.888960     -0.247635      0.615846
  H       3.641188      0.911304      0.283435
  H       5.890320      0.545775     -1.710866
  C       0.817356      3.754759      1.438510
  H       1.776139      3.930544      0.939370
  H       1.043210      3.476832      2.471725
  C       6.430616      1.762425     -0.023014
  H       5.925505      2.239828      0.823589
  H       6.930971      2.559208     -0.581670
  C      -3.978798     -1.532119     -1.803314
  C      -4.334027     -2.005432     -0.390991
  O      -3.977832     -3.084891      0.008342
  O      -5.110099     -1.266604      0.397204
  C      -4.784697     -0.277573     -2.169393
  H      -5.817195     -0.560935     -2.399080
  H      -4.371668      0.159710     -3.082237
  C      -5.473452      0.113047      0.178212
  H      -6.554038      0.090886     -0.007400
  C      -4.781183      0.717722     -1.026572
  H      -5.307489      1.631788     -1.306190
  H      -3.759940      0.994505     -0.754134
  C      -4.398525     -2.664346     -2.753202
  H      -3.884168     -3.596665     -2.536059
  H      -4.185910     -2.374847     -3.784946
  C      -2.463235     -1.185480     -1.967651
  C      -1.343709     -1.780597     -1.082218
  H      -2.383463     -0.106195     -1.911909
  H      -2.201077     -1.446957     -2.998019
  C      -1.581506     -1.432666      0.387079
  C      -1.191289     -3.305766     -1.336791
  O      -2.160472     -0.418484      0.708357
  O      -1.102911     -2.216540      1.333780
  H      -0.352310     -3.446815     -2.022910
  H      -2.072394     -3.674878     -1.851668
  C      -0.987535     -4.149843     -0.080890
  C      -0.294004     -3.366416      1.009060
  H      -0.403586     -5.039669     -0.322008
  H      -1.954838     -4.477222      0.304039
  H       0.676413     -2.988249      0.673073
  C      -5.192300      0.836857      1.484354
  H      -4.120458      0.758580      1.685290
  H      -5.703016      0.297449      2.286854
  C      -0.109534     -4.112496      2.315852
  H      -1.084319     -4.478191      2.654387
  H       0.233302     -3.389339      3.060869
  H      -5.470212     -2.856031     -2.669727
  C      -5.633085      2.296189      1.485152
  H      -6.697723      2.361152      1.233111
  H      -5.099588      2.847800      0.705209
  C       0.886379     -5.262911      2.225163
  H       0.531728     -6.011594      1.510735
  H       1.837067     -4.887585      1.831454
  C      -0.021277      5.027697      1.423091
  H      -0.996498      4.827612      1.880815
  H      -0.220573      5.330557      0.391232
  C       7.478549      0.774777      0.480566
  H       6.996463     -0.039747      1.028284
  H       7.977581      0.312221     -0.377374
  C       8.514460      1.438010      1.378528
  H       9.259482      0.718337      1.720616
  H       9.039999      2.237674      0.851580
  H       8.045338      1.877148      2.261742
  C       0.663744      6.174000      2.155539
  H       1.624867      6.411144      1.693880
  H       0.053826      7.078691      2.139508
  H       0.852520      5.917254      3.200501
  C      -5.385106      2.969356      2.828997
  H      -5.708891      4.011560      2.819763
  H      -5.923174      2.458894      3.630898
  H      -4.322707      2.950851      3.083487
  C       1.122256     -5.929588      3.574334
  H       0.192693     -6.337742      3.977844
  H       1.838910     -6.748756      3.493854
  H       1.511553     -5.214092      4.302181
104
Coordinates from ORCA-job orca E -2047.525161725755
  C       0.467181      0.294478     -1.067205
  C       0.930649      0.282903      0.394297
  O       1.382511     -0.696639      0.927165
  O       0.977829      1.437875      1.064125
  C      -0.563297      1.413314     -1.288474
  H      -1.490439      1.146508     -0.784596
  H      -0.771814      1.501692     -2.357877
  C       0.137404      2.578823      0.774911
  H      -0.818820      2.372479      1.270621
  C      -0.099713      2.740020     -0.711095
  H      -0.877544      3.491936     -0.857587
  H       0.801561      3.120203     -1.197940
  C       0.012333     -1.111934     -1.511286
  H       0.812597     -1.791761     -1.222953
  H       0.008470     -1.119566     -2.605875
  C       1.727623      0.672296     -1.921174
  C       2.807718     -0.351731     -2.179190
  H       2.184619      1.552465     -1.469561
  H       1.348784      1.002223     -2.891033
  C       4.122514      3.109080     -1.056957
  C       3.692994     -0.824601     -1.051925
  C       2.994562     -0.809833     -3.412647
  O       3.497406      4.010268     -1.498998
  O       4.722255      2.147753     -1.722020
  H       4.462053     -1.477407     -1.474400
  H       3.098133     -1.437483     -0.372746
  C       4.374294      0.252410     -0.204112
  H       2.365975     -0.495912     -4.238301
  H       3.786395     -1.514274     -3.641108
  C       5.393539      1.117292     -0.931740
  H       4.887520     -0.257064      0.613867
  H       3.643820      0.906534      0.282886
  H       5.895462      0.534961     -1.708254
  C       0.817751      3.761299      1.437043
  H       1.776975      3.934729      0.937909
  H       1.043024      3.484947      2.470850
  C       6.433200      1.752671     -0.020554
  H       5.927062      2.231089      0.824884
  H       6.935615      2.548672     -0.578552
  C      -3.977698     -1.532000     -1.803081
  C      -4.329827     -2.005865     -0.390202
  O      -3.974678     -3.086503      0.006893
  O      -5.108167     -1.269472      0.398065
  C      -4.786029     -0.278722     -2.168630
  H      -5.817960     -0.564003     -2.398628
  H      -4.373764      0.159806     -3.081265
  C      -5.475959      0.109001      0.179042
  H      -6.556437      0.083590     -0.007067
  C      -4.784951      0.715995     -1.025283
  H      -5.313368      1.629014     -1.304423
  H      -3.764411      0.995000     -0.752489
  C      -4.396142     -2.665104     -2.752522
  H      -3.879770     -3.596487     -2.535811
  H      -4.184984     -2.375325     -3.784514
  C      -2.462825     -1.183522     -1.967854
  C      -1.344001     -1.777977     -1.081467
  H      -2.384173     -0.104186     -1.912151
  H      -2.200054     -1.445069     -2.998089
  C      -1.585746     -1.432495      0.387835
  C      -1.190969     -3.302710     -1.337652
  O      -2.165868     -0.419062      0.709371
  O      -1.107752     -2.217098      1.334256
  H      -0.353514     -3.442354     -2.025990
  H      -2.073103     -3.672035     -1.850683
  C      -0.984079     -4.147887     -0.082883
  C      -0.294263     -3.363410      1.008683
  H      -0.396401     -5.035014     -0.324949
  H      -1.950315     -4.479753      0.301125
  H       0.674857     -2.981062      0.673807
  C      -5.197424      0.833250      1.485457
  H      -4.125376      0.758067      1.686682
  H      -5.706839      0.292039      2.287620
  C      -0.107277     -4.110569      2.314461
  H      -1.080392     -4.481986      2.651690
  H       0.231198     -3.386765      3.060891
  H      -5.467424     -2.858810     -2.668075
  C      -5.642575      2.291254      1.486554
  H      -6.707179      2.353185      1.233410
  H      -5.109910      2.844830      0.707388
  C       0.895122     -5.255250      2.222580
  H       0.545449     -6.004436      1.506187
  H       1.844180     -4.873768      1.830622
  C      -0.019131      5.035339      1.419149
  H      -0.994930      4.837155      1.876567
  H      -0.217476      5.336934      0.386687
  C       7.479076      0.764052      0.485420
  H       6.995125     -0.049384      1.033205
  H       7.978659      0.300024     -0.371457
  C       8.514709      1.426735      1.384117
  H       9.258397      0.706425      1.727864
  H       9.041920      2.225196      0.856931
  H       8.045107      1.867507      2.266302
  C       0.666767      6.181928      2.150381
  H       1.628356      6.417497      1.688811
  H       0.057678      7.087195      2.132914
  H       0.854796      5.926342      3.195800
  C      -5.398117      2.964518      2.830965
  H      -5.724904      4.005830      2.821762
  H      -5.935799      2.452180      3.631983
  H      -4.335990      2.948922      3.086916
  C       1.133177     -5.923508      3.570606
  H       0.205411     -6.337711      3.972162
  H       1.854557     -6.738462      3.489154
  H       1.517619     -5.207390      4.300477
104
Coordinates from ORCA-job orca E -2047.525168282615
  C       0.466055      0.294194     -1.066430
  C       0.927781      0.283102      0.395549
  O       1.378866     -0.696305      0.929371
  O       0.974171      1.438210      1.065093
  C      -0.563781      1.413292     -1.289254
  H      -1.491411      1.147232     -0.785732
  H      -0.771515      1.500896     -2.358880
  C       0.136124      2.580316      0.773586
  H      -0.820959      2.376237      1.268600
  C      -0.099606      2.740204     -0.712785
  H      -0.876672      3.492685     -0.860503
  H       0.802349      3.118912     -1.199541
  C       0.010774     -1.111998     -1.510432
  H       0.810616     -1.792305     -1.222059
  H       0.006912     -1.119633     -2.605038
  C       1.727821      0.671134     -1.919090
  C       2.807412     -0.353756     -2.175689
  H       2.184945      1.551059     -1.467093
  H       1.350298      1.001098     -2.889467
  C       4.125497      3.106108     -1.060049
  C       3.691823     -0.826376     -1.047643
  C       2.994635     -0.812961     -3.408693
  O       3.501855      4.007063     -1.504658
  O       4.724828      2.142784     -1.722625
  H       4.460110     -1.480798     -1.469037
  H       3.096001     -1.437461     -0.367636
  C       4.374460      0.250790     -0.201156
  H       2.366589     -0.499356     -4.234888
  H       3.786133     -1.518109     -3.636159
  C       5.394790      1.113440     -0.929871
  H       4.887306     -0.258404      0.617264
  H       3.644858      0.906334      0.285248
  H       5.896819      0.529104     -1.704844
  C       0.817598      3.762484      1.435152
  H       1.777512      3.934188      0.936833
  H       1.041476      3.486755      2.469436
  C       6.434500      1.749777     -0.019393
  H       5.928430      2.230174      0.824960
  H       6.937542      2.544416     -0.578802
  C      -3.979533     -1.530335     -1.804135
  C      -4.333969     -2.006398     -0.392544
  O      -3.977185     -3.086425      0.004730
  O      -5.111368     -1.269930      0.396605
  C      -4.787353     -0.276504     -2.168869
  H      -5.819178     -0.561335     -2.399955
  H      -4.374342      0.162907     -3.080750
  C      -5.478584      0.108878      0.178820
  H      -6.558982      0.083945     -0.007860
  C      -4.786814      0.717013     -1.024491
  H      -5.314847      1.630461     -1.302975
  H      -3.766366      0.995529     -0.750857
  C      -4.396726     -2.661836     -2.756017
  H      -3.880584     -3.593549     -2.540180
  H      -4.184228     -2.370356     -3.787256
  C      -2.464327     -1.181537     -1.966657
  C      -1.345862     -1.777114     -1.080450
  H      -2.385736     -0.102248     -1.909332
  H      -2.200661     -1.441481     -2.997078
  C      -1.586449     -1.431848      0.389128
  C      -1.194132     -3.301877     -1.336938
  O      -2.166080     -0.418408      0.711461
  O      -1.106798     -2.216351      1.334824
  H      -0.358666     -3.441830     -2.027653
  H      -2.077847     -3.670899     -1.847432
  C      -0.984201     -4.146980     -0.082568
  C      -0.292910     -3.361986      1.007711
  H      -0.396362     -5.033724     -0.325653
  H      -1.949530     -4.479443      0.303243
  H       0.675203     -2.978827      0.670904
  C      -5.200571      0.831599      1.486190
  H      -4.128567      0.756257      1.687643
  H      -5.710219      0.289202      2.287423
  C      -0.102456     -4.108946      2.313087
  H      -1.074418     -4.481431      2.652482
  H       0.236856     -3.384766      3.058779
  H      -5.468107     -2.855767     -2.673330
  C      -5.646086      2.289466      1.488948
  H      -6.710212      2.351620      1.233783
  H      -5.112061      2.844489      0.711722
  C       0.901026     -5.252470      2.218786
  H       0.550559     -6.001881      1.502994
  H       1.848735     -4.869860      1.824629
  C      -0.017544      5.037613      1.415006
  H      -0.994273      4.841105      1.871188
  H      -0.214125      5.338514      0.381982
  C       7.479619      0.761543      0.488792
  H       6.995102     -0.050084      1.038801
  H       7.978545      0.294859     -0.367044
  C       8.516051      1.425683      1.385467
  H       9.259308      0.705698      1.730853
  H       9.043721      2.222388      0.856077
  H       8.047082      1.869082      2.266684
  C       0.668739      6.183996      2.146153
  H       1.631382      6.417898      1.685911
  H       0.060834      7.090035      2.126864
  H       0.854791      5.929206      3.192132
  C      -5.404478      2.960528      2.834941
  H      -5.731026      4.001939      2.826666
  H      -5.944087      2.447069      3.633957
  H      -4.342955      2.944318      3.093328
  C       1.142911     -5.920847      3.566052
  H       0.216477     -6.335917      3.969811
  H       1.864789     -6.735171      3.482635
  H       1.528542     -5.204628      4.295216
104
Coordinates from ORCA-job orca E -2047.525174960536
  C       0.464540      0.296090     -1.065295
  C       0.925216      0.286326      0.396900
  O       1.375807     -0.692554      0.932127
  O       0.970256      1.441751      1.065795
  C      -0.565670      1.414529     -1.289197
  H      -1.493082      1.148884     -0.784922
  H      -0.773780      1.500547     -2.358835
  C       0.134776      2.584969      0.771510
  H      -0.822807      2.384153      1.266904
  C      -0.100916      2.742220     -0.715122
  H      -0.877557      3.494890     -0.863876
  H       0.801059      3.119271     -1.203004
  C       0.009694     -1.110047     -1.509221
  H       0.809438     -1.790474     -1.221027
  H       0.005740     -1.117561     -2.603800
  C       1.727086      0.673062     -1.917069
  C       2.805210     -0.352910     -2.175554
  H       2.185172      1.551461     -1.463132
  H       1.350192      1.005465     -2.886853
  C       4.127216      3.102053     -1.046787
  C       3.688067     -0.830372     -1.048355
  C       2.992723     -0.808860     -3.409726
  O       3.504789      4.005645     -1.487723
  O       4.724526      2.140303     -1.713493
  H       4.454929     -1.485685     -1.470893
  H       3.090574     -1.441477     -0.369846
  C       4.373157      0.242944     -0.198820
  H       2.366014     -0.491570     -4.235517
  H       3.783057     -1.514851     -3.638498
  C       5.393708      1.107070     -0.925414
  H       4.886855     -0.270098      0.616691
  H       3.645009      0.897379      0.291181
  H       5.894332      0.524857     -1.702881
  C       0.818502      3.767175      1.430647
  H       1.778358      3.936846      0.931531
  H       1.042535      3.492667      2.465187
  C       6.435238      1.738612     -0.013670
  H       5.930756      2.216479      0.833042
  H       6.938348      2.534783     -0.570841
  C      -3.980297     -1.529169     -1.805830
  C      -4.336975     -2.008062     -0.395687
  O      -3.978819     -3.087702      0.001338
  O      -5.115162     -1.272793      0.393810
  C      -4.788157     -0.275146     -2.169498
  H      -5.819471     -0.560222     -2.402541
  H      -4.374149      0.165913     -3.080094
  C      -5.483332      0.105910      0.177497
  H      -6.563323      0.080193     -0.011318
  C      -4.789870      0.716530     -1.023540
  H      -5.317844      1.630222     -1.301366
  H      -3.769940      0.994995     -0.747862
  C      -4.395397     -2.658850     -2.760737
  H      -3.878955     -3.590653     -2.546138
  H      -4.181548     -2.365099     -3.791027
  C      -2.464968     -1.179254     -1.965882
  C      -1.346868     -1.774825     -1.079257
  H      -2.387054     -0.099964     -1.907308
  H      -2.200069     -1.437919     -2.996281
  C      -1.587007     -1.428700      0.390188
  C      -1.195473     -3.299726     -1.334892
  O      -2.169980     -0.417176      0.712346
  O      -1.105809     -2.212377      1.335884
  H      -0.362617     -3.439993     -2.028693
  H      -2.081013     -3.669467     -1.841496
  C      -0.981116     -4.143538     -0.080326
  C      -0.289516     -3.356165      1.008014
  H      -0.391981     -5.029309     -0.323704
  H      -1.945084     -4.477568      0.307563
  H       0.676777     -2.970704      0.668811
  C      -5.208748      0.826742      1.486612
  H      -4.137104      0.752107      1.690063
  H      -5.719461      0.282252      2.285738
  C      -0.093647     -4.101680      2.313336
  H      -1.063288     -4.477903      2.655166
  H       0.244458     -3.375810      3.057917
  H      -5.466751     -2.853734     -2.680163
  C      -5.655949      2.284011      1.490817
  H      -6.718902      2.345734      1.230727
  H      -5.118905      2.841441      0.717404
  C       0.914298     -5.241016      2.216735
  H       0.565184     -5.991788      1.501703
  H       1.859334     -4.854433      1.820068
  C      -0.014807      5.043448      1.408526
  H      -0.991830      4.849128      1.864969
  H      -0.211092      5.342809      0.375009
  C       7.479875      0.747432      0.489604
  H       6.995254     -0.064921      1.038436
  H       7.976328      0.282276     -0.368479
  C       8.519009      1.407707      1.385976
  H       9.262064      0.685871      1.727891
  H       9.046634      2.205237      0.857835
  H       8.052374      1.849127      2.269409
  C       0.673013      6.190136      2.137614
  H       1.636205      6.421735      1.677390
  H       0.066508      7.097046      2.116375
  H       0.858311      5.937143      3.184146
  C      -5.421226      2.952087      2.839432
  H      -5.747525      3.993571      2.831742
  H      -5.965048      2.437067      3.634554
  H      -4.361096      2.935147      3.103336
  C       1.162270     -5.908573      3.563226
  H       0.238479     -6.327010      3.969522
  H       1.886880     -6.720237      3.477777
  H       1.547260     -5.191120      4.291499
104
Coordinates from ORCA-job orca E -2047.525181590421
  C       0.461506      0.296131     -1.061773
  C       0.919271      0.287866      0.401181
  O       1.368287     -0.690639      0.938506
  O       0.964486      1.443909      1.068677
  C      -0.566012      1.416325     -1.288936
  H      -1.494443      1.154069     -0.784540
  H      -0.773230      1.500108     -2.358898
  C       0.135969      2.590741      0.769078
  H      -0.823435      2.397216      1.263870
  C      -0.097425      2.744208     -0.718309
  H      -0.871215      3.499236     -0.869848
  H       0.806369      3.116261     -1.206732
  C       0.005003     -1.109341     -1.505966
  H       0.803261     -1.791235     -1.217259
  H       0.002379     -1.116587     -2.600511
  C       1.727080      0.669883     -1.910753
  C       2.803807     -0.358637     -2.164928
  H       2.185527      1.547884     -1.456498
  H       1.353415      1.001648     -2.881999
  C       4.133640      3.093694     -1.050720
  C       3.683153     -0.835917     -1.034940
  C       2.993760     -0.816644     -3.398003
  O       3.512184      3.995706     -1.496301
  O       4.729046      2.127533     -1.712789
  H       4.447069     -1.497057     -1.453672
  H       3.082161     -1.440624     -0.353697
  C       4.373007      0.237965     -0.189739
  H       2.369909     -0.499080     -4.225848
  H       3.783248     -1.524575     -3.623634
  C       5.395629      1.096356     -0.920144
  H       4.886539     -0.274264      0.626418
  H       3.647489      0.896178      0.298999
  H       5.895171      0.509379     -1.694726
  C       0.825184      3.771458      1.425271
  H       1.786193      3.935284      0.926492
  H       1.046977      3.498621      2.460727
  C       6.438397      1.729814     -0.011049
  H       5.934620      2.213346      0.832862
  H       6.943440      2.521936     -0.572257
  C      -3.985142     -1.525653     -1.808080
  C      -4.343914     -2.008756     -0.399824
  O      -3.984148     -3.088213     -0.003824
  O      -5.123285     -1.275617      0.390499
  C      -4.792988     -0.271058     -2.169564
  H      -5.823685     -0.556291     -2.405214
  H      -4.377755      0.172612     -3.078316
  C      -5.493255      0.102872      0.176667
  H      -6.572694      0.075840     -0.015179
  C      -4.797599      0.717573     -1.020983
  H      -5.325607      1.631682     -1.297443
  H      -3.778363      0.995901     -0.742530
  C      -4.398024     -2.652562     -2.767212
  H      -3.880718     -3.584480     -2.555195
  H      -4.183328     -2.355254     -3.796300
  C      -2.469613     -1.174906     -1.964913
  C      -1.352953     -1.772471     -1.077950
  H      -2.391908     -0.095752     -1.903515
  H      -2.203284     -1.431131     -2.995535
  C      -1.594033     -1.428198      0.391814
  C      -1.203519     -3.297288     -1.334685
  O      -2.178799     -0.418310      0.715607
  O      -1.108315     -2.211095      1.336050
  H      -0.375475     -3.437561     -2.034254
  H      -2.092750     -3.666761     -1.834760
  C      -0.981501     -4.140855     -0.081178
  C      -0.288176     -3.351210      1.004365
  H      -0.390901     -5.025016     -0.326732
  H      -1.943121     -4.477504      0.310364
  H       0.674637     -2.961357      0.660596
  C      -5.223738      0.820598      1.488532
  H      -4.152534      0.747274      1.694743
  H      -5.735727      0.272656      2.284494
  C      -0.081581     -4.096312      2.308151
  H      -1.046772     -4.479785      2.654475
  H       0.255087     -3.368771      3.051734
  H      -5.469228     -2.849072     -2.688655
  C      -5.673728      2.276890      1.495398
  H      -6.734861      2.337940      1.227810
  H      -5.132094      2.838318      0.728068
  C       0.934095     -5.228086      2.204532
  H       0.586867     -5.979805      1.489540
  H       1.874152     -4.833700      1.803692
  C      -0.001706      5.051796      1.398183
  H      -0.980495      4.863828      1.853432
  H      -0.194868      5.348920      0.363419
  C       7.480449      0.739048      0.498249
  H       6.993758     -0.068152      1.052823
  H       7.975199      0.266649     -0.356850
  C       8.521610      1.402508      1.389890
  H       9.263044      0.681141      1.736308
  H       9.051038      2.195328      0.856532
  H       8.056322      1.850623      2.270669
  C       0.690540      6.197237      2.124882
  H       1.656039      6.422305      1.666241
  H       0.088884      7.107254      2.099309
  H       0.872212      5.946815      3.172670
  C      -5.449458      2.939867      2.848220
  H      -5.774900      3.981632      2.841765
  H      -5.999946      2.422410      3.637142
  H      -4.391505      2.921158      3.120528
  C       1.193580     -5.896911      3.548131
  H       0.274658     -6.321956      3.958603
  H       1.922794     -6.703821      3.456955
  H       1.578030     -5.178780      4.276024
104
Coordinates from ORCA-job orca E -2047.525185965105
  C       0.462537      0.296908     -1.055304
  C       0.920492      0.290369      0.407643
  O       1.370033     -0.687326      0.946024
  O       0.964700      1.446741      1.074490
  C      -0.564120      1.417816     -1.283481
  H      -1.492653      1.156848     -0.778283
  H      -0.771982      1.500109     -2.353456
  C       0.139158      2.595040      0.772541
  H      -0.820744      2.404990      1.267719
  C      -0.094241      2.746282     -0.715063
  H      -0.867384      3.501818     -0.867463
  H       0.809725      3.116765     -1.204372
  C       0.004448     -1.108200     -1.499124
  H       0.800574     -1.791641     -1.208124
  H       0.004862     -1.116051     -2.593677
  C       1.728712      0.667688     -1.904830
  C       2.802291     -0.363829     -2.160700
  H       2.189929      1.544032     -1.450300
  H       1.355332      1.001198     -2.875608
  C       4.138562      3.082451     -1.051745
  C       3.681365     -0.844616     -1.032034
  C       2.990333     -0.820723     -3.394504
  O       3.515826      3.983830     -1.496887
  O       4.731881      2.115259     -1.714172
  H       4.441913     -1.509075     -1.451614
  H       3.079397     -1.446362     -0.348975
  C       4.376706      0.227461     -0.188857
  H       2.367012     -0.500167     -4.221595
  H       3.777563     -1.530767     -3.621395
  C       5.398886      1.083866     -0.922239
  H       4.891995     -0.286220      0.625250
  H       3.653997      0.887054      0.302189
  H       5.896066      0.495625     -1.697392
  C       0.831148      3.775400      1.426597
  H       1.792416      3.936459      0.927453
  H       1.052396      3.503739      2.462489
  C       6.444211      1.716962     -0.015708
  H       5.942311      2.202384      0.828276
  H       6.949348      2.507628     -0.578891
  C      -3.985326     -1.520447     -1.815294
  C      -4.348575     -2.009644     -0.410257
  O      -3.989394     -3.090356     -0.017141
  O      -5.131967     -1.280639      0.379925
  C      -4.791810     -0.264181     -2.174152
  H      -5.821426     -0.548588     -2.415532
  H      -4.372861      0.183807     -3.079101
  C      -5.503478      0.097945      0.169963
  H      -6.581710      0.069733     -0.028575
  C      -4.801848      0.718978     -1.020870
  H      -5.328674      1.634320     -1.295503
  H      -3.783940      0.995921     -0.736118
  C      -4.395455     -2.642980     -2.780807
  H      -3.878126     -3.575683     -2.572356
  H      -4.178531     -2.340579     -3.807954
  C      -2.469177     -1.169428     -1.965867
  C      -1.356162     -1.768412     -1.075374
  H      -2.391726     -0.090375     -1.902175
  H      -2.199088     -1.424044     -2.995932
  C      -1.601323     -1.423502      0.393498
  C      -1.208376     -3.293561     -1.330706
  O      -2.191317     -0.416223      0.715685
  O      -1.115226     -2.205164      1.338783
  H      -0.383415     -3.434901     -2.033755
  H      -2.100196     -3.663278     -1.825785
  C      -0.981789     -4.135229     -0.076618
  C      -0.290031     -3.341689      1.007048
  H      -0.388865     -5.017948     -0.321749
  H      -1.941981     -4.474401      0.316362
  H       0.669966     -2.947406      0.660843
  C      -5.243686      0.810278      1.486746
  H      -4.173495      0.739019      1.699012
  H      -5.758854      0.257016      2.276964
  C      -0.075619     -4.084539      2.310738
  H      -1.036534     -4.477319      2.658586
  H       0.255362     -3.353828      3.053759
  H      -5.466735     -2.840511     -2.705786
  C      -5.698077      2.265176      1.497705
  H      -6.756743      2.324705      1.220190
  H      -5.150681      2.832615      0.738904
  C       0.951152     -5.206039      2.204715
  H       0.610471     -5.960301      1.489222
  H       1.886511     -4.801498      1.802819
  C       0.007296      5.057659      1.397020
  H      -0.972268      4.872890      1.851883
  H      -0.184453      5.353484      0.361596
  C       7.485720      0.725694      0.493712
  H       6.998812     -0.079570      1.050900
  H       7.978391      0.250776     -0.361195
  C       8.529126      1.389566      1.382426
  H       9.270324      0.668015      1.728992
  H       9.058619      2.180891      0.846920
  H       8.065630      1.839585      2.263191
  C       0.701754      6.202578      2.122377
  H       1.668324      6.424393      1.664363
  H       0.102471      7.114111      2.094716
  H       0.881858      5.953465      3.170767
  C      -5.488607      2.920920      2.856445
  H      -5.815128      3.962369      2.852440
  H      -6.046519      2.398496      3.636842
  H      -4.433475      2.901919      3.139389
  C       1.219243     -5.874028      3.547004
  H       0.304985     -6.307979      3.958608
  H       1.955711     -6.674080      3.453508
  H       1.598352     -5.153336      4.275190
104
Coordinates from ORCA-job orca E -2047.525193776239
  C       0.463236      0.298404     -1.058908
  C       0.922737      0.293093      0.403651
  O       1.372632     -0.684193      0.942452
  O       0.969320      1.450359      1.068879
  C      -0.563032      1.419728     -1.286635
  H      -1.490974      1.160161     -0.779605
  H      -0.772780      1.500875     -2.356342
  C       0.144041      2.598857      0.766893
  H      -0.815163      2.410125      1.263876
  C      -0.091346      2.748512     -0.720579
  H      -0.864160      3.504380     -0.873024
  H       0.812333      3.118079     -1.211172
  C       0.004347     -1.107043     -1.501309
  H       0.800642     -1.790277     -1.210374
  H       0.004180     -1.115847     -2.595862
  C       1.728538      0.668129     -1.909750
  C       2.801975     -0.363547     -2.165845
  H       2.190167      1.544705     -1.456157
  H       1.354501      1.001233     -2.880411
  C       4.135717      3.082987     -1.039214
  C       3.679100     -0.846734     -1.036683
  C       2.991216     -0.818646     -3.400093
  O       3.513345      3.986509     -1.480502
  O       4.729343      2.118670     -1.705449
  H       4.440922     -1.509506     -1.456585
  H       3.076400     -1.450905     -0.356450
  C       4.371651      0.223749     -0.189043
  H       2.369261     -0.496350     -4.227529
  H       3.778183     -1.528965     -3.627058
  C       5.394953      1.083313     -0.917289
  H       4.885150     -0.291728      0.625003
  H       3.646951      0.881327      0.301816
  H       5.892972      0.498592     -1.694532
  C       0.838285      3.779422      1.418188
  H       1.799330      3.937933      0.917744
  H       1.060109      3.509495      2.454401
  C       6.438929      1.712088     -0.006235
  H       5.935431      2.193854      0.838899
  H       6.945541      2.505001     -0.564845
  C      -3.985520     -1.520065     -1.812975
  C      -4.345942     -2.009900     -0.407452
  O      -3.986741     -3.091266     -0.016102
  O      -5.131678     -1.283560      0.382793
  C      -4.793561     -0.264325     -2.170583
  H      -5.822921     -0.549633     -2.411960
  H      -4.375263      0.184961     -3.075191
  C      -5.506147      0.094303      0.173415
  H      -6.584117      0.064034     -0.026328
  C      -4.804635      0.717623     -1.016235
  H      -5.332463      1.632632     -1.290010
  H      -3.787110      0.995203     -0.730866
  C      -4.396239     -2.642866     -2.777946
  H      -3.876504     -3.574766     -2.571749
  H      -4.182702     -2.339334     -3.805473
  C      -2.469890     -1.168190     -1.965732
  C      -1.356070     -1.766713     -1.076224
  H      -2.393020     -0.089121     -1.902284
  H      -2.200914     -1.422972     -2.996046
  C      -1.600163     -1.421473      0.392723
  C      -1.209076     -3.291970     -1.331206
  O      -2.190467     -0.414506      0.715249
  O      -1.112843     -2.202748      1.337866
  H      -0.385724     -3.433755     -2.036040
  H      -2.102458     -3.661513     -1.823652
  C      -0.980270     -4.133148     -0.077091
  C      -0.287488     -3.339016      1.005499
  H      -0.387532     -5.015832     -0.322802
  H      -1.939812     -4.472636      0.317203
  H       0.671840     -2.944573      0.658117
  C      -5.249387      0.806050      1.491042
  H      -4.179230      0.737558      1.704362
  H      -5.763863      0.250924      2.280377
  C      -0.070398     -4.081408      2.308920
  H      -1.029900     -4.476883      2.657604
  H       0.259610     -3.350103      3.051769
  H      -5.466934     -2.842403     -2.700009
  C      -5.707447      2.259832      1.502900
  H      -6.766072      2.316821      1.224781
  H      -5.160827      2.829395      0.745167
  C       0.959360     -5.200096      2.201265
  H       0.620039     -5.954911      1.485736
  H       1.893125     -4.792513      1.798719
  C       0.016622      5.063076      1.387124
  H      -0.962723      4.880984      1.843487
  H      -0.175559      5.357379      0.351369
  C       7.479077      0.718175      0.500878
  H       6.990657     -0.090180      1.052184
  H       7.974558      0.248142     -0.355083
  C       8.519564      1.377314      1.396555
  H       9.259829      0.653946      1.741279
  H       9.050524      2.171816      0.867242
  H       8.053114      1.822127      2.278388
  C       0.714030      6.207970      2.109796
  H       1.680390      6.427189      1.650100
  H       0.116403      7.120560      2.081417
  H       0.895053      5.960160      3.158332
  C      -5.500405      2.914710      2.862499
  H      -5.829068      3.955469      2.859285
  H      -6.057766      2.390246      3.641906
  H      -4.445383      2.897563      3.145956
  C       1.230763     -5.868013      3.542955
  H       0.318061     -6.304396      3.955401
  H       1.969082     -6.666199      3.448176
  H       1.608959     -5.146635      4.270914
104
Coordinates from ORCA-job orca E -2047.525198817102
  C       0.464868      0.297077     -1.060213
  C       0.925452      0.291722      0.402111
  O       1.374118     -0.685964      0.941124
  O       0.974636      1.449551      1.066449
  C      -0.560857      1.418980     -1.287409
  H      -1.488741      1.160075     -0.780030
  H      -0.771247      1.500309     -2.356983
  C       0.147615      2.597319      0.766074
  H      -0.810935      2.407040      1.263717
  C      -0.088596      2.747523     -0.721259
  H      -0.861459      3.503400     -0.873448
  H       0.815029      3.117652     -1.211569
  C       0.005318     -1.108419     -1.501972
  H       0.801495     -1.791548     -1.210459
  H       0.005648     -1.117812     -2.596537
  C       1.729412      0.665748     -1.912157
  C       2.804011     -0.365327     -2.166143
  H       2.190355      1.543969     -1.461073
  H       1.354774      0.996133     -2.883536
  C       4.131863      3.085082     -1.040331
  C       3.681560     -0.845580     -1.035954
  C       2.993864     -0.822369     -3.399567
  O       3.506809      3.987022     -1.481119
  O       4.726912      2.121827     -1.706691
  H       4.444756     -1.507248     -1.455149
  H       3.079978     -1.450550     -0.355351
  C       4.371770      0.227277     -0.189452
  H       2.371587     -0.502460     -4.227697
  H       3.781879     -1.531950     -3.625253
  C       5.394170      1.087342     -0.918426
  H       4.884842     -0.285838      0.626321
  H       3.645499      0.884636      0.299338
  H       5.892061      0.503086     -1.696078
  C       0.841510      3.778036      1.417436
  H       1.802844      3.935884      0.917349
  H       1.062761      3.508626      2.453916
  C       6.437810      1.717435     -0.008003
  H       5.934057      2.198544      0.837353
  H       6.943506      2.510865     -0.566687
  C      -3.984556     -1.518766     -1.813515
  C      -4.344668     -2.009258     -0.408094
  O      -3.985249     -3.090876     -0.017577
  O      -5.131043     -1.283979      0.382482
  C      -4.791097     -0.261601     -2.169721
  H      -5.820728     -0.545228     -2.411915
  H      -4.371766      0.188487     -3.073431
  C      -5.504976      0.094226      0.174147
  H      -6.582632      0.064539     -0.027411
  C      -4.801462      0.718573     -1.013765
  H      -5.327924      1.634704     -1.286466
  H      -3.783763      0.994129     -0.727071
  C      -4.397615     -2.640330     -2.778978
  H      -3.878163     -3.572865     -2.574990
  H      -4.185562     -2.335589     -3.806471
  C      -2.468657     -1.168623     -1.967072
  C      -1.355483     -1.767684     -1.077328
  H      -2.390875     -0.089571     -1.904008
  H      -2.200031     -1.424071     -2.997316
  C      -1.601169     -1.422556      0.391331
  C      -1.208001     -3.292949     -1.332380
  O      -2.190270     -0.414620      0.713121
  O      -1.115562     -2.204070      1.337200
  H      -0.383062     -3.434507     -2.035374
  H      -2.100393     -3.662382     -1.826631
  C      -0.981601     -4.134446     -0.077984
  C      -0.290616     -3.340993      1.006301
  H      -0.388734     -5.017263     -0.323033
  H      -1.941899     -4.473975      0.314392
  H       0.669977     -2.947420      0.661447
  C      -5.250425      0.804238      1.493091
  H      -4.180694      0.735612      1.708560
  H      -5.766440      0.248390      2.280906
  C      -0.076932     -4.084010      2.309903
  H      -1.037176     -4.480271      2.655630
  H       0.250834     -3.353127      3.054165
  H      -5.468347     -2.839079     -2.699410
  C      -5.708357      2.258159      1.506087
  H      -6.766819      2.315281      1.227381
  H      -5.161095      2.828608      0.749519
  C       0.953785     -5.202112      2.204336
  H       0.616932     -5.956688      1.487410
  H       1.888455     -4.793510      1.804842
  C       0.020434      5.062059      1.385888
  H      -0.958953      4.880689      1.842438
  H      -0.171383      5.356282      0.350060
  C       7.479344      0.724550      0.498404
  H       6.992006     -0.085599      1.048023
  H       7.976334      0.256869     -0.357971
  C       8.518161      1.384004      1.395879
  H       9.259399      0.661241      1.739805
  H       9.048108      2.180254      0.868141
  H       8.050416      1.826680      2.278099
  C       0.718626      6.206661      2.108409
  H       1.684851      6.425295      1.648146
  H       0.121430      7.119544      2.080314
  H       0.899966      5.958624      3.156831
  C      -5.502535      2.911452      2.866733
  H      -5.831625      3.952073      2.864574
  H      -6.060287      2.385669      3.644966
  H      -4.447681      2.894290      3.150810
  C       1.221893     -5.870593      3.546467
  H       0.308310     -6.307863      3.955996
  H       1.961024     -6.668212      3.453319
  H       1.597499     -5.149212      4.275747
104
Coordinates from ORCA-job orca E -2047.525199613039
  C       0.465799      0.296267     -1.059766
  C       0.925849      0.290622      0.402743
  O       1.372895     -0.687484      0.942288
  O       0.976951      1.448854      1.066386
  C      -0.559010      1.418909     -1.287281
  H      -1.487212      1.160784     -0.780029
  H      -0.769292      1.500262     -2.356876
  C       0.150216      2.596965      0.766205
  H      -0.808296      2.406840      1.263988
  C      -0.086007      2.747243     -0.721136
  H      -0.858539      3.503432     -0.873500
  H       0.817833      3.117163     -1.211235
  C       0.005204     -1.108937     -1.501247
  H       0.800916     -1.792519     -1.209469
  H       0.005651     -1.118601     -2.595812
  C       1.730610      0.663565     -1.911741
  C       2.805453     -0.367843     -2.163397
  H       2.191382      1.542712     -1.462299
  H       1.356328      0.992061     -2.883910
  C       4.133249      3.084550     -1.047205
  C       3.683400     -0.845172     -1.032212
  C       2.995176     -0.827818     -3.395749
  O       3.507505      3.984766     -1.490572
  O       4.728894      2.119744     -1.710676
  H       4.446917     -1.507154     -1.450382
  H       3.082327     -1.449388     -0.350470
  C       4.373201      0.229771     -0.188180
  H       2.372531     -0.510369     -4.224551
  H       3.783537     -1.537508     -3.619923
  C       5.396077      1.087458     -0.919233
  H       4.885334     -0.280974      0.629682
  H       3.646826      0.888801      0.298202
  H       5.893843      0.501063     -1.695351
  C       0.844713      3.777329      1.417579
  H       1.806912      3.933300      0.918606
  H       1.064289      3.508545      2.454594
  C       6.439621      1.719861     -0.010383
  H       5.935930      2.202839      0.833930
  H       6.945352      2.512015     -0.570844
  C      -3.984730     -1.516747     -1.813494
  C      -4.345728     -2.008299     -0.408709
  O      -3.986353     -3.090187     -0.018866
  O      -5.133605     -1.284283      0.381503
  C      -4.790966     -0.259273     -2.169532
  H      -5.820309     -0.542561     -2.413327
  H      -4.370384      0.191722     -3.072185
  C      -5.508108      0.093878      0.173580
  H      -6.585368      0.063809     -0.030116
  C      -4.802754      0.719619     -1.012469
  H      -5.328822      1.636103     -1.284772
  H      -3.785435      0.994615     -0.723958
  C      -4.397208     -2.637778     -2.779812
  H      -3.876860     -3.570114     -2.577017
  H      -4.185640     -2.331794     -3.807046
  C      -2.468722     -1.166809     -1.966072
  C      -1.356071     -1.767091     -1.076582
  H      -2.390702     -0.087810     -1.901996
  H      -2.199751     -1.421343     -2.996461
  C      -1.601382     -1.422238      0.392224
  C      -1.209944     -3.292424     -1.332208
  O      -2.190202     -0.414245      0.714430
  O      -1.116297     -2.204446      1.337768
  H      -0.385747     -3.434310     -2.035970
  H      -2.103140     -3.661198     -1.825585
  C      -0.982751     -4.134307     -0.078171
  C      -0.291570     -3.341260      1.006269
  H      -0.389714     -5.016839     -0.323857
  H      -1.942771     -4.474376      0.314444
  H       0.669119     -2.947647      0.661474
  C      -5.256551      0.802581      1.493718
  H      -4.187191      0.734556      1.711381
  H      -5.773816      0.245613      2.279933
  C      -0.077646     -4.084997      2.309467
  H      -1.037807     -4.481291      2.655390
  H       0.250708     -3.354679      3.054021
  H      -5.467777     -2.837340     -2.700098
  C      -5.715491      2.256234      1.507581
  H      -6.773515      2.312831      1.227080
  H      -5.167208      2.828035      0.752794
  C       0.952673     -5.203428      2.202796
  H       0.615116     -5.957628      1.485819
  H       1.887220     -4.794917      1.802954
  C       0.025553      5.062505      1.384252
  H      -0.954592      4.882910      1.839859
  H      -0.164549      5.356513      0.348055
  C       7.481297      0.728079      0.497942
  H       6.994085     -0.081643      1.048332
  H       7.978865      0.259549     -0.357635
  C       8.519603      1.389074      1.394912
  H       9.260968      0.666981      1.739966
  H       9.049408      2.184749      0.866145
  H       8.051529      1.832951      2.276354
  C       0.724690      6.206433      2.107030
  H       1.691514      6.423581      1.647319
  H       0.128679      7.120065      2.078241
  H       0.904878      5.958381      3.155644
  C      -5.512879      2.907919      2.869511
  H      -5.842850      3.948268      2.868038
  H      -6.071835      2.380593      3.645842
  H      -4.458595      2.891165      3.155700
  C       1.221443     -5.872449      3.544559
  H       0.307934     -6.309350      3.954647
  H       1.960098     -6.670413      3.450580
  H       1.598001     -5.151371      4.273642
104
Coordinates from ORCA-job orca E -2047.525200950353
  C       0.466851      0.296130     -1.060764
  C       0.926779      0.290995      0.401749
  O       1.370423     -0.687639      0.943024
  O       0.981024      1.450235      1.063586
  C      -0.556792      1.419657     -1.288891
  H      -1.485030      1.162990     -0.780965
  H      -0.767623      1.500284     -2.358428
  C       0.155156      2.598968      0.763050
  H      -0.803035      2.410131      1.261960
  C      -0.082241      2.748100     -0.724196
  H      -0.854347      3.504698     -0.876700
  H       0.821467      3.117040     -1.215303
  C       0.004871     -1.108985     -1.501260
  H       0.800068     -1.793049     -1.209145
  H       0.005233     -1.119305     -2.595808
  C       1.731732      0.661522     -1.913239
  C       2.806662     -0.370557     -2.161666
  H       2.192466      1.541828     -1.466045
  H       1.357711      0.987489     -2.886361
  C       4.136363      3.085202     -1.053546
  C       3.684381     -0.844473     -1.028806
  C       2.996495     -0.834534     -3.392501
  O       3.512139      3.984749     -1.500429
  O       4.732147      2.117993     -1.713261
  H       4.449067     -1.506146     -1.445422
  H       3.083414     -1.448603     -0.346967
  C       4.372308      0.232561     -0.186147
  H       2.373871     -0.520042     -4.222432
  H       3.784989     -1.544827     -3.614345
  C       5.397250      1.087350     -0.917637
  H       4.881826     -0.275750      0.634892
  H       3.645347      0.893677      0.296591
  H       5.895695      0.498457     -1.691421
  C       0.851616      3.779056      1.412773
  H       1.814778      3.931432      0.914528
  H       1.069502      3.511943      2.450592
  C       6.439857      1.721126     -0.008843
  H       5.935609      2.205704      0.834196
  H       6.946681      2.512076     -0.570034
  C      -3.985529     -1.514209     -1.813674
  C      -4.347183     -2.008886     -0.410155
  O      -3.986392     -3.090877     -0.021907
  O      -5.135759     -1.286969      0.381303
  C      -4.791225     -0.255720     -2.167427
  H      -5.820360     -0.538020     -2.413176
  H      -4.369346      0.197482     -3.068341
  C      -5.511533      0.091206      0.175332
  H      -6.588229      0.060383     -0.031279
  C      -4.804060      0.720096     -1.007713
  H      -5.329470      1.637546     -1.278075
  H      -3.786996      0.993666     -0.716918
  C      -4.398298     -2.633031     -2.782526
  H      -3.877110     -3.565576     -2.582980
  H      -4.187840     -2.324026     -3.809102
  C      -2.469380     -1.164366     -1.965255
  C      -1.356917     -1.765855     -1.076287
  H      -2.391344     -0.085480     -1.899691
  H      -2.200140     -1.417443     -2.995928
  C      -1.601877     -1.421462      0.392713
  C      -1.212068     -3.291220     -1.332506
  O      -2.190174     -0.413301      0.715418
  O      -1.116818     -2.204212      1.337762
  H      -0.389644     -3.433211     -2.038302
  H      -2.106587     -3.659706     -1.823563
  C      -0.982023     -4.133371     -0.079098
  C      -0.291289     -3.340078      1.005402
  H      -0.387503     -5.014587     -0.325843
  H      -1.941027     -4.475540      0.314208
  H       0.669088     -2.945553      0.660570
  C      -5.264506      0.796961      1.497802
  H      -4.195710      0.729980      1.718671
  H      -5.783443      0.237435      2.281100
  C      -0.076496     -4.084486      2.308157
  H      -1.036464     -4.480557      2.654852
  H       0.252972     -3.354736      3.052765
  H      -5.468698     -2.833275     -2.702376
  C      -5.725660      2.249932      1.514063
  H      -6.782706      2.305519      1.229684
  H      -5.175343      2.824764      0.763096
  C       0.952967     -5.203638      2.200108
  H       0.613944     -5.957570      1.483562
  H       1.887326     -4.795838      1.799207
  C       0.035624      5.066104      1.376354
  H      -0.945329      4.889741      1.831467
  H      -0.152804      5.358908      0.339522
  C       7.480499      0.729430      0.501781
  H       6.992314     -0.080282      1.051359
  H       7.979463      0.260749     -0.352900
  C       8.517539      1.390460      1.400150
  H       9.258254      0.668293      1.746409
  H       9.048195      2.185791      0.871718
  H       8.048423      1.834958      2.280720
  C       0.736964      6.209588      2.097822
  H       1.704293      6.424030      1.637918
  H       0.142745      7.124335      2.067685
  H       0.916306      5.962506      3.146802
  C      -5.529962      2.897989      2.878752
  H      -5.862015      3.937669      2.878834
  H      -6.091396      2.367268      3.650975
  H      -4.476964      2.882413      3.169609
  C       1.222923     -5.872868      3.541567
  H       0.309541     -6.308769      3.953000
  H       1.960642     -6.671579      3.446530
  H       1.601299     -5.152011      4.269928
104
Coordinates from ORCA-job orca E -2047.525199647598
  C       0.467861      0.297251     -1.060614
  C       0.926872      0.292596      0.402112
  O       1.369122     -0.685987      0.944514
  O       0.983388      1.452775      1.062271
  C      -0.555546      1.420870     -1.289448
  H      -1.483887      1.164590     -0.781484
  H      -0.766236      1.500917     -2.359049
  C       0.157294      2.601376      0.761558
  H      -0.800668      2.412690      1.260979
  C      -0.080789      2.749656     -0.725635
  H      -0.853000      3.506133     -0.878211
  H       0.822642      3.118258     -1.217478
  C       0.005893     -1.107925     -1.500989
  H       0.800996     -1.791998     -1.208670
  H       0.006347     -1.118409     -2.595539
  C       1.733081      0.662286     -1.912846
  C       2.807764     -0.370158     -2.160781
  H       2.193849      1.542627     -1.465766
  H       1.359268      0.988086     -2.886089
  C       4.138183      3.085506     -1.054962
  C       3.685624     -0.843579     -1.027784
  C       2.997352     -0.835051     -3.391301
  O       3.514387      3.985032     -1.502500
  O       4.733808      2.117816     -1.714098
  H       4.450358     -1.505257     -1.444275
  H       3.084598     -1.447700     -0.345995
  C       4.373732      0.233631     -0.185614
  H       2.374663     -0.521051     -4.221370
  H       3.785649     -1.545674     -3.612775
  C       5.398855      1.087564     -0.917894
  H       4.883084     -0.274306      0.635773
  H       3.647198      0.895372      0.296926
  H       5.896862      0.497931     -1.691393
  C       0.853944      3.781779      1.410473
  H       1.817386      3.933288      0.912527
  H       1.071308      3.515472      2.448612
  C       6.442042      1.721581     -0.009989
  H       5.938544      2.206350      0.833382
  H       6.948503      2.512386     -0.571706
  C      -3.984580     -1.513398     -1.814012
  C      -4.346644     -2.010175     -0.411281
  O      -3.985094     -3.092243     -0.023996
  O      -5.135536     -1.289489      0.381002
  C      -4.790368     -0.254563     -2.166271
  H      -5.819333     -0.536661     -2.412974
  H      -4.368097      0.200076     -3.066291
  C      -5.512300      0.088621      0.176340
  H      -6.588710      0.057154     -0.031723
  C      -4.803952      0.719500     -1.005083
  H      -5.329207      1.637383     -1.274273
  H      -3.787060      0.992519     -0.713142
  C      -4.396883     -2.630953     -2.784562
  H      -3.875238     -3.563519     -2.586389
  H      -4.186506     -2.320324     -3.810666
  C      -2.468444     -1.163032     -1.964915
  C      -1.355878     -1.764809     -1.076192
  H      -2.390738     -0.084179     -1.898364
  H      -2.198949     -1.415108     -2.995783
  C      -1.601051     -1.420688      0.392849
  C      -1.211040     -3.290096     -1.332878
  O      -2.189280     -0.412482      0.715555
  O      -1.117151     -2.204145      1.337848
  H      -0.388359     -3.431879     -2.038430
  H      -2.105296     -3.658363     -1.824557
  C      -0.981657     -4.132935     -0.079781
  C      -0.291910     -3.340309      1.005839
  H      -0.386530     -5.013723     -0.326571
  H      -1.940831     -4.475651      0.312605
  H       0.669051     -2.946207      0.662376
  C      -5.267779      0.792687      1.500152
  H      -4.199331      0.726053      1.722793
  H      -5.787731      0.231651      2.281698
  C      -0.079381     -4.085331      2.308664
  H      -1.040374     -4.479702      2.654466
  H       0.250598     -3.356155      3.053607
  H      -5.467199     -2.831757     -2.704845
  C      -5.730078      2.245266      1.517651
  H      -6.786370      2.300525      1.230378
  H      -5.178125      2.821769      0.769160
  C       0.948169     -5.206320      2.201815
  H       0.608229     -5.960033      1.485476
  H       1.883558     -4.800525      1.801256
  C       0.038401      5.069023      1.372578
  H      -0.942895      4.893226      1.827162
  H      -0.149364      5.361179      0.335441
  C       7.482902      0.729716      0.499860
  H       6.994939     -0.080295      1.049224
  H       7.981393      0.261391     -0.355294
  C       8.520452      1.390323      1.397891
  H       9.261370      0.668000      1.743369
  H       9.050780      2.185845      0.869410
  H       8.051975      1.834522      2.278949
  C       0.739529      6.212893      2.093647
  H       1.707054      6.427040      1.634030
  H       0.145310      7.127608      2.062709
  H       0.918359      5.966449      3.142870
  C      -5.538929      2.891263      2.883930
  H      -5.871945      3.930634      2.884624
  H      -6.102353      2.358838      3.653534
  H      -4.486875      2.876178      3.178144
  C       1.216060     -5.875280      3.543822
  H       0.301663     -6.309367      3.954917
  H       1.952461     -6.675314      3.449741
  H       1.595177     -5.154666      4.272047
104
Coordinates from ORCA-job orca E -2047.525202742711
  C       0.469105      0.298236     -1.061440
  C       0.928509      0.294605      0.400993
  O       1.367987     -0.684181      0.945218
  O       0.987276      1.455892      1.059212
  C      -0.554335      1.421798     -1.290628
  H      -1.482296      1.166068     -0.781672
  H      -0.765786      1.500658     -2.360158
  C       0.161532      2.604677      0.758027
  H      -0.795918      2.417508      1.259007
  C      -0.078693      2.751189     -0.728969
  H      -0.851044      3.507582     -0.881128
  H       0.823905      3.118799     -1.222992
  C       0.006927     -1.106968     -1.501197
  H       0.801731     -1.791280     -1.208615
  H       0.007368     -1.117794     -2.595743
  C       1.734469      0.662773     -1.913848
  C       2.808703     -0.370261     -2.160628
  H       2.195282      1.543137     -1.466892
  H       1.360822      0.988090     -2.887302
  C       4.140623      3.084811     -1.059802
  C       3.685321     -0.843354     -1.026534
  C       2.998904     -0.836256     -3.390618
  O       3.518884      3.984371     -1.510116
  O       4.736416      2.115385     -1.716310
  H       4.449908     -1.506080     -1.441542
  H       3.082935     -1.446249     -0.344809
  C       4.373637      0.234090     -0.184873
  H       2.377011     -0.522410     -4.221349
  H       3.786835     -1.547604     -3.610987
  C       5.399992      1.086403     -0.917422
  H       4.882299     -0.273496      0.637177
  H       3.647490      0.896905      0.296770
  H       5.898834      0.495008     -1.689030
  C       0.859961      3.785375      1.404469
  H       1.823091      3.935321      0.905467
  H       1.078062      3.520237      2.442754
  C       6.442439      1.721742     -0.009536
  H       5.938364      2.207939      0.832669
  H       6.949402      2.511617     -0.572097
  C      -3.983744     -1.511464     -1.814435
  C      -4.345966     -2.011675     -0.412882
  O      -3.984144     -3.094372     -0.027682
  O      -5.134786     -1.292771      0.381095
  C      -4.789454     -0.251737     -2.163752
  H      -5.818268     -0.533360     -2.411688
  H      -4.366864      0.205224     -3.062460
  C      -5.513197      0.085186      0.178897
  H      -6.589240      0.052719     -0.030994
  C      -4.803833      0.719399     -1.000086
  H      -5.328841      1.638014     -1.267210
  H      -3.787130      0.991509     -0.706678
  C      -4.395874     -2.626700     -2.787736
  H      -3.874030     -3.559601     -2.591608
  H      -4.185432     -2.313697     -3.813100
  C      -2.467532     -1.160895     -1.964775
  C      -1.354944     -1.763425     -1.076533
  H      -2.389803     -0.082105     -1.896964
  H      -2.198046     -1.411882     -2.995913
  C      -1.600225     -1.419712      0.392598
  C      -1.210530     -3.288561     -1.333837
  O      -2.189195     -0.412014      0.715503
  O      -1.117129     -2.203909      1.337332
  H      -0.388289     -3.430225     -2.039957
  H      -2.105051     -3.656405     -1.825372
  C      -0.980951     -4.132226     -0.081304
  C      -0.291948     -3.340144      1.005256
  H      -0.385020     -5.012372     -0.328428
  H      -1.940047     -4.475752      0.310513
  H       0.669300     -2.946118      0.662725
  C      -5.272068      0.786272      1.504917
  H      -4.204051      0.720051      1.729680
  H      -5.793145      0.222494      2.283748
  C      -0.081138     -4.085570      2.308136
  H      -1.043148     -4.477762      2.653590
  H       0.249817     -3.356779      3.053045
  H      -5.466158     -2.827925     -2.708730
  C      -5.736187      2.238164      1.525060
  H      -6.791063      2.293299      1.232583
  H      -5.181162      2.817781      0.781245
  C       0.944110     -5.208683      2.202436
  H       0.602730     -5.962340      1.486698
  H       1.880479     -4.805415      1.801605
  C       0.045551      5.073255      1.365194
  H      -0.935836      4.898751      1.820041
  H      -0.142294      5.364297      0.327751
  C       7.482582      0.730419      0.502855
  H       6.993793     -0.078642      1.052890
  H       7.981669      0.260612     -0.351141
  C       8.519430      1.392133      1.400800
  H       9.260009      0.670266      1.747946
  H       9.050292      2.186855      0.871659
  H       8.050330      1.837572      2.280898
  C       0.747525      6.217530      2.084700
  H       1.715123      6.430650      1.624777
  H       0.153792      7.132529      2.052734
  H       0.926331      5.972336      3.134227
  C      -5.552699      2.879870      2.894336
  H      -5.886229      3.919082      2.896465
  H      -6.120234      2.344817      3.659096
  H      -4.502377      2.864362      3.194533
  C       1.210281     -5.877008      3.545062
  H       0.294953     -6.309062      3.956235
  H       1.945236     -6.678480      3.451974
  H       1.590421     -5.156567      4.272936
104
Coordinates from ORCA-job orca E -2047.525204325805
  C       0.469925      0.299267     -1.059708
  C       0.928645      0.296384      0.402784
  O       1.366293     -0.682369      0.948474
  O       0.990724      1.458910      1.058689
  C      -0.553302      1.422953     -1.289401
  H      -1.480900      1.168085     -0.779381
  H      -0.765529      1.500475     -2.358880
  C       0.166415      2.608484      0.756651
  H      -0.790583      2.424024      1.259476
  C      -0.076289      2.752888     -0.730177
  H      -0.848596      3.509409     -0.881864
  H       0.825425      3.119190     -1.226704
  C       0.007765     -1.105805     -1.499487
  H       0.801981     -1.790441     -1.206061
  H       0.009238     -1.116772     -2.594028
  C       1.735779      0.663628     -1.911762
  C       2.809478     -0.369876     -2.158434
  H       2.196718      1.543509     -1.464052
  H       1.362485      0.989480     -2.885186
  C       4.144845      3.085390     -1.064420
  C       3.686048     -0.842465     -1.024102
  C       2.999390     -0.836560     -3.388187
  O       3.524295      3.984917     -1.516381
  O       4.739455      2.114026     -1.719253
  H       4.449667     -1.506854     -1.438145
  H       3.083073     -1.443387     -0.341187
  C       4.376101      0.235450     -0.184323
  H       2.377611     -0.522631     -4.218980
  H       3.786851     -1.548485     -3.608260
  C       5.402478      1.086193     -0.918734
  H       4.885681     -0.271800      0.637354
  H       3.651043      0.899285      0.297537
  H       5.901090      0.492930     -1.689063
  C       0.867836      3.789137      1.399953
  H       1.830343      3.936965      0.899076
  H       1.087344      3.525105      2.438200
  C       6.445482      1.722690     -0.012188
  H       5.941815      2.210394      0.829411
  H       6.952274      2.511556     -0.576298
  C      -3.982840     -1.510077     -1.815875
  C      -4.345434     -2.013730     -0.415628
  O      -3.983453     -3.097122     -0.032584
  O      -5.134825     -1.296941      0.379683
  C      -4.788802     -0.249807     -2.162647
  H      -5.817210     -0.531448     -2.412331
  H      -4.365661      0.209584     -3.059839
  C      -5.515713      0.080561      0.179618
  H      -6.591247      0.046438     -0.032702
  C      -4.805001      0.718416     -0.996547
  H      -5.330011      1.637517     -1.261999
  H      -3.788751      0.990076     -0.701157
  C      -4.393827     -2.623204     -2.792040
  H      -3.871602     -3.556236     -2.597464
  H      -4.182820     -2.307906     -3.816567
  C      -2.466616     -1.158875     -1.964821
  C      -1.354591     -1.762070     -1.076312
  H      -2.389239     -0.080177     -1.895591
  H      -2.196456     -1.408678     -2.996044
  C      -1.601433     -1.419366      0.392817
  C      -1.209967     -3.286990     -1.334429
  O      -2.190577     -0.411813      0.715792
  O      -1.118911     -2.204021      1.337449
  H      -0.387595     -3.428202     -2.040502
  H      -2.104281     -3.654545     -1.826546
  C      -0.980873     -4.131616     -0.082446
  C      -0.293352     -3.340125      1.005578
  H      -0.383941     -5.011056     -0.329670
  H      -1.940102     -4.476127      0.308132
  H       0.668320     -2.945850      0.664488
  C      -5.279167      0.778970      1.507941
  H      -4.211610      0.713989      1.735259
  H      -5.801192      0.212029      2.283844
  C      -0.084878     -4.086128      2.308481
  H      -1.048097     -4.476298      2.652830
  H       0.246437     -3.357807      3.053718
  H      -5.464055     -2.825285     -2.714328
  C      -5.746234      2.229830      1.530526
  H      -6.799435      2.284176      1.231950
  H      -5.187902      2.813093      0.792033
  C       0.938274     -5.211183      2.204318
  H       0.596212     -5.964482      1.488503
  H       1.875919     -4.810127      1.804284
  C       0.055369      5.078205      1.359777
  H      -0.925975      4.905734      1.815498
  H      -0.132941      5.368101      0.322097
  C       7.485501      0.731982      0.501680
  H       6.996476     -0.075763      1.053399
  H       7.984098      0.260282     -0.351562
  C       8.522736      1.395068      1.398105
  H       9.263342      0.673752      1.746373
  H       9.053602      2.188829      0.867532
  H       8.053924      1.841949      2.277625
  C       0.759443      6.222413      2.077199
  H       1.727183      6.433521      1.616652
  H       0.167071      7.138259      2.044155
  H       0.938370      5.978597      3.127027
  C      -5.571817      2.867155      2.903009
  H      -5.906241      3.906078      2.906489
  H      -6.143776      2.329149      3.662390
  H      -4.523442      2.851608      3.209884
  C       1.201547     -5.879488      3.547481
  H       0.284993     -6.310054      3.957487
  H       1.935396     -6.682122      3.455745
  H       1.581695     -5.159541      4.275849
104
Coordinates from ORCA-job orca E -2047.525203929683
  C       0.470986      0.300043     -1.058882
  C       0.930871      0.296864      0.403254
  O       1.367489     -0.682343      0.948945
  O       0.994092      1.459399      1.059150
  C      -0.552439      1.423826     -1.287452
  H      -1.479535      1.168856     -0.776529
  H      -0.765755      1.501457     -2.356717
  C       0.169881      2.609233      0.757969
  H      -0.786608      2.425306      1.261949
  C      -0.074772      2.753685     -0.728589
  H      -0.847348      3.510183     -0.879145
  H       0.826216      3.120173     -1.226300
  C       0.008669     -1.104989     -1.498511
  H       0.802772     -1.789621     -1.204773
  H       0.010505     -1.116158     -2.593050
  C       1.736271      0.664501     -1.911768
  C       2.809830     -0.369000     -2.158966
  H       2.197454      1.544278     -1.464095
  H       1.362396      0.990431     -2.884957
  C       4.145842      3.086009     -1.068787
  C       3.686421     -0.841386     -1.024630
  C       2.999378     -0.835723     -3.388760
  O       3.525188      3.985129     -1.521371
  O       4.740516      2.114149     -1.722868
  H       4.449400     -1.506814     -1.438206
  H       3.083352     -1.441074     -0.340717
  C       4.377338      0.237019     -0.186088
  H       2.377425     -0.521656     -4.219371
  H       3.786672     -1.547793     -3.609010
  C       5.403517      1.087046     -0.921551
  H       4.887476     -0.269886      0.635435
  H       3.652530      0.901278      0.295593
  H       5.902035      0.492950     -1.691311
  C       0.872545      3.789742      1.400301
  H       1.834561      3.937043      0.898327
  H       1.093043      3.525813      2.438361
  C       6.446657      1.724275     -0.015589
  H       5.942892      2.212887      0.825428
  H       6.953546      2.512498     -0.580508
  C      -3.981839     -1.510109     -1.816408
  C      -4.344707     -2.014540     -0.416552
  O      -3.982941     -3.098235     -0.034146
  O      -5.134814     -1.298581      0.378752
  C      -4.788197     -0.250026     -2.162951
  H      -5.816285     -0.532101     -2.413447
  H      -4.364729      0.210030     -3.059634
  C      -5.517010      0.078537      0.178846
  H      -6.592299      0.043464     -0.034569
  C      -4.805706      0.717536     -0.996311
  H      -5.330967      1.636536     -1.261720
  H      -3.789805      0.989495     -0.699969
  C      -4.391824     -2.623018     -2.793232
  H      -3.869277     -3.555876     -2.598641
  H      -4.180404     -2.307281     -3.817530
  C      -2.465654     -1.158242     -1.964509
  C      -1.353833     -1.761438     -1.075768
  H      -2.388767     -0.079541     -1.894676
  H      -2.194960     -1.407462     -2.995722
  C      -1.601399     -1.419076      0.393343
  C      -1.208707     -3.286359     -1.334035
  O      -2.191050     -0.411798      0.716255
  O      -1.119362     -2.203851      1.338154
  H      -0.385487     -3.427358     -2.039143
  H      -2.102377     -3.653905     -1.827313
  C      -0.980952     -4.131316     -0.082021
  C      -0.294144     -3.340431      1.006916
  H      -0.384076     -5.010874     -0.328975
  H      -1.940615     -4.475744      0.307556
  H       0.668199     -2.946649      0.666983
  C      -5.282556      0.776513      1.507771
  H      -4.215096      0.712735      1.736020
  H      -5.804554      0.208375      2.282820
  C      -0.087918     -4.086855      2.309948
  H      -1.052156     -4.475541      2.653130
  H       0.243611     -3.359075      3.055621
  H      -5.461994     -2.825719     -2.716157
  C      -5.751462      2.226758      1.530858
  H      -6.803966      2.280223      1.229707
  H      -5.191889      2.811590      0.794539
  C       0.933571     -5.213490      2.206886
  H       0.591164     -5.966255      1.490685
  H       1.872318     -4.813912      1.807972
  C       0.060901      5.079380      1.360511
  H      -0.920299      4.907708      1.816832
  H      -0.127761      5.369160      0.322856
  C       7.486563      0.734124      0.499576
  H       6.997353     -0.072771      1.052359
  H       7.985275      0.261257     -0.352949
  C       8.523627      1.398298      1.395429
  H       9.264117      0.677392      1.744817
  H       9.054697      2.191431      0.864128
  H       8.054488      1.846155      2.274282
  C       0.766203      6.223171      2.077375
  H       1.734030      6.433261      1.616525
  H       0.174713      7.139584      2.044200
  H       0.945249      5.979532      3.127221
  C      -5.581100      2.862571      2.904587
  H      -5.915885      3.901376      2.908441
  H      -6.154930      2.323403      3.661725
  H      -4.533541      2.847009      3.214223
  C       1.194232     -5.882193      3.550359
  H       0.276594     -6.311665      3.959093
  H       1.927179     -6.685762      3.459588
  H       1.574319     -5.162809      4.279307
104
Coordinates from ORCA-job orca E -2047.525204424460
  C       0.471296      0.300205     -1.056527
  C       0.932294      0.296778      0.405322
  O       1.369019     -0.682586      0.950659
  O       0.996359      1.459235      1.061301
  C      -0.552542      1.423868     -1.283643
  H      -1.478797      1.168982     -0.771065
  H      -0.767714      1.501263     -2.352548
  C       0.173416      2.609957      0.760336
  H      -0.782539      2.427922      1.266033
  C      -0.073714      2.753771     -0.725941
  H      -0.846420      3.510360     -0.875462
  H       0.826437      3.120105     -1.225272
  C       0.008993     -1.104890     -1.496032
  H       0.802776     -1.789530     -1.201397
  H       0.011881     -1.116470     -2.590554
  C       1.735757      0.665327     -1.910368
  C       2.809293     -0.367783     -2.159363
  H       2.197357      1.544744     -1.462357
  H       1.361003      0.992078     -2.882955
  C       4.145529      3.086974     -1.068882
  C       3.686432     -0.840740     -1.025833
  C       2.998234     -0.833171     -3.389742
  O       3.524903      3.986580     -1.520493
  O       4.740060      2.115604     -1.723834
  H       4.448810     -1.506547     -1.439942
  H       3.083895     -1.440068     -0.341163
  C       4.378088      0.237585     -0.187652
  H       2.375798     -0.518269     -4.219663
  H       3.785574     -1.544854     -3.611134
  C       5.403515      1.088163     -0.923451
  H       4.889186     -0.269678      0.633038
  H       3.653284      0.901376      0.294714
  H       5.901665      0.494468     -1.693759
  C       0.878830      3.790084      1.400468
  H       1.840523      3.935038      0.897191
  H       1.100004      3.527123      2.438637
  C       6.447058      1.725000     -0.017553
  H       5.943405      2.213109      0.823834
  H       6.953626      2.513552     -0.582299
  C      -3.981189     -1.509923     -1.817844
  C      -4.345181     -2.015537     -0.418743
  O      -3.983563     -3.099549     -0.037031
  O      -5.136315     -1.300634      0.376432
  C      -4.787496     -0.249728     -2.164217
  H      -5.815149     -0.531921     -2.416318
  H      -4.362987      0.211274     -3.059919
  C      -5.519671      0.076169      0.176809
  H      -6.594563      0.040296     -0.038482
  C      -4.806950      0.716690     -0.996613
  H      -5.332233      1.635706     -1.261965
  H      -3.791605      0.988759     -0.698510
  C      -4.389886     -2.622160     -2.795920
  H      -3.867174     -3.554997     -2.601667
  H      -4.177689     -2.305480     -3.819765
  C      -2.464870     -1.157703     -1.964129
  C      -1.354034     -1.761278     -1.074563
  H      -2.388307     -0.079013     -1.893493
  H      -2.193005     -1.406269     -2.995186
  C      -1.603215     -1.419463      0.394371
  C      -1.208536     -3.286196     -1.332922
  O      -2.193962     -0.412775      0.717097
  O      -1.120814     -2.203771      1.339447
  H      -0.384789     -3.427007     -2.037437
  H      -2.101909     -3.653885     -1.826631
  C      -0.981305     -4.131026     -0.080743
  C      -0.295136     -3.340132      1.008587
  H      -0.384373     -5.010601     -0.327517
  H      -1.941120     -4.475655      0.308306
  H       0.667321     -2.946051      0.669149
  C      -5.288224      0.773384      1.506650
  H      -4.221025      0.710887      1.736530
  H      -5.810673      0.203948      2.280437
  C      -0.089543     -4.086666      2.311682
  H      -1.054017     -4.475395      2.654165
  H       0.241562     -3.359030      3.057671
  H      -5.460024     -2.825406     -2.719861
  C      -5.758933      2.223062      1.530257
  H      -6.810491      2.275721      1.225718
  H      -5.197459      2.809706      0.796834
  C       0.931965     -5.213358      2.209003
  H       0.589992     -5.966019      1.492518
  H       1.870931     -4.813646      1.810779
  C       0.069779      5.081362      1.359683
  H      -0.911516      4.912422      1.816792
  H      -0.118699      5.370187      0.321730
  C       7.487469      0.735012      0.496875
  H       6.998770     -0.071879      1.050119
  H       7.985876      0.262252     -0.355875
  C       8.524813      1.399479      1.392274
  H       9.265616      0.678744      1.741356
  H       9.055491      2.192795      0.860866
  H       8.055780      1.847112      2.271306
  C       0.777953      6.224431      2.074878
  H       1.746221      6.431475      1.613542
  H       0.188771      7.142289      2.040570
  H       0.956687      5.981728      3.124993
  C      -5.593770      2.856843      2.905624
  H      -5.928608      3.895621      2.909922
  H      -6.170295      2.316352      3.659748
  H      -4.547297      2.840839      3.218873
  C       1.191891     -5.882216      3.552562
  H       0.274056     -6.311884      3.960653
  H       1.924993     -6.685689      3.462128
  H       1.571499     -5.162882      4.281797
104
Coordinates from ORCA-job orca E -2047.525202349062
  C       0.471035      0.300396     -1.055532
  C       0.931695      0.296574      0.406481
  O       1.368623     -0.682893      0.951500
  O       0.994813      1.458609      1.063216
  C      -0.552863      1.424028     -1.282426
  H      -1.479098      1.169041     -0.769809
  H      -0.768122      1.501619     -2.351291
  C       0.172965      2.609959      0.761794
  H      -0.783174      2.428839      1.267487
  C      -0.074007      2.753833     -0.724530
  H      -0.846650      3.510469     -0.874088
  H       0.826203      3.120297     -1.223687
  C       0.009037     -1.104754     -1.495202
  H       0.802781     -1.789262     -1.200138
  H       0.012405     -1.116483     -2.589713
  C       1.735447      0.665581     -1.909258
  C       2.808817     -0.367648     -2.158497
  H       2.197323      1.544768     -1.461083
  H       1.360758      0.992687     -2.881748
  C       4.145558      3.086370     -1.072254
  C       3.686096     -0.840425     -1.025085
  C       2.997379     -0.833123     -3.388895
  O       3.525028      3.985522     -1.524904
  O       4.740528      2.114511     -1.726050
  H       4.448017     -1.506810     -1.439134
  H       3.083662     -1.439059     -0.339723
  C       4.378399      0.238206     -0.187820
  H       2.374755     -0.518234     -4.218681
  H       3.784623     -1.544879     -3.610423
  C       5.403894      1.087922     -0.924473
  H       4.889422     -0.268647      0.633174
  H       3.653819      0.902544      0.294120
  H       5.902023      0.493417     -1.694173
  C       0.879409      3.789588      1.401715
  H       1.841548      3.933085      0.898858
  H       1.099709      3.526957      2.440154
  C       6.447361      1.725740     -0.019195
  H       5.943601      2.214877      0.821526
  H       6.954120      2.513572     -0.584795
  C      -3.980903     -1.509966     -1.818546
  C      -4.345354     -2.015871     -0.419675
  O      -3.983907     -3.100044     -0.038206
  O      -5.136450     -1.301074      0.375590
  C      -4.787241     -0.249826     -2.165050
  H      -5.814813     -0.532069     -2.417429
  H      -4.362505      0.211302     -3.060586
  C      -5.519745      0.075758      0.176031
  H      -6.594648      0.039956     -0.039221
  C      -4.807046      0.716460     -0.997330
  H      -5.332520      1.635363     -1.262679
  H      -3.791826      0.988789     -0.699070
  C      -4.389084     -2.622036     -2.797025
  H      -3.866306     -3.554866     -2.602918
  H      -4.176625     -2.305011     -3.820714
  C      -2.464565     -1.157450     -1.964007
  C      -1.354060     -1.761198     -1.074200
  H      -2.388211     -0.078773     -1.892922
  H      -2.192183     -1.405595     -2.995037
  C      -1.603519     -1.419618      0.394731
  C      -1.208345     -3.286056     -1.332729
  O      -2.194670     -0.413202      0.717567
  O      -1.120842     -2.203791      1.339807
  H      -0.384113     -3.426714     -2.036701
  H      -2.101433     -3.653745     -1.826947
  C      -0.981764     -4.130927     -0.080488
  C      -0.295463     -3.340364      1.008979
  H      -0.385307     -5.010838     -0.327245
  H      -1.941806     -4.475134      0.308384
  H       0.667182     -2.946568      0.669742
  C      -5.288184      0.772874      1.505855
  H      -4.220862      0.710965      1.735341
  H      -5.810091      0.203140      2.279790
  C      -0.090370     -4.087107      2.312050
  H      -1.055028     -4.475594      2.654304
  H       0.240898     -3.359734      3.058217
  H      -5.459216     -2.825455     -2.721297
  C      -5.759601      2.222343      1.529878
  H      -6.811090      2.274560      1.225007
  H      -5.198102      2.809637      0.797006
  C       0.930751     -5.214180      2.209393
  H       0.588621     -5.966654      1.492802
  H       1.869924     -4.814721      1.811434
  C       0.072038      5.081884      1.359857
  H      -0.909782      4.914459      1.816373
  H      -0.115237      5.370557      0.321658
  C       7.487694      0.736359      0.496491
  H       6.999085     -0.069599      1.051180
  H       7.985875      0.262243     -0.355635
  C       8.525365      1.402104      1.390598
  H       9.266054      0.681761      1.740710
  H       9.056113      2.194415      0.857766
  H       8.056558      1.851328      2.268940
  C       0.781234      6.224234      2.075221
  H       1.750167      6.429664      1.614545
  H       0.193405      7.142923      2.040093
  H       0.958792      5.981613      3.125554
  C      -5.595375      2.855449      2.905701
  H      -5.930292      3.894200      2.910354
  H      -6.172319      2.314437      3.659118
  H      -4.549073      2.839310      3.219522
  C       1.190247     -5.883212      3.552972
  H       0.272193     -6.312527      3.960935
  H       1.923045     -6.686972      3.462566
  H       1.570106     -5.164010      4.282210
