104
Coordinates from ORCA-job orca E -2047.525202349062
  C           0.47103499607005      0.30039568706598     -1.05553210489161
  C           0.93169536381776      0.29657375845664      0.40648085033398
  O           1.36862315908437     -0.68289304403293      0.95150044744030
  O           0.99481333426977      1.45860884575719      1.06321615703648
  C          -0.55286279804200      1.42402838526279     -1.28242616757927
  H          -1.47909799535651      1.16904122896991     -0.76980947074621
  H          -0.76812172293519      1.50161900666385     -2.35129082383353
  C           0.17296492768985      2.60995890207889      0.76179412914272
  H          -0.78317372658999      2.42883934433238      1.26748734934196
  C          -0.07400725137565      2.75383260646439     -0.72453025297744
  H          -0.84665016004422      3.51046877116042     -0.87408794055302
  H           0.82620299410168      3.12029749006330     -1.22368656565623
  C           0.00903744045891     -1.10475406246696     -1.49520237977198
  H           0.80278078157542     -1.78926213963691     -1.20013826455618
  H           0.01240500265142     -1.11648288693912     -2.58971296448689
  C           1.73544697661356      0.66558145078800     -1.90925788718634
  C           2.80881659861213     -0.36764800795322     -2.15849688737123
  H           2.19732291589257      1.54476813039728     -1.46108307935081
  H           1.36075807665438      0.99268701268075     -2.88174829299545
  C           4.14555819830526      3.08637034019892     -1.07225381526024
  C           3.68609590333894     -0.84042485297784     -1.02508509091115
  C           2.99737949737852     -0.83312305535108     -3.38889546366347
  O           3.52502773187931      3.98552159103647     -1.52490392780883
  O           4.74052784493123      2.11451075033759     -1.72605035243838
  H           4.44801688967017     -1.50681020974568     -1.43913441803847
  H           3.08366244487691     -1.43905863312771     -0.33972286459825
  C           4.37839852799891      0.23820564072584     -0.18781965284212
  H           2.37475489697209     -0.51823376011127     -4.21868117224275
  H           3.78462333405924     -1.54487875782244     -3.61042304607491
  C           5.40389417986335      1.08792224704606     -0.92447305807862
  H           4.88942180360057     -0.26864739805473      0.63317418909277
  H           3.65381922936635      0.90254374928970      0.29411975152174
  H           5.90202258482149      0.49341653020410     -1.69417298274902
  C           0.87940868823938      3.78958822956667      1.40171495126362
  H           1.84154795305911      3.93308539892078      0.89885804386197
  H           1.09970894760874      3.52695657160988      2.44015417860348
  C           6.44736074021075      1.72573985796521     -0.01919516149525
  H           5.94360069043593      2.21487654794485      0.82152629573980
  H           6.95412034000733      2.51357156178270     -0.58479505154631
  C          -3.98090313465588     -1.50996639250635     -1.81854649527788
  C          -4.34535411166594     -2.01587062277521     -0.41967512551243
  O          -3.98390690932202     -3.10004357193466     -0.03820589146208
  O          -5.13645004897220     -1.30107367411867      0.37559043147194
  C          -4.78724135452198     -0.24982597326119     -2.16504965493289
  H          -5.81481310079616     -0.53206925088570     -2.41742867029335
  H          -4.36250545344793      0.21130196691265     -3.06058582734561
  C          -5.51974459681599      0.07575841552617      0.17603143387539
  H          -6.59464770208589      0.03995626874792     -0.03922131409702
  C          -4.80704577872367      0.71645999244012     -0.99733045318189
  H          -5.33252022627787      1.63536273077899     -1.26267873427265
  H          -3.79182615443768      0.98878939298433     -0.69907037172835
  C          -4.38908432841932     -2.62203562620703     -2.79702512746306
  H          -3.86630583263943     -3.55486566297211     -2.60291772284371
  H          -4.17662525490719     -2.30501132727249     -3.82071425769068
  C          -2.46456540495786     -1.15745044039913     -1.96400698538549
  C          -1.35406028839748     -1.76119781646181     -1.07420046073884
  H          -2.38821113439321     -0.07877342425960     -1.89292204835824
  H          -2.19218299864783     -1.40559532081396     -2.99503666601807
  C          -1.60351930605893     -1.41961811891391      0.39473134428818
  C          -1.20834482857418     -3.28605642329604     -1.33272858443922
  O          -2.19467013762440     -0.41320178186090      0.71756695504105
  O          -1.12084186767809     -2.20379141318663      1.33980711913982
  H          -0.38411348310159     -3.42671378721196     -2.03670108210644
  H          -2.10143345871762     -3.65374534398186     -1.82694736753501
  C          -0.98176418979707     -4.13092723393545     -0.08048817656357
  C          -0.29546264813441     -3.34036382292689      1.00897854754534
  H          -0.38530666096452     -5.01083750943794     -0.32724499852030
  H          -1.94180553844881     -4.47513366764672      0.30838428469468
  H           0.66718242751863     -2.94656842819639      0.66974234447995
  C          -5.28818364609383      0.77287379387902      1.50585521819696
  H          -4.22086152256799      0.71096480441556      1.73534052099275
  H          -5.81009119854356      0.20314015056894      2.27979000824394
  C          -0.09037018745925     -4.08710740844877      2.31204988788170
  H          -1.05502828690506     -4.47559392811367      2.65430399874975
  H           0.24089766140085     -3.35973389063468      3.05821660518972
  H          -5.45921575859859     -2.82545483657576     -2.72129725257136
  C          -5.75960105089113      2.22234291843819      1.52987757349388
  H          -6.81109006358216      2.27455963207053      1.22500713622763
  H          -5.19810247585572      2.80963704987363      0.79700581216388
  C           0.93075076488332     -5.21417980774220      2.20939263366929
  H           0.58862128617381     -5.96665365364063      1.49280237245304
  H           1.86992421373602     -4.81472067490281      1.81143404209031
  C           0.07203803307960      5.08188437055908      1.35985734546906
  H          -0.90978183102297      4.91445861774057      1.81637251894828
  H          -0.11523738214290      5.37055734000618      0.32165757026386
  C           7.48769368844487      0.73635947282551      0.49649093402815
  H           6.99908476232063     -0.06959932994695      1.05117983713224
  H           7.98587493305959      0.26224289900633     -0.35563463840360
  C           8.52536534078627      1.40210403668155      1.39059843484199
  H           9.26605439173832      0.68176131982889      1.74071007182897
  H           9.05611319805666      2.19441500435934      0.85776588086971
  H           8.05655789105539      1.85132828316973      2.26893979870791
  C           0.78123411651444      6.22423438487594      2.07522080531980
  H           1.75016696767055      6.42966353868855      1.61454451730729
  H           0.19340544417437      7.14292279671815      2.04009261362880
  H           0.95879233493986      5.98161281891919      3.12555388125169
  C          -5.59537464748307      2.85544918648336      2.90570121522920
  H          -5.93029154454072      3.89419973935604      2.91035374544746
  H          -6.17231912258451      2.31443695290879      3.65911847259392
  H          -4.54907289850780      2.83930959502070      3.21952175590895
  C           1.19024712050098     -5.88321172277317      3.55297219172606
  H           0.27219319551739     -6.31252667619206      3.96093505374114
  H           1.92304479262787     -6.68697194520723      3.46256567043319
  H           1.57010564599279     -5.16400979369411      4.28221011849987
