64
Coordinates from ORCA-job orca E -1421.287092093308
  C           1.79459717563084      0.80859470363690     -1.05090239368173
  H           1.91954463290974      1.75858130448015     -0.51322735823019
  H           2.74542617030728      0.54836029237126     -1.53340030106829
  C           1.34247698763461     -0.28872755946506     -0.08039578661836
  C           2.37989011097860     -0.52611755163636      1.06092385375970
  H           2.01810137466614     -1.37055177334141      1.66752278555716
  H           2.34744868960954      0.36079058075477      1.71057608774676
  C           3.87016046146017     -0.80495655482293      0.73818389042656
  C           1.14216284550354     -1.58483699148182     -0.86912495760920
  O           1.31395729273751     -1.72042017944584     -2.05603190350888
  O           0.74253648953855     -2.60043347702496     -0.07625543647544
  C           4.57113169015834      0.42345384458531      0.15343531270216
  O           5.32024336110759      0.41855230628778     -0.79252881955201
  O           4.30356313106824      1.54082927902968      0.86139610739501
  C           4.08178525126828     -1.99403664256314     -0.20769597430050
  H           5.15232544529368     -2.23010342308137     -0.29194791040716
  H           3.55881953055033     -2.88061491562404      0.18206213715317
  H           3.71610661584367     -1.78875680659520     -1.22119424922432
  C           4.57541188311462     -1.09730797153519      2.08564903222423
  H           4.16815063716241     -2.02052275572068      2.52790231091315
  H           5.65788383676817     -1.23972560205420      1.93891188198522
  H           4.42879533553906     -0.27483113190481      2.80119892568142
  C           0.52014850624247     -3.85059863208362     -0.72480519591850
  H           0.20955194706465     -4.55243902846816      0.05957778446455
  H          -0.26627982945356     -3.75763251513500     -1.48946768728260
  H           1.44010524243195     -4.20497316530770     -1.21437960893438
  C           4.93536463172532      2.73615518038144      0.40912346553826
  H           4.60925270844804      2.98496510242632     -0.61286538170555
  H           4.63361486999901      3.52671317644011      1.10793078248404
  H           6.03027901267041      2.62475209531475      0.40503202754885
  H           1.07113447100222      0.94849311305447     -1.86232896272428
  C           0.03122766035053      0.08579407150492      0.67523392414272
  C          -1.28611736190564      0.45697843396349     -0.07471371720339
  H           0.28133534805644      0.93400748339425      1.32940559238098
  H          -0.21459803576341     -0.75742540236402      1.33782508094723
  C          -2.31282682939952      0.68836676701763      1.07706454148636
  C          -1.08832134499927      1.75793724374821     -0.85689510968786
  C          -1.72978078583553     -0.63959624101746     -1.04760733450866
  C          -3.75248271224152      1.12006549193919      0.80496890313604
  H          -2.34939826344183     -0.23731019266895      1.67159753585817
  H          -1.87947769030342      1.45962004111377      1.73474366480511
  O          -1.24172191292767      1.89542702137445     -2.04590699525139
  O          -0.71188347077510      2.77540477335227     -0.05474440643454
  H          -1.01113064729305     -0.76269645636080     -1.86648244137209
  H          -1.83777925796614     -1.59344212745348     -0.51395621385555
  H          -2.69169332646715     -0.39221102888122     -1.51338367216618
  C          -4.06224883683732      2.02268585102871     -0.36713425379810
  C          -4.63330485812154     -0.77138561788883     -0.05693103496594
  C          -0.48602888879883      4.02858069388627     -0.69663653352514
  H          -3.56758068287582      2.99866783207822     -0.22391656738357
  H          -3.71510587595449      1.61476784213976     -1.32375759576561
  H          -5.14455331074557      2.19669711432540     -0.44511023498849
  O          -5.50345265025088     -0.75084075013884     -0.87432574867434
  O          -4.30534785389901     -1.77532393573527      0.75041700620089
  H          -1.39532791920818      4.37273822995347     -1.21269138254451
  H          -0.20587324353500      4.73372688432758      0.09611743057367
  H           0.32252298158020      3.94481384699687     -1.43907110075392
  C          -5.08131037758948     -2.98291031180995      0.61910028901638
  H          -4.68937424413053     -3.68189685059719      1.36804836978845
  H          -6.14578825863910     -2.77506731884421      0.80610846133222
  H          -4.97067628288664     -3.40210845605855     -0.39254837949668
  C          -4.60684058572548      1.12528484040579      1.89042477203620
  H          -4.34978826327221      0.60484524780723      2.81707897689107
  H          -5.60378272717906      1.56766067798989      1.81821371544161
