64
Coordinates from ORCA-job orca E -1423.232139644590
  C           1.78929336409378      0.75738095520196     -1.09065720388987
  H           1.92002730021866      1.71149318174837     -0.57695260172351
  H           2.72910510177786      0.48689958609760     -1.57062763544217
  C           1.34304831984919     -0.31021853067322     -0.09593034434863
  C           2.38210860767667     -0.51424437116683      1.04171020811791
  H           2.03582580539679     -1.34490230320643      1.66172336667613
  H           2.33942428191594      0.37717954087661      1.67004401694800
  C           3.87025120941652     -0.78145513983741      0.72956173267435
  C           1.13830034878942     -1.62520393436658     -0.84725000852342
  O           1.31121281464318     -1.78969974406904     -2.02450209069637
  O           0.73518467758000     -2.61387390228133     -0.03393454293308
  C           4.57259210913588      0.44246286859850      0.14783398404040
  O           5.33932518607729      0.42671335363708     -0.77713862495686
  O           4.28939842804592      1.56149430732167      0.83264889533063
  C           4.09530796900992     -1.97117993200706     -0.20049608509033
  H           5.15806058203867     -2.20075505588012     -0.27252144016858
  H           3.57995775960348     -2.84936186364340      0.19488366779667
  H           3.73830510808521     -1.78052758873128     -1.21091776519172
  C           4.56486480998776     -1.06254606334219      2.07603415916449
  H           4.17690759339919     -1.99057860868708      2.50042163178996
  H           5.64194258586248     -1.17808798943908      1.93972398566466
  H           4.39121822980192     -0.25724873505663      2.79057947250765
  C           0.51167985795481     -3.87187488143841     -0.66435695488832
  H           0.17796001929894     -4.54378438018375      0.12223926670150
  H          -0.24977367361038     -3.77980706983359     -1.43913541246584
  H           1.43187700179662     -4.24206983980368     -1.11700330792236
  C           4.93524025286035      2.74499844135627      0.37243379282583
  H           4.65842818792805      2.95425953952020     -0.66124975688326
  H           4.59428923708060      3.54268004594647      1.02753398186161
  H           6.01840698460075      2.63991840775262      0.43209106234875
  H           1.06462152340909      0.88408826736492     -1.89239977659903
  C           0.04232888983253      0.08525313136897      0.65478959058810
  C          -1.26565320870492      0.47496924642487     -0.08960615425419
  H           0.30347144064664      0.92456972410084      1.30226541418049
  H          -0.21345976826470     -0.74610713844275      1.31516173983772
  C          -2.29444909674908      0.66228934888241      1.05849784087004
  C          -1.06973910674120      1.79900501894371     -0.82749692378596
  C          -1.70210500000390     -0.58911337596716     -1.09063438682328
  C          -3.73315649323857      1.09401621145700      0.79842819785405
  H          -2.32912173222053     -0.27906368610021      1.61121221675611
  H          -1.87380892524863      1.40301193939297      1.74375155229136
  O          -1.22209082364532      1.97039330990703     -2.00648210721818
  O          -0.69896894558755      2.78750441631252      0.00161829719654
  H          -0.98110612672494     -0.69761164092663     -1.89869855004227
  H          -1.81715559151819     -1.54840996187709     -0.58342969709996
  H          -2.65187058137657     -0.33069229905407     -1.55497134884883
  C          -4.05671212193822      1.99079614283332     -0.36710658724621
  C          -4.63097338900667     -0.78512608869596     -0.06104676828423
  C          -0.47517460205056      4.05272382089969     -0.61426788026136
  H          -3.55873408603283      2.95566217957201     -0.23510066994318
  H          -3.73006380804287      1.58112522427483     -1.32059566981341
  H          -5.12952368757696      2.16725748514284     -0.42519015025550
  O          -5.52665348671306     -0.71936274764222     -0.83906822464304
  O          -4.31267538097737     -1.80522416774512      0.72205644111706
  H          -1.38814122681208      4.41674388611854     -1.08619652547281
  H          -0.16805037226960      4.72238631745016      0.18486859315045
  H           0.30482560685906      3.97495335962597     -1.37198675200937
  C          -5.15764115765964     -2.96414138285096      0.61030713962255
  H          -4.77070328437800     -3.68360015023791      1.32660612055905
  H          -6.18749727053134     -2.70046989863437      0.84992375463403
  H          -5.11188012583543     -3.36714011234875     -0.40099741444055
  C          -4.58388243171549      1.05919603680694      1.86178123590182
  H          -4.32366152462229      0.53680714382424      2.77466856539461
  H          -5.57518416487614      1.48976014540924      1.79595943776314
