64
Coordinates from ORCA-job orca E -1423.228707136954
  C       1.794597      0.808595     -1.050902
  H       1.919545      1.758581     -0.513227
  H       2.745426      0.548360     -1.533400
  C       1.342477     -0.288728     -0.080396
  C       2.379890     -0.526118      1.060924
  H       2.018101     -1.370552      1.667523
  H       2.347449      0.360791      1.710576
  C       3.870160     -0.804957      0.738184
  C       1.142163     -1.584837     -0.869125
  O       1.313957     -1.720420     -2.056032
  O       0.742536     -2.600433     -0.076255
  C       4.571132      0.423454      0.153435
  O       5.320243      0.418552     -0.792529
  O       4.303563      1.540829      0.861396
  C       4.081785     -1.994037     -0.207696
  H       5.152325     -2.230103     -0.291948
  H       3.558820     -2.880615      0.182062
  H       3.716107     -1.788757     -1.221194
  C       4.575412     -1.097308      2.085649
  H       4.168151     -2.020523      2.527902
  H       5.657884     -1.239726      1.938912
  H       4.428795     -0.274831      2.801199
  C       0.520149     -3.850599     -0.724805
  H       0.209552     -4.552439      0.059578
  H      -0.266280     -3.757633     -1.489468
  H       1.440105     -4.204973     -1.214380
  C       4.935365      2.736155      0.409123
  H       4.609253      2.984965     -0.612865
  H       4.633615      3.526713      1.107931
  H       6.030279      2.624752      0.405032
  H       1.071134      0.948493     -1.862329
  C       0.031228      0.085794      0.675234
  C      -1.286117      0.456978     -0.074714
  H       0.281335      0.934007      1.329406
  H      -0.214598     -0.757425      1.337825
  C      -2.312827      0.688367      1.077065
  C      -1.088321      1.757937     -0.856895
  C      -1.729781     -0.639596     -1.047607
  C      -3.752483      1.120065      0.804969
  H      -2.349398     -0.237310      1.671598
  H      -1.879478      1.459620      1.734744
  O      -1.241722      1.895427     -2.045907
  O      -0.711883      2.775405     -0.054744
  H      -1.011131     -0.762696     -1.866482
  H      -1.837779     -1.593442     -0.513956
  H      -2.691693     -0.392211     -1.513384
  C      -4.062249      2.022686     -0.367134
  C      -4.633305     -0.771386     -0.056931
  C      -0.486029      4.028581     -0.696637
  H      -3.567581      2.998668     -0.223917
  H      -3.715106      1.614768     -1.323758
  H      -5.144553      2.196697     -0.445110
  O      -5.503453     -0.750841     -0.874326
  O      -4.305348     -1.775324      0.750417
  H      -1.395328      4.372738     -1.212691
  H      -0.205873      4.733727      0.096117
  H       0.322523      3.944814     -1.439071
  C      -5.081310     -2.982910      0.619100
  H      -4.689374     -3.681897      1.368048
  H      -6.145788     -2.775067      0.806108
  H      -4.970676     -3.402108     -0.392548
  C      -4.606841      1.125285      1.890425
  H      -4.349788      0.604845      2.817079
  H      -5.603783      1.567661      1.818214
64
Coordinates from ORCA-job orca E -1423.229285804759
  C       1.821021      0.832379     -1.047524
  H       1.959425      1.761298     -0.479564
  H       2.769596      0.569272     -1.530005
  C       1.339941     -0.285159     -0.116322
  C       2.362122     -0.576263      1.024787
  H       2.006312     -1.461428      1.571631
  H       2.304168      0.267121      1.726396
  C       3.861244     -0.806001      0.709941
  C       1.121455     -1.551476     -0.946623
  O       1.300255     -1.653272     -2.135041
  O       0.694977     -2.582371     -0.189609
  C       4.559633      0.484738      0.278347
  O       5.330004      0.590021     -0.643408
  O       4.260950      1.515153      1.095890
  C       4.109109     -1.883459     -0.352054
  H       5.182634     -2.098672     -0.434544
  H       3.588556     -2.810603     -0.072807
  H       3.765347     -1.574023     -1.345178
  C       4.538381     -1.235944      2.033372
  H       4.167635     -2.226235      2.337126
  H       5.629435     -1.304984      1.910517
  H       4.326079     -0.522772      2.841512
  C       0.452961     -3.805629     -0.879990
  H       0.121739     -4.524366     -0.122054
  H      -0.323889     -3.671606     -1.646247
  H       1.368567     -4.162482     -1.372398
  C       4.885145      2.759168      0.789775
  H       4.577262      3.112235     -0.205378
  H       4.557014      3.464479      1.561580
  H       5.979767      2.662060      0.799342
  H       1.108047      1.011606     -1.858820
  C       0.030519      0.090963      0.639106
  C      -1.287333      0.451332     -0.112506
  H       0.278441      0.944759      1.284718
  H      -0.211496     -0.746465      1.308388
  C      -2.294372      0.757963      1.037786
  C      -1.071555      1.708122     -0.958496
  C      -1.764994     -0.680751     -1.025449
  C      -3.745388      1.145974      0.762221
  H      -2.304363     -0.117409      1.702869
  H      -1.861346      1.583753      1.623184
  O      -1.234944      1.791679     -2.150372
  O      -0.663374      2.753184     -0.210422
  H      -1.059964     -0.857707     -1.844622
  H      -1.885463     -1.604369     -0.445563
  H      -2.726048     -0.436271     -1.491668
  C      -4.092022      1.947919     -0.470200
  C      -4.613254     -0.816121      0.073428
  C      -0.414703      3.967177     -0.914895
  H      -3.610083      2.937485     -0.415352
  H      -3.758404      1.470485     -1.397596
  H      -5.176691      2.100206     -0.538591
  O      -5.498493     -0.872181     -0.724376
  O      -4.254840     -1.747954      0.950309
  H      -1.319544      4.307147     -1.438166
  H      -0.110354      4.701738     -0.160970
  H       0.383615      3.827260     -1.658058
  C      -5.015638     -2.971123      0.929421
  H      -4.599804     -3.602861      1.721602
  H      -6.077513     -2.762761      1.120953
  H      -4.917983     -3.465961     -0.047063
  C      -4.577295      1.225387      1.859778
  H      -4.294525      0.784552      2.817839
  H      -5.580499      1.646575      1.773517
64
Coordinates from ORCA-job orca E -1423.228834534494
  C       1.897163      0.828876     -1.015133
  H       2.000652      1.752474     -0.432592
  H       2.871867      0.570946     -1.441607
  C       1.366224     -0.296162     -0.120172
  C       2.349075     -0.612315      1.039349
  H       1.992977     -1.519119      1.545634
  H       2.263142      0.203830      1.767098
  C       3.842328     -0.828166      0.717744
  C       1.160255     -1.548309     -0.973169
  O       1.348056     -1.629341     -2.160903
  O       0.738172     -2.592172     -0.232563
  C       4.526225      0.487647      0.340995
  O       5.303564      0.637242     -0.567396
  O       4.190912      1.490982      1.176456
  C       4.081522     -1.846453     -0.402596
  H       5.153869     -2.049559     -0.514910
  H       3.572330     -2.790063     -0.161136
  H       3.712275     -1.495767     -1.371548
  C       4.535004     -1.317100      2.011332
  H       4.198270     -2.333646      2.256984
  H       5.626483     -1.344100      1.883964
  H       4.307705     -0.656503      2.858028
  C       0.482044     -3.802272     -0.940560
  H       0.176924     -4.535859     -0.187597
  H      -0.319471     -3.657111     -1.677625
  H       1.383111     -4.144360     -1.466027
  C       4.789509      2.755184      0.903734
  H       4.476467      3.119733     -0.085012
  H       4.438997      3.436184      1.685827
  H       5.884661      2.683175      0.919890
  H       1.235389      1.013146     -1.865136
  C       0.038697      0.084932      0.608847
  C      -1.289299      0.442052     -0.135246
  H       0.276640      0.943988      1.249961
  H      -0.205663     -0.752811      1.276004
  C      -2.270255      0.798562      1.024865
  C      -1.088138      1.678126     -1.011862
  C      -1.774821     -0.704965     -1.025992
  C      -3.724268      1.168977      0.755280
  H      -2.260320     -0.040360      1.733546
  H      -1.826945      1.651715      1.557604
  O      -1.290923      1.739846     -2.198202
  O      -0.698014      2.743986     -0.284994
  H      -1.065328     -0.912095     -1.831991
  H      -1.910059     -1.608339     -0.427482
  H      -2.727638     -0.464283     -1.504307
  C      -4.072091      1.943949     -0.491163
  C      -4.595867     -0.789730      0.131602
  C      -0.476679      3.953121     -1.006177
  H      -3.584472      2.930911     -0.459586
  H      -3.744035      1.447342     -1.408748
  H      -5.155050      2.100218     -0.558798
  O      -5.489284     -0.866639     -0.654764
  O      -4.220952     -1.703598      1.021518
  H      -1.383408      4.258432     -1.544101
  H      -0.202898      4.705634     -0.259918
  H       0.336539      3.824494     -1.734079
  C      -4.974144     -2.930903      1.028576
  H      -4.544577     -3.545727      1.825154
  H      -6.034054     -2.726607      1.227735
  H      -4.880360     -3.437494      0.058614
  C      -4.547256      1.277927      1.857763
  H      -4.255826      0.865598      2.824611
  H      -5.549773      1.697206      1.767784
64
Coordinates from ORCA-job orca E -1423.231466534394
  C       1.852761      0.809226     -1.053838
  H       1.964767      1.740788     -0.492749
  H       2.814198      0.550090     -1.499696
  C       1.351628     -0.299703     -0.127869
  C       2.350840     -0.580903      1.029197
  H       1.992955     -1.462947      1.569401
  H       2.275393      0.259337      1.724673
  C       3.847956     -0.813852      0.731119
  C       1.147565     -1.570967     -0.950629
  O       1.328949     -1.676536     -2.135037
  O       0.735319     -2.600499     -0.189660
  C       4.549923      0.470561      0.292830
  O       5.336915      0.561394     -0.612248
  O       4.225443      1.516891      1.073822
  C       4.099796     -1.896960     -0.318850
  H       5.168231     -2.111197     -0.396423
  H       3.582023     -2.817915     -0.031908
  H       3.756441     -1.601467     -1.310898
  C       4.516953     -1.230085      2.057768
  H       4.158682     -2.218762      2.360144
  H       5.604288     -1.285173      1.944609
  H       4.291801     -0.518482      2.856536
  C       0.494007     -3.821646     -0.880456
  H       0.185489     -4.540930     -0.122213
  H      -0.295053     -3.692185     -1.626431
  H       1.399768     -4.165209     -1.386911
  C       4.847744      2.752909      0.739774
  H       4.553906      3.068992     -0.265534
  H       4.502682      3.475356      1.479073
  H       5.936336      2.662797      0.772383
  H       1.169290      0.973592     -1.886577
  C       0.034870      0.084514      0.610271
  C      -1.288169      0.452756     -0.128493
  H       0.282626      0.934242      1.253605
  H      -0.211489     -0.750551      1.273717
  C      -2.276350      0.754901      1.035510
  C      -1.090198      1.716888     -0.963876
  C      -1.769070     -0.668033     -1.048759
  C      -3.728715      1.141481      0.781080
  H      -2.272030     -0.115717      1.698591
  H      -1.837013      1.576719      1.611139
  O      -1.276198      1.811530     -2.148396
  O      -0.698390      2.759246     -0.209285
  H      -1.067087     -0.841057     -1.864658
  H      -1.891644     -1.590001     -0.478055
  H      -2.724427     -0.419915     -1.511169
  C      -4.080395      1.965588     -0.430801
  C      -4.605693     -0.780844      0.085551
  C      -0.470123      3.978944     -0.907209
  H      -3.593018      2.945769     -0.364076
  H      -3.759679      1.505448     -1.365623
  H      -5.158945      2.124938     -0.485968
  O      -5.497366     -0.821569     -0.701506
  O      -4.238468     -1.728256      0.939031
  H      -1.373678      4.300723     -1.431398
  H      -0.187496      4.710475     -0.150687
  H       0.333263      3.857713     -1.639470
  C      -5.004809     -2.944400      0.896443
  H      -4.584295     -3.591612      1.664935
  H      -6.057147     -2.735404      1.103659
  H      -4.918025     -3.411664     -0.087829
  C      -4.545597      1.207220      1.883234
  H      -4.255029      0.756057      2.827321
  H      -5.542031      1.631868      1.813179
64
Coordinates from ORCA-job orca E -1423.232254200959
  C       1.826704      0.813204     -1.045145
  H       1.940033      1.746195     -0.488566
  H       2.783180      0.559050     -1.502914
  C       1.344965     -0.294753     -0.110035
  C       2.356754     -0.563371      1.038735
  H       2.003130     -1.436906      1.593521
  H       2.292606      0.285144      1.723691
  C       3.849602     -0.804193      0.729976
  C       1.142677     -1.569784     -0.926653
  O       1.312674     -1.675661     -2.111912
  O       0.737521     -2.598388     -0.162368
  C       4.551279      0.466597      0.255729
  O       5.336446      0.530545     -0.652369
  O       4.245490      1.528753      1.020956
  C       4.086849     -1.912101     -0.295498
  H       5.152513     -2.131256     -0.378909
  H       3.570269     -2.823220      0.019204
  H       3.734744     -1.638964     -1.290044
  C       4.530189     -1.190916      2.058360
  H       4.164179     -2.165283      2.392017
  H       5.613951     -1.262484      1.932930
  H       4.323681     -0.455817      2.839021
  C       0.499794     -3.820792     -0.852302
  H       0.191930     -4.538552     -0.094128
  H      -0.287129     -3.693127     -1.598826
  H       1.406408     -4.162411     -1.355673
  C       4.883617      2.750260      0.664018
  H       4.593927      3.051760     -0.345286
  H       4.548219      3.488387      1.390356
  H       5.969506      2.646225      0.698874
  H       1.130518      0.970749     -1.867973
  C       0.031842      0.082857      0.632435
  C      -1.286950      0.446223     -0.110627
  H       0.277983      0.931653      1.275686
  H      -0.212157     -0.752238      1.294938
  C      -2.287230      0.728096      1.046581
  C      -1.090038      1.717441     -0.935252
  C      -1.750221     -0.671996     -1.040624
  C      -3.737076      1.119385      0.784755
  H      -2.289054     -0.152495      1.694464
  H      -1.855048      1.539671      1.639943
  O      -1.255942      1.815151     -2.121696
  O      -0.701576      2.754950     -0.174043
  H      -1.038205     -0.836192     -1.848810
  H      -1.872773     -1.597145     -0.475435
  H      -2.701105     -0.427549     -1.512356
  C      -4.075283      1.967292     -0.413438
  C      -4.609384     -0.761811      0.060381
  C      -0.466598      3.975488     -0.868367
  H      -3.584890      2.942901     -0.326337
  H      -3.750303      1.522082     -1.353017
  H      -5.151543      2.131597     -0.473444
  O      -5.492765     -0.783831     -0.735441
  O      -4.255824     -1.725901      0.899728
  H      -1.366820      4.301514     -1.392931
  H      -0.183510      4.702708     -0.109655
  H       0.336957      3.852413     -1.598030
  C      -5.031165     -2.934499      0.827311
  H      -4.622179     -3.598608      1.585801
  H      -6.081850     -2.720440      1.030590
  H      -4.940278     -3.382964     -0.163669
  C      -4.561870      1.169579      1.879611
  H      -4.281519      0.700918      2.816839
  H      -5.554672      1.599371      1.808730
64
Coordinates from ORCA-job orca E -1423.233373896205
  C       1.818460      0.795742     -1.075513
  H       1.920989      1.733010     -0.524945
  H       2.776468      0.550282     -1.532557
  C       1.347973     -0.311094     -0.133217
  C       2.357893     -0.568792      1.022606
  H       2.003586     -1.440167      1.579941
  H       2.279781      0.282291      1.702262
  C       3.859628     -0.801267      0.741093
  C       1.143733     -1.590379     -0.943359
  O       1.295707     -1.697764     -2.130701
  O       0.755708     -2.618534     -0.170885
  C       4.565427      0.467906      0.268078
  O       5.382189      0.521909     -0.612242
  O       4.217639      1.542437      0.996064
  C       4.130958     -1.920796     -0.262683
  H       5.200117     -2.128547     -0.319465
  H       3.618996     -2.833026      0.054892
  H       3.798791     -1.667398     -1.268136
  C       4.518991     -1.165308      2.085424
  H       4.152060     -2.136119      2.426751
  H       5.604639     -1.233384      1.979328
  H       4.296457     -0.419779      2.851113
  C       0.508173     -3.842264     -0.855623
  H       0.220441     -4.560295     -0.090488
  H      -0.295764     -3.717468     -1.583486
  H       1.404817     -4.179587     -1.378232
  C       4.857036      2.763007      0.636896
  H       4.607536      3.035819     -0.390568
  H       4.481405      3.513222      1.329710
  H       5.940811      2.672809      0.722303
  H       1.120639      0.940347     -1.898719
  C       0.034801      0.066979      0.609834
  C      -1.289022      0.435981     -0.123247
  H       0.284991      0.914131      1.253303
  H      -0.208498     -0.769002      1.270985
  C      -2.279756      0.708691      1.044348
  C      -1.096405      1.714195     -0.938883
  C      -1.759233     -0.673600     -1.059829
  C      -3.730250      1.100676      0.798641
  H      -2.277420     -0.174062      1.689329
  H      -1.842695      1.518288      1.636385
  O      -1.264961      1.819788     -2.123958
  O      -0.709612      2.746737     -0.171034
  H      -1.047908     -0.838737     -1.867157
  H      -1.887730     -1.600464     -0.499932
  H      -2.709148     -0.421492     -1.530331
  C      -4.069518      1.976953     -0.375825
  C      -4.614368     -0.715012      0.074537
  C      -0.477162      3.972566     -0.857429
  H      -3.567979      2.944863     -0.273283
  H      -3.759731      1.543807     -1.324829
  H      -5.143983      2.153745     -0.422718
  O      -5.503553     -0.716599     -0.714577
  O      -4.259832     -1.698767      0.890930
  H      -1.377053      4.298274     -1.381656
  H      -0.198792      4.695114     -0.093168
  H       0.328825      3.856149     -1.584587
  C      -5.044979     -2.899501      0.799185
  H      -4.633638     -3.582483      1.538799
  H      -6.091327     -2.681725      1.017576
  H      -4.966262     -3.326343     -0.201746
  C      -4.543621      1.147646      1.908570
  H      -4.257984      0.662962      2.835323
  H      -5.532301      1.587939      1.854212
64
Coordinates from ORCA-job orca E -1423.232387770405
  C       1.783502      0.843769     -1.068326
  H       1.853554      1.772329     -0.499072
  H       2.750330      0.635466     -1.521869
  C       1.334397     -0.293785     -0.151844
  C       2.342914     -0.580759      1.001614
  H       1.995560     -1.480383      1.515682
  H       2.240961      0.235607      1.718122
  C       3.850495     -0.790903      0.728548
  C       1.125901     -1.549223     -0.996798
  O       1.227688     -1.612848     -2.192439
  O       0.784861     -2.609392     -0.245832
  C       4.562520      0.504762      0.340984
  O       5.421183      0.602155     -0.494678
  O       4.200517      1.536916      1.121763
  C       4.144023     -1.851224     -0.331869
  H       5.215336     -2.045266     -0.387388
  H       3.638255     -2.784162     -0.069741
  H       3.818381     -1.550842     -1.325524
  C       4.492224     -1.227864      2.059190
  H       4.152746     -2.231427      2.323718
  H       5.581393     -1.252165      1.975351
  H       4.229407     -0.544004      2.868266
  C       0.518414     -3.809838     -0.962661
  H       0.295397     -4.563721     -0.211182
  H      -0.333771     -3.675199     -1.630878
  H       1.385061     -4.105528     -1.555415
  C       4.857827      2.770395      0.851367
  H       4.627437      3.107764     -0.161146
  H       4.477242      3.481067      1.581476
  H       5.938629      2.664320      0.948762
  H       1.087837      0.984962     -1.894895
  C       0.019855      0.062180      0.597310
  C      -1.309650      0.410427     -0.133012
  H       0.258830      0.917189      1.234300
  H      -0.208525     -0.777128      1.259359
  C      -2.280597      0.746785      1.036504
  C      -1.105549      1.650488     -1.003955
  C      -1.787721     -0.735241     -1.021587
  C      -3.738007      1.118986      0.797097
  H      -2.256870     -0.092968      1.735653
  H      -1.834387      1.591609      1.567543
  O      -1.266398      1.705031     -2.193283
  O      -0.666418      2.699396     -0.287578
  H      -1.072930     -0.942740     -1.815872
  H      -1.925900     -1.635221     -0.422177
  H      -2.733843     -0.498886     -1.506573
  C      -4.091422      1.961157     -0.398788
  C      -4.627357     -0.719689      0.147124
  C      -0.385417      3.881389     -1.029075
  H      -3.589177      2.931275     -0.329547
  H      -3.790550      1.503086     -1.338367
  H      -5.166067      2.136426     -0.440285
  O      -5.529037     -0.752323     -0.626911
  O      -4.248848     -1.678090      0.983474
  H      -1.267344      4.211139     -1.579769
  H      -0.090763      4.630053     -0.297348
  H       0.425007      3.703272     -1.738118
  C      -5.022873     -2.888347      0.936775
  H      -4.590900     -3.547093      1.685836
  H      -6.067164     -2.676092      1.167824
  H      -4.957209     -3.339284     -0.053972
  C      -4.536312      1.203445      1.918283
  H      -4.235171      0.754062      2.857191
  H      -5.526329      1.639236      1.862071
64
Coordinates from ORCA-job orca E -1423.231980432498
  C       1.794810      0.823862     -1.071115
  H       1.887072      1.754405     -0.508480
  H       2.753291      0.596007     -1.533369
  C       1.337929     -0.300457     -0.143134
  C       2.351398     -0.578533      1.007332
  H       2.003829     -1.468648      1.537334
  H       2.260091      0.249846      1.711539
  C       3.857288     -0.793479      0.729066
  C       1.124345     -1.564375     -0.974063
  O       1.245937     -1.646230     -2.166532
  O       0.758657     -2.609919     -0.214469
  C       4.564336      0.495290      0.313230
  O       5.397726      0.583857     -0.548186
  O       4.212898      1.538269      1.083956
  C       4.144735     -1.872274     -0.313699
  H       5.214985     -2.071563     -0.367421
  H       3.635499     -2.798400     -0.035996
  H       3.820448     -1.584725     -1.311478
  C       4.505482     -1.206102      2.064123
  H       4.156675     -2.199198      2.354156
  H       5.593251     -1.244791      1.971765
  H       4.256061     -0.502069      2.859523
  C       0.496691     -3.818389     -0.919383
  H       0.240078     -4.556234     -0.163068
  H      -0.331959     -3.682965     -1.616000
  H       1.376649     -4.136136     -1.479887
  C       4.859007      2.770184      0.781875
  H       4.612027      3.089815     -0.232066
  H       4.486317      3.490475      1.506230
  H       5.941536      2.671194      0.864007
  H       1.093041      0.971666     -1.890743
  C       0.028360      0.067126      0.607757
  C      -1.297449      0.423234     -0.124324
  H       0.274245      0.919348      1.245383
  H      -0.205770     -0.768990      1.271320
  C      -2.276939      0.738385      1.042557
  C      -1.095145      1.675558     -0.977104
  C      -1.774441     -0.710597     -1.027590
  C      -3.730097      1.126431      0.798462
  H      -2.266486     -0.120853      1.717309
  H      -1.831469      1.565191      1.601725
  O      -1.263591      1.748676     -2.164248
  O      -0.674869      2.719974     -0.243701
  H      -1.064856     -0.900720     -1.830781
  H      -1.904226     -1.620733     -0.441482
  H      -2.724068     -0.470001     -1.502812
  C      -4.077943      1.971700     -0.398240
  C      -4.623932     -0.743114      0.110355
  C      -0.414849      3.917557     -0.967763
  H      -3.577824      2.942114     -0.322426
  H      -3.769489      1.520126     -1.338723
  H      -5.152400      2.144912     -0.445126
  O      -5.520121     -0.766604     -0.669984
  O      -4.258081     -1.705656      0.946376
  H      -1.305843      4.245874     -1.504099
  H      -0.122119      4.657282     -0.226621
  H       0.389667      3.761081     -1.688080
  C      -5.038411     -2.911416      0.889083
  H      -4.617416     -3.574811      1.639939
  H      -6.083235     -2.693735      1.111336
  H      -4.966537     -3.360005     -0.102015
  C      -4.537664      1.193367      1.908221
  H      -4.244658      0.734256      2.844866
  H      -5.527293      1.629173      1.848794
64
Coordinates from ORCA-job orca E -1423.231944676746
  C       1.786755      0.819116     -1.068977
  H       1.887057      1.753732     -0.514396
  H       2.741596      0.582883     -1.535279
  C       1.331437     -0.295300     -0.128972
  C       2.350749     -0.559763      1.017685
  H       2.002660     -1.438165      1.566597
  H       2.274389      0.282215      1.707584
  C       3.850487     -0.790548      0.725327
  C       1.123541     -1.569756     -0.945034
  O       1.264676     -1.669081     -2.133950
  O       0.757307     -2.606835     -0.174408
  C       4.560062      0.484328      0.273706
  O       5.373696      0.551123     -0.608105
  O       4.240694      1.540512      1.039881
  C       4.112257     -1.891908     -0.300127
  H       5.179330     -2.104597     -0.364301
  H       3.596267     -2.806572      0.001810
  H       3.777975     -1.618196     -1.298857
  C       4.512370     -1.182198      2.060093
  H       4.149709     -2.161109      2.379916
  H       5.597483     -1.243730      1.951532
  H       4.288063     -0.455139      2.841965
  C       0.512042     -3.827244     -0.865073
  H       0.244657     -4.554086     -0.101962
  H      -0.304149     -3.705442     -1.578571
  H       1.403159     -4.150243     -1.404430
  C       4.896591      2.760119      0.709636
  H       4.635857      3.070150     -0.303634
  H       4.546334      3.493692      1.431778
  H       5.979016      2.647917      0.773852
  H       1.080370      0.963775     -1.884969
  C       0.023537      0.076999      0.621393
  C      -1.297454      0.439335     -0.115098
  H       0.271909      0.926781      1.261164
  H      -0.215416     -0.758023      1.284426
  C      -2.288488      0.730531      1.047454
  C      -1.093359      1.705103     -0.946947
  C      -1.767116     -0.681721     -1.037464
  C      -3.739611      1.122270      0.796684
  H      -2.286088     -0.144549      1.701512
  H      -1.850278      1.544678      1.630477
  O      -1.256900      1.796188     -2.133507
  O      -0.667428      2.735481     -0.197673
  H      -1.056795     -0.854167     -1.844132
  H      -1.892045     -1.602188     -0.466524
  H      -2.717824     -0.437528     -1.508649
  C      -4.084368      1.971407     -0.398250
  C      -4.623955     -0.763150      0.076367
  C      -0.404940      3.943361     -0.904062
  H      -3.590725      2.944227     -0.313036
  H      -3.766672      1.527583     -1.339388
  H      -5.159441      2.138421     -0.450946
  O      -5.513350     -0.781166     -0.711577
  O      -4.265605     -1.730019      0.910031
  H      -1.299407      4.288595     -1.423673
  H      -0.097160      4.667426     -0.153713
  H       0.388959      3.792348     -1.636990
  C      -5.044930     -2.935833      0.838329
  H      -4.631385     -3.603259      1.589693
  H      -6.091832     -2.719453      1.051551
  H      -4.962889     -3.379052     -0.154315
  C      -4.557177      1.170140      1.896292
  H      -4.270607      0.702427      2.830699
  H      -5.548418      1.601671      1.832963
64
Coordinates from ORCA-job orca E -1423.232081601684
  C       1.779303      0.807634     -1.071176
  H       1.885815      1.746367     -0.524735
  H       2.729234      0.567232     -1.545434
  C       1.333016     -0.299060     -0.118075
  C       2.360288     -0.548678      1.024565
  H       2.014761     -1.417258      1.590435
  H       2.292193      0.304760      1.701250
  C       3.857596     -0.786012      0.724928
  C       1.126772     -1.582164     -0.921208
  O       1.268442     -1.692879     -2.109040
  O       0.742345     -2.607237     -0.143648
  C       4.564514      0.480185      0.246013
  O       5.365527      0.532309     -0.648215
  O       4.254475      1.548583      0.998619
  C       4.110219     -1.905414     -0.283029
  H       5.176374     -2.121457     -0.350960
  H       3.594672     -2.813574      0.038364
  H       3.769852     -1.647604     -1.283919
  C       4.529005     -1.155057      2.061325
  H       4.157988     -2.121980      2.407054
  H       5.612013     -1.232196      1.942754
  H       4.321138     -0.408365      2.829010
  C       0.495815     -3.833262     -0.824290
  H       0.204023     -4.547081     -0.057896
  H      -0.303647     -3.710177     -1.556034
  H       1.393849     -4.173705     -1.340921
  C       4.907069      2.762687      0.642010
  H       4.639011      3.054995     -0.374507
  H       4.561488      3.507924      1.354333
  H       5.989945      2.651934      0.700721
  H       1.064581      0.946907     -1.880778
  C       0.027763      0.074772      0.634678
  C      -1.290179      0.439098     -0.104568
  H       0.277521      0.923611      1.275000
  H      -0.212571     -0.759590      1.297923
  C      -2.290733      0.711852      1.053891
  C      -1.086581      1.715053     -0.920833
  C      -1.750207     -0.674115     -1.041005
  C      -3.738145      1.113394      0.796854
  H      -2.298865     -0.176402      1.689793
  H      -1.855850      1.512574      1.657768
  O      -1.254482      1.821478     -2.105527
  O      -0.670482      2.739034     -0.157736
  H      -1.035203     -0.835390     -1.846180
  H      -1.873763     -1.601012     -0.480056
  H      -2.699893     -0.428861     -1.513743
  C      -4.072052      1.976768     -0.390988
  C      -4.622503     -0.760600      0.046374
  C      -0.419063      3.958514     -0.848529
  H      -3.576464      2.947225     -0.291704
  H      -3.749354      1.541998     -1.334585
  H      -5.146260      2.147209     -0.449020
  O      -5.504676     -0.764335     -0.749790
  O      -4.277805     -1.738504      0.872753
  H      -1.319199      4.306508     -1.356336
  H      -0.109763      4.673163     -0.089898
  H       0.369962      3.822021     -1.589394
  C      -5.065130     -2.937943      0.781897
  H      -4.661746     -3.616721      1.528565
  H      -6.111775     -2.716181      0.990562
  H      -4.979475     -3.370670     -0.214940
  C      -4.564476      1.149193      1.889891
  H      -4.287232      0.668339      2.820416
  H      -5.553813      1.584673      1.824358
64
Coordinates from ORCA-job orca E -1423.232111079502
  C       1.779350      0.794310     -1.079502
  H       1.895369      1.736893     -0.541643
  H       2.725108      0.543490     -1.556839
  C       1.331151     -0.301035     -0.114466
  C       2.361526     -0.539980      1.027140
  H       2.014195     -1.397722      1.608430
  H       2.301294      0.324527      1.690494
  C       3.856955     -0.787245      0.725762
  C       1.121926     -1.592666     -0.903399
  O       1.278577     -1.720793     -2.087581
  O       0.737140     -2.608548     -0.114207
  C       4.564222      0.468622      0.221213
  O       5.356280      0.504102     -0.681705
  O       4.260785      1.550354      0.956973
  C       4.103376     -1.925243     -0.262574
  H       5.168569     -2.146280     -0.328943
  H       3.585587     -2.825733      0.076244
  H       3.762155     -1.683663     -1.267125
  C       4.532434     -1.133568      2.066126
  H       4.152624     -2.088274      2.435486
  H       5.613691     -1.225556      1.942852
  H       4.336968     -0.368237      2.818458
  C       0.500987     -3.845288     -0.779319
  H       0.198956     -4.547284     -0.006059
  H      -0.287993     -3.733966     -1.524164
  H       1.406635     -4.192959     -1.277488
  C       4.912467      2.757431      0.575270
  H       4.641985      3.030528     -0.445818
  H       4.568790      3.515613      1.274666
  H       5.995419      2.647452      0.633577
  H       1.061453      0.931962     -1.886253
  C       0.028320      0.081663      0.638320
  C      -1.287783      0.452709     -0.101255
  H       0.282618      0.928766      1.278969
  H      -0.216320     -0.750641      1.302367
  C      -2.294566      0.703307      1.056393
  C      -1.087220      1.741632     -0.897786
  C      -1.742208     -0.648066     -1.054693
  C      -3.741272      1.109091      0.799978
  H      -2.306994     -0.198383      1.672919
  H      -1.863667      1.491264      1.679706
  O      -1.257640      1.866438     -2.080326
  O      -0.667494      2.752992     -0.120295
  H      -1.026870     -0.793943     -1.862352
  H      -1.861048     -1.584003     -0.507839
  H      -2.693250     -0.400003     -1.523055
  C      -4.075530      1.982170     -0.380670
  C      -4.620750     -0.766869      0.021030
  C      -0.419218      3.983331     -0.793059
  H      -3.583323      2.953186     -0.271105
  H      -3.749705      1.557426     -1.327717
  H      -5.150132      2.149745     -0.438792
  O      -5.499631     -0.761373     -0.778642
  O      -4.280863     -1.752779      0.839603
  H      -1.324344      4.343976     -1.282816
  H      -0.097221      4.683258     -0.026087
  H       0.359423      3.856179     -1.546342
  C      -5.069207     -2.950442      0.734144
  H      -4.669413     -3.636829      1.475721
  H      -6.116268     -2.729390      0.941258
  H      -4.980059     -3.373596     -0.266456
  C      -4.571880      1.126915      1.888275
  H      -4.297106      0.635091      2.813796
  H      -5.562180      1.560441      1.824614
64
Coordinates from ORCA-job orca E -1423.232149183857
  C       1.771192      0.774269     -1.086902
  H       1.893630      1.722248     -0.560022
  H       2.712283      0.516771     -1.570230
  C       1.330255     -0.309898     -0.106499
  C       2.368150     -0.531929      1.030778
  H       2.026159     -1.381078      1.627658
  H       2.312891      0.342596      1.681328
  C       3.861362     -0.780620      0.721238
  C       1.122664     -1.612369     -0.878041
  O       1.282572     -1.756764     -2.059879
  O       0.724566     -2.614346     -0.077917
  C       4.560916      0.468796      0.190576
  O       5.342406      0.491777     -0.721841
  O       4.270968      1.558807      0.919197
  C       4.101754     -1.933345     -0.251075
  H       5.166613     -2.154498     -0.321761
  H       3.587472     -2.828932      0.105456
  H       3.753060     -1.706996     -1.256713
  C       4.548090     -1.104696      2.061521
  H       4.166540     -2.050103      2.452422
  H       5.627477     -1.205171      1.929481
  H       4.363398     -0.324879      2.801527
  C       0.487369     -3.859270     -0.727549
  H       0.164178     -4.545471      0.051275
  H      -0.286526     -3.751742     -1.488412
  H       1.398431     -4.224114     -1.202986
  C       4.922179      2.759784      0.517463
  H       4.644148      3.021556     -0.504411
  H       4.586171      3.526547      1.211153
  H       6.005238      2.647561      0.568464
  H       1.045915      0.905350     -1.888218
  C       0.030454      0.078288      0.647964
  C      -1.281138      0.457431     -0.094635
  H       0.288544      0.923060      1.289962
  H      -0.218940     -0.753122      1.311203
  C      -2.297129      0.689097      1.058367
  C      -1.077352      1.758076     -0.871082
  C      -1.729793     -0.630011     -1.065698
  C      -3.740913      1.102825      0.797248
  H      -2.318098     -0.224861      1.656167
  H      -1.870440      1.463344      1.701595
  O      -1.246700      1.901259     -2.051674
  O      -0.667536      2.759656     -0.076118
  H      -1.011790     -0.762941     -1.873266
  H      -1.848190     -1.574289     -0.532943
  H      -2.680071     -0.377088     -1.532905
  C      -4.068150      1.985817     -0.378039
  C      -4.618943     -0.768845     -0.008122
  C      -0.425129      4.001963     -0.729095
  H      -3.575473      2.955347     -0.258195
  H      -3.738314      1.568256     -1.326875
  H      -5.142236      2.155040     -0.439682
  O      -5.491903     -0.751749     -0.814026
  O      -4.290525     -1.762987      0.804943
  H      -1.333648      4.368906     -1.207707
  H      -0.100994      4.689393      0.048156
  H       0.349743      3.889096     -1.488335
  C      -5.085180     -2.955165      0.684565
  H      -4.693701     -3.650072      1.422585
  H      -6.131972     -2.729568      0.887842
  H      -4.992714     -3.370308     -0.318981
  C      -4.578838      1.108562      1.878853
  H      -4.311057      0.606428      2.800871
  H      -5.568217      1.543834      1.813389
64
Coordinates from ORCA-job orca E -1423.232133824034
  C       1.769038      0.762606     -1.088798
  H       1.901058      1.714071     -0.570420
  H       2.704938      0.496113     -1.577497
  C       1.330310     -0.311204     -0.096440
  C       2.373889     -0.523591      1.037037
  H       2.032249     -1.363351      1.647374
  H       2.327016      0.359663      1.676427
  C       3.864132     -0.781275      0.721276
  C       1.118731     -1.621135     -0.854397
  O       1.283302     -1.779711     -2.033722
  O       0.719505     -2.613894     -0.043541
  C       4.563346      0.458408      0.167979
  O       5.329784      0.467929     -0.757343
  O       4.271881      1.561948      0.875090
  C       4.094899     -1.948301     -0.235998
  H       5.158449     -2.174683     -0.309059
  H       3.579195     -2.836838      0.135769
  H       3.741889     -1.734243     -1.242784
  C       4.558397     -1.089273      2.061425
  H       4.172430     -2.025857      2.468838
  H       5.635929     -1.199981      1.923187
  H       4.383966     -0.297796      2.791325
  C       0.485694     -3.866846     -0.679096
  H       0.152184     -4.541550      0.105370
  H      -0.279387     -3.767173     -1.449721
  H       1.401054     -4.240543     -1.139094
  C       4.915577      2.757381      0.445267
  H       4.636804      2.993555     -0.582460
  H       4.574526      3.537688      1.121092
  H       5.999225      2.652863      0.499603
  H       1.038108      0.892267     -1.885040
  C       0.033399      0.083601      0.659069
  C      -1.274958      0.467023     -0.086438
  H       0.294468      0.927274      1.301089
  H      -0.219374     -0.745989      1.323056
  C      -2.300265      0.677685      1.061960
  C      -1.073545      1.778973     -0.844542
  C      -1.712744     -0.609985     -1.073737
  C      -3.741860      1.097549      0.797346
  H      -2.327950     -0.248761      1.639815
  H      -1.878791      1.437446      1.725590
  O      -1.237936      1.936907     -2.023938
  O      -0.666928      2.770582     -0.035765
  H      -0.990403     -0.728840     -1.879712
  H      -1.827638     -1.562063     -0.553933
  H      -2.662552     -0.356685     -1.541446
  C      -4.064414      1.990775     -0.371487
  C      -4.615117     -0.772119     -0.037020
  C      -0.428005      4.022291     -0.672214
  H      -3.573010      2.959459     -0.240748
  H      -3.730395      1.582116     -1.322663
  H      -5.138315      2.159823     -0.435795
  O      -5.482369     -0.744104     -0.848711
  O      -4.296085     -1.774524      0.769387
  H      -1.340325      4.397867     -1.136631
  H      -0.095878      4.697380      0.112391
  H       0.339482      3.919366     -1.440104
  C      -5.094526     -2.962585      0.633335
  H      -4.709534     -3.665741      1.366881
  H      -6.141422     -2.734882      0.833448
  H      -4.998128     -3.368536     -0.373510
  C      -4.586846      1.087935      1.871876
  H      -4.324698      0.575168      2.789640
  H      -5.576276      1.522858      1.805276
64
Coordinates from ORCA-job orca E -1423.232134980598
  C       1.764676      0.740459     -1.101784
  H       1.902437      1.697430     -0.595158
  H       2.697209      0.465821     -1.592511
  C       1.328925     -0.320700     -0.094808
  C       2.377651     -0.517918      1.036268
  H       2.039979     -1.349274      1.660256
  H       2.333244      0.374298      1.663290
  C       3.866986     -0.775966      0.717074
  C       1.115528     -1.640858     -0.834844
  O       1.283680     -1.817032     -2.011130
  O       0.713738     -2.621379     -0.010503
  C       4.556717      0.457286      0.138331
  O       5.318993      0.453758     -0.790429
  O       4.281356      1.567116      0.841758
  C       4.098021     -1.958516     -0.220858
  H       5.162055     -2.182516     -0.294153
  H       3.587156     -2.842291      0.168498
  H       3.740392     -1.763075     -1.229721
  C       4.568539     -1.057734      2.059334
  H       4.185238     -1.986979      2.485678
  H       5.645382     -1.170317      1.917700
  H       4.396423     -0.253507      2.775755
  C       0.478507     -3.883012     -0.628447
  H       0.136604     -4.543946      0.164095
  H      -0.280758     -3.791621     -1.405779
  H       1.395561     -4.267819     -1.075769
  C       4.923342      2.756727      0.393271
  H       4.632414      2.984974     -0.632853
  H       4.593386      3.543702      1.066854
  H       6.007230      2.648925      0.435228
  H       1.029790      0.864004     -1.895121
  C       0.035202      0.082659      0.661684
  C      -1.270445      0.473809     -0.084558
  H       0.301264      0.925004      1.303305
  H      -0.222007     -0.744560      1.326777
  C      -2.302208      0.663935      1.061274
  C      -1.068338      1.797832     -0.821315
  C      -1.703400     -0.588852     -1.089313
  C      -3.741762      1.091516      0.796585
  H      -2.336173     -0.274753      1.618661
  H      -1.883760      1.408307      1.744120
  O      -1.233441      1.975249     -1.997834
  O      -0.670802      2.778245      0.005305
  H      -0.979575     -0.694525     -1.895552
  H      -1.816903     -1.549234     -0.584489
  H      -2.653041     -0.330870     -1.554692
  C      -4.060994      1.995366     -0.364973
  C      -4.614429     -0.772021     -0.061846
  C      -0.433090      4.040799     -0.610177
  H      -3.568496      2.962202     -0.225219
  H      -3.726381      1.594316     -1.319180
  H      -5.134563      2.166399     -0.429053
  O      -5.477786     -0.732163     -0.877183
  O      -4.304574     -1.782791      0.737519
  H      -1.346139      4.423458     -1.067361
  H      -0.101250      4.702740      0.185667
  H       0.334047      3.951133     -1.380036
  C      -5.108351     -2.965637      0.587681
  H      -4.729758     -3.676900      1.316715
  H      -6.154853     -2.734413      0.785738
  H      -5.009493     -3.363208     -0.422249
  C      -4.590982      1.069441      1.866748
  H      -4.332793      0.546379      2.779832
  H      -5.579944      1.505611      1.801308
64
Coordinates from ORCA-job orca E -1423.232099216482
  C       1.772386      0.738771     -1.098776
  H       1.911495      1.697411     -0.595508
  H       2.705251      0.460863     -1.587215
  C       1.333942     -0.317931     -0.088629
  C       2.380972     -0.509532      1.044213
  H       2.038878     -1.332757      1.676404
  H       2.342053      0.389067      1.662436
  C       3.867933     -0.779796      0.726256
  C       1.125436     -1.642318     -0.822673
  O       1.298351     -1.824080     -1.997334
  O       0.707478     -2.615632      0.002105
  C       4.562445      0.439810      0.124981
  O       5.313179      0.418457     -0.812888
  O       4.282511      1.565544      0.800663
  C       4.090027     -1.979302     -0.191831
  H       5.152569     -2.210287     -0.264097
  H       3.575665     -2.853377      0.214282
  H       3.730044     -1.799631     -1.202909
  C       4.570690     -1.044399      2.071351
  H       4.185158     -1.967028      2.509678
  H       5.646965     -1.161828      1.930055
  H       4.400861     -0.230849      2.777435
  C       0.468414     -3.878236     -0.612602
  H       0.110506     -4.531869      0.178862
  H      -0.279859     -3.783721     -1.399944
  H       1.387645     -4.273463     -1.045961
  C       4.913919      2.747510      0.317991
  H       4.619711      2.944738     -0.713446
  H       4.578634      3.550114      0.970066
  H       5.998617      2.649583      0.361244
  H       1.038860      0.861785     -1.893280
  C       0.038545      0.086527      0.665071
  C      -1.263854      0.484831     -0.083671
  H       0.304673      0.925067      1.311294
  H      -0.222625     -0.742174      1.326594
  C      -2.301710      0.656811      1.058997
  C      -1.061885      1.819421     -0.801332
  C      -1.692192     -0.565443     -1.103072
  C      -3.740847      1.086501      0.794446
  H      -2.337756     -0.291114      1.600243
  H      -1.887646      1.390041      1.756399
  O      -1.218110      2.011492     -1.976691
  O      -0.675310      2.790567      0.041170
  H      -0.968078     -0.658309     -1.910370
  H      -1.802575     -1.533353     -0.611478
  H      -2.642486     -0.304898     -1.565291
  C      -4.062174      1.992678     -0.364771
  C      -4.608968     -0.784673     -0.079171
  C      -0.438310      4.062153     -0.555961
  H      -3.571219      2.959879     -0.222861
  H      -3.727623      1.595161     -1.320491
  H      -5.136033      2.161988     -0.427204
  O      -5.470326     -0.740315     -0.896311
  O      -4.303327     -1.797926      0.718310
  H      -1.350884      4.449292     -1.010143
  H      -0.110367      4.713387      0.250196
  H       0.331090      3.984668     -1.324652
  C      -5.108931     -2.978983      0.563115
  H      -4.732847     -3.692825      1.290826
  H      -6.155282     -2.746492      0.760065
  H      -5.008666     -3.373561     -0.447726
  C      -4.592479      1.053477      1.860413
  H      -4.334584      0.526484      2.771284
  H      -5.582771      1.486534      1.795252
64
Coordinates from ORCA-job orca E -1423.232079449956
  C       1.789074      0.749176     -1.091975
  H       1.924054      1.702682     -0.578230
  H       2.726917      0.474362     -1.572766
  C       1.338249     -0.316292     -0.096475
  C       2.376350     -0.522237      1.041658
  H       2.031258     -1.354830      1.659672
  H       2.330863      0.367651      1.671874
  C       3.865749     -0.784995      0.729789
  C       1.130883     -1.632181     -0.845723
  O       1.304499     -1.800287     -2.022308
  O       0.704499     -2.612922     -0.034179
  C       4.561362      0.445217      0.151941
  O       5.322958      0.439062     -0.777346
  O       4.270408      1.560789      0.839847
  C       4.096528     -1.969600     -0.205357
  H       5.160010     -2.197065     -0.274310
  H       3.581412     -2.850970      0.183531
  H       3.742710     -1.775016     -1.215870
  C       4.560878     -1.067606      2.075095
  H       4.177510     -1.998794      2.496812
  H       5.638664     -1.177233      1.939095
  H       4.382737     -0.265655      2.792336
  C       0.462752     -3.867112     -0.664563
  H       0.102284     -4.529606      0.118297
  H      -0.284509     -3.761060     -1.451402
  H       1.381160     -4.259412     -1.102240
  C       4.904585      2.750748      0.381271
  H       4.618643      2.963943     -0.649303
  H       4.563026      3.542790      1.042897
  H       5.988987      2.653319      0.431705
  H       1.064599      0.879833     -1.893391
  C       0.039387      0.085209      0.654440
  C      -1.266590      0.480251     -0.091228
  H       0.303360      0.924160      1.301015
  H      -0.219954     -0.744697      1.315320
  C      -2.294409      0.672835      1.057162
  C      -1.065942      1.804287     -0.828586
  C      -1.708026     -0.581381     -1.093050
  C      -3.735919      1.096554      0.797060
  H      -2.323559     -0.263704      1.618233
  H      -1.874644      1.420680      1.735343
  O      -1.231246      1.980990     -2.005103
  O      -0.675401      2.787081     -0.001535
  H      -0.990541     -0.687709     -1.904409
  H      -1.819963     -1.542006     -0.587626
  H      -2.660209     -0.321705     -1.551888
  C      -4.063922      1.990429     -0.369899
  C      -4.610184     -0.788681     -0.053203
  C      -0.443245      4.050571     -0.617130
  H      -3.573988      2.959727     -0.238864
  H      -3.731892      1.584857     -1.323225
  H      -5.138250      2.157509     -0.429969
  O      -5.478634     -0.755511     -0.863274
  O      -4.293642     -1.793183      0.751026
  H      -1.356927      4.427375     -1.077624
  H      -0.118105      4.714985      0.179326
  H       0.326936      3.964988     -1.384234
  C      -5.095588     -2.978874      0.613221
  H      -4.711194     -3.684399      1.344659
  H      -6.141384     -2.748761      0.815741
  H      -5.001604     -3.382615     -0.394586
  C      -4.580614      1.074444      1.868216
  H      -4.316539      0.557749      2.783173
  H      -5.571492      1.506360      1.804529
64
Coordinates from ORCA-job orca E -1423.232074511100
  C       1.782919      0.761456     -1.084100
  H       1.917043      1.712253     -0.565451
  H       2.720302      0.490638     -1.568007
  C       1.334839     -0.310065     -0.093900
  C       2.373907     -0.524229      1.042226
  H       2.028631     -1.361613      1.653609
  H       2.330070      0.360426      1.679810
  C       3.862035     -0.788083      0.726128
  C       1.126221     -1.620540     -0.851684
  O       1.298156     -1.780329     -2.029681
  O       0.720320     -2.612003     -0.042693
  C       4.563242      0.445553      0.162436
  O       5.326394      0.446071     -0.765600
  O       4.275663      1.554947      0.861655
  C       4.085993     -1.962912     -0.222877
  H       5.148298     -2.194316     -0.296328
  H       3.567447     -2.846334      0.156672
  H       3.731280     -1.755205     -1.230575
  C       4.557758     -1.089073      2.067132
  H       4.172125     -2.023886      2.478644
  H       5.635027     -1.200425      1.928471
  H       4.383378     -0.294807      2.793804
  C       0.488044     -3.864856     -0.679227
  H       0.148906     -4.538626      0.103529
  H      -0.272260     -3.763988     -1.454197
  H       1.405546     -4.240050     -1.133422
  C       4.916317      2.746983      0.417725
  H       4.630623      2.975000     -0.609760
  H       4.579844      3.532403      1.089755
  H       6.000162      2.642712      0.465800
  H       1.056662      0.894401     -1.883788
  C       0.035921      0.087169      0.658280
  C      -1.270755      0.477738     -0.087413
  H       0.297986      0.927255      1.304235
  H      -0.221110     -0.743919      1.318593
  C      -2.295754      0.686985      1.060915
  C      -1.066786      1.791917     -0.840903
  C      -1.715631     -0.593959     -1.076777
  C      -3.737901      1.106386      0.798361
  H      -2.322195     -0.240351      1.637161
  H      -1.874648      1.445651      1.726070
  O      -1.228091      1.953312     -2.020158
  O      -0.684551      2.786609     -0.024282
  H      -0.998271     -0.710683     -1.887101
  H      -1.830292     -1.548263     -0.560375
  H      -2.666977     -0.336543     -1.538552
  C      -4.065391      1.994432     -0.373265
  C      -4.612714     -0.788553     -0.045911
  C      -0.452218      4.042562     -0.654975
  H      -3.577971      2.965265     -0.244062
  H      -3.729460      1.586397     -1.324184
  H      -5.139862      2.159112     -0.437042
  O      -5.483386     -0.760778     -0.853691
  O      -4.290418     -1.789311      0.760606
  H      -1.362176      4.407262     -1.132186
  H      -0.140729      4.720249      0.135720
  H       0.328029      3.950659     -1.411152
  C      -5.088351     -2.978378      0.628223
  H      -4.700375     -3.680111      1.361406
  H      -6.134651     -2.751272      0.831470
  H      -4.994519     -3.385210     -0.378366
  C      -4.583148      1.087548      1.868431
  H      -4.318935      0.575533      2.785975
  H      -5.574385      1.518297      1.802253
64
Coordinates from ORCA-job orca E -1423.232082632833
  C       1.783694      0.750794     -1.090977
  H       1.922064      1.703894     -0.577559
  H       2.719222      0.475095     -1.575991
  C       1.335967     -0.314525     -0.094280
  C       2.377400     -0.522342      1.041061
  H       2.033167     -1.355776      1.658547
  H       2.334168      0.366534      1.672825
  C       3.866004     -0.785482      0.726254
  C       1.123290     -1.628793     -0.844588
  O       1.294943     -1.795806     -2.021597
  O       0.718654     -2.615477     -0.029180
  C       4.562860      0.444232      0.149555
  O       5.325012      0.437500     -0.779244
  O       4.279962      1.557706      0.843857
  C       4.093337     -1.969279     -0.210657
  H       5.156389     -2.197834     -0.282184
  H       3.578089     -2.850383      0.178487
  H       3.737540     -1.773185     -1.220327
  C       4.562464     -1.071090      2.070500
  H       4.180384     -2.003946      2.489682
  H       5.640236     -1.179227      1.933451
  H       4.384182     -0.271247      2.790085
  C       0.482820     -3.871492     -0.658420
  H       0.146719     -4.540920      0.129344
  H      -0.280941     -3.773792     -1.430392
  H       1.398167     -4.249428     -1.114627
  C       4.915328      2.747449      0.386073
  H       4.621119      2.967090     -0.640803
  H       4.582775      3.537388      1.054763
  H       5.999646      2.645165      0.426698
  H       1.055780      0.882041     -1.889141
  C       0.038729      0.086578      0.658846
  C      -1.268016      0.479372     -0.085823
  H       0.303222      0.926152      1.304492
  H      -0.219081     -0.743335      1.320163
  C      -2.295160      0.677284      1.062196
  C      -1.067857      1.800150     -0.828653
  C      -1.708560     -0.586228     -1.083595
  C      -3.734932      1.104902      0.800745
  H      -2.326681     -0.257843      1.625433
  H      -1.873498      1.425300      1.738881
  O      -1.227619      1.969927     -2.006912
  O      -0.690065      2.789644     -0.003763
  H      -0.990140     -0.695517     -1.893945
  H      -1.821064     -1.544824     -0.574465
  H      -2.659766     -0.328448     -1.544990
  C      -4.058959      1.998968     -0.367193
  C      -4.614130     -0.788926     -0.058921
  C      -0.458684      4.050865     -0.624492
  H      -3.567844      2.967343     -0.233966
  H      -3.724558      1.593832     -1.320005
  H      -5.132797      2.167880     -0.430045
  O      -5.483152     -0.751581     -0.868078
  O      -4.299383     -1.795039      0.743614
  H      -1.368785      4.418165     -1.099369
  H      -0.148788      4.722443      0.172009
  H       0.322304      3.965725     -1.380634
  C      -5.103541     -2.979197      0.603683
  H      -4.721167     -3.686191      1.334733
  H      -6.149046     -2.747225      0.805384
  H      -5.008938     -3.381814     -0.404521
  C      -4.582742      1.078915      1.867319
  H      -4.321389      0.560743      2.782241
  H      -5.573173      1.511624      1.801829
64
Coordinates from ORCA-job orca E -1423.232083654160
  C       1.774044      0.744831     -1.095677
  H       1.912764      1.702704     -0.591076
  H       2.707758      0.467282     -1.583048
  C       1.334094     -0.313094     -0.088005
  C       2.379783     -0.508689      1.045181
  H       2.035875     -1.333705      1.674091
  H       2.342557      0.387833      1.666472
  C       3.865120     -0.782322      0.725824
  C       1.124954     -1.635185     -0.825623
  O       1.298748     -1.813421     -2.000673
  O       0.722606     -2.614926     -0.000781
  C       4.565165      0.435782      0.128925
  O       5.317632      0.413534     -0.807504
  O       4.293584      1.559417      0.811201
  C       4.078885     -1.979603     -0.196954
  H       5.140043     -2.215179     -0.273678
  H       3.561630     -2.852450      0.207918
  H       3.715853     -1.794770     -1.206371
  C       4.567057     -1.056074      2.069847
  H       4.180276     -1.981131      2.501762
  H       5.643241     -1.173817      1.928393
  H       4.398369     -0.246465      2.780627
  C       0.489637     -3.877617     -0.617893
  H       0.156344     -4.540293      0.176725
  H      -0.275443     -3.789157     -1.389708
  H       1.405584     -4.257143     -1.071443
  C       4.926076      2.741121      0.328921
  H       4.621435      2.945458     -0.698074
  H       4.601590      3.541683      0.988877
  H       6.010559      2.637613      0.360108
  H       1.041625      0.868472     -1.891040
  C       0.037736      0.090250      0.664849
  C      -1.265303      0.488075     -0.082867
  H       0.303374      0.928489      1.311710
  H      -0.223121     -0.739328      1.325294
  C      -2.300795      0.667150      1.060872
  C      -1.061227      1.818786     -0.806695
  C      -1.696714     -0.565668     -1.096976
  C      -3.739073      1.099361      0.797274
  H      -2.337806     -0.278590      1.605874
  H      -1.883625      1.402102      1.754417
  O      -1.213201      2.004311     -1.983599
  O      -0.689292      2.797079      0.034033
  H      -0.974382     -0.662061     -1.905443
  H      -1.807272     -1.531587     -0.601408
  H      -2.647208     -0.306272     -1.559155
  C      -4.062167      1.997258     -0.367635
  C      -4.612919     -0.795890     -0.079705
  C      -0.452974      4.066587     -0.567922
  H      -3.571281      2.965133     -0.230664
  H      -3.727798      1.595177     -1.321641
  H      -5.135975      2.166508     -0.430019
  O      -5.477990     -0.751519     -0.892704
  O      -4.305026     -1.806092      0.720046
  H      -1.360498      4.442222     -1.041238
  H      -0.145485      4.726056      0.239538
  H       0.331082      3.990535     -1.321772
  C      -5.111301     -2.987875      0.570928
  H      -4.734348     -3.698459      1.301287
  H      -6.157282     -2.754245      0.768043
  H      -5.011712     -3.386507     -0.438352
  C      -4.591918      1.062071      1.858042
  H      -4.333494      0.538301      2.770642
  H      -5.583268      1.492462      1.791032
64
Coordinates from ORCA-job orca E -1423.232069264260
  C       1.782301      0.728783     -1.102489
  H       1.921368      1.689495     -0.603076
  H       2.717207      0.447468     -1.585901
  C       1.339198     -0.322736     -0.089569
  C       2.385082     -0.510710      1.044516
  H       2.043119     -1.332053      1.679281
  H       2.344973      0.390197      1.659326
  C       3.872652     -0.778140      0.728940
  C       1.126230     -1.648977     -0.819212
  O       1.297386     -1.834443     -1.993539
  O       0.712529     -2.620150      0.010021
  C       4.562185      0.437522      0.115792
  O       5.315123      0.408963     -0.820058
  O       4.283113      1.567153      0.784854
  C       4.098934     -1.985949     -0.177114
  H       5.162576     -2.211031     -0.250898
  H       3.591402     -2.858502      0.240260
  H       3.734273     -1.819041     -1.188872
  C       4.576001     -1.027278      2.077087
  H       4.196116     -1.949396      2.521180
  H       5.653155     -1.138472      1.937794
  H       4.400346     -0.209319      2.776563
  C       0.471077     -3.884804     -0.600151
  H       0.134126     -4.540776      0.198470
  H      -0.294167     -3.795324     -1.371681
  H       1.384245     -4.272559     -1.052270
  C       4.907028      2.747516      0.287907
  H       4.602290      2.935544     -0.742100
  H       4.575005      3.554050      0.936766
  H       5.992224      2.653062      0.322279
  H       1.052188      0.849286     -1.900065
  C       0.043609      0.085079      0.663087
  C      -1.260448      0.484829     -0.082970
  H       0.311481      0.922747      1.309708
  H      -0.217934     -0.743008      1.325124
  C      -2.297565      0.647250      1.061047
  C      -1.064739      1.824303     -0.793054
  C      -1.686365     -0.560984     -1.107450
  C      -3.732853      1.091033      0.800893
  H      -2.341282     -0.308549      1.587619
  H      -1.878848      1.367129      1.769355
  O      -1.213286      2.019838     -1.968755
  O      -0.688857      2.793837      0.055920
  H      -0.962085     -0.649020     -1.914971
  H      -1.795459     -1.531813     -0.620838
  H      -2.636211     -0.300440     -1.570002
  C      -4.050467      2.001718     -0.355603
  C      -4.616079     -0.785035     -0.090320
  C      -0.456698      4.069889     -0.534018
  H      -3.550185      2.963975     -0.213237
  H      -3.722911      1.602972     -1.313464
  H      -5.122857      2.181121     -0.413635
  O      -5.480358     -0.724749     -0.903244
  O      -4.318587     -1.805175      0.700618
  H      -1.367616      4.450421     -0.996745
  H      -0.143660      4.720407      0.278558
  H       0.321966      4.001910     -1.294136
  C      -5.135863     -2.978004      0.540225
  H      -4.766617     -3.698207      1.265081
  H      -6.179819     -2.736068      0.737977
  H      -5.038156     -3.368868     -0.472270
  C      -4.587115      1.048149      1.861517
  H      -4.332023      0.514294      2.769209
  H      -5.576219      1.484152      1.798143
64
Coordinates from ORCA-job orca E -1423.232049950567
  C       1.769353      0.730890     -1.102042
  H       1.908013      1.693096     -0.605597
  H       2.701425      0.452202     -1.591701
  C       1.337309     -0.320187     -0.084058
  C       2.387253     -0.504318      1.047417
  H       2.045647     -1.323203      1.685574
  H       2.350948      0.398222      1.659942
  C       3.872576     -0.778778      0.728130
  C       1.126109     -1.648580     -0.810131
  O       1.298625     -1.837249     -1.983742
  O       0.723912     -2.620678      0.023646
  C       4.566659      0.430344      0.106815
  O       5.315496      0.393815     -0.832080
  O       4.293214      1.565196      0.769398
  C       4.087950     -1.992496     -0.172681
  H       5.150000     -2.223173     -0.251579
  H       3.578284     -2.860281      0.252263
  H       3.717810     -1.829244     -1.183238
  C       4.578777     -1.026517      2.075117
  H       4.193353     -1.943586      2.524760
  H       5.654577     -1.146551      1.932746
  H       4.411789     -0.203751      2.770981
  C       0.488599     -3.888673     -0.581974
  H       0.168001     -4.546833      0.221538
  H      -0.286992     -3.808149     -1.344208
  H       1.400190     -4.267499     -1.044573
  C       4.912518      2.741541      0.257440
  H       4.597040      2.921608     -0.770883
  H       4.587130      3.553245      0.903194
  H       5.997972      2.647057      0.281615
  H       1.032600      0.847657     -1.894396
  C       0.042575      0.086264      0.669172
  C      -1.257184      0.489013     -0.081019
  H       0.310181      0.923357      1.316526
  H      -0.221014     -0.742249      1.329753
  C      -2.301303      0.643529      1.058209
  C      -1.051701      1.832077     -0.781316
  C      -1.677067     -0.550365     -1.114545
  C      -3.734830      1.091269      0.793838
  H      -2.350675     -0.317491      1.574748
  H      -1.885505      1.356049      1.775538
  O      -1.197731      2.037379     -1.955642
  O      -0.693743      2.798102      0.079490
  H      -0.948430     -0.633678     -1.918634
  H      -1.788068     -1.524308     -0.634871
  H      -2.624883     -0.287782     -1.580389
  C      -4.050639      1.998064     -0.365687
  C      -4.616006     -0.789137     -0.099541
  C      -0.460861      4.079847     -0.497654
  H      -3.547864      2.959492     -0.227378
  H      -3.725349      1.594369     -1.322130
  H      -5.122570      2.180220     -0.423290
  O      -5.478296     -0.727043     -0.914471
  O      -4.323733     -1.808437      0.694282
  H      -1.366554      4.457384     -0.972983
  H      -0.166183      4.726626      0.324704
  H       0.331138      4.022602     -1.244840
  C      -5.142752     -2.980079      0.533300
  H      -4.778697     -3.698495      1.262513
  H      -6.187261     -2.735459      0.724622
  H      -5.039955     -3.374316     -0.477362
  C      -4.592948      1.046994      1.849748
  H      -4.340670      0.513980      2.758721
  H      -5.582378      1.481603      1.782303
64
Coordinates from ORCA-job orca E -1423.232064747600
  C       1.769208      0.736033     -1.097708
  H       1.908643      1.696124     -0.597469
  H       2.701117      0.458254     -1.588108
  C       1.335553     -0.318563     -0.083980
  C       2.385425     -0.508454      1.046880
  H       2.043787     -1.330335      1.681139
  H       2.348898      0.391176      1.663664
  C       3.871124     -0.780972      0.726863
  C       1.122088     -1.643480     -0.815577
  O       1.291291     -1.826688     -1.990527
  O       0.722914     -2.619631      0.014952
  C       4.565409      0.432097      0.113326
  O       5.315162      0.401266     -0.825053
  O       4.290953      1.562989      0.782222
  C       4.088228     -1.989191     -0.180883
  H       5.150358     -2.220198     -0.257920
  H       3.576824     -2.859316      0.237121
  H       3.721298     -1.819450     -1.191460
  C       4.576804     -1.035742      2.072744
  H       4.193344     -1.956519      2.516500
  H       5.652999     -1.152320      1.930444
  H       4.407354     -0.217846      2.773757
  C       0.486708     -3.884904     -0.595863
  H       0.160865     -4.545005      0.203946
  H      -0.285058     -3.799892     -1.361431
  H       1.399392     -4.264708     -1.055607
  C       4.915743      2.741467      0.282081
  H       4.607540      2.929351     -0.747025
  H       4.587955      3.549366      0.931375
  H       6.000848      2.644553      0.312535
  H       1.032839      0.856115     -1.890051
  C       0.041491      0.087075      0.670479
  C      -1.259380      0.487437     -0.078549
  H       0.309031      0.924960      1.316901
  H      -0.220772     -0.741524      1.331516
  C      -2.299988      0.654068      1.062287
  C      -1.053326      1.824381     -0.790263
  C      -1.684794     -0.558802     -1.102855
  C      -3.734988      1.095789      0.796730
  H      -2.344724     -0.299674      1.592595
  H      -1.883535      1.377094      1.768707
  O      -1.203759      2.020560     -1.965624
  O      -0.692310      2.797143      0.061570
  H      -0.958852     -0.648746     -1.908789
  H      -1.796232     -1.528813     -0.615477
  H      -2.633758     -0.297528     -1.567281
  C      -4.051015      2.001067     -0.364103
  C      -4.613568     -0.790136     -0.095049
  C      -0.462457      4.074323     -0.526754
  H      -3.554480      2.965306     -0.222156
  H      -3.718305      1.600552     -1.319383
  H      -5.123672      2.177203     -0.426885
  O      -5.475574     -0.733700     -0.910611
  O      -4.316271     -1.807114      0.699941
  H      -1.370934      4.448639     -0.999317
  H      -0.162315      4.727385      0.288640
  H       0.324729      4.010958     -1.278522
  C      -5.130250     -2.982452      0.540751
  H      -4.761587     -3.699314      1.269188
  H      -6.175452     -2.742475      0.734252
  H      -5.028178     -3.376327     -0.470132
  C      -4.592772      1.052918      1.852957
  H      -4.339900      0.521978      2.762963
  H      -5.582534      1.486702      1.784795
64
Coordinates from ORCA-job orca E -1423.232090744652
  C       1.780135      0.741005     -1.100450
  H       1.917041      1.700695     -0.598795
  H       2.715844      0.461870     -1.583272
  C       1.336667     -0.313342     -0.090612
  C       2.380107     -0.505583      1.044655
  H       2.035340     -1.328662      1.675588
  H       2.342113      0.392906      1.663105
  C       3.865608     -0.779817      0.727541
  C       1.128585     -1.638043     -0.824075
  O       1.303886     -1.820199     -1.998304
  O       0.716919     -2.612834      0.001902
  C       4.566270      0.436444      0.127816
  O       5.321486      0.410971     -0.806319
  O       4.295366      1.561660      0.807572
  C       4.079994     -1.979789     -0.191625
  H       5.141323     -2.214484     -0.268562
  H       3.563957     -2.851832      0.216477
  H       3.715813     -1.798407     -1.201340
  C       4.566409     -1.050019      2.072953
  H       4.180468     -1.974944      2.505858
  H       5.642931     -1.166431      1.932943
  H       4.395767     -0.239359      2.782087
  C       0.480541     -3.876434     -0.612261
  H       0.140467     -4.534772      0.183078
  H      -0.280638     -3.786611     -1.387746
  H       1.396729     -4.261794     -1.060343
  C       4.930262      2.741533      0.323718
  H       4.628854      2.943105     -0.704730
  H       4.604498      3.544177      0.980509
  H       6.014561      2.637080      0.358595
  H       1.050934      0.861649     -1.898935
  C       0.039543      0.092367      0.660827
  C      -1.266026      0.488098     -0.084601
  H       0.305556      0.932002      1.305793
  H      -0.220226     -0.735457      1.323986
  C      -2.298537      0.663703      1.062080
  C      -1.067630      1.820143     -0.807773
  C      -1.698605     -0.565630     -1.098180
  C      -3.737518      1.095817      0.803189
  H      -2.333568     -0.282998      1.605514
  H      -1.880004      1.397756      1.755826
  O      -1.217370      2.004924     -1.985091
  O      -0.691523      2.797506      0.032060
  H      -0.978385     -0.660939     -1.908455
  H      -1.807271     -1.531929     -0.602784
  H      -2.650637     -0.307142     -1.557780
  C      -4.062264      2.000129     -0.356212
  C      -4.614609     -0.793593     -0.081639
  C      -0.455192      4.066912     -0.570339
  H      -3.572220      2.967629     -0.213500
  H      -3.728078      1.603381     -1.312552
  H      -5.136224      2.168895     -0.417168
  O      -5.482152     -0.743047     -0.891624
  O      -4.305409     -1.808801      0.711105
  H      -1.363934      4.444129     -1.040053
  H      -0.143665      4.725423      0.236357
  H       0.325835      3.989729     -1.327159
  C      -5.113371     -2.988960      0.557241
  H      -4.734709     -3.704297      1.282059
  H      -6.158454     -2.755475      0.759221
  H      -5.017189     -3.381374     -0.454791
  C      -4.589192      1.051462      1.864864
  H      -4.329300      0.522357      2.773964
  H      -5.580727      1.482050      1.801997
64
Coordinates from ORCA-job orca E -1423.232088225725
  C       1.778409      0.746335     -1.094500
  H       1.917031      1.703126     -0.587749
  H       2.713127      0.468932     -1.580182
  C       1.335124     -0.313040     -0.089797
  C       2.380167     -0.512367      1.043560
  H       2.035737     -1.338375      1.670832
  H       2.342238      0.383059      1.666410
  C       3.866711     -0.783395      0.726054
  C       1.121253     -1.632582     -0.830776
  O       1.291358     -1.807492     -2.006868
  O       0.715811     -2.613152     -0.008572
  C       4.566409      0.437305      0.134320
  O       5.324697      0.417839     -0.797486
  O       4.289355      1.559082      0.817266
  C       4.086516     -1.977908     -0.199038
  H       5.148635     -2.209751     -0.273650
  H       3.571365     -2.853410      0.202633
  H       3.725707     -1.791993     -1.208866
  C       4.566876     -1.058420      2.070747
  H       4.183633     -1.986768      2.498698
  H       5.643928     -1.170579      1.931275
  H       4.392959     -0.251917      2.783858
  C       0.478977     -3.873437     -0.629283
  H       0.139652     -4.536186      0.162713
  H      -0.282617     -3.779571     -1.403803
  H       1.394889     -4.256315     -1.080125
  C       4.928841      2.741370      0.345488
  H       4.638463      2.947818     -0.685113
  H       4.596096      3.540784      1.002709
  H       6.012744      2.636942      0.391223
  H       1.047977      0.871668     -1.891379
  C       0.039748      0.091564      0.664183
  C      -1.266511      0.485170     -0.080249
  H       0.306268      0.931750      1.308221
  H      -0.218620     -0.736445      1.327597
  C      -2.296444      0.673388      1.066825
  C      -1.066421      1.810610     -0.814906
  C      -1.704016     -0.575200     -1.084680
  C      -3.736008      1.100276      0.804498
  H      -2.328049     -0.265360      1.624144
  H      -1.877904      1.417968      1.749329
  O      -1.219658      1.985883     -1.993245
  O      -0.692890      2.795961      0.016648
  H      -0.984926     -0.678739     -1.895206
  H      -1.815611     -1.536979     -0.581315
  H      -2.655870     -0.316771     -1.544916
  C      -4.057879      2.002328     -0.357603
  C      -4.612518     -0.792082     -0.076698
  C      -0.463490      4.061606     -0.596256
  H      -3.572443      2.971822     -0.212040
  H      -3.716058      1.606459     -1.311717
  H      -5.132065      2.167016     -0.425317
  O      -5.479935     -0.745488     -0.887010
  O      -4.300509     -1.805214      0.717631
  H      -1.375146      4.431430     -1.066172
  H      -0.152186      4.727738      0.204241
  H       0.315445      3.981637     -1.354913
  C      -5.106021     -2.987336      0.565936
  H      -4.724787     -3.701357      1.290707
  H      -6.151288     -2.755913      0.769352
  H      -5.010903     -3.380332     -0.445959
  C      -4.589147      1.059138      1.865407
  H      -4.330577      0.532538      2.776309
  H      -5.580471      1.489841      1.799985
64
Coordinates from ORCA-job orca E -1423.232092901065
  C       1.776069      0.740359     -1.096774
  H       1.915486      1.698147     -0.592026
  H       2.709684      0.462580     -1.584340
  C       1.335854     -0.317425     -0.089127
  C       2.382795     -0.513175      1.043439
  H       2.039981     -1.338116      1.673002
  H       2.344003      0.383655      1.664195
  C       3.870051     -0.782062      0.726425
  C       1.121021     -1.638558     -0.827177
  O       1.290956     -1.816301     -2.002865
  O       0.716124     -2.617329     -0.002559
  C       4.565749      0.437559      0.128027
  O       5.322414      0.415908     -0.805036
  O       4.285555      1.561953      0.805394
  C       4.093355     -1.980716     -0.192505
  H       5.156243     -2.209135     -0.266755
  H       3.581642     -2.855884      0.214218
  H       3.731278     -1.801464     -1.202997
  C       4.571288     -1.048264      2.072324
  H       4.189073     -1.974416      2.505872
  H       5.648365     -1.160240      1.932928
  H       4.396910     -0.237710      2.780698
  C       0.479330     -3.879141     -0.620206
  H       0.145185     -4.541348      0.174440
  H      -0.286263     -3.788110     -1.391142
  H       1.393882     -4.260661     -1.074872
  C       4.917259      2.744603      0.324111
  H       4.620581      2.943904     -0.706126
  H       4.583933      3.546114      0.978482
  H       6.001832      2.645583      0.364959
  H       1.043510      0.864437     -1.891922
  C       0.041089      0.087471      0.665358
  C      -1.263434      0.484261     -0.080280
  H       0.308295      0.926244      1.310834
  H      -0.218705     -0.741100      1.327429
  C      -2.297277      0.663427      1.064526
  C      -1.062462      1.814812     -0.805253
  C      -1.696360     -0.570035     -1.093014
  C      -3.734396      1.097892      0.800656
  H      -2.335221     -0.281975      1.610049
  H      -1.878918      1.398474      1.757334
  O      -1.214319      1.998562     -1.982447
  O      -0.691432      2.794488      0.034170
  H      -0.974152     -0.668449     -1.901442
  H      -1.808718     -1.535225     -0.596281
  H      -2.646521     -0.309670     -1.555485
  C      -4.052572      2.000636     -0.361820
  C      -4.613546     -0.789298     -0.081116
  C      -0.461404      4.064688     -0.568965
  H      -3.559639      2.966859     -0.220133
  H      -3.716585      1.600311     -1.316176
  H      -5.125761      2.172747     -0.426623
  O      -5.478679     -0.738654     -0.893698
  O      -4.309023     -1.803502      0.714740
  H      -1.371786      4.436849     -1.039480
  H      -0.153718      4.725412      0.237393
  H       0.320385      3.990984     -1.325322
  C      -5.119739     -2.981814      0.561284
  H      -4.744888     -3.696695      1.288527
  H      -6.164678     -2.745052      0.760130
  H      -5.022235     -3.376609     -0.449681
  C      -4.589110      1.059284      1.860568
  H      -4.333286      0.531812      2.771756
  H      -5.579170      1.492627      1.793788
64
Coordinates from ORCA-job orca E -1423.232101841927
  C       1.783697      0.743422     -1.096088
  H       1.919783      1.701318     -0.590737
  H       2.720441      0.465936     -1.577963
  C       1.338203     -0.314413     -0.090747
  C       2.380243     -0.510625      1.045086
  H       2.035295     -1.336114      1.672804
  H       2.340659      0.385738      1.666469
  C       3.866608     -0.781541      0.729061
  C       1.129416     -1.636172     -0.829212
  O       1.303797     -1.813693     -2.004306
  O       0.718585     -2.614232     -0.006708
  C       4.564501      0.436793      0.130411
  O       5.321666      0.413383     -0.802191
  O       4.288479      1.561474      0.809061
  C       4.085603     -1.980643     -0.190208
  H       5.147765     -2.211789     -0.266229
  H       3.572031     -2.854462      0.217174
  H       3.722072     -1.800196     -1.200257
  C       4.567099     -1.049691      2.075049
  H       4.181910     -1.974493      2.508893
  H       5.643786     -1.165154      1.935564
  H       4.395436     -0.238335      2.783168
  C       0.482973     -3.875800     -0.625356
  H       0.149087     -4.538768      0.168762
  H      -0.282679     -3.784786     -1.396323
  H       1.397864     -4.256271     -1.080155
  C       4.921300      2.743058      0.326577
  H       4.620507      2.944367     -0.702117
  H       4.592872      3.544648      0.983328
  H       6.005779      2.641140      0.362590
  H       1.056103      0.867055     -1.895547
  C       0.040341      0.089351      0.660382
  C      -1.264886      0.485291     -0.085513
  H       0.305529      0.928200      1.306686
  H      -0.219460     -0.739516      1.322204
  C      -2.297561      0.662184      1.060909
  C      -1.065353      1.816436     -0.810035
  C      -1.697198     -0.569591     -1.098071
  C      -3.735857      1.096716      0.801697
  H      -2.334551     -0.284830      1.603630
  H      -1.878027      1.395184      1.755098
  O      -1.215703      2.000264     -1.987405
  O      -0.691664      2.795202      0.029288
  H      -0.975960     -0.667031     -1.907201
  H      -1.807447     -1.535031     -0.601357
  H      -2.648150     -0.310854     -1.559592
  C      -4.059878      1.998697     -0.359730
  C      -4.616617     -0.790692     -0.076364
  C      -0.457291      4.064565     -0.573941
  H      -3.565172      2.964520     -0.222210
  H      -3.730361      1.596904     -1.315546
  H      -5.133276      2.171790     -0.418245
  O      -5.485673     -0.739623     -0.884771
  O      -4.308673     -1.805048      0.718009
  H      -1.365382      4.438127     -1.047786
  H      -0.151018      4.725195      0.233024
  H       0.326982      3.988974     -1.327592
  C      -5.119713     -2.983568      0.567711
  H      -4.742415     -3.697979      1.294147
  H      -6.164083     -2.746928      0.769654
  H      -5.025101     -3.378856     -0.443346
  C      -4.586945      1.056844      1.864316
  H      -4.327282      0.529716      2.774618
  H      -5.577858      1.488746      1.800885
64
Coordinates from ORCA-job orca E -1423.232097182666
  C       1.778494      0.742527     -1.097974
  H       1.913234      1.700180     -0.591800
  H       2.714447      0.468291     -1.582980
  C       1.338647     -0.317732     -0.092778
  C       2.383447     -0.514131      1.041931
  H       2.040418     -1.341752      1.667826
  H       2.341328      0.380742      1.665340
  C       3.872051     -0.779978      0.728437
  C       1.128646     -1.638044     -0.833559
  O       1.299383     -1.812729     -2.009619
  O       0.722681     -2.618690     -0.011816
  C       4.568524      0.441338      0.134384
  O       5.328403      0.421790     -0.796119
  O       4.285312      1.564421      0.812718
  C       4.098578     -1.976782     -0.192122
  H       5.162014     -2.202659     -0.266142
  H       3.588245     -2.853608      0.212750
  H       3.737105     -1.796536     -1.202715
  C       4.569895     -1.048443      2.075677
  H       4.184117     -1.973511      2.508382
  H       5.646913     -1.163426      1.938303
  H       4.396419     -0.237387      2.783697
  C       0.489180     -3.879801     -0.632199
  H       0.170019     -4.548079      0.163499
  H      -0.286751     -3.791685     -1.393164
  H       1.401071     -4.251665     -1.099851
  C       4.912850      2.749310      0.331446
  H       4.609624      2.950935     -0.696482
  H       4.581938      3.548520      0.989840
  H       5.997740      2.651777      0.365740
  H       1.047957      0.865028     -1.895163
  C       0.041466      0.083191      0.660181
  C      -1.263558      0.479326     -0.085751
  H       0.306328      0.921365      1.307428
  H      -0.217538     -0.746939      1.320682
  C      -2.297736      0.654145      1.059092
  C      -1.064752      1.811513     -0.807797
  C      -1.693537     -0.573692     -1.100937
  C      -3.733144      1.095615      0.796890
  H      -2.340469     -0.295644      1.596500
  H      -1.877288      1.382266      1.757820
  O      -1.214885      1.997004     -1.984893
  O      -0.692476      2.789144      0.033529
  H      -0.968919     -0.671403     -1.907220
  H      -1.807367     -1.539579     -0.605876
  H      -2.641503     -0.312415     -1.566950
  C      -4.051403      1.994501     -0.368463
  C      -4.621849     -0.785198     -0.071207
  C      -0.458412      4.059689     -0.567261
  H      -3.545298      2.955624     -0.240061
  H      -3.730294      1.582330     -1.322982
  H      -5.123081      2.178744     -0.423913
  O      -5.492456     -0.730784     -0.877878
  O      -4.320060     -1.798998      0.726305
  H      -1.364387      4.430521     -1.047155
  H      -0.159767      4.720731      0.242222
  H       0.331344      3.987240     -1.315501
  C      -5.139687     -2.972191      0.581107
  H      -4.768035     -3.685910      1.311120
  H      -6.182404     -2.726925      0.781231
  H      -5.047359     -3.372956     -0.427986
  C      -4.585310      1.064819      1.859674
  H      -4.328675      0.540403      2.772411
  H      -5.574239      1.500755      1.793560
64
Coordinates from ORCA-job orca E -1423.232105190848
  C       1.785399      0.742456     -1.094860
  H       1.919341      1.699651     -0.587571
  H       2.723271      0.467315     -1.575987
  C       1.340263     -0.317860     -0.092012
  C       2.381553     -0.514956      1.044552
  H       2.037588     -1.342658      1.669832
  H       2.339266      0.379895      1.667982
  C       3.869157     -0.781269      0.730001
  C       1.132765     -1.638173     -0.833520
  O       1.308053     -1.813005     -2.008899
  O       0.723174     -2.618581     -0.013275
  C       4.563794      0.439602      0.132937
  O       5.323860      0.418782     -0.797377
  O       4.280751      1.563509      0.809955
  C       4.093485     -1.979159     -0.189643
  H       5.156662     -2.205524     -0.265685
  H       3.583623     -2.855308      0.217284
  H       3.729666     -1.799845     -1.199758
  C       4.569023     -1.047587      2.076706
  H       4.184163     -1.972118      2.511394
  H       5.645843     -1.162488      1.937879
  H       4.396340     -0.235575      2.783843
  C       0.493466     -3.880239     -0.633999
  H       0.171294     -4.548335      0.160635
  H      -0.279197     -3.793155     -1.398434
  H       1.407664     -4.251590     -1.097477
  C       4.909596      2.747578      0.328294
  H       4.607252      2.948709     -0.700000
  H       4.578841      3.547507      0.985895
  H       5.994390      2.649225      0.363406
  H       1.058526      0.866245     -1.894990
  C       0.041374      0.083377      0.658551
  C      -1.263135      0.480848     -0.087890
  H       0.305572      0.920721      1.307189
  H      -0.219081     -0.747318      1.317856
  C      -2.296709      0.655898      1.057830
  C      -1.062751      1.812857     -0.810345
  C      -1.694129     -0.572583     -1.102467
  C      -3.733063      1.097321      0.798623
  H      -2.338742     -0.294203      1.594749
  H      -1.875384      1.383393      1.756626
  O      -1.212410      1.998389     -1.987503
  O      -0.691788      2.790879      0.031125
  H      -0.970208     -0.670870     -1.909176
  H      -1.807675     -1.538245     -0.606933
  H      -2.642528     -0.311576     -1.567803
  C      -4.055104      1.996968     -0.365083
  C      -4.623124     -0.785054     -0.071301
  C      -0.459483      4.061833     -0.569513
  H      -3.548772      2.957985     -0.237359
  H      -3.737076      1.585731     -1.320805
  H      -5.126951      2.181284     -0.417004
  O      -5.496984     -0.729304     -0.874346
  O      -4.317767     -1.800177      0.723187
  H      -1.365613      4.431017     -1.050404
  H      -0.162767      4.723476      0.240181
  H       0.331154      3.990731     -1.316985
  C      -5.137805     -2.973307      0.579621
  H      -4.762804     -3.688146      1.306814
  H      -6.179709     -2.728652      0.784670
  H      -5.049757     -3.372375     -0.430526
  C      -4.583246      1.063695      1.862324
  H      -4.324429      0.538301      2.773877
  H      -5.572802      1.498567      1.798523
64
Coordinates from ORCA-job orca E -1423.232110666958
  C       1.775423      0.748633     -1.093867
  H       1.907017      1.705125     -0.585068
  H       2.712087      0.478658     -1.579614
  C       1.338116     -0.315920     -0.091823
  C       2.382703     -0.514939      1.042728
  H       2.040889     -1.346532      1.663984
  H       2.339157      0.376395      1.670918
  C       3.871176     -0.778386      0.727594
  C       1.132525     -1.634307     -0.836803
  O       1.306762     -1.805421     -2.012893
  O       0.727099     -2.617793     -0.018173
  C       4.568050      0.444880      0.137487
  O       5.334133      0.426784     -0.787970
  O       4.279286      1.567130      0.814781
  C       4.096056     -1.972440     -0.196792
  H       5.159236     -2.198728     -0.272655
  H       3.585463     -2.850177      0.205887
  H       3.733609     -1.788739     -1.206498
  C       4.570616     -1.051218      2.073089
  H       4.185594     -1.977681      2.503532
  H       5.647451     -1.165521      1.933954
  H       4.397698     -0.242573      2.783984
  C       0.505159     -3.880434     -0.639827
  H       0.186307     -4.550866      0.154167
  H      -0.267618     -3.797322     -1.404678
  H       1.421772     -4.246204     -1.103019
  C       4.913685      2.752221      0.343089
  H       4.620066      2.958271     -0.686787
  H       4.578713      3.549745      1.001468
  H       5.998014      2.651940      0.386700
  H       1.044672      0.870331     -1.890989
  C       0.039241      0.078653      0.661212
  C      -1.265713      0.473563     -0.084860
  H       0.300862      0.915332      1.311757
  H      -0.218696     -0.754712      1.318111
  C      -2.298233      0.654563      1.060430
  C      -1.065194      1.801755     -0.813474
  C      -1.697098     -0.583423     -1.095327
  C      -3.734138      1.095021      0.798031
  H      -2.339712     -0.291862      1.603672
  H      -1.877118      1.386757      1.754463
  O      -1.214134      1.981275     -1.991655
  O      -0.689600      2.782478      0.022784
  H      -0.970205     -0.687788     -1.898793
  H      -1.816643     -1.546065     -0.595500
  H      -2.641970     -0.320105     -1.566259
  C      -4.051136      1.996585     -0.365785
  C      -4.629721     -0.777195     -0.067775
  C      -0.455286      4.050142     -0.584024
  H      -3.536946      2.953794     -0.240539
  H      -3.737662      1.581296     -1.321585
  H      -5.121626      2.188795     -0.416530
  O      -5.510324     -0.717610     -0.863371
  O      -4.321036     -1.795531      0.721638
  H      -1.359875      4.416939     -1.069552
  H      -0.160439      4.716050      0.222838
  H       0.337487      3.974794     -1.328877
  C      -5.147451     -2.964616      0.583792
  H      -4.768227     -3.682811      1.305490
  H      -6.186206     -2.716002      0.799866
  H      -5.071312     -3.361603     -0.428182
  C      -4.585344      1.066259      1.862765
  H      -4.328638      0.541110      2.775060
  H      -5.573645      1.503757      1.797684
64
Coordinates from ORCA-job orca E -1423.232117788862
  C       1.781241      0.748719     -1.094120
  H       1.910746      1.704159     -0.582903
  H       2.720145      0.479646     -1.576381
  C       1.339832     -0.317914     -0.096119
  C       2.381430     -0.519074      1.040621
  H       2.039110     -1.352688      1.658872
  H       2.334845      0.370641      1.670929
  C       3.871191     -0.778586      0.728633
  C       1.136209     -1.634528     -0.845203
  O       1.311675     -1.802088     -2.021615
  O       0.729189     -2.620490     -0.030466
  C       4.567452      0.448447      0.146078
  O       5.339463      0.435049     -0.774509
  O       4.271453      1.567782      0.824953
  C       4.102037     -1.968383     -0.199841
  H       5.165965     -2.192249     -0.272453
  H       3.591661     -2.848764      0.197215
  H       3.743326     -1.781241     -1.210195
  C       4.567560     -1.054804      2.075035
  H       4.183233     -1.983437      2.501400
  H       5.644962     -1.166550      1.938267
  H       4.391211     -0.248907      2.788291
  C       0.512521     -3.882079     -0.655994
  H       0.191641     -4.555084      0.134994
  H      -0.256986     -3.798851     -1.424001
  H       1.431908     -4.244757     -1.116141
  C       4.907753      2.755511      0.362619
  H       4.620367      2.966221     -0.668038
  H       4.568147      3.549690      1.022660
  H       5.991861      2.655757      0.412425
  H       1.054106      0.871431     -1.894229
  C       0.039323      0.074751      0.656056
  C      -1.266850      0.470708     -0.088177
  H       0.300141      0.909891      1.308926
  H      -0.218511     -0.760358      1.310802
  C      -2.295769      0.657467      1.059416
  C      -1.066864      1.796339     -0.821776
  C      -1.703272     -0.588681     -1.094049
  C      -3.732630      1.096030      0.798908
  H      -2.334351     -0.285435      1.609029
  H      -1.873146      1.394418      1.747458
  O      -1.221921      1.972949     -1.999601
  O      -0.687470      2.779353      0.010067
  H      -0.976706     -0.699594     -1.896952
  H      -1.827838     -1.548537     -0.590218
  H      -2.646515     -0.322261     -1.566673
  C      -4.050787      1.996517     -0.365453
  C      -4.635283     -0.773205     -0.059635
  C      -0.455720      4.045197     -0.601427
  H      -3.530018      2.950874     -0.246123
  H      -3.744796      1.576454     -1.321616
  H      -5.120365      2.194895     -0.411186
  O      -5.525867     -0.711292     -0.843930
  O      -4.319180     -1.793144      0.724925
  H      -1.360887      4.408273     -1.088642
  H      -0.162198      4.714759      0.202886
  H       0.337359      3.968636     -1.345856
  C      -5.152120     -2.958837      0.598538
  H      -4.765516     -3.678805      1.314535
  H      -6.186692     -2.706166      0.829509
  H      -5.092339     -3.355727     -0.414512
  C      -4.581229      1.070588      1.866120
  H      -4.322730      0.547153      2.778880
  H      -5.569325      1.508722      1.802396
64
Coordinates from ORCA-job orca E -1423.232121133886
  C       1.784472      0.745169     -1.095407
  H       1.916323      1.701488     -0.586170
  H       2.723167      0.472496     -1.576308
  C       1.339979     -0.317995     -0.095225
  C       2.380903     -0.517199      1.041829
  H       2.037371     -1.347553      1.663811
  H       2.336280      0.375342      1.668364
  C       3.869765     -0.780115      0.729323
  C       1.134309     -1.636432     -0.840719
  O       1.309196     -1.807297     -2.016735
  O       0.726265     -2.619973     -0.023566
  C       4.565941      0.444377      0.141578
  O       5.332529      0.428204     -0.783468
  O       4.276320      1.565220      0.820764
  C       4.098334     -1.972928     -0.195880
  H       5.161922     -2.198407     -0.268748
  H       3.587271     -2.851496      0.204261
  H       3.738741     -1.788370     -1.206453
  C       4.566810     -1.052799      2.076168
  H       4.182409     -1.980229      2.505062
  H       5.644124     -1.165263      1.939204
  H       4.391166     -0.244915      2.787344
  C       0.502934     -3.881138     -0.647557
  H       0.177708     -4.551282      0.144097
  H      -0.265274     -3.794708     -1.416416
  H       1.420744     -4.249601     -1.106277
  C       4.910462      2.751299      0.351240
  H       4.618021      2.958451     -0.678689
  H       4.574341      3.547865      1.010193
  H       5.994799      2.651624      0.395958
  H       1.058232      0.868607     -1.896163
  C       0.040331      0.079690      0.656229
  C      -1.265821      0.476189     -0.088097
  H       0.303330      0.916214      1.306443
  H      -0.218471     -0.752805      1.313907
  C      -2.295539      0.659708      1.059589
  C      -1.066228      1.803939     -0.818402
  C      -1.701977     -0.581446     -1.096048
  C      -3.732841      1.097398      0.800319
  H      -2.333650     -0.284757      1.606644
  H      -1.873420      1.395037      1.749690
  O      -1.221225      1.983575     -1.995786
  O      -0.689284      2.785580      0.016143
  H      -0.978025     -0.687932     -1.901799
  H      -1.821405     -1.543259     -0.594592
  H      -2.648395     -0.317466     -1.563877
  C      -4.053544      1.997767     -0.363305
  C      -4.628932     -0.779632     -0.064694
  C      -0.458326      4.053073     -0.592243
  H      -3.541997      2.956340     -0.237880
  H      -3.739422      1.583712     -1.319266
  H      -5.124574      2.187208     -0.413277
  O      -5.512441     -0.721173     -0.857001
  O      -4.315745     -1.797428      0.723522
  H      -1.365340      4.419227     -1.073746
  H      -0.160096      4.719493      0.212958
  H       0.330957      3.977759     -1.340749
  C      -5.142174     -2.967111      0.589658
  H      -4.759018     -3.685057      1.309518
  H      -6.179961     -2.719033      0.810933
  H      -5.071213     -3.364101     -0.422604
  C      -4.581993      1.066691      1.865776
  H      -4.322811      0.542128      2.777694
  H      -5.571134      1.502541      1.802340
64
Coordinates from ORCA-job orca E -1423.232129486620
  C       1.781057      0.746819     -1.093542
  H       1.913520      1.703490     -0.585091
  H       2.718979      0.474140     -1.575833
  C       1.338627     -0.315896     -0.091983
  C       2.381268     -0.514442      1.043553
  H       2.038159     -1.343863      1.667036
  H       2.338647      0.378790      1.669220
  C       3.869090     -0.779695      0.728323
  C       1.132664     -1.634819     -0.836296
  O       1.305983     -1.806100     -2.012503
  O       0.728031     -2.618602     -0.017724
  C       4.566063      0.442954      0.137503
  O       5.328794      0.424593     -0.790695
  O       4.282046      1.564804      0.817401
  C       4.093597     -1.973943     -0.196017
  H       5.156580     -2.201670     -0.270598
  H       3.581539     -2.851069      0.206056
  H       3.732349     -1.789764     -1.206128
  C       4.568448     -1.052120      2.074088
  H       4.183995     -1.978970      2.504206
  H       5.645406     -1.165651      1.935207
  H       4.394847     -0.243691      2.785101
  C       0.504710     -3.880229     -0.640871
  H       0.177746     -4.549386      0.150910
  H      -0.261989     -3.794044     -1.411220
  H       1.423096     -4.249815     -1.097569
  C       4.917832      2.748944      0.345142
  H       4.624048      2.955380     -0.684537
  H       4.584694      3.547088      1.003707
  H       6.002036      2.646970      0.388030
  H       1.053316      0.869734     -1.893150
  C       0.039750      0.082124      0.660163
  C      -1.266197      0.476716     -0.084855
  H       0.302807      0.919909      1.308727
  H      -0.218284     -0.749369      1.319425
  C      -2.296977      0.660684      1.061965
  C      -1.066383      1.803891     -0.816090
  C      -1.700987     -0.582151     -1.092079
  C      -3.734266      1.097660      0.801787
  H      -2.335005     -0.283432      1.609652
  H      -1.875611      1.396535      1.752021
  O      -1.219257      1.982121     -1.993972
  O      -0.690145      2.786321      0.017833
  H      -0.977091     -0.688222     -1.897973
  H      -1.818957     -1.543736     -0.589839
  H      -2.648161     -0.320049     -1.559457
  C      -4.054136      2.000066     -0.360456
  C      -4.627888     -0.780802     -0.070317
  C      -0.459019      4.053309     -0.591594
  H      -3.546360      2.959984     -0.229846
  H      -3.735256      1.590027     -1.316512
  H      -5.125576      2.186319     -0.413547
  O      -5.509834     -0.721103     -0.864198
  O      -4.315150     -1.799943      0.716238
  H      -1.366808      4.420441     -1.070910
  H      -0.158038      4.719644      0.212653
  H       0.328230      3.976719     -1.342070
  C      -5.141130     -2.969662      0.579060
  H      -4.758299     -3.689129      1.297573
  H      -6.179128     -2.722327      0.800215
  H      -5.069514     -3.364293     -0.434075
  C      -4.585288      1.062693      1.865076
  H      -4.327252      0.535985      2.776100
  H      -5.574791      1.497640      1.800985
64
Coordinates from ORCA-job orca E -1423.232122674542
  C       1.785649      0.750505     -1.092389
  H       1.920406      1.705952     -0.582088
  H       2.723341      0.476051     -1.574120
  C       1.339446     -0.312765     -0.093043
  C       2.380240     -0.513736      1.043524
  H       2.034339     -1.341443      1.667699
  H       2.339449      0.380356      1.668225
  C       3.867693     -0.782835      0.729911
  C       1.131979     -1.630440     -0.839080
  O       1.305304     -1.800284     -2.015507
  O       0.726364     -2.614981     -0.021923
  C       4.567447      0.438272      0.139248
  O       5.330263      0.418479     -0.788879
  O       4.286145      1.560464      0.819696
  C       4.091254     -1.977908     -0.193574
  H       5.153872     -2.207979     -0.266030
  H       3.576693     -2.853786      0.207959
  H       3.732225     -1.793438     -1.204371
  C       4.564894     -1.055848      2.076696
  H       4.179217     -1.982494      2.506106
  H       5.642008     -1.170078      1.939447
  H       4.390923     -0.247301      2.787477
  C       0.498444     -3.874429     -0.647833
  H       0.160484     -4.541807      0.140828
  H      -0.261186     -3.782113     -1.424381
  H       1.417856     -4.250434     -1.097303
  C       4.925137      2.743184      0.348165
  H       4.636624      2.947987     -0.683269
  H       4.589746      3.542831      1.003738
  H       6.009054      2.640285      0.396459
  H       1.059220      0.876985     -1.892479
  C       0.040510      0.086701      0.658728
  C      -1.266746      0.480675     -0.084916
  H       0.304487      0.925103      1.306168
  H      -0.217086     -0.743901      1.319351
  C      -2.295407      0.667220      1.063449
  C      -1.068741      1.806628     -0.819202
  C      -1.705734     -0.579393     -1.088896
  C      -3.734634      1.096705      0.803360
  H      -2.327890     -0.273043      1.618127
  H      -1.875549      1.409897      1.747189
  O      -1.223783      1.982318     -1.997205
  O      -0.693339      2.791561      0.012068
  H      -0.985795     -0.686426     -1.898042
  H      -1.821700     -1.540158     -0.584566
  H      -2.655876     -0.318036     -1.551121
  C      -4.056658      1.997951     -0.359188
  C      -4.622651     -0.786311     -0.069095
  C      -0.465061      4.057488     -0.600700
  H      -3.559382      2.962578     -0.222272
  H      -3.727547      1.593041     -1.313991
  H      -5.129473      2.174112     -0.418717
  O      -5.503895     -0.729829     -0.863893
  O      -4.306995     -1.803979      0.718106
  H      -1.376359      4.425488     -1.072713
  H      -0.156564      4.724294      0.200295
  H       0.315662      3.978827     -1.357692
  C      -5.130192     -2.975904      0.581995
  H      -4.744881     -3.694156      1.300365
  H      -6.168524     -2.730960      0.804227
  H      -5.058932     -3.370576     -0.431131
  C      -4.586293      1.057969      1.865992
  H      -4.327085      0.531777      2.776960
  H      -5.577238      1.489593      1.801458
64
Coordinates from ORCA-job orca E -1423.232127966496
  C       1.783283      0.749374     -1.093226
  H       1.916501      1.705466     -0.583863
  H       2.721226      0.476094     -1.575185
  C       1.339283     -0.313786     -0.092828
  C       2.381064     -0.513537      1.043199
  H       2.036644     -1.342369      1.666715
  H       2.339162      0.379913      1.668666
  C       3.868788     -0.780539      0.728886
  C       1.132738     -1.631986     -0.838179
  O       1.305178     -1.802112     -2.014692
  O       0.728165     -2.616387     -0.020346
  C       4.567956      0.441724      0.139876
  O       5.330858      0.423361     -0.788190
  O       4.285718      1.563106      0.821267
  C       4.092739     -1.974149     -0.196387
  H       5.155501     -2.203290     -0.269830
  H       3.578985     -2.850960      0.204162
  H       3.733044     -1.788414     -1.206764
  C       4.566636     -1.055131      2.075016
  H       4.181005     -1.982160      2.503677
  H       5.643639     -1.169404      1.937039
  H       4.393101     -0.247344      2.786772
  C       0.502592     -3.876896     -0.644975
  H       0.169722     -4.545135      0.145113
  H      -0.260235     -3.787518     -1.418746
  H       1.421655     -4.249803     -1.097681
  C       4.924568      2.746564      0.351389
  H       4.635087      2.953358     -0.679401
  H       4.589911      3.545067      1.008743
  H       6.008497      2.643324      0.398473
  H       1.056179      0.873681     -1.893143
  C       0.040312      0.084571      0.659187
  C      -1.266682      0.477414     -0.085074
  H       0.303416      0.923274      1.306610
  H      -0.216859     -0.746238      1.319669
  C      -2.295865      0.663963      1.062924
  C      -1.068267      1.802949     -0.819811
  C      -1.703346     -0.583815     -1.089023
  C      -3.734379      1.096927      0.803504
  H      -2.330628     -0.277608      1.615202
  H      -1.874873      1.403922      1.748843
  O      -1.222226      1.978052     -1.998034
  O      -0.692610      2.787961      0.011284
  H      -0.981524     -0.691304     -1.896527
  H      -1.819955     -1.544219     -0.584219
  H      -2.652166     -0.323170     -1.554003
  C      -4.055806      1.999834     -0.357934
  C      -4.626615     -0.782148     -0.069322
  C      -0.463635      4.053663     -0.601672
  H      -3.553392      2.962039     -0.223218
  H      -3.732052      1.593183     -1.313750
  H      -5.127971      2.181031     -0.413842
  O      -5.510548     -0.722008     -0.860941
  O      -4.311175     -1.801999      0.715226
  H      -1.373616      4.420332     -1.077217
  H      -0.158535      4.721403      0.199853
  H       0.319836      3.975259     -1.355848
  C      -5.138200     -2.971307      0.580304
  H      -4.752891     -3.691474      1.296775
  H      -6.175201     -2.723629      0.805738
  H      -5.070886     -3.365090     -0.433446
  C      -4.585430      1.058927      1.866631
  H      -4.326457      0.531707      2.777078
  H      -5.575787      1.491993      1.802908
64
Coordinates from ORCA-job orca E -1423.232125353672
  C       1.785364      0.750057     -1.091954
  H       1.915992      1.705477     -0.580656
  H       2.724883      0.478985     -1.572091
  C       1.340482     -0.315449     -0.094405
  C       2.380781     -0.516526      1.042733
  H       2.036384     -1.346920      1.664171
  H       2.337169      0.375636      1.669863
  C       3.869088     -0.781075      0.729564
  C       1.136157     -1.632349     -0.842893
  O       1.310747     -1.799986     -2.019434
  O       0.731763     -2.618990     -0.027729
  C       4.566261      0.442777      0.141645
  O       5.332773      0.425697     -0.783467
  O       4.278538      1.563857      0.821208
  C       4.096000     -1.974084     -0.195867
  H       5.159280     -2.200739     -0.269204
  H       3.584139     -2.852105      0.204436
  H       3.736170     -1.789035     -1.206288
  C       4.566535     -1.054369      2.076157
  H       4.181438     -1.981392      2.505318
  H       5.643663     -1.167885      1.938650
  H       4.391934     -0.246312      2.787381
  C       0.512030     -3.879380     -0.654614
  H       0.186802     -4.551759      0.135144
  H      -0.254813     -3.793050     -1.424787
  H       1.431469     -4.245016     -1.112352
  C       4.915683      2.748775      0.352703
  H       4.625536      2.956435     -0.677748
  H       4.579960      3.545991      1.011062
  H       5.999748      2.647010      0.399356
  H       1.060066      0.874536     -1.893454
  C       0.040142      0.080206      0.656966
  C      -1.266290      0.476381     -0.087174
  H       0.302353      0.916294      1.308009
  H      -0.218016     -0.753186      1.313830
  C      -2.296209      0.660733      1.060007
  C      -1.067183      1.803625     -0.818358
  C      -1.703651     -0.581332     -1.094364
  C      -3.733554      1.096077      0.798355
  H      -2.333289     -0.282523      1.609281
  H      -1.875563      1.398603      1.748332
  O      -1.222461      1.982338     -1.995843
  O      -0.689714      2.785803      0.015328
  H      -0.979313     -0.689960     -1.899460
  H      -1.825634     -1.542346     -0.592020
  H      -2.649356     -0.315611     -1.563026
  C      -4.052754      1.993596     -0.367739
  C      -4.630475     -0.782053     -0.063835
  C      -0.460004      4.053068     -0.594007
  H      -3.540597      2.952071     -0.243988
  H      -3.737845      1.576272     -1.322133
  H      -5.123521      2.183939     -0.419345
  O      -5.519044     -0.721106     -0.850319
  O      -4.315291     -1.800471      0.722798
  H      -1.367797      4.418635     -1.074494
  H      -0.160925      4.719997      0.210444
  H       0.328250      3.977662     -1.343589
  C      -5.148637     -2.966268      0.597413
  H      -4.763659     -3.684741      1.315765
  H      -6.183450     -2.712484      0.826065
  H      -5.087621     -3.365445     -0.414602
  C      -4.584707      1.065504      1.861866
  H      -4.326670      0.542656      2.775116
  H      -5.574358      1.499762      1.795683
64
Coordinates from ORCA-job orca E -1423.232127036474
  C       1.783823      0.749179     -1.093648
  H       1.914909      1.705245     -0.583753
  H       2.722737      0.477655     -1.574719
  C       1.340483     -0.315181     -0.094222
  C       2.381763     -0.514689      1.042391
  H       2.038034     -1.344783      1.664595
  H       2.338048      0.377913      1.668913
  C       3.870183     -0.779083      0.729079
  C       1.135881     -1.632999     -0.840822
  O       1.309320     -1.801917     -2.017370
  O       0.731511     -2.618443     -0.024216
  C       4.568438      0.444973      0.142741
  O       5.333722      0.428617     -0.783408
  O       4.282242      1.565400      0.824016
  C       4.096792     -1.971039     -0.197682
  H       5.159978     -2.198325     -0.270627
  H       3.584102     -2.849215      0.201217
  H       3.737708     -1.784402     -1.208109
  C       4.567260     -1.054614      2.075423
  H       4.181778     -1.982194      2.503033
  H       5.644392     -1.168248      1.938002
  H       4.392755     -0.247604      2.787827
  C       0.510360     -3.879364     -0.649599
  H       0.180672     -4.549449      0.140252
  H      -0.253473     -3.792366     -1.422638
  H       1.430433     -4.248333     -1.103435
  C       4.920522      2.750257      0.356870
  H       4.631907      2.958570     -0.673870
  H       4.584386      3.547311      1.015224
  H       6.004482      2.647907      0.404917
  H       1.057392      0.872449     -1.894355
  C       0.040621      0.081025      0.657421
  C      -1.266326      0.473732     -0.086952
  H       0.302562      0.919152      1.306036
  H      -0.216234     -0.750848      1.316712
  C      -2.295416      0.660350      1.061184
  C      -1.067758      1.799039     -0.821962
  C      -1.702465     -0.588003     -1.090696
  C      -3.733321      1.096523      0.802801
  H      -2.332078     -0.282339      1.611430
  H      -1.873143      1.398085      1.748672
  O      -1.222179      1.974077     -2.000114
  O      -0.691542      2.784019      0.008974
  H      -0.978864     -0.697503     -1.896376
  H      -1.821710     -1.547707     -0.585230
  H      -2.649456     -0.326258     -1.558592
  C      -4.054401      1.999662     -0.358528
  C      -4.632236     -0.777851     -0.066748
  C      -0.462769      4.049716     -0.604032
  H      -3.544136      2.958402     -0.229189
  H      -3.738970      1.588289     -1.315057
  H      -5.125503      2.188494     -0.409003
  O      -5.522960     -0.712398     -0.850376
  O      -4.315073     -1.800332      0.713787
  H      -1.371554      4.414310     -1.083407
  H      -0.161853      4.718602      0.198117
  H       0.323758      3.972244     -1.355159
  C      -5.150727     -2.964330      0.586551
  H      -4.763544     -3.686868      1.299618
  H      -6.184082     -2.710081      0.821240
  H      -5.095125     -3.358616     -0.427697
  C      -4.583371      1.060501      1.866872
  H      -4.324321      0.533339      2.777347
  H      -5.573187      1.494854      1.803742
64
Coordinates from ORCA-job orca E -1423.232130035834
  C       1.785808      0.755199     -1.088998
  H       1.918158      1.709743     -0.576487
  H       2.724641      0.483473     -1.570169
  C       1.340444     -0.311060     -0.092477
  C       2.381125     -0.513602      1.043802
  H       2.035770     -1.343095      1.665899
  H       2.339910      0.378916      1.670646
  C       3.868358     -0.781809      0.728851
  C       1.135362     -1.627165     -0.841949
  O       1.307582     -1.793199     -2.019088
  O       0.734250     -2.615239     -0.026906
  C       4.568567      0.440681      0.141600
  O       5.331590      0.422816     -0.786381
  O       4.288578      1.561129      0.825428
  C       4.090912     -1.974221     -0.198390
  H       5.153393     -2.204506     -0.272231
  H       3.576194     -2.851088      0.200806
  H       3.731336     -1.786507     -1.208444
  C       4.566405     -1.058793      2.074437
  H       4.180712     -1.986438      2.501735
  H       5.643349     -1.173067      1.936030
  H       4.393217     -0.252101      2.787547
  C       0.511358     -3.874253     -0.655528
  H       0.174911     -4.544354      0.131442
  H      -0.247681     -3.783076     -1.432722
  H       1.432590     -4.246114     -1.104749
  C       4.931557      2.743919      0.359403
  H       4.646751      2.952521     -0.672277
  H       4.595975      3.542283      1.016435
  H       6.015093      2.638392      0.410747
  H       1.060016      0.881726     -1.889724
  C       0.040638      0.085184      0.659529
  C      -1.267441      0.476934     -0.083885
  H       0.302942      0.923758      1.307474
  H      -0.215393     -0.746433      1.319450
  C      -2.295555      0.666079      1.064135
  C      -1.071032      1.800904     -0.821728
  C      -1.706960     -0.585223     -1.085199
  C      -3.734139      1.094913      0.801330
  H      -2.327990     -0.272438      1.621824
  H      -1.876234      1.411362      1.745341
  O      -1.226030      1.972925     -2.000277
  O      -0.695477      2.788233      0.006644
  H      -0.985846     -0.695843     -1.892876
  H      -1.826280     -1.544172     -0.578268
  H      -2.655553     -0.322405     -1.550026
  C      -4.052683      1.994882     -0.363055
  C      -4.627877     -0.784466     -0.067148
  C      -0.469754      4.052955     -0.609543
  H      -3.551476      2.957736     -0.228231
  H      -3.724963      1.585696     -1.316757
  H      -5.124729      2.175245     -0.423241
  O      -5.517700     -0.722130     -0.852091
  O      -4.310220     -1.804691      0.716062
  H      -1.382126      4.418355     -1.081507
  H      -0.161318      4.722264      0.189386
  H       0.310162      3.973606     -1.367255
  C      -5.145302     -2.969475      0.591624
  H      -4.758001     -3.689906      1.306748
  H      -6.178812     -2.714973      0.825408
  H      -5.089451     -3.366292     -0.421605
  C      -4.587705      1.058027      1.862591
  H      -4.330377      0.532930      2.774731
  H      -5.578369      1.489858      1.795537
64
Coordinates from ORCA-job orca E -1423.232127970063
  C       1.787964      0.757557     -1.091055
  H       1.920752      1.711528     -0.577630
  H       2.726765      0.485576     -1.572091
  C       1.341388     -0.309281     -0.095646
  C       2.380917     -0.513294      1.041823
  H       2.034082     -1.343062      1.662721
  H       2.338861      0.378770      1.669294
  C       3.869228     -0.781668      0.730579
  C       1.135351     -1.624355     -0.846441
  O       1.307208     -1.789119     -2.023812
  O       0.732030     -2.612573     -0.032715
  C       4.572581      0.441333      0.148124
  O       5.338027      0.424701     -0.777898
  O       4.291166      1.560797      0.832961
  C       4.094621     -1.972357     -0.198133
  H       5.157320     -2.202739     -0.268617
  H       3.578290     -2.849839      0.197520
  H       3.738920     -1.782505     -1.209122
  C       4.562820     -1.061927      2.077756
  H       4.174878     -1.989988      2.502096
  H       5.640084     -1.177037      1.942465
  H       4.388286     -0.256389      2.791805
  C       0.507539     -3.870530     -0.662897
  H       0.166040     -4.540055      0.122396
  H      -0.248097     -3.776591     -1.443021
  H       1.429394     -4.244988     -1.108722
  C       4.937497      2.743624      0.371677
  H       4.659686      2.952840     -0.661760
  H       4.597943      3.541781      1.026927
  H       6.020650      2.637660      0.430132
  H       1.062588      0.885206     -1.892013
  C       0.041343      0.087149      0.655757
  C      -1.267463      0.475490     -0.087673
  H       0.303043      0.927477      1.301734
  H      -0.213603     -0.743219      1.317721
  C      -2.293806      0.668057      1.062342
  C      -1.070712      1.796711     -0.830743
  C      -1.706673     -0.591980     -1.084033
  C      -3.734481      1.095151      0.805251
  H      -2.323574     -0.269021      1.622511
  H      -1.872724      1.414676      1.741017
  O      -1.224307      1.963927     -2.010166
  O      -0.697494      2.787860     -0.005917
  H      -0.987705     -0.703541     -1.893501
  H      -1.821437     -1.549258     -0.573029
  H      -2.657695     -0.334585     -1.546417
  C      -4.059967      1.997902     -0.355258
  C      -4.630116     -0.782589     -0.063394
  C      -0.472660      4.050342     -0.627051
  H      -3.562941      2.962502     -0.217721
  H      -3.733165      1.593906     -1.310949
  H      -5.132947      2.173818     -0.412185
  O      -5.525276     -0.717591     -0.841954
  O      -4.307118     -1.805251      0.714472
  H      -1.385930      4.414166     -1.098547
  H      -0.162723      4.722504      0.168904
  H       0.305704      3.968233     -1.385998
  C      -5.145066     -2.968475      0.594347
  H      -4.753103     -3.691058      1.304748
  H      -6.176240     -2.712847      0.837078
  H      -5.098212     -3.363198     -0.420157
  C      -4.584138      1.053742      1.869387
  H      -4.322454      0.526787      2.779209
  H      -5.575961      1.483648      1.806923
64
Coordinates from ORCA-job orca E -1423.232126980155
  C       1.791936      0.766401     -1.084794
  H       1.923407      1.718311     -0.567217
  H       2.731844      0.496618     -1.565031
  C       1.343916     -0.304701     -0.094602
  C       2.381838     -0.513208      1.042954
  H       2.034104     -1.345047      1.660526
  H       2.340472      0.376564      1.673723
  C       3.869164     -0.782671      0.729692
  C       1.139892     -1.616797     -0.850936
  O       1.311798     -1.776193     -2.029049
  O       0.738707     -2.609179     -0.041217
  C       4.574759      0.441737      0.152916
  O       5.340217      0.427869     -0.773152
  O       4.296368      1.558405      0.843526
  C       4.090716     -1.969074     -0.205414
  H       5.152769     -2.201533     -0.278485
  H       3.572776     -2.847396      0.186272
  H       3.734048     -1.773048     -1.215001
  C       4.563234     -1.071145      2.074914
  H       4.173956     -2.000585      2.494974
  H       5.640150     -1.187608      1.938130
  H       4.390869     -0.268870      2.793148
  C       0.513420     -3.864158     -0.676999
  H       0.172171     -4.537191      0.105385
  H      -0.242659     -3.766433     -1.456270
  H       1.434948     -4.236841     -1.125013
  C       4.947429      2.741427      0.389431
  H       4.674916      2.955138     -0.644447
  H       4.606940      3.537943      1.046174
  H       6.030059      2.632595      0.452407
  H       1.068069      0.896852     -1.886676
  C       0.042616      0.088490      0.656524
  C      -1.267861      0.472960     -0.086532
  H       0.302290      0.929691      1.302258
  H      -0.210031     -0.742486      1.318603
  C      -2.293134      0.669577      1.062995
  C      -1.075165      1.791436     -0.835019
  C      -1.708043     -0.597784     -1.078542
  C      -3.733126      1.093957      0.801384
  H      -2.321929     -0.264271      1.628677
  H      -1.873224      1.421016      1.737016
  O      -1.230063      1.953136     -2.015066
  O      -0.703794      2.786945     -0.014661
  H      -0.989830     -0.711826     -1.888275
  H      -1.823057     -1.553248     -0.564178
  H      -2.659139     -0.340977     -1.541202
  C      -4.054892      1.991014     -0.364439
  C      -4.631516     -0.786435     -0.058463
  C      -0.483608      4.047583     -0.641183
  H      -3.560616      2.957230     -0.227899
  H      -3.722061      1.583222     -1.316857
  H      -5.127898      2.164431     -0.427636
  O      -5.531118     -0.720760     -0.832032
  O      -4.308715     -1.807261      0.721944
  H      -1.399648      4.408338     -1.109664
  H      -0.171124      4.723005      0.150996
  H       0.291264      3.964122     -1.403490
  C      -5.154367     -2.966048      0.613705
  H      -4.763472     -3.686243      1.327093
  H      -6.182811     -2.702449      0.859444
  H      -5.114683     -3.367769     -0.398354
  C      -4.585382      1.057050      1.863494
  H      -4.325715      0.534473      2.776407
  H      -5.577204      1.486210      1.796494
64
Coordinates from ORCA-job orca E -1423.232131168334
  C       1.792117      0.765590     -1.086666
  H       1.922761      1.717397     -0.568723
  H       2.732513      0.496297     -1.566166
  C       1.343459     -0.305906     -0.097157
  C       2.380628     -0.514837      1.041421
  H       2.032345     -1.346996      1.658257
  H       2.337923      0.374673      1.672489
  C       3.869119     -0.782992      0.731175
  C       1.139270     -1.617562     -0.854333
  O       1.312318     -1.776562     -2.032327
  O       0.736992     -2.610183     -0.045488
  C       4.574522      0.441668      0.154734
  O       5.342766      0.427590     -0.769015
  O       4.292608      1.558861      0.843038
  C       4.094831     -1.970139     -0.202030
  H       5.157451     -2.200982     -0.272078
  H       3.577291     -2.848822      0.189325
  H       3.740729     -1.775850     -1.212739
  C       4.560912     -1.068869      2.078102
  H       4.171544     -1.997933      2.498930
  H       5.638176     -1.184730      1.943485
  H       4.386557     -0.265616      2.794781
  C       0.514108     -3.865344     -0.681766
  H       0.174874     -4.539541      0.100508
  H      -0.242807     -3.768866     -1.460366
  H       1.436057     -4.235743     -1.130758
  C       4.943872      2.742064      0.389686
  H       4.673358      2.955028     -0.644877
  H       4.601443      3.538705      1.045279
  H       6.026437      2.633981      0.454967
  H       1.068945      0.895970     -1.889185
  C       0.041881      0.087300      0.653444
  C      -1.267826      0.473533     -0.089838
  H       0.301707      0.927595      1.300271
  H      -0.211845     -0.744187      1.314495
  C      -2.293255      0.669028      1.060187
  C      -1.072805      1.792605     -0.836892
  C      -1.708121     -0.596496     -1.082819
  C      -3.734021      1.094230      0.801431
  H      -2.322201     -0.266149      1.623630
  H      -1.872573      1.418506      1.735889
  O      -1.226697      1.955901     -2.016836
  O      -0.700390      2.786663     -0.015235
  H      -0.989692     -0.710348     -1.892454
  H      -1.823127     -1.552270     -0.569149
  H      -2.659163     -0.339580     -1.545584
  C      -4.059754      1.990817     -0.363759
  C      -4.633365     -0.785581     -0.055040
  C      -0.478335      4.047743     -0.640200
  H      -3.563521      2.956454     -0.230771
  H      -3.732229      1.581846     -1.317228
  H      -5.132830      2.165570     -0.422067
  O      -5.534947     -0.720207     -0.826261
  O      -4.308307     -1.806281      0.724618
  H      -1.393095      4.409240     -1.110610
  H      -0.167414      4.722398      0.153250
  H       0.298324      3.964604     -1.400736
  C      -5.153998     -2.965235      0.618699
  H      -4.761214     -3.685249      1.331249
  H      -6.181901     -2.701830      0.866898
  H      -5.116701     -3.367237     -0.393333
  C      -4.583520      1.057980      1.865945
  H      -4.321333      0.536043      2.778514
  H      -5.575673      1.486752      1.801200
64
Coordinates from ORCA-job orca E -1423.232130797137
  C       1.788862      0.758922     -1.088265
  H       1.919035      1.712754     -0.574028
  H       2.728761      0.489302     -1.568579
  C       1.343637     -0.309670     -0.094144
  C       2.382915     -0.513851      1.042917
  H       2.037589     -1.345647      1.661949
  H       2.340127      0.376714      1.672486
  C       3.870320     -0.780333      0.728425
  C       1.140937     -1.624458     -0.846248
  O       1.313644     -1.787787     -2.023707
  O       0.738425     -2.613957     -0.033626
  C       4.572239      0.444692      0.148456
  O       5.337128      0.430838     -0.778090
  O       4.290412      1.562289      0.836179
  C       4.092814     -1.968057     -0.204716
  H       5.155225     -2.198389     -0.279219
  H       3.577343     -2.846688      0.189574
  H       3.733877     -1.774711     -1.214115
  C       4.566705     -1.065053      2.073239
  H       4.179015     -1.993982      2.495913
  H       5.643520     -1.180647      1.935063
  H       4.394357     -0.261492      2.790023
  C       0.517280     -3.872176     -0.664475
  H       0.185192     -4.545044      0.121974
  H      -0.244660     -3.781407     -1.438942
  H       1.438056     -4.240311     -1.117602
  C       4.934170      2.747052      0.376277
  H       4.651568      2.959731     -0.655183
  H       4.597078      3.542739      1.035776
  H       6.017605      2.641427      0.429536
  H       1.064023      0.885476     -1.889854
  C       0.042434      0.083421      0.656999
  C      -1.266276      0.471685     -0.087065
  H       0.302325      0.922698      1.305023
  H      -0.212015     -0.748869      1.316730
  C      -2.294439      0.661238      1.060768
  C      -1.072557      1.794669     -0.827139
  C      -1.702798     -0.593654     -1.086618
  C      -3.731751      1.094717      0.798461
  H      -2.330186     -0.279018      1.615284
  H      -1.873344      1.402929      1.744706
  O      -1.228194      1.964319     -2.005935
  O      -0.700343      2.784479     -0.000191
  H      -0.980295     -0.704942     -1.892942
  H      -1.821015     -1.551775     -0.577813
  H      -2.650472     -0.333725     -1.554075
  C      -4.050344      1.991470     -0.368316
  C      -4.633417     -0.782985     -0.061498
  C      -0.477206      4.048643     -0.618417
  H      -3.545205      2.953010     -0.239029
  H      -3.727197      1.577320     -1.321358
  H      -5.121924      2.175376     -0.425809
  O      -5.530162     -0.715642     -0.838230
  O      -4.315897     -1.803832      0.721017
  H      -1.389570      4.410166     -1.093368
  H      -0.172832      4.720563      0.179866
  H       0.304784      3.970299     -1.374095
  C      -5.162603     -2.961489      0.609430
  H      -4.776119     -3.681844      1.325059
  H      -6.191872     -2.696411      0.850020
  H      -5.118377     -3.363990     -0.402130
  C      -4.584174      1.062386      1.860378
  H      -4.326565      0.539969      2.773986
  H      -5.574413      1.495050      1.792721
64
Coordinates from ORCA-job orca E -1423.232128166082
  C       1.784977      0.750924     -1.092122
  H       1.916187      1.706548     -0.581325
  H       2.723960      0.479673     -1.573248
  C       1.341351     -0.314153     -0.093611
  C       2.382447     -0.514062      1.042920
  H       2.038202     -1.343567      1.665611
  H       2.339623      0.378892      1.669032
  C       3.870402     -0.779957      0.729059
  C       1.136880     -1.631600     -0.840893
  O       1.309946     -1.799785     -2.017604
  O       0.734215     -2.617937     -0.024523
  C       4.568860      0.442990      0.140692
  O       5.333017      0.425209     -0.786371
  O       4.284757      1.564139      0.821660
  C       4.095688     -1.973161     -0.196489
  H       5.158685     -2.201206     -0.269817
  H       3.582730     -2.850568      0.203739
  H       3.736072     -1.787470     -1.206911
  C       4.567994     -1.054283      2.075406
  H       4.182058     -1.981044      2.504389
  H       5.644961     -1.168916      1.937543
  H       4.394493     -0.246245      2.786895
  C       0.513046     -3.878459     -0.650743
  H       0.183497     -4.549084      0.138696
  H      -0.250810     -3.790989     -1.423700
  H       1.433137     -4.247076     -1.104851
  C       4.923675      2.748003      0.352822
  H       4.636016      2.954455     -0.678532
  H       4.587281      3.546339      1.009477
  H       6.007579      2.645475      0.401942
  H       1.058644      0.875205     -1.892761
  C       0.041285      0.081978      0.657765
  C      -1.265321      0.475121     -0.087103
  H       0.303270      0.919894      1.306645
  H      -0.215893     -0.750014      1.316774
  C      -2.296006      0.658429      1.059901
  C      -1.067408      1.802054     -0.819248
  C      -1.700391     -0.584609     -1.093286
  C      -3.733234      1.095111      0.799457
  H      -2.334185     -0.286132      1.606880
  H      -1.874928      1.394120      1.750307
  O      -1.220322      1.979090     -1.997302
  O      -0.693640      2.785922      0.014096
  H      -0.976686     -0.691953     -1.899108
  H      -1.818853     -1.545537     -0.589919
  H      -2.647790     -0.322732     -1.560505
  C      -4.053447      1.995094     -0.364415
  C      -4.631072     -0.781645     -0.067484
  C      -0.466377      4.053221     -0.596174
  H      -3.546604      2.955637     -0.234884
  H      -3.733740      1.582938     -1.319258
  H      -5.124937      2.180634     -0.418370
  O      -5.521920     -0.715413     -0.850933
  O      -4.316244     -1.802971      0.715407
  H      -1.376502      4.419143     -1.072038
  H      -0.163385      4.719980      0.206958
  H       0.317999      3.977750     -1.349696
  C      -5.156731     -2.964118      0.593345
  H      -4.772061     -3.685330      1.309101
  H      -6.188919     -2.704719      0.827533
  H      -5.103264     -3.362716     -0.419326
  C      -4.584990      1.059967      1.861873
  H      -4.326985      0.534756      2.773786
  H      -5.575106      1.493268      1.796249
64
Coordinates from ORCA-job orca E -1423.232134326873
  C       1.788891      0.758725     -1.089248
  H       1.919173      1.712174     -0.574199
  H       2.728902      0.489195     -1.569359
  C       1.342779     -0.310384     -0.096097
  C       2.381634     -0.515085      1.041760
  H       2.035383     -1.346339      1.660964
  H       2.338266      0.375824      1.670793
  C       3.870195     -0.781355      0.730396
  C       1.139030     -1.624537     -0.849271
  O       1.312604     -1.787358     -2.026663
  O       0.736963     -2.614771     -0.037396
  C       4.571884      0.442831      0.148493
  O       5.339010      0.427196     -0.776160
  O       4.287741      1.561884      0.832841
  C       4.097041     -1.971419     -0.198858
  H       5.160047     -2.200206     -0.269772
  H       3.582039     -2.849784      0.196550
  H       3.740905     -1.781633     -1.209698
  C       4.564399     -1.060963      2.077407
  H       4.176873     -1.988902      2.502406
  H       5.641606     -1.175893      1.941620
  H       4.389875     -0.255227      2.791270
  C       0.517017     -3.872639     -0.669355
  H       0.184918     -4.546368      0.116367
  H      -0.244471     -3.781722     -1.444206
  H       1.438314     -4.239787     -1.122248
  C       4.933187      2.745627      0.372647
  H       4.655001      2.955626     -0.660530
  H       4.593133      3.542875      1.028739
  H       6.016409      2.640382      0.430774
  H       1.064396      0.886202     -1.891063
  C       0.041583      0.083511      0.654626
  C      -1.266348      0.473455     -0.089690
  H       0.302100      0.922235      1.303132
  H      -0.214018     -0.748710      1.313991
  C      -2.294833      0.661916      1.058667
  C      -1.069627      1.796809     -0.828635
  C      -1.703588     -0.591137     -1.089869
  C      -3.733556      1.094540      0.799434
  H      -2.329666     -0.279168      1.611846
  H      -1.873519      1.402671      1.743499
  O      -1.222609      1.967524     -2.007625
  O      -0.696732      2.785377     -0.000533
  H      -0.981899     -0.701804     -1.897068
  H      -1.820766     -1.549592     -0.581671
  H      -2.652363     -0.331540     -1.555716
  C      -4.056915      1.991913     -0.365692
  C      -4.634303     -0.782945     -0.059653
  C      -0.472393      4.049996     -0.617445
  H      -3.553540      2.954343     -0.236733
  H      -3.735637      1.579551     -1.319816
  H      -5.129019      2.173693     -0.420207
  O      -5.532501     -0.715844     -0.834638
  O      -4.314218     -1.804152      0.721342
  H      -1.384683      4.413355     -1.091165
  H      -0.166420      4.720556      0.181378
  H       0.308745      3.971501     -1.373942
  C      -5.160413     -2.962309      0.610852
  H      -4.771730     -3.682968      1.325001
  H      -6.189293     -2.698141      0.854119
  H      -5.118360     -3.364056     -0.401100
  C      -4.583605      1.060383      1.863429
  H      -4.323237      0.537625      2.776078
  H      -5.574600      1.491756      1.798307
64
Coordinates from ORCA-job orca E -1423.232141037818
  C       1.789428      0.758831     -1.089619
  H       1.919989      1.712531     -0.575143
  H       2.729332      0.488777     -1.569649
  C       1.343182     -0.309617     -0.095795
  C       2.381988     -0.514150      1.041949
  H       2.035602     -1.345167      1.661433
  H       2.339133      0.376923      1.670762
  C       3.870130     -0.781278      0.729884
  C       1.139356     -1.624106     -0.848147
  O       1.312554     -1.787517     -2.025516
  O       0.736277     -2.613536     -0.035757
  C       4.572650      0.442828      0.148715
  O       5.338955      0.427493     -0.776623
  O       4.289854      1.561523      0.834239
  C       4.095098     -1.970651     -0.200628
  H       5.157806     -2.200455     -0.272589
  H       3.579471     -2.848863      0.194330
  H       3.738232     -1.779500     -1.211031
  C       4.564523     -1.063108      2.076339
  H       4.176356     -1.991262      2.500265
  H       5.641592     -1.178768      1.940107
  H       4.390924     -0.258108      2.791219
  C       0.513899     -3.871222     -0.667207
  H       0.179510     -4.543730      0.118591
  H      -0.246646     -3.778944     -1.442828
  H       1.434755     -4.240812     -1.119013
  C       4.935360      2.745275      0.374171
  H       4.657026      2.955552     -0.658912
  H       4.595567      3.542444      1.030491
  H       6.018586      2.639867      0.432097
  H       1.064914      0.886070     -1.891414
  C       0.042084      0.084772      0.654940
  C      -1.266239      0.473876     -0.089250
  H       0.302689      0.924107      1.302612
  H      -0.213143     -0.746916      1.315142
  C      -2.294529      0.662532      1.059106
  C      -1.070593      1.797164     -0.828525
  C      -1.703298     -0.591072     -1.089075
  C      -3.733209      1.094262      0.799163
  H      -2.328895     -0.278048      1.613154
  H      -1.873574      1.404189      1.743169
  O      -1.224080      1.967525     -2.007508
  O      -0.698626      2.786276     -0.000669
  H      -0.982183     -0.701112     -1.896831
  H      -1.819419     -1.549654     -0.580749
  H      -2.652640     -0.332231     -1.554038
  C      -4.056134      1.991233     -0.366374
  C      -4.632513     -0.784430     -0.060295
  C      -0.474424      4.050707     -0.618016
  H      -3.555335      2.954820     -0.235698
  H      -3.731780      1.580011     -1.320022
  H      -5.128532      2.170570     -0.423158
  O      -5.529300     -0.718241     -0.837003
  O      -4.313281     -1.804953      0.721917
  H      -1.387091      4.414250     -1.090877
  H      -0.167560      4.721323      0.180419
  H       0.305965      3.971868     -1.375247
  C      -5.158588     -2.963694      0.610676
  H      -4.770640     -3.683690      1.325883
  H      -6.188023     -2.700014      0.852099
  H      -5.114593     -3.365965     -0.400991
  C      -4.583880      1.059763      1.862548
  H      -4.323869      0.537195      2.775392
  H      -5.574987      1.490767      1.796794
64
Coordinates from ORCA-job orca E -1423.232129441237
  C       1.790497      0.760038     -1.089783
  H       1.922962      1.713476     -0.575156
  H       2.729841      0.488375     -1.570023
  C       1.342464     -0.307728     -0.095912
  C       2.381222     -0.514094      1.041629
  H       2.033415     -1.344198      1.661476
  H       2.340025      0.377318      1.670146
  C       3.869204     -0.783714      0.729944
  C       1.134841     -1.621786     -0.848127
  O       1.306652     -1.785637     -2.025611
  O       0.732282     -2.610954     -0.035073
  C       4.573404      0.439378      0.148802
  O       5.340130      0.422994     -0.776153
  O       4.292300      1.558390      0.834556
  C       4.093373     -1.973352     -0.200490
  H       5.155909     -2.204165     -0.271926
  H       3.576797     -2.851121      0.194152
  H       3.737336     -1.781817     -1.211003
  C       4.562684     -1.066086      2.076697
  H       4.173641     -1.994030      2.500266
  H       5.639778     -1.182510      1.941112
  H       4.389380     -0.260931      2.791518
  C       0.503170     -3.867245     -0.666955
  H       0.165455     -4.538331      0.118661
  H      -0.256963     -3.770701     -1.442487
  H       1.422080     -4.241556     -1.118923
  C       4.940726      2.740997      0.375655
  H       4.668265      2.949421     -0.659321
  H       4.597828      3.539598      1.028634
  H       6.023587      2.635203      0.439745
  H       1.065915      0.888903     -1.891328
  C       0.042605      0.089928      0.655035
  C      -1.265821      0.478455     -0.089303
  H       0.304805      0.930508      1.300502
  H      -0.213015     -0.739838      1.317444
  C      -2.294114      0.667699      1.059199
  C      -1.069905      1.801179     -0.829735
  C      -1.703019     -0.587406     -1.088132
  C      -3.734379      1.094127      0.799222
  H      -2.325340     -0.271242      1.616204
  H      -1.874761      1.412577      1.740765
  O      -1.220160      1.969771     -2.009426
  O      -0.700840      2.791782     -0.002419
  H      -0.984747     -0.694654     -1.898776
  H      -1.813933     -1.546474     -0.579680
  H      -2.655641     -0.331963     -1.548473
  C      -4.060862      1.989828     -0.366455
  C      -4.625997     -0.789879     -0.060240
  C      -0.476973      4.055679     -0.621007
  H      -3.572579      2.959007     -0.229731
  H      -3.726121      1.585097     -1.319161
  H      -5.134947      2.156728     -0.429241
  O      -5.518388     -0.728774     -0.842339
  O      -4.307129     -1.807459      0.725815
  H      -1.391234      4.420769     -1.089636
  H      -0.165506      4.725923      0.175962
  H       0.299699      3.975397     -1.381800
  C      -5.146470     -2.970237      0.611569
  H      -4.759349     -3.687289      1.330172
  H      -6.178454     -2.710882      0.846676
  H      -5.094701     -3.373924     -0.399185
  C      -4.585001      1.056611      1.862574
  H      -4.323220      0.534901      2.775378
  H      -5.577521      1.484431      1.796913
64
Coordinates from ORCA-job orca E -1423.232139808770
  C       1.789814      0.759010     -1.089839
  H       1.920611      1.712752     -0.575471
  H       2.729677      0.488663     -1.569789
  C       1.343196     -0.309182     -0.095878
  C       2.381986     -0.514081      1.041827
  H       2.035282     -1.344897      1.661387
  H       2.339529      0.377060      1.670584
  C       3.870063     -0.781820      0.729776
  C       1.138422     -1.623663     -0.848028
  O       1.311196     -1.787345     -2.025413
  O       0.735251     -2.612843     -0.035350
  C       4.573079      0.442062      0.148764
  O       5.339654      0.426478     -0.776343
  O       4.290606      1.560828      0.834321
  C       4.094707     -1.971157     -0.200878
  H       5.157362     -2.201222     -0.272840
  H       3.578853     -2.849297      0.193929
  H       3.737970     -1.779761     -1.211256
  C       4.564317     -1.063966      2.076213
  H       4.175947     -1.992108      2.499979
  H       5.641379     -1.179825      1.940047
  H       4.390851     -0.259014      2.791193
  C       0.510907     -3.870225     -0.666719
  H       0.176252     -4.542374      0.119276
  H      -0.250093     -3.776963     -1.441795
  H       1.430997     -4.240937     -1.119174
  C       4.937018      2.744274      0.374746
  H       4.660587      2.954043     -0.658938
  H       4.596183      3.541830      1.030060
  H       6.020133      2.638765      0.434677
  H       1.065323      0.886372     -1.891649
  C       0.042393      0.086069      0.654846
  C      -1.265926      0.474965     -0.089471
  H       0.303355      0.925745      1.301952
  H      -0.212971     -0.745124      1.315605
  C      -2.294387      0.663304      1.058812
  C      -1.070391      1.798319     -0.828698
  C      -1.702631     -0.590084     -1.089372
  C      -3.733345      1.094066      0.798735
  H      -2.328334     -0.277251      1.612929
  H      -1.873837      1.405203      1.742860
  O      -1.222912      1.968478     -2.007844
  O      -0.699662      2.787723     -0.000652
  H      -0.982103     -0.699001     -1.897795
  H      -1.817157     -1.548973     -0.581287
  H      -2.652792     -0.332306     -1.553270
  C      -4.057173      1.990491     -0.367016
  C      -4.630763     -0.785899     -0.060260
  C      -0.475845      4.052254     -0.617938
  H      -3.560077      2.955774     -0.234691
  H      -3.729712      1.581036     -1.320324
  H      -5.130093      2.166104     -0.425647
  O      -5.526451     -0.720794     -0.838319
  O      -4.312048     -1.805594      0.723202
  H      -1.388987      4.416063     -1.089697
  H      -0.168077      4.722641      0.180342
  H       0.303684      3.973490     -1.376036
  C      -5.156432     -2.964971      0.611709
  H      -4.769166     -3.684045      1.328214
  H      -6.186425     -2.701742      0.851219
  H      -5.110458     -3.368190     -0.399500
  C      -4.584043      1.059083      1.862095
  H      -4.323613      0.536946      2.775061
  H      -5.575502      1.489275      1.796227
64
Coordinates from ORCA-job orca E -1423.232139644590
  C       1.789293      0.757381     -1.090657
  H       1.920027      1.711493     -0.576953
  H       2.729105      0.486900     -1.570628
  C       1.343048     -0.310219     -0.095930
  C       2.382109     -0.514244      1.041710
  H       2.035826     -1.344902      1.661723
  H       2.339424      0.377180      1.670044
  C       3.870251     -0.781455      0.729562
  C       1.138300     -1.625204     -0.847250
  O       1.311213     -1.789700     -2.024502
  O       0.735185     -2.613874     -0.033935
  C       4.572592      0.442463      0.147834
  O       5.339325      0.426713     -0.777139
  O       4.289398      1.561494      0.832649
  C       4.095308     -1.971180     -0.200496
  H       5.158061     -2.200755     -0.272521
  H       3.579958     -2.849362      0.194884
  H       3.738305     -1.780528     -1.210918
  C       4.564865     -1.062546      2.076034
  H       4.176908     -1.990579      2.500422
  H       5.641943     -1.178088      1.939724
  H       4.391218     -0.257249      2.790579
  C       0.511680     -3.871875     -0.664357
  H       0.177960     -4.543784      0.122239
  H      -0.249774     -3.779807     -1.439135
  H       1.431877     -4.242070     -1.117003
  C       4.935240      2.744998      0.372434
  H       4.658428      2.954260     -0.661250
  H       4.594289      3.542680      1.027534
  H       6.018407      2.639918      0.432091
  H       1.064622      0.884088     -1.892400
  C       0.042329      0.085253      0.654790
  C      -1.265653      0.474969     -0.089606
  H       0.303471      0.924570      1.302265
  H      -0.213460     -0.746107      1.315162
  C      -2.294449      0.662289      1.058498
  C      -1.069739      1.799005     -0.827497
  C      -1.702105     -0.589113     -1.090634
  C      -3.733156      1.094016      0.798428
  H      -2.329122     -0.279064      1.611212
  H      -1.873809      1.403012      1.743752
  O      -1.222091      1.970393     -2.006482
  O      -0.698969      2.787504      0.001618
  H      -0.981106     -0.697612     -1.898699
  H      -1.817156     -1.548410     -0.583430
  H      -2.651871     -0.330692     -1.554971
  C      -4.056712      1.990796     -0.367107
  C      -4.630973     -0.785126     -0.061047
  C      -0.475175      4.052724     -0.614268
  H      -3.558734      2.955662     -0.235101
  H      -3.730064      1.581125     -1.320596
  H      -5.129524      2.167257     -0.425190
  O      -5.526653     -0.719363     -0.839068
  O      -4.312675     -1.805224      0.722056
  H      -1.388141      4.416744     -1.086197
  H      -0.168050      4.722386      0.184869
  H       0.304826      3.974953     -1.371987
  C      -5.157641     -2.964141      0.610307
  H      -4.770703     -3.683600      1.326606
  H      -6.187497     -2.700470      0.849924
  H      -5.111880     -3.367140     -0.400997
  C      -4.583882      1.059196      1.861781
  H      -4.323662      0.536807      2.774669
  H      -5.575184      1.489760      1.795959
