41
Coordinates from ORCA-job orca E -848.300187562848
  C          -2.78145090661465     -1.55582207869762     -0.55064096626472
  H          -2.97042878651436     -2.16557088962199      0.32522949951278
  C          -2.32714877890552     -0.27862354422383     -0.40020996151193
  C          -2.34081486194167      0.44804211301794      0.90990171376659
  H          -1.37279287403577      0.31829735048360      1.41059228555020
  H          -3.09666067403106      0.01824085844838      1.56875828023705
  C          -2.59329016463754      1.92900247913832      0.68215903367212
  H          -2.52430335021149      2.47922584572655      1.62183849193013
  H          -3.60140143281554      2.07751575138674      0.28382202391092
  C          -1.56672332720932      2.47089226433417     -0.29000458753937
  H          -0.56441200221759      2.34864033663096      0.14233108568985
  C          -1.76553511195210      3.92587609201969     -0.67601908392869
  C          -1.58063934668177      4.90607683335688      0.47663419854409
  H          -2.33725508030714      4.72849529087103      1.24633761964084
  H          -0.60998262214833      4.72968157618234      0.95322679241444
  C          -1.66411764741706      6.35634135562941      0.01812205694222
  H          -1.52790299615895      7.04660215670291      0.85215771011045
  H          -2.63507458821206      6.56867900093390     -0.43529632540482
  H          -0.89658821772237      6.57726192801739     -0.72712409750400
  H          -2.76369772732197      4.03670720102549     -1.11210235807177
  H          -1.05159250174782      4.15693949925820     -1.47151742855142
  O          -1.57369014995091      1.73888151281857     -1.53099092096855
  C          -1.88100820826255      0.43357980918950     -1.62275921517678
  O          -1.80167891606373     -0.09687547763607     -2.70281553137530
  C          -4.94390912983093     -1.52329479668802     -1.07520553491003
  C          -5.40153596141038     -1.03242251844201      0.23323005525212
  O          -5.56229619191401     -2.01965981036521      1.13707085989749
  C          -5.96832981833752     -1.60272473297017      2.43565883034071
  H          -6.03159798650479     -2.50939027577101      3.03202884976030
  H          -5.24005819557123     -0.91496918126950      2.86725610545952
  H          -6.93708637065521     -1.10468162676061      2.39527724384808
  O          -5.58607832178622      0.13156353820208      0.50960266158686
  C          -5.13383703018337     -2.96963780191137     -1.41420641778028
  H          -4.84585320118358     -3.63154937913208     -0.59948353292384
  H          -6.18899505572378     -3.16614805687437     -1.63623908859228
  H          -4.56144579512177     -3.23037943658259     -2.30568065856175
  C          -5.03289088409598     -0.54349903451695     -2.19897277811635
  H          -4.81187257611853      0.46848999014100     -1.86555607730010
  H          -6.05023894690533     -0.54113465801051     -2.60712626389512
  H          -4.34684989782360     -0.80697424196808     -3.00403375467438
  H          -2.58400436375139     -2.06828524207326     -1.48279081501527
