41
Coordinates from ORCA-job orca E -848.298153486002
  C      -2.739308     -1.617131     -0.574660
  H      -2.950776     -2.240017      0.297221
  C      -2.285431     -0.334837     -0.408765
  C      -2.270624      0.373607      0.917215
  H      -1.272436      0.254537      1.383927
  H      -2.992610     -0.089427      1.605828
  C      -2.559558      1.860314      0.727806
  H      -2.463381      2.398087      1.683646
  H      -3.595028      1.993287      0.373919
  C      -1.579332      2.446844     -0.276697
  H      -0.552091      2.350937      0.127549
  C      -1.829963      3.905181     -0.643395
  C      -1.613035      4.893144      0.504595
  H      -2.322775      4.683174      1.323929
  H      -0.603952      4.742397      0.931177
  C      -1.769642      6.349318      0.065683
  H      -1.610363      7.044306      0.905599
  H      -2.779043      6.537669     -0.337040
  H      -1.046179      6.607904     -0.725641
  H      -2.858314      3.994143     -1.036612
  H      -1.156326      4.153868     -1.480860
  O      -1.602682      1.721759     -1.526687
  C      -1.878913      0.402995     -1.636599
  O      -1.816169     -0.112898     -2.731004
  C      -4.967128     -1.518415     -1.119724
  C      -5.354942     -0.947977      0.179353
  O      -5.557143     -1.894567      1.130369
  C      -5.909011     -1.417067      2.423862
  H      -6.071141     -2.306307      3.046572
  H      -5.103568     -0.798606      2.851624
  H      -6.824133     -0.806288      2.384358
  O      -5.448626      0.241460      0.421502
  C      -5.200820     -2.975463     -1.389527
  H      -4.958275     -3.606991     -0.524569
  H      -6.267748     -3.149840     -1.630820
  H      -4.616327     -3.311170     -2.260498
  C      -4.996117     -0.578300     -2.284263
  H      -4.780075      0.451454     -1.973220
  H      -6.005843     -0.581434     -2.740018
  H      -4.276832     -0.873753     -3.061641
  H      -2.569408     -2.112509     -1.531037
41
Coordinates from ORCA-job orca E -848.297591468499
  C      -2.760191     -1.632318     -0.578781
  H      -2.985367     -2.263846      0.277855
  C      -2.279638     -0.359248     -0.389794
  C      -2.261726      0.355416      0.926032
  H      -1.260216      0.247451      1.385206
  H      -2.980638     -0.117511      1.609136
  C      -2.549216      1.847738      0.738305
  H      -2.462200      2.379562      1.696990
  H      -3.571382      1.991683      0.372968
  C      -1.577718      2.435494     -0.268432
  H      -0.549232      2.352887      0.132392
  C      -1.844262      3.889030     -0.639766
  C      -1.636066      4.881969      0.504503
  H      -2.342107      4.667742      1.324273
  H      -0.626074      4.743147      0.929781
  C      -1.807890      6.334174      0.060829
  H      -1.654967      7.032733      0.897232
  H      -2.818433      6.510477     -0.340968
  H      -1.088631      6.596897     -0.731172
  H      -2.873067      3.965879     -1.031087
  H      -1.175068      4.142003     -1.477984
  O      -1.595858      1.700852     -1.513238
  C      -1.863944      0.378927     -1.614604
  O      -1.804997     -0.141814     -2.706756
  C      -4.968841     -1.500286     -1.133558
  C      -5.342527     -0.916101      0.171985
  O      -5.551122     -1.855355      1.133306
  C      -5.877022     -1.386290      2.439162
  H      -6.042790     -2.280452      3.051447
  H      -5.065674     -0.784766      2.869900
  H      -6.784235     -0.765255      2.418209
  O      -5.406593      0.266903      0.413923
  C      -5.217200     -2.958916     -1.395395
  H      -4.991985     -3.585489     -0.526819
  H      -6.282653     -3.119838     -1.646082
  H      -4.627890     -3.305481     -2.257400
  C      -4.969769     -0.559791     -2.309345
  H      -4.735025      0.464872     -2.000600
  H      -5.975369     -0.544173     -2.770627
  H      -4.252170     -0.865404     -3.084156
  H      -2.595316     -2.110108     -1.544411
41
Coordinates from ORCA-job orca E -848.296754343188
  C      -2.782159     -1.632540     -0.588535
  H      -3.005220     -2.274510      0.256900
  C      -2.290952     -0.366186     -0.379935
  C      -2.269208      0.352949      0.927679
  H      -1.263383      0.260983      1.377796
  H      -2.981380     -0.127499      1.608852
  C      -2.557267      1.844540      0.737875
  H      -2.485608      2.369732      1.699405
  H      -3.569814      1.996328      0.352757
  C      -1.579085      2.429548     -0.261998
  H      -0.551066      2.349217      0.137671
  C      -1.847249      3.881375     -0.634088
  C      -1.644544      4.872301      0.511734
  H      -2.353547      4.657336      1.326890
  H      -0.637531      4.734002      0.940621
  C      -1.815235      6.323742      0.067925
  H      -1.667403      7.020999      0.904489
  H      -2.822564      6.498869     -0.338596
  H      -1.092705      6.586815     -0.719015
  H      -2.873995      3.956723     -1.027791
  H      -1.176461      4.136445     -1.468772
  O      -1.596427      1.693778     -1.505597
  C      -1.883154      0.376270     -1.606246
  O      -1.787860     -0.153077     -2.691420
  C      -4.967729     -1.498349     -1.141192
  C      -5.326040     -0.896384      0.164647
  O      -5.533537     -1.829319      1.134382
  C      -5.847973     -1.363248      2.443271
  H      -6.009856     -2.260033      3.050020
  H      -5.039796     -0.764142      2.877826
  H      -6.755595     -0.744457      2.428842
  O      -5.382921      0.285080      0.394020
  C      -5.217271     -2.960309     -1.386959
  H      -5.002129     -3.571873     -0.509878
  H      -6.279801     -3.121639     -1.642830
  H      -4.619946     -3.315045     -2.238383
  C      -4.968111     -0.564323     -2.329702
  H      -4.728475      0.460052     -2.024853
  H      -5.972467     -0.550699     -2.789699
  H      -4.250957     -0.868527     -3.103105
  H      -2.618648     -2.091536     -1.562547
41
Coordinates from ORCA-job orca E -848.297163958997
  C      -2.793439     -1.628571     -0.600638
  H      -3.012687     -2.276282      0.241183
  C      -2.294356     -0.367384     -0.385153
  C      -2.268128      0.347963      0.923466
  H      -1.261569      0.259146      1.368647
  H      -2.976946     -0.134245      1.604727
  C      -2.558183      1.837492      0.736541
  H      -2.492316      2.357808      1.699192
  H      -3.568339      1.989911      0.345653
  C      -1.577996      2.425337     -0.258896
  H      -0.550760      2.346446      0.138734
  C      -1.849525      3.876542     -0.627325
  C      -1.652288      4.862712      0.522305
  H      -2.363538      4.644658      1.332485
  H      -0.648133      4.724544      0.953795
  C      -1.822823      6.314310      0.082189
  H      -1.680175      7.008069      0.920366
  H      -2.826974      6.488631     -0.328040
  H      -1.097718      6.580027     -0.699147
  H      -2.874308      3.950383     -1.022193
  H      -1.178308      4.136622     -1.458161
  O      -1.593109      1.693539     -1.503996
  C      -1.873047      0.376161     -1.606939
  O      -1.803028     -0.140683     -2.699009
  C      -4.963270     -1.500226     -1.143117
  C      -5.314491     -0.884981      0.156907
  O      -5.519496     -1.809950      1.132833
  C      -5.833312     -1.330017      2.435019
  H      -5.990842     -2.219537      3.050568
  H      -5.027406     -0.723868      2.861663
  H      -6.742265     -0.716080      2.414038
  O      -5.373725      0.298141      0.374520
  C      -5.213527     -2.963036     -1.372481
  H      -5.001686     -3.562038     -0.486865
  H      -6.273323     -3.126411     -1.630368
  H      -4.612808     -3.326111     -2.215794
  C      -4.972531     -0.579730     -2.339167
  H      -4.724732      0.444693     -2.045417
  H      -5.978955     -0.568149     -2.789661
  H      -4.263473     -0.893238     -3.113470
  H      -2.631535     -2.079209     -1.576532
41
Coordinates from ORCA-job orca E -848.298036986577
  C      -2.797653     -1.618056     -0.613131
  H      -3.006812     -2.268201      0.228931
  C      -2.303208     -0.357369     -0.399596
  C      -2.274740      0.351482      0.913295
  H      -1.269487      0.260724      1.356508
  H      -2.981129     -0.129684      1.595753
  C      -2.566818      1.837994      0.728610
  H      -2.503165      2.356557      1.690524
  H      -3.577098      1.986809      0.336300
  C      -1.580430      2.426477     -0.259947
  H      -0.556330      2.340828      0.139563
  C      -1.844708      3.879590     -0.622205
  C      -1.651678      4.856809      0.534413
  H      -2.370134      4.638468      1.335720
  H      -0.653352      4.711268      0.972511
  C      -1.810658      6.310589      0.100762
  H      -1.672436      6.997793      0.942682
  H      -2.808507      6.491564     -0.317055
  H      -1.077945      6.575956     -0.670994
  H      -2.865249      3.959236     -1.022185
  H      -1.168025      4.142514     -1.445514
  O      -1.595664      1.703031     -1.508971
  C      -1.884517      0.389884     -1.618905
  O      -1.807465     -0.122673     -2.711214
  C      -4.960046     -1.510867     -1.140407
  C      -5.314883     -0.888648      0.151786
  O      -5.508051     -1.805350      1.134450
  C      -5.827263     -1.306505      2.426831
  H      -5.971414     -2.185060      3.058090
  H      -5.027605     -0.682881      2.837339
  H      -6.742797     -0.706297      2.395917
  O      -5.387778      0.296923      0.357939
  C      -5.201158     -2.975334     -1.356449
  H      -4.984579     -3.563607     -0.465562
  H      -6.257560     -3.147898     -1.613614
  H      -4.598475     -3.341226     -2.194797
  C      -4.987533     -0.603594     -2.340875
  H      -4.747139      0.423917     -2.058564
  H      -5.995232     -0.605878     -2.783628
  H      -4.280529     -0.919228     -3.114042
  H      -2.635823     -2.066666     -1.587814
41
Coordinates from ORCA-job orca E -848.298434754465
  C      -2.782117     -1.619059     -0.597766
  H      -2.998226     -2.262999      0.246864
  C      -2.295256     -0.356758     -0.391070
  C      -2.271265      0.357671      0.919237
  H      -1.267847      0.269108      1.365615
  H      -2.979146     -0.120134      1.601738
  C      -2.564919      1.842019      0.727642
  H      -2.501274      2.364876      1.686532
  H      -3.576007      1.987607      0.335671
  C      -1.578088      2.427183     -0.262277
  H      -0.554832      2.343067      0.138537
  C      -1.842574      3.878282     -0.630175
  C      -1.649913      4.859678      0.522260
  H      -2.366851      4.643430      1.324763
  H      -0.651631      4.716839      0.959863
  C      -1.810975      6.311203      0.083520
  H      -1.672446      7.001231      0.922177
  H      -2.808912      6.489801     -0.333469
  H      -1.080026      6.574575     -0.689706
  H      -2.862572      3.956158     -1.030586
  H      -1.166110      4.137524     -1.454114
  O      -1.592937      1.700414     -1.508913
  C      -1.878742      0.386467     -1.613916
  O      -1.797000     -0.130212     -2.703527
  C      -4.966971     -1.502998     -1.136588
  C      -5.320405     -0.895757      0.161690
  O      -5.521788     -1.824720      1.130823
  C      -5.840358     -1.340368      2.427762
  H      -5.998159     -2.225350      3.045335
  H      -5.034544     -0.733114      2.850161
  H      -6.747575     -0.728423      2.401699
  O      -5.390170      0.287521      0.382891
  C      -5.207272     -2.964081     -1.369536
  H      -4.987251     -3.564893     -0.488206
  H      -6.264683     -3.132949     -1.622726
  H      -4.610511     -3.319936     -2.215472
  C      -4.984895     -0.581792     -2.325094
  H      -4.746061      0.441616     -2.029075
  H      -5.989214     -0.577395     -2.774142
  H      -4.273783     -0.888919     -3.096971
  H      -2.621766     -2.073025     -1.568991
41
Coordinates from ORCA-job orca E -848.299267578193
  C      -2.795092     -1.601491     -0.628742
  H      -2.987676     -2.249418      0.218032
  C      -2.311952     -0.338236     -0.425815
  C      -2.280918      0.357884      0.895872
  H      -1.280673      0.254662      1.340547
  H      -2.988240     -0.118308      1.578076
  C      -2.572804      1.841091      0.716996
  H      -2.504249      2.358813      1.676234
  H      -3.586634      1.983817      0.331766
  C      -1.582017      2.431182     -0.265191
  H      -0.562515      2.334479      0.136190
  C      -1.835911      3.887021     -0.617144
  C      -1.648939      4.850598      0.549717
  H      -2.377630      4.632052      1.337848
  H      -0.659456      4.693922      0.997078
  C      -1.790616      6.307467      0.126255
  H      -1.658214      6.984599      0.973442
  H      -2.779054      6.498785     -0.301694
  H      -1.047520      6.572024     -0.631649
  H      -2.850089      3.975218     -1.024222
  H      -1.151588      4.154062     -1.429268
  O      -1.598286      1.720996     -1.520128
  C      -1.892235      0.412509     -1.639661
  O      -1.821081     -0.089682     -2.735085
  C      -4.953720     -1.527030     -1.132069
  C      -5.323053     -0.901410      0.148532
  O      -5.499594     -1.807256      1.138515
  C      -5.831756     -1.280368      2.414796
  H      -5.954332     -2.140781      3.070064
  H      -5.043093     -0.628615      2.797901
  H      -6.757980     -0.703770      2.367502
  O      -5.423345      0.286944      0.339766
  C      -5.182490     -2.992796     -1.334623
  H      -4.954634     -3.571363     -0.441404
  H      -6.234622     -3.177547     -1.587143
  H      -4.581802     -3.359945     -2.170157
  C      -5.009673     -0.637508     -2.335981
  H      -4.781760      0.394631     -2.071389
  H      -6.019405     -0.659838     -2.765823
  H      -4.308406     -0.957784     -3.108410
  H      -2.632020     -2.056220     -1.597068
41
Coordinates from ORCA-job orca E -848.299817841450
  C      -2.788372     -1.584295     -0.646348
  H      -2.964099     -2.228883      0.206351
  C      -2.319990     -0.317450     -0.455654
  C      -2.287835      0.364062      0.876398
  H      -1.294141      0.241851      1.326406
  H      -3.001077     -0.106146      1.555871
  C      -2.575274      1.846761      0.705659
  H      -2.497029      2.364440      1.662938
  H      -3.593636      1.985759      0.331690
  C      -1.582226      2.438594     -0.272393
  H      -0.566566      2.328646      0.130784
  C      -1.824055      3.898813     -0.611872
  C      -1.645464      4.847843      0.567242
  H      -2.388127      4.629744      1.340091
  H      -0.665597      4.677978      1.027179
  C      -1.766110      6.309031      0.155117
  H      -1.641010      6.975970      1.009600
  H      -2.744531      6.512810     -0.286039
  H      -1.009133      6.572070     -0.587207
  H      -2.831815      3.996750     -1.028298
  H      -1.129619      4.171264     -1.411552
  O      -1.600789      1.741584     -1.533742
  C      -1.900089      0.437512     -1.663294
  O      -1.838362     -0.055130     -2.762035
  C      -4.950106     -1.546524     -1.124138
  C      -5.339692     -0.917425      0.144454
  O      -5.494326     -1.808622      1.146278
  C      -5.839290     -1.253706      2.408012
  H      -5.932507     -2.095116      3.090034
  H      -5.064455     -0.569096      2.757606
  H      -6.780582     -0.707237      2.347708
  O      -5.471683      0.273144      0.317072
  C      -5.163122     -3.015047     -1.312166
  H      -4.921301     -3.584307     -0.417158
  H      -6.212003     -3.214346     -1.559605
  H      -4.563789     -3.383091     -2.146581
  C      -5.035052     -0.677970     -2.334974
  H      -4.821906      0.360960     -2.092575
  H      -6.047520     -0.723010     -2.752458
  H      -4.338319     -1.006180     -3.106556
  H      -2.624474     -2.048617     -1.609384
41
Coordinates from ORCA-job orca E -848.299938402775
  C      -2.793908     -1.575052     -0.666162
  H      -2.954060     -2.221575      0.188511
  C      -2.329524     -0.305074     -0.478153
  C      -2.296633      0.364845      0.861272
  H      -1.307485      0.225569      1.316100
  H      -3.016368     -0.102688      1.535741
  C      -2.575062      1.850840      0.701510
  H      -2.485413      2.365736      1.659493
  H      -3.596587      1.994525      0.337797
  C      -1.582444      2.444303     -0.275845
  H      -0.567826      2.325428      0.127602
  C      -1.816975      3.907931     -0.605771
  C      -1.641831      4.848052      0.581357
  H      -2.392961      4.630522      1.346019
  H      -0.666645      4.669648      1.048064
  C      -1.749515      6.312665      0.176636
  H      -1.626895      6.973645      1.036185
  H      -2.723361      6.524682     -0.270810
  H      -0.984782      6.574281     -0.558251
  H      -2.822198      4.012137     -1.026664
  H      -1.117127      4.184591     -1.399263
  O      -1.604330      1.756681     -1.542084
  C      -1.913749      0.456548     -1.680354
  O      -1.851140     -0.032128     -2.780823
  C      -4.940361     -1.560852     -1.119668
  C      -5.350523     -0.923697      0.139110
  O      -5.489219     -1.800265      1.154293
  C      -5.842239     -1.230242      2.409740
  H      -5.909068     -2.061353      3.107358
  H      -5.081459     -0.520075      2.737215
  H      -6.798064     -0.710757      2.344177
  O      -5.508143      0.267412      0.290876
  C      -5.148001     -3.033393     -1.292574
  H      -4.900876     -3.594643     -0.393876
  H      -6.195384     -3.240668     -1.539265
  H      -4.546761     -3.406761     -2.123567
  C      -5.045618     -0.710080     -2.342249
  H      -4.839760      0.334694     -2.120532
  H      -6.061866     -0.769839     -2.748849
  H      -4.354395     -1.048095     -3.114893
  H      -2.626516     -2.044106     -1.626941
41
Coordinates from ORCA-job orca E -848.299962241424
  C      -2.781081     -1.575493     -0.656027
  H      -2.946460     -2.218434      0.200245
  C      -2.323494     -0.303928     -0.471214
  C      -2.294565      0.371097      0.865663
  H      -1.307221      0.232274      1.324469
  H      -3.017576     -0.093724      1.538114
  C      -2.571057      1.856907      0.701659
  H      -2.480363      2.373907      1.658341
  H      -3.592341      2.002029      0.338142
  C      -1.578607      2.447388     -0.277567
  H      -0.563937      2.329355      0.126012
  C      -1.812967      3.910147     -0.611219
  C      -1.639906      4.853427      0.573568
  H      -2.392360      4.638058      1.337554
  H      -0.665735      4.675857      1.042620
  C      -1.746442      6.316948      0.164860
  H      -1.624927      6.980127      1.022780
  H      -2.719398      6.528385     -0.284678
  H      -0.980556      6.576540     -0.569474
  H      -2.817546      4.012974     -1.034019
  H      -1.112109      4.184716     -1.404515
  O      -1.601053      1.756374     -1.541817
  C      -1.905772      0.454539     -1.675769
  O      -1.846598     -0.035598     -2.775754
  C      -4.948517     -1.558630     -1.118086
  C      -5.357766     -0.930398      0.145226
  O      -5.501339     -1.815927      1.152413
  C      -5.853218     -1.258340      2.413289
  H      -5.930437     -2.097778      3.099591
  H      -5.087614     -0.559773      2.753960
  H      -6.804026     -0.729267      2.350899
  O      -5.514877      0.259324      0.306323
  C      -5.153715     -3.029716     -1.301919
  H      -4.903476     -3.598982     -0.409146
  H      -6.202216     -3.235309     -1.545657
  H      -4.556193     -3.396122     -2.138552
  C      -5.047254     -0.699067     -2.334783
  H      -4.839778      0.343703     -2.105016
  H      -6.062409     -0.753382     -2.744899
  H      -4.354940     -1.033141     -3.107846
  H      -2.615221     -2.047674     -1.615310
41
Coordinates from ORCA-job orca E -848.299989903478
  C      -2.782847     -1.572933     -0.661929
  H      -2.941811     -2.217418      0.194510
  C      -2.326277     -0.299951     -0.476420
  C      -2.298026      0.372811      0.861691
  H      -1.312407      0.229137      1.322781
  H      -3.024224     -0.091184      1.531449
  C      -2.569790      1.859869      0.701099
  H      -2.474393      2.375032      1.658313
  H      -3.591598      2.009611      0.340797
  C      -1.577795      2.449892     -0.278938
  H      -0.562906      2.329486      0.123548
  C      -1.810367      3.913449     -0.610207
  C      -1.636732      4.855022      0.575927
  H      -2.390648      4.640530      1.338700
  H      -0.663387      4.675206      1.045868
  C      -1.739901      6.319224      0.168368
  H      -1.617569      6.981328      1.027011
  H      -2.712203      6.532915     -0.281538
  H      -0.972975      6.577642     -0.565295
  H      -2.814765      4.017750     -1.033106
  H      -1.109131      4.188663     -1.402940
  O      -1.603000      1.761298     -1.544290
  C      -1.910752      0.460400     -1.679890
  O      -1.853587     -0.028556     -2.780670
  C      -4.943088     -1.562991     -1.115137
  C      -5.361323     -0.933818      0.145721
  O      -5.500976     -1.816947      1.154882
  C      -5.858906     -1.258072      2.413799
  H      -5.927850     -2.096295      3.102435
  H      -5.100393     -0.550600      2.751895
  H      -6.815232     -0.739420      2.348385
  O      -5.528414      0.254964      0.301913
  C      -5.148404     -3.035094     -1.296818
  H      -4.897220     -3.604109     -0.404100
  H      -6.196884     -3.241354     -1.539865
  H      -4.551002     -3.402032     -2.133359
  C      -5.048217     -0.706393     -2.334213
  H      -4.840388      0.337209     -2.108822
  H      -6.065440     -0.762285     -2.738968
  H      -4.359821     -1.042711     -3.109777
  H      -2.614419     -2.045883     -1.620350
41
Coordinates from ORCA-job orca E -848.300022709159
  C      -2.773298     -1.569840     -0.658081
  H      -2.929885     -2.213312      0.199630
  C      -2.324854     -0.294540     -0.474484
  C      -2.301773      0.381497      0.862103
  H      -1.319044      0.236145      1.328726
  H      -3.033166     -0.079896      1.528089
  C      -2.568544      1.868965      0.699387
  H      -2.469858      2.384387      1.656117
  H      -3.589921      2.024023      0.339978
  C      -1.575459      2.455144     -0.281984
  H      -0.560531      2.332378      0.119764
  C      -1.804530      3.918982     -0.614427
  C      -1.629254      4.861658      0.570516
  H      -2.384805      4.650875      1.332718
  H      -0.657095      4.679328      1.041969
  C      -1.727093      6.325561      0.160542
  H      -1.602768      6.988588      1.018187
  H      -2.698459      6.542009     -0.290085
  H      -0.958979      6.580079     -0.573250
  H      -2.808531      4.024862     -1.037927
  H      -1.102608      4.191778     -1.407404
  O      -1.604468      1.765996     -1.546701
  C      -1.913052      0.465039     -1.680105
  O      -1.856445     -0.025449     -2.780236
  C      -4.944223     -1.566011     -1.110189
  C      -5.370176     -0.945148      0.152682
  O      -5.508787     -1.834857      1.156020
  C      -5.876179     -1.286258      2.416497
  H      -5.942419     -2.129703      3.099054
  H      -5.124523     -0.575694      2.763392
  H      -6.835952     -0.774131      2.349522
  O      -5.546603      0.241326      0.313922
  C      -5.146125     -3.037551     -1.300769
  H      -4.891172     -3.613355     -0.413413
  H      -6.195451     -3.243690     -1.540620
  H      -4.551609     -3.397386     -2.142402
  C      -5.050300     -0.702717     -2.324591
  H      -4.840109      0.339309     -2.094008
  H      -6.068915     -0.754242     -2.726574
  H      -4.364816     -1.035912     -3.104033
  H      -2.603291     -2.044849     -1.615074
41
Coordinates from ORCA-job orca E -848.300044133221
  C      -2.769387     -1.565994     -0.656610
  H      -2.920652     -2.210063      0.201783
  C      -2.326503     -0.288486     -0.473704
  C      -2.308274      0.390521      0.861430
  H      -1.328081      0.244365      1.333056
  H      -3.044058     -0.068521      1.524122
  C      -2.570498      1.878342      0.696183
  H      -2.470701      2.393906      1.652734
  H      -3.590573      2.038452      0.335395
  C      -1.575237      2.460552     -0.285429
  H      -0.560464      2.334568      0.115667
  C      -1.799494      3.925130     -0.618157
  C      -1.619212      4.868009      0.565841
  H      -2.374866      4.660990      1.329000
  H      -0.647356      4.682135      1.036528
  C      -1.711479      6.331971      0.154695
  H      -1.582682      6.995238      1.011490
  H      -2.682711      6.552237     -0.294349
  H      -0.943591      6.582417     -0.580732
  H      -2.803649      4.034175     -1.040530
  H      -1.097801      4.194968     -1.412360
  O      -1.608054      1.771163     -1.549711
  C      -1.916785      0.469946     -1.680967
  O      -1.864772     -0.020915     -2.781175
  C      -4.940496     -1.570167     -1.104473
  C      -5.376107     -0.956898      0.159574
  O      -5.512021     -1.852225      1.158292
  C      -5.894152     -1.313418      2.418608
  H      -5.953027     -2.160455      3.097411
  H      -5.154704     -0.594030      2.773237
  H      -6.860429     -0.814153      2.347604
  O      -5.563780      0.227101      0.324584
  C      -5.140209     -3.041283     -1.302523
  H      -4.883154     -3.622214     -0.419087
  H      -6.190053     -3.247194     -1.540444
  H      -4.547195     -3.395233     -2.147631
  C      -5.050245     -0.700861     -2.314500
  H      -4.835418      0.339331     -2.079705
  H      -6.071474     -0.746798     -2.710504
  H      -4.370249     -1.031857     -3.099493
  H      -2.595475     -2.041362     -1.612690
41
Coordinates from ORCA-job orca E -848.300062044019
  C      -2.766137     -1.561530     -0.650661
  H      -2.913706     -2.205253      0.208698
  C      -2.330139     -0.281418     -0.469936
  C      -2.317925      0.402654      0.862694
  H      -1.339761      0.258726      1.339180
  H      -3.056722     -0.053780      1.523606
  C      -2.577983      1.890091      0.691190
  H      -2.481725      2.407994      1.646825
  H      -3.595879      2.052033      0.324938
  C      -1.577920      2.467009     -0.288715
  H      -0.564232      2.336888      0.113815
  C      -1.794479      3.932304     -0.623554
  C      -1.606139      4.876152      0.558347
  H      -2.361253      4.675005      1.323627
  H      -0.634422      4.685247      1.027283
  C      -1.690417      6.339881      0.144828
  H      -1.554964      7.003934      0.999986
  H      -2.661447      6.565570     -0.301951
  H      -0.922983      6.584160     -0.593154
  H      -2.798697      4.046557     -1.044416
  H      -1.092706      4.196528     -1.419587
  O      -1.613027      1.776009     -1.551932
  C      -1.922044      0.474388     -1.679813
  O      -1.868326     -0.019476     -2.778522
  C      -4.938374     -1.573938     -1.098732
  C      -5.381093     -0.972257      0.168659
  O      -5.514718     -1.876343      1.160060
  C      -5.912654     -1.351358      2.421206
  H      -5.966827     -2.203838      3.093582
  H      -5.184879     -0.625908      2.787274
  H      -6.884153     -0.862755      2.346518
  O      -5.577613      0.209026      0.342044
  C      -5.133614     -3.044072     -1.308185
  H      -4.874067     -3.631261     -0.429601
  H      -6.183675     -3.250662     -1.544852
  H      -4.541496     -3.389450     -2.157358
  C      -5.050697     -0.694833     -2.301431
  H      -4.832186      0.342773     -2.058513
  H      -6.073871     -0.734309     -2.693089
  H      -4.374483     -1.020249     -3.091950
  H      -2.587636     -2.036851     -1.605948
41
Coordinates from ORCA-job orca E -848.300077693479
  C      -2.765221     -1.558919     -0.643811
  H      -2.912260     -2.201319      0.216598
  C      -2.332258     -0.277322     -0.465758
  C      -2.324260      0.410895      0.864773
  H      -1.347372      0.269152      1.344536
  H      -3.064761     -0.043463      1.525055
  C      -2.584193      1.897733      0.687583
  H      -2.492493      2.418709      1.641993
  H      -3.600518      2.058176      0.316333
  C      -1.580817      2.471068     -0.290939
  H      -0.568151      2.338701      0.113425
  C      -1.792258      3.936500     -0.628200
  C      -1.597154      4.881555      0.551625
  H      -2.350763      4.684460      1.319471
  H      -0.624851      4.687623      1.018062
  C      -1.676960      6.344934      0.136082
  H      -1.535830      7.009848      0.989651
  H      -2.648511      6.574007     -0.307827
  H      -0.910992      6.584894     -0.604835
  H      -2.796821      4.054402     -1.047250
  H      -1.090908      4.196186     -1.426094
  O      -1.615994      1.777848     -1.552930
  C      -1.922247      0.475138     -1.677252
  O      -1.868279     -0.021264     -2.774771
  C      -4.936887     -1.574565     -1.094897
  C      -5.382907     -0.982652      0.175928
  O      -5.516615     -1.894099      1.160722
  C      -5.924574     -1.379982      2.423068
  H      -5.979106     -2.237402      3.089115
  H      -5.202492     -0.653929      2.799005
  H      -6.897767     -0.895085      2.345991
  O      -5.582905      0.196861      0.357352
  C      -5.129493     -3.043567     -1.314470
  H      -4.868754     -3.635982     -0.439761
  H      -6.179535     -3.250143     -1.551382
  H      -4.537564     -3.382265     -2.166396
  C      -5.050060     -0.687146     -2.291311
  H      -4.828097      0.348229     -2.041831
  H      -6.074428     -0.720775     -2.680312
  H      -4.376639     -1.008785     -3.085687
  H      -2.583370     -2.034867     -1.598196
41
Coordinates from ORCA-job orca E -848.300104163813
  C      -2.764579     -1.554713     -0.626331
  H      -2.914107     -2.192815      0.236817
  C      -2.336022     -0.270774     -0.454862
  C      -2.336545      0.426607      0.870987
  H      -1.362118      0.289712      1.357192
  H      -3.080414     -0.023272      1.530346
  C      -2.596844      1.911851      0.681179
  H      -2.515006      2.440091      1.632382
  H      -3.610229      2.067477      0.299651
  C      -1.586404      2.477573     -0.294358
  H      -0.576185      2.341673      0.115089
  C      -1.788101      3.942638     -0.638447
  C      -1.581138      4.891505      0.536302
  H      -2.331732      4.702281      1.309117
  H      -0.607604      4.693244      0.998263
  C      -1.653872      6.353650      0.115244
  H      -1.502491      7.021173      0.965008
  H      -2.626646      6.587815     -0.323306
  H      -0.891068      6.585351     -0.631579
  H      -2.792982      4.066934     -1.054882
  H      -1.086961      4.192726     -1.439586
  O      -1.620351      1.778755     -1.553379
  C      -1.922401      0.474192     -1.669930
  O      -1.859592     -0.030347     -2.763242
  C      -4.935381     -1.572502     -1.087926
  C      -5.386057     -1.002220      0.191008
  O      -5.521688     -1.929888      1.160376
  C      -5.944267     -1.438613      2.426883
  H      -6.003432     -2.307443      3.077564
  H      -5.228452     -0.717269      2.823225
  H      -6.917956     -0.954956      2.347952
  O      -5.588531      0.173904      0.391273
  C      -5.123069     -3.038481     -1.331025
  H      -4.860046     -3.643288     -0.465483
  H      -6.172937     -3.244489     -1.569431
  H      -4.531188     -3.362029     -2.188763
  C      -5.048353     -0.666224     -2.270081
  H      -4.821077      0.364307     -2.005474
  H      -6.074163     -0.688526     -2.655972
  H      -4.378617     -0.978512     -3.071258
  H      -2.576463     -2.033710     -1.578085
41
Coordinates from ORCA-job orca E -848.300121946001
  C      -2.764170     -1.552318     -0.604607
  H      -2.921079     -2.183850      0.262031
  C      -2.336457     -0.267379     -0.440882
  C      -2.345437      0.440120      0.879727
  H      -1.373973      0.307242      1.372915
  H      -3.093845     -0.004220      1.537555
  C      -2.605562      1.923654      0.676659
  H      -2.531907      2.459944      1.624001
  H      -3.616590      2.074165      0.286741
  C      -1.589662      2.481647     -0.297484
  H      -0.581666      2.344689      0.117101
  C      -1.784527      3.945453     -0.650216
  C      -1.569531      4.899784      0.518767
  H      -2.317361      4.717069      1.295853
  H      -0.594707      4.700362      0.977421
  C      -1.638849      6.360047      0.090807
  H      -1.479984      7.031197      0.936352
  H      -2.613007      6.596205     -0.343553
  H      -0.879133      6.584959     -0.661238
  H      -2.789516      4.073363     -1.065311
  H      -1.083268      4.186836     -1.453898
  O      -1.621064      1.775216     -1.552480
  C      -1.915706      0.468034     -1.659342
  O      -1.847608     -0.044958     -2.748420
  C      -4.935388     -1.565595     -1.081540
  C      -5.388975     -1.019073      0.206559
  O      -5.529904     -1.964623      1.157566
  C      -5.960884     -1.497159      2.430256
  H      -6.028775     -2.378744      3.062703
  H      -5.245294     -0.787109      2.846831
  H      -6.931936     -1.007968      2.353127
  O      -5.589427      0.153605      0.428488
  C      -5.119813     -3.027218     -1.351872
  H      -4.854709     -3.647078     -0.497604
  H      -6.169634     -3.231106     -1.592409
  H      -4.528103     -3.333618     -2.215917
  C      -5.045088     -0.638323     -2.247420
  H      -4.811844      0.386486     -1.965921
  H      -6.071631     -0.647912     -2.631856
  H      -4.378380     -0.941043     -3.054736
  H      -2.570678     -2.037396     -1.552296
41
Coordinates from ORCA-job orca E -848.300137105965
  C      -2.766183     -1.551286     -0.590796
  H      -2.928675     -2.177730      0.278491
  C      -2.336853     -0.266220     -0.431884
  C      -2.350673      0.447452      0.885460
  H      -1.381417      0.315691      1.383248
  H      -3.102831      0.007234      1.541650
  C      -2.608710      1.930159      0.674630
  H      -2.537459      2.470980      1.619548
  H      -3.618643      2.079546      0.281314
  C      -1.589396      2.482639     -0.299093
  H      -0.582829      2.345472      0.118915
  C      -1.780646      3.945362     -0.657991
  C      -1.565542      4.903642      0.507796
  H      -2.313945      4.724218      1.285097
  H      -0.591089      4.705027      0.967566
  C      -1.633437      6.362483      0.074799
  H      -1.473908      7.036295      0.918102
  H      -2.607364      6.598147     -0.360328
  H      -0.873412      6.584074     -0.677920
  H      -2.784725      4.073974     -1.075070
  H      -1.077442      4.182272     -1.461307
  O      -1.619105      1.771203     -1.551339
  C      -1.912514      0.463272     -1.652493
  O      -1.837700     -0.056074     -2.738170
  C      -4.935044     -1.559548     -1.077698
  C      -5.391625     -1.028254      0.215753
  O      -5.536309     -1.984798      1.154819
  C      -5.968082     -1.531603      2.432607
  H      -6.039350     -2.420748      3.053965
  H      -5.251008     -0.828841      2.858759
  H      -6.937624     -1.038888      2.359631
  O      -5.590388      0.142129      0.451217
  C      -5.118372     -3.017963     -1.366048
  H      -4.851615     -3.648339     -0.519992
  H      -6.168223     -3.220151     -1.607802
  H      -4.526838     -3.312800     -2.234211
  C      -5.042833     -0.618750     -2.232933
  H      -4.807294      0.402470     -1.940392
  H      -6.069546     -0.621612     -2.617020
  H      -4.377224     -0.914324     -3.043809
  H      -2.569198     -2.042423     -1.534612
41
Coordinates from ORCA-job orca E -848.300152711716
  C      -2.769622     -1.551385     -0.569715
  H      -2.943087     -2.169270      0.303672
  C      -2.335111     -0.267393     -0.417686
  C      -2.354496      0.454964      0.895048
  H      -1.388159      0.324310      1.398704
  H      -3.111914      0.020962      1.549301
  C      -2.609204      1.936534      0.673579
  H      -2.539710      2.483449      1.615115
  H      -3.617980      2.084923      0.276920
  C      -1.586091      2.481545     -0.300337
  H      -0.581270      2.346067      0.122386
  C      -1.774636      3.942142     -0.669220
  C      -1.564942      4.907364      0.491915
  H      -2.315893      4.731243      1.267469
  H      -0.591841      4.712753      0.956256
  C      -1.633330      6.363702      0.050637
  H      -1.477663      7.042246      0.890876
  H      -2.606126      6.595572     -0.389034
  H      -0.870973      6.582313     -0.700585
  H      -2.776678      4.068778     -1.091799
  H      -1.067360      4.173997     -1.470417
  O      -1.612049      1.761947     -1.548053
  C      -1.902868      0.452785     -1.640905
  O      -1.824604     -0.073997     -2.722782
  C      -4.936392     -1.547842     -1.073490
  C      -5.395259     -1.038123      0.227732
  O      -5.547330     -2.010315      1.148999
  C      -5.974469     -1.576340      2.435212
  H      -6.050646     -2.475630      3.041174
  H      -5.251681     -0.885944      2.871797
  H      -6.940766     -1.076058      2.371911
  O      -5.588935      0.129036      0.483317
  C      -5.119202     -3.000801     -1.388188
  H      -4.849569     -3.646765     -0.554779
  H      -6.169344     -3.200092     -1.630996
  H      -4.528530     -3.278585     -2.262525
  C      -5.039037     -0.587296     -2.212743
  H      -4.800613      0.428324     -1.903211
  H      -6.065129     -0.580445     -2.598440
  H      -4.373388     -0.872154     -3.027418
  H      -2.569174     -2.053129     -1.507233
41
Coordinates from ORCA-job orca E -848.300161546701
  C      -2.772128     -1.551723     -0.563225
  H      -2.949552     -2.166637      0.311407
  C      -2.334743     -0.268519     -0.412721
  C      -2.354798      0.456041      0.898791
  H      -1.389045      0.325376      1.403535
  H      -3.113399      0.023871      1.552839
  C      -2.607871      1.937451      0.674729
  H      -2.537758      2.485581      1.615511
  H      -3.616448      2.086591      0.277801
  C      -1.583476      2.480146     -0.299237
  H      -0.579214      2.345898      0.125193
  C      -1.771955      3.939782     -0.672080
  C      -1.566652      4.908272      0.487104
  H      -2.319524      4.733223      1.261033
  H      -0.594589      4.716214      0.954677
  C      -1.635752      6.363342      0.041730
  H      -1.483518      7.044350      0.880605
  H      -2.607640      6.592512     -0.401354
  H      -0.871610      6.581050     -0.707934
  H      -2.772872      4.064342     -1.097946
  H      -1.062695      4.170315     -1.471905
  O      -1.607437      1.757854     -1.545442
  C      -1.900532      0.449082     -1.636644
  O      -1.819825     -0.080062     -2.717185
  C      -4.937499     -1.543132     -1.073038
  C      -5.397056     -1.040006      0.230363
  O      -5.551596     -2.017012      1.146110
  C      -5.974128     -1.588817      2.435843
  H      -6.049523     -2.490958      3.037631
  H      -5.248998     -0.901473      2.873354
  H      -6.939966     -1.086998      2.378069
  O      -5.588894      0.126118      0.492210
  C      -5.120388     -2.994199     -1.395917
  H      -4.849154     -3.645085     -0.566880
  H      -6.170761     -3.192778     -1.638151
  H      -4.530599     -3.266560     -2.272542
  C      -5.038029     -0.576253     -2.207145
  H      -4.800739      0.437682     -1.891370
  H      -6.063278     -0.567777     -2.595043
  H      -4.370482     -0.856255     -3.021996
  H      -2.570948     -2.057456     -1.498323
41
Coordinates from ORCA-job orca E -848.300171114984
  C      -2.777319     -1.552967     -0.550564
  H      -2.963259     -2.162117      0.326462
  C      -2.332715     -0.271993     -0.402729
  C      -2.352849      0.456431      0.906614
  H      -1.387836      0.325547      1.412717
  H      -3.113253      0.027797      1.560959
  C      -2.603084      1.937594      0.677949
  H      -2.531853      2.487965      1.617373
  H      -3.611316      2.087904      0.280678
  C      -1.576888      2.476530     -0.296194
  H      -0.573659      2.346149      0.131734
  C      -1.767102      3.933915     -0.677147
  C      -1.571850      4.909340      0.477872
  H      -2.328428      4.735751      1.248507
  H      -0.601744      4.723629      0.952073
  C      -1.644039      6.361611      0.023892
  H      -1.499836      7.048006      0.859771
  H      -2.614201      6.583944     -0.426414
  H      -0.876390      6.578263     -0.722466
  H      -2.765856      4.052874     -1.109678
  H      -1.054127      4.162505     -1.474231
  O      -1.595373      1.748375     -1.539138
  C      -1.892017      0.440207     -1.627309
  O      -1.812201     -0.091763     -2.706530
  C      -4.940537     -1.532590     -1.072790
  C      -5.400785     -1.041918      0.234871
  O      -5.560371     -2.028084      1.139840
  C      -5.972433     -1.610560      2.436432
  H      -6.044966     -2.517765      3.030903
  H      -5.242527     -0.928276      2.873991
  H      -6.937726     -1.106429      2.390472
  O      -5.588354      0.122112      0.509177
  C      -5.124311     -2.979803     -1.411226
  H      -4.849203     -3.640064     -0.590823
  H      -6.175488     -3.176887     -1.651107
  H      -4.537313     -3.241889     -2.292846
  C      -5.035573     -0.553705     -2.196966
  H      -4.801010      0.456970     -1.868771
  H      -6.058544     -0.542259     -2.590709
  H      -4.363139     -0.824430     -3.010955
  H      -2.575596     -2.066528     -1.481235
41
Coordinates from ORCA-job orca E -848.300172647394
  C      -2.778730     -1.553118     -0.549050
  H      -2.965636     -2.161635      0.328157
  C      -2.332569     -0.272682     -0.401353
  C      -2.351968      0.456057      0.907746
  H      -1.386679      0.325351      1.413369
  H      -3.111959      0.027745      1.562753
  C      -2.601945      1.937156      0.678511
  H      -2.530986      2.487834      1.617786
  H      -3.610020      2.087478      0.280788
  C      -1.575100      2.475681     -0.295201
  H      -0.572205      2.346335      0.133845
  C      -1.765972      3.932598     -0.677647
  C      -1.572875      4.909198      0.476700
  H      -2.329945      4.735402      1.246817
  H      -0.603007      4.725004      0.951967
  C      -1.646417      6.360990      0.021358
  H      -1.503975      7.048357      0.856746
  H      -2.616407      6.581599     -0.430177
  H      -0.878301      6.577949     -0.724451
  H      -2.764334      4.050304     -1.111459
  H      -1.052302      4.161037     -1.474160
  O      -1.591746      1.746475     -1.537596
  C      -1.891139      0.438961     -1.625964
  O      -1.810061     -0.093625     -2.704802
  C      -4.941363     -1.530667     -1.073059
  C      -5.401600     -1.041482      0.235153
  O      -5.561539     -2.028877      1.138789
  C      -5.971620     -1.612834      2.436454
  H      -6.042001     -2.520554      3.030404
  H      -5.241731     -0.929957      2.873101
  H      -6.937594     -1.109796      2.392755
  O      -5.588675      0.122236      0.511135
  C      -5.125468     -2.977428     -1.413228
  H      -4.848867     -3.638672     -0.594126
  H      -6.177018     -3.174522     -1.651387
  H      -4.539936     -3.238300     -2.296150
  C      -5.035306     -0.550316     -2.196055
  H      -4.802902      0.460132     -1.865724
  H      -6.057391     -0.539745     -2.592106
  H      -4.360560     -0.818846     -3.008899
  H      -2.577219     -2.067435     -1.479277
41
Coordinates from ORCA-job orca E -848.300177077520
  C      -2.785314     -1.555193     -0.540792
  H      -2.978827     -2.160828      0.337052
  C      -2.328584     -0.278567     -0.393086
  C      -2.343330      0.451328      0.915159
  H      -1.376449      0.321057      1.417967
  H      -3.101250      0.024665      1.573748
  C      -2.592828      1.932203      0.683457
  H      -2.523613      2.484518      1.621869
  H      -3.600343      2.081601      0.284000
  C      -1.564487      2.470367     -0.288902
  H      -0.562966      2.348958      0.145424
  C      -1.762127      3.924274     -0.679909
  C      -1.580218      4.908439      0.469751
  H      -2.338492      4.733398      1.238394
  H      -0.610651      4.734031      0.949273
  C      -1.663200      6.357015      0.005868
  H      -1.529581      7.050441      0.837682
  H      -2.633102      6.566973     -0.450897
  H      -0.893949      6.575619     -0.738285
  H      -2.759189      4.033372     -1.118985
  H      -1.046417      4.152729     -1.474590
  O      -1.569497      1.734506     -1.527681
  C      -1.877992      0.429266     -1.616418
  O      -1.800765     -0.103342     -2.695548
  C      -4.945992     -1.518423     -1.074674
  C      -5.405358     -1.037504      0.236778
  O      -5.568352     -2.031553      1.132769
  C      -5.968373     -1.623096      2.435843
  H      -6.028088     -2.533422      3.026982
  H      -5.238354     -0.937345      2.867799
  H      -6.937658     -1.125431      2.403517
  O      -5.589041      0.124462      0.522192
  C      -5.133671     -2.962218     -1.424971
  H      -4.847783     -3.629690     -0.614008
  H      -6.187829     -3.158499     -1.651948
  H      -4.557887     -3.216056     -2.316275
  C      -5.032373     -0.529918     -2.190794
  H      -4.810517      0.479100     -1.848817
  H      -6.049168     -0.522977     -2.600187
  H      -4.345364     -0.787852     -2.996746
  H      -2.586094     -2.073018     -1.469554
41
Coordinates from ORCA-job orca E -848.300182442108
  C      -2.783349     -1.554559     -0.543998
  H      -2.974371     -2.161500      0.333416
  C      -2.329640     -0.276854     -0.396051
  C      -2.345431      0.452511      0.912552
  H      -1.378698      0.322528      1.415668
  H      -3.103389      0.025006      1.570465
  C      -2.595650      1.933322      0.681635
  H      -2.526575      2.485172      1.620355
  H      -3.603243      2.082596      0.282222
  C      -1.567376      2.471892     -0.290574
  H      -0.565618      2.348393      0.142716
  C      -1.763205      3.926634     -0.679032
  C      -1.577936      4.908419      0.472163
  H      -2.335615      4.733369      1.241404
  H      -0.608075      4.731269      0.950106
  C      -1.658651      6.358033      0.011115
  H      -1.522259      7.049527      0.844095
  H      -2.628811      6.571042     -0.443699
  H      -0.890038      6.576477     -0.733746
  H      -2.760696      4.038318     -1.116453
  H      -1.048096      4.155194     -1.474217
  O      -1.575054      1.738090     -1.530495
  C      -1.882398      0.432577     -1.619736
  O      -1.801738     -0.100388     -2.698458
  C      -4.944565     -1.522116     -1.074112
  C      -5.404079     -1.038188      0.236223
  O      -5.565712     -2.029920      1.134959
  C      -5.969548     -1.618937      2.436127
  H      -6.031841     -2.528284      3.028505
  H      -5.240399     -0.933175      2.869449
  H      -6.938315     -1.120609      2.399767
  O      -5.589034      0.124410      0.518259
  C      -5.131528     -2.966960     -1.420744
  H      -4.846922     -3.632335     -0.607670
  H      -6.185320     -3.163633     -1.649055
  H      -4.554354     -3.223024     -2.310504
  C      -5.033394     -0.536523     -2.192782
  H      -4.810030      0.473339     -1.854452
  H      -6.051414     -0.530001     -2.599176
  H      -4.348950     -0.797077     -3.000147
  H      -2.583757     -2.070646     -1.473640
41
Coordinates from ORCA-job orca E -848.300183774101
  C      -2.778862     -1.554159     -0.551363
  H      -2.965453     -2.164060      0.324907
  C      -2.329899     -0.274856     -0.402168
  C      -2.347019      0.452610      0.907639
  H      -1.380488      0.322523      1.411043
  H      -3.105034      0.023147      1.564204
  C      -2.598775      1.933623      0.679467
  H      -2.529285      2.484001      1.619014
  H      -3.606796      2.082706      0.281245
  C      -1.572377      2.474330     -0.293453
  H      -0.569629      2.347834      0.136704
  C      -1.766700      3.930674     -0.676374
  C      -1.574987      4.907940      0.477677
  H      -2.330775      4.732255      1.248607
  H      -0.604113      4.726324      0.951863
  C      -1.652802      6.359456      0.022213
  H      -1.511053      7.047313      0.857307
  H      -2.623900      6.577526     -0.428146
  H      -0.886151      6.578224     -0.724560
  H      -2.765518      4.046297     -1.109665
  H      -1.053811      4.160409     -1.473193
  O      -1.585053      1.744477     -1.535560
  C      -1.886291      0.437568     -1.625570
  O      -1.807697     -0.093146     -2.705525
  C      -4.941830     -1.528919     -1.073676
  C      -5.400979     -1.037574      0.234108
  O      -5.560535     -2.023796      1.139115
  C      -5.971600     -1.606188      2.435971
  H      -6.039433     -2.512854      3.031820
  H      -5.243737     -0.920242      2.871136
  H      -6.939064     -1.106067      2.391164
  O      -5.587880      0.126466      0.508657
  C      -5.128539     -2.975931     -1.411589
  H      -4.846689     -3.636550     -0.593752
  H      -6.181812     -3.172835     -1.642098
  H      -4.549121     -3.237741     -2.298232
  C      -5.034572     -0.550347     -2.198265
  H      -4.806799      0.461290     -1.868298
  H      -6.054973     -0.543926     -2.598699
  H      -4.355802     -0.817984     -3.008018
  H      -2.579235     -2.066431     -1.483198
41
Coordinates from ORCA-job orca E -848.300185670690
  C      -2.780074     -1.554357     -0.550534
  H      -2.967395     -2.163953      0.325798
  C      -2.329731     -0.275587     -0.401214
  C      -2.345900      0.451895      0.908512
  H      -1.378963      0.321970      1.411224
  H      -3.103317      0.022529      1.565808
  C      -2.597598      1.932855      0.680110
  H      -2.528323      2.483332      1.619618
  H      -3.605565      2.081886      0.281591
  C      -1.570682      2.473441     -0.292394
  H      -0.568202      2.347932      0.138690
  C      -1.765784      3.929380     -0.676539
  C      -1.576324      4.907667      0.476999
  H      -2.332710      4.731753      1.247309
  H      -0.605754      4.727449      0.952340
  C      -1.655312      6.358748      0.020324
  H      -1.515426      7.047476      0.855021
  H      -2.626134      6.575209     -0.431422
  H      -0.888032      6.577834     -0.725720
  H      -2.764210      4.043739     -1.111099
  H      -1.052222      4.159187     -1.472749
  O      -1.581711      1.742815     -1.534100
  C      -1.885823      0.436615     -1.624601
  O      -1.805589     -0.094648     -2.704181
  C      -4.942663     -1.527253     -1.074105
  C      -5.401594     -1.036738      0.234058
  O      -5.561385     -2.023735      1.138266
  C      -5.970483     -1.606988      2.435989
  H      -6.036384     -2.513914      3.031674
  H      -5.242536     -0.920419      2.870029
  H      -6.938516     -1.107778      2.393199
  O      -5.587992      0.127135      0.509703
  C      -5.129799     -2.973985     -1.412984
  H      -4.846434     -3.635185     -0.596113
  H      -6.183467     -3.170985     -1.641612
  H      -4.551938     -3.235073     -2.300846
  C      -5.034367     -0.547738     -2.197957
  H      -4.808868      0.463839     -1.866310
  H      -6.053840     -0.542469     -2.600761
  H      -4.353191     -0.813468     -3.006382
  H      -2.580831     -2.067025     -1.482175
41
Coordinates from ORCA-job orca E -848.300175503723
  C      -2.787227     -1.558054     -0.543226
  H      -2.982857     -2.164947      0.333233
  C      -2.323424     -0.284337     -0.392674
  C      -2.332915      0.443225      0.916775
  H      -1.363718      0.313169      1.415200
  H      -3.087391      0.015165      1.578481
  C      -2.584133      1.924281      0.687335
  H      -2.515415      2.475616      1.626374
  H      -3.591950      2.072840      0.288484
  C      -1.556960      2.465531     -0.284505
  H      -0.555573      2.350121      0.151609
  C      -1.761858      3.917747     -0.678090
  C      -1.588870      4.904596      0.470641
  H      -2.347486      4.725457      1.238002
  H      -0.619117      4.737434      0.952401
  C      -1.680994      6.351863      0.004422
  H      -1.554861      7.047507      0.835539
  H      -2.651095      6.553924     -0.455520
  H      -0.911216      6.574980     -0.737829
  H      -2.758408      4.020278     -1.119905
  H      -1.045461      4.149325     -1.471226
  O      -1.554803      1.727889     -1.522315
  C      -1.869221      0.424395     -1.614185
  O      -1.794328     -0.105868     -2.694660
  C      -4.948405     -1.511850     -1.077154
  C      -5.404597     -1.027919      0.234153
  O      -5.568865     -2.020855      1.131323
  C      -5.963654     -1.610144      2.435182
  H      -6.018536     -2.519123      3.028857
  H      -5.233381     -0.921442      2.861919
  H      -6.934286     -1.114881      2.406339
  O      -5.584799      0.134674      0.518952
  C      -5.141822     -2.955483     -1.424837
  H      -4.847982     -3.622649     -0.616466
  H      -6.198687     -3.150874     -1.639552
  H      -4.576233     -3.210721     -2.322183
  C      -5.029820     -0.524840     -2.194867
  H      -4.816202      0.485503     -1.851552
  H      -6.042598     -0.523861     -2.614126
  H      -4.333906     -0.780114     -2.994023
  H      -2.592019     -2.074170     -1.473866
41
Coordinates from ORCA-job orca E -848.300188634507
  C      -2.782339     -1.555671     -0.549207
  H      -2.971895     -2.164842      0.326950
  C      -2.327469     -0.278603     -0.399130
  C      -2.341126      0.448534      0.910703
  H      -1.373201      0.318734      1.411578
  H      -3.097161      0.019227      1.569654
  C      -2.593090      1.929475      0.682341
  H      -2.524151      2.480019      1.621832
  H      -3.601070      2.078188      0.283715
  C      -1.566072      2.470735     -0.289698
  H      -0.563957      2.348712      0.143160
  C      -1.764721      3.925499     -0.676635
  C      -1.580656      4.906377      0.475555
  H      -2.337647      4.729090      1.244957
  H      -0.610228      4.730475      0.952802
  C      -1.664246      6.356334      0.016117
  H      -1.528778      7.047157      0.849808
  H      -2.634977      6.568065     -0.438065
  H      -0.896316      6.577016     -0.728787
  H      -2.762623      4.035951     -1.113419
  H      -1.050338      4.156178     -1.471854
  O      -1.572438      1.738067     -1.530308
  C      -1.880741      0.432978     -1.621799
  O      -1.801037     -0.097985     -2.701584
  C      -4.944251     -1.522413     -1.075119
  C      -5.402223     -1.033124      0.233785
  O      -5.563198     -2.021451      1.136418
  C      -5.968259     -1.605939      2.435760
  H      -6.030336     -2.513168      3.031402
  H      -5.240052     -0.918027      2.867217
  H      -6.937403     -1.108532      2.396784
  O      -5.586786      0.130529      0.511550
  C      -5.133929     -2.968360     -1.415887
  H      -4.845939     -3.631152     -0.601884
  H      -6.189014     -3.164886     -1.638233
  H      -4.561360     -3.227975     -2.307576
  C      -5.032865     -0.541229     -2.197699
  H      -4.812260      0.470365     -1.862806
  H      -6.049989     -0.538549     -2.606381
  H      -4.346274     -0.803501     -3.002694
  H      -2.584655     -2.068906     -1.480862
41
Coordinates from ORCA-job orca E -848.300187562848
  C      -2.781451     -1.555822     -0.550641
  H      -2.970429     -2.165571      0.325229
  C      -2.327149     -0.278624     -0.400210
  C      -2.340815      0.448042      0.909902
  H      -1.372793      0.318297      1.410592
  H      -3.096661      0.018241      1.568758
  C      -2.593290      1.929002      0.682159
  H      -2.524303      2.479226      1.621838
  H      -3.601401      2.077516      0.283822
  C      -1.566723      2.470892     -0.290005
  H      -0.564412      2.348640      0.142331
  C      -1.765535      3.925876     -0.676019
  C      -1.580639      4.906077      0.476634
  H      -2.337255      4.728495      1.246338
  H      -0.609983      4.729682      0.953227
  C      -1.664118      6.356341      0.018122
  H      -1.527903      7.046602      0.852158
  H      -2.635075      6.568679     -0.435296
  H      -0.896588      6.577262     -0.727124
  H      -2.763698      4.036707     -1.112102
  H      -1.051593      4.156939     -1.471517
  O      -1.573690      1.738882     -1.530991
  C      -1.881008      0.433580     -1.622759
  O      -1.801679     -0.096875     -2.702816
  C      -4.943909     -1.523295     -1.075206
  C      -5.401536     -1.032423      0.233230
  O      -5.562296     -2.019660      1.137071
  C      -5.968330     -1.602725      2.435659
  H      -6.031598     -2.509390      3.032029
  H      -5.240058     -0.914969      2.867256
  H      -6.937086     -1.104682      2.395277
  O      -5.586078      0.131564      0.509603
  C      -5.133837     -2.969638     -1.414206
  H      -4.845853     -3.631549     -0.599484
  H      -6.188995     -3.166148     -1.636239
  H      -4.561446     -3.230379     -2.305681
  C      -5.032891     -0.543499     -2.198973
  H      -4.811873      0.468490     -1.865556
  H      -6.050239     -0.541135     -2.607126
  H      -4.346850     -0.806974     -3.004034
  H      -2.584004     -2.068285     -1.482791
