44
Coordinates from ORCA-job orca E -887.608592227666
  O       3.440490     -2.396850     -2.189820
  C       3.793010     -1.852830     -1.178920
  C       3.230580     -2.282070      0.189750
  C       3.787030     -1.465880      1.378240
  H       3.041390     -1.432450      2.184890
  H       4.650290     -2.008300      1.798210
  C       4.265130     -0.072910      0.998210
  H       4.753740      0.401020      1.862450
  H       3.434290      0.586450      0.707380
  C       5.262610     -0.176340     -0.138810
  H       6.135700     -0.766010      0.200940
  C       5.749730      1.158200     -0.682810
  C       6.555750      1.985850      0.314760
  H       5.922690      2.258790      1.175380
  H       7.377100      1.370100      0.721950
  C       7.129340      3.255150     -0.305920
  H       7.699670      3.840530      0.430150
  H       6.328030      3.899940     -0.699330
  H       7.804080      3.018310     -1.143300
  H       4.874690      1.731300     -1.034490
  H       6.361720      0.948700     -1.574890
  C       3.670630     -3.752350      0.359670
  H       3.316970     -4.138530      1.328120
  H       4.767760     -3.840400      0.337970
  H       3.262640     -4.378890     -0.444670
  C       1.681680     -2.316350      0.098640
  H       1.324260     -2.880740      0.973250
  C       0.818080     -1.025670     -0.016740
  C       0.898140     -0.222340      1.276400
  O       0.619130     -0.963030      2.359380
  C       0.646810     -0.291800      3.606780
  H       0.392290     -1.040330      4.365000
  H       1.645080      0.126370      3.802690
  H      -0.083280      0.531070      3.624000
  O       1.164750      0.951550      1.360580
  C      -0.633370     -1.574310     -0.212070
  H      -0.855590     -2.231090      0.643670
  H      -0.581950     -2.218360     -1.101910
  C       1.266420     -0.146260     -1.185620
  H       2.316270      0.152220     -1.085050
  H       0.691180      0.783830     -1.243760
  H       1.153800     -0.687370     -2.133160
  H       1.448860     -2.920690     -0.790030
  O       4.700530     -0.871440     -1.259880
44
Coordinates from ORCA-job orca E -887.619809882124
  O       3.448634     -2.361288     -2.196970
  C       3.807308     -1.820977     -1.187110
  C       3.260605     -2.256772      0.183076
  C       3.827884     -1.446702      1.366422
  H       3.095767     -1.414778      2.175282
  H       4.687746     -1.991010      1.771583
  C       4.312699     -0.057739      0.988908
  H       4.808265      0.404799      1.845758
  H       3.492203      0.605955      0.708115
  C       5.301016     -0.167306     -0.151290
  H       6.164130     -0.764825      0.176602
  C       5.797354      1.162724     -0.690383
  C       6.616932      1.970221      0.308465
  H       5.996435      2.241989      1.168669
  H       7.428200      1.346034      0.702549
  C       7.200347      3.235026     -0.306551
  H       7.778258      3.803924      0.424677
  H       6.409913      3.887716     -0.686989
  H       7.862281      2.997668     -1.143799
  H       4.932420      1.744553     -1.029659
  H       6.398570      0.954988     -1.581324
  C       3.712987     -3.720756      0.341798
  H       3.376242     -4.109501      1.306395
  H       4.802688     -3.798304      0.307255
  H       3.303378     -4.343550     -0.453712
  C       1.710517     -2.318916      0.110599
  H       1.381939     -2.891747      0.981497
  C       0.803505     -1.053542      0.009391
  C       0.835553     -0.237828      1.296324
  O       0.558303     -0.980554      2.378556
  C       0.533825     -0.290852      3.619441
  H       0.292039     -1.035217      4.374802
  H       1.505313      0.161778      3.829809
  H      -0.219932      0.498151      3.610148
  O       1.052470      0.943617      1.370710
  C      -0.608206     -1.636970     -0.162315
  H      -0.915430     -2.256509      0.684243
  H      -0.683984     -2.198833     -1.097288
  C       1.166658     -0.167689     -1.178925
  H       2.189556      0.198224     -1.115061
  H       0.527199      0.713533     -1.227233
  H       1.067774     -0.727675     -2.109754
  H       1.485438     -2.925740     -0.769752
  O       4.723352     -0.849532     -1.275680
44
Coordinates from ORCA-job orca E -887.624743908248
  O       3.465013     -2.417141     -2.195420
  C       3.819950     -1.882621     -1.180923
  C       3.264017     -2.318639      0.182352
  C       3.801825     -1.496874      1.366350
  H       3.055710     -1.472326      2.159772
  H       4.663382     -2.018663      1.788042
  C       4.246505     -0.097874      0.984590
  H       4.712753      0.384841      1.842439
  H       3.409396      0.534944      0.685057
  C       5.254892     -0.186000     -0.136891
  H       6.125990     -0.756928      0.204293
  C       5.721192      1.153642     -0.675935
  C       6.503507      1.984149      0.332914
  H       5.865484      2.241468      1.180052
  H       7.323172      1.385031      0.738683
  C       7.061367      3.261093     -0.279255
  H       7.611999      3.845774      0.455530
  H       6.261829      3.889379     -0.671590
  H       7.739127      3.038364     -1.103208
  H       4.848609      1.709115     -1.028211
  H       6.340240      0.960740     -1.553786
  C       3.709580     -3.783174      0.352000
  H       3.361859     -4.163468      1.312098
  H       4.796070     -3.863933      0.329865
  H       3.307323     -4.406849     -0.441750
  C       1.720158     -2.352620      0.099937
  H       1.369920     -2.907670      0.969884
  C       0.889758     -1.041106     -0.001707
  C       0.966167     -0.223803      1.281342
  O       0.640110     -0.948117      2.362781
  C       0.669311     -0.251036      3.604031
  H       0.380293     -0.974248      4.358632
  H       1.668307      0.130334      3.807069
  H      -0.025836      0.584648      3.593039
  O       1.278747      0.933753      1.349613
  C      -0.533597     -1.504149     -0.168515
  H      -0.981604     -2.034423      0.665106
  H      -0.763459     -1.949389     -1.132451
  C       1.294980     -0.189468     -1.198485
  H       2.334929      0.125077     -1.145623
  H       0.693541      0.715393     -1.246863
  H       1.167570     -0.756015     -2.118516
  H       1.477314     -2.947050     -0.779722
  O       4.710746     -0.888369     -1.269340
44
Coordinates from ORCA-job orca E -887.627119473201
  O       3.449070     -2.377598     -2.190284
  C       3.812746     -1.822345     -1.188928
  C       3.296283     -2.256289      0.188720
  C       3.840998     -1.413411      1.355279
  H       3.094908     -1.361851      2.149979
  H       4.697218     -1.937923      1.787905
  C       4.313258     -0.030755      0.942438
  H       4.793731      0.459532      1.790198
  H       3.490061      0.613427      0.630691
  C       5.313543     -0.163083     -0.180860
  H       6.168131     -0.761405      0.157803
  C       5.819003      1.155114     -0.738993
  C       6.640959      1.966432      0.255993
  H       6.020418      2.253985      1.108085
  H       7.445372      1.342008      0.657741
  C       7.236460      3.218582     -0.374594
  H       7.817142      3.790322      0.349994
  H       6.453448      3.872325     -0.763137
  H       7.897162      2.963871     -1.205239
  H       4.961147      1.738227     -1.086485
  H       6.423672      0.934056     -1.621876
  C       3.789290     -3.705963      0.359594
  H       3.473083     -4.087424      1.331991
  H       4.878759     -3.754738      0.314160
  H       3.387158     -4.349026     -0.421122
  C       1.749545     -2.348664      0.138843
  H       1.438225     -2.924953      1.011672
  C       0.849571     -1.078659      0.060185
  C       0.828324     -0.297549      1.369985
  O       0.470581     -1.070780      2.406656
  C       0.358858     -0.398960      3.661464
  H       0.061062     -1.159862      4.377028
  H       1.314934      0.039175      3.946623
  H      -0.388685      0.390648      3.608282
  O       1.015371      0.883310      1.474399
  C      -0.532802     -1.576329     -0.151567
  H      -1.053769     -2.082055      0.648335
  H      -0.819483     -1.865573     -1.153588
  C       1.224980     -0.160121     -1.099703
  H       2.232351      0.244619     -1.006896
  H       0.538936      0.684276     -1.142319
  H       1.181685     -0.714525     -2.035863
  H       1.511864     -2.946588     -0.741033
  O       4.733582     -0.857690     -1.304274
44
Coordinates from ORCA-job orca E -887.627807928751
  O       3.403259     -2.281368     -2.214505
  C       3.792087     -1.775549     -1.196148
  C       3.280380     -2.250469      0.169943
  C       3.813522     -1.429707      1.361674
  H       3.060776     -1.395019      2.152598
  H       4.666419     -1.965088      1.791221
  C       4.298069     -0.039419      0.988380
  H       4.782109      0.423814      1.851204
  H       3.480075      0.619727      0.695809
  C       5.296155     -0.146817     -0.141075
  H       6.146197     -0.765725      0.176646
  C       5.815020      1.183103     -0.659209
  C       6.654044      1.952184      0.356129
  H       6.041859      2.219878      1.222715
  H       7.454754      1.304368      0.731602
  C       7.261041      3.217563     -0.237504
  H       7.855871      3.758078      0.501821
  H       6.482243      3.894828     -0.597682
  H       7.912535      2.981861     -1.083002
  H       4.961089      1.788752     -0.981905
  H       6.412221      0.983398     -1.554015
  C       3.803634     -3.693161      0.306454
  H       3.495664     -4.103683      1.271415
  H       4.895447     -3.718795      0.259210
  H       3.412849     -4.326672     -0.489969
  C       1.733377     -2.382041      0.120251
  H       1.441259     -2.937500      1.014821
  C       0.784027     -1.147345      0.003803
  C       0.809929     -0.268972      1.255020
  O       0.605897     -0.982433      2.373014
  C       0.609200     -0.232457      3.588378
  H       0.424873     -0.954981      4.380076
  H       1.574316      0.255348      3.733621
  H      -0.173099      0.526837      3.570452
  O       1.017472      0.914008      1.267620
  C      -0.602617     -1.694527     -0.089586
  H      -1.085109     -2.127383      0.776643
  H      -0.982087     -1.981349     -1.062364
  C       1.048306     -0.297200     -1.241124
  H       2.028462      0.175721     -1.233620
  H       0.304333      0.495772     -1.311910
  H       0.996992     -0.926719     -2.129884
  H       1.506153     -3.021697     -0.734760
  O       4.709144     -0.803377     -1.284979
44
Coordinates from ORCA-job orca E -887.628691580173
  O       3.410215     -2.315868     -2.213247
  C       3.803348     -1.810374     -1.196771
  C       3.289449     -2.278792      0.171296
  C       3.817383     -1.448768      1.359894
  H       3.063089     -1.414799      2.147689
  H       4.674459     -1.972479      1.795085
  C       4.281529     -0.054561      0.977133
  H       4.755759      0.423573      1.836980
  H       3.452103      0.588831      0.676218
  C       5.283838     -0.156251     -0.149371
  H       6.139919     -0.763945      0.174439
  C       5.789000      1.175755     -0.674874
  C       6.620697      1.960263      0.334237
  H       6.006853      2.225914      1.200173
  H       7.429075      1.323755      0.712180
  C       7.212008      3.229053     -0.267149
  H       7.801933      3.780142      0.467683
  H       6.425098      3.895387     -0.629240
  H       7.864143      2.996475     -1.112668
  H       4.928694      1.770495     -1.000531
  H       6.387162      0.976717     -1.568964
  C       3.805776     -3.723795      0.315708
  H       3.490538     -4.129862      1.279813
  H       4.897419     -3.754635      0.275191
  H       3.417413     -4.358062     -0.480916
  C       1.743724     -2.389837      0.119473
  H       1.439353     -2.945626      1.009679
  C       0.827808     -1.131798      0.014710
  C       0.883051     -0.276500      1.282207
  O       0.591555     -0.987191      2.382525
  C       0.565945     -0.249290      3.603713
  H       0.309204     -0.968809      4.377297
  H       1.543080      0.193296      3.802685
  H      -0.179394      0.544516      3.554353
  O       1.106158      0.904005      1.313971
  C      -0.585479     -1.640773     -0.099879
  H      -1.087063     -2.073999      0.757479
  H      -0.979914     -1.861614     -1.085507
  C       1.142160     -0.261494     -1.205119
  H       2.129635      0.193224     -1.157347
  H       0.415516      0.546413     -1.283138
  H       1.105057     -0.872045     -2.107725
  H       1.503172     -3.014079     -0.743066
  O       4.707685     -0.826781     -1.289018
44
Coordinates from ORCA-job orca E -887.628496721501
  O       3.464451     -2.395361     -2.189662
  C       3.810544     -1.832649     -1.186697
  C       3.284779     -2.269413      0.187833
  C       3.791207     -1.402938      1.359046
  H       3.022727     -1.345188      2.130471
  H       4.641402     -1.908440      1.826517
  C       4.253109     -0.019902      0.935668
  H       4.704514      0.493685      1.786448
  H       3.424934      0.604417      0.591273
  C       5.280530     -0.157355     -0.163392
  H       6.127160     -0.755855      0.198856
  C       5.799968      1.155641     -0.720228
  C       6.615325      1.969070      0.278498
  H       5.987410      2.261576      1.124718
  H       7.415161      1.343407      0.689453
  C       7.219027      3.218004     -0.350492
  H       7.797310      3.789712      0.376692
  H       6.440209      3.874044     -0.745322
  H       7.884203      2.959429     -1.177218
  H       4.948368      1.742103     -1.080096
  H       6.413345      0.926848     -1.595955
  C       3.803545     -3.708710      0.374747
  H       3.473606     -4.093802      1.341739
  H       4.895116     -3.736384      0.353721
  H       3.431516     -4.362220     -0.413197
  C       1.742230     -2.376642      0.120924
  H       1.423311     -2.944074      0.998258
  C       0.844811     -1.107427      0.031170
  C       0.859338     -0.311113      1.337312
  O       0.524797     -1.067697      2.393835
  C       0.494911     -0.394440      3.650662
  H       0.202643     -1.144586      4.380344
  H       1.479124      0.008922      3.890839
  H      -0.226175      0.421709      3.628918
  O       1.140016      0.853185      1.438888
  C      -0.567803     -1.592523     -0.164714
  H      -1.107966     -2.058083      0.649398
  H      -0.944173     -1.707069     -1.173853
  C       1.230635     -0.184560     -1.126246
  H       2.213526      0.264817     -0.994321
  H       0.510766      0.628194     -1.212130
  H       1.247231     -0.752056     -2.056581
  H       1.505286     -2.979040     -0.757040
  O       4.726177     -0.861446     -1.291800
44
Coordinates from ORCA-job orca E -887.629037652686
  O       3.419999     -2.332710     -2.207060
  C       3.795203     -1.805570     -1.195146
  C       3.288655     -2.272453      0.176649
  C       3.810702     -1.431701      1.360008
  H       3.053368     -1.391123      2.143951
  H       4.666261     -1.949341      1.803932
  C       4.271889     -0.040308      0.963960
  H       4.739256      0.449988      1.819957
  H       3.441237      0.595353      0.650180
  C       5.279834     -0.152908     -0.155810
  H       6.131160     -0.761763      0.176849
  C       5.792941      1.172801     -0.687904
  C       6.628175      1.957787      0.317267
  H       6.016263      2.228973      1.182214
  H       7.433711      1.319722      0.697034
  C       7.223770      3.221755     -0.289246
  H       7.816862      3.772640      0.442380
  H       6.439598      3.889964     -0.652213
  H       7.873219      2.983808     -1.134659
  H       4.936760      1.770573     -1.017303
  H       6.390244      0.965270     -1.580022
  C       3.816421     -3.712362      0.326643
  H       3.501555     -4.118711      1.290139
  H       4.907874     -3.734209      0.290009
  H       3.436151     -4.351450     -0.469368
  C       1.745274     -2.390795      0.127173
  H       1.440664     -2.946910      1.016761
  C       0.831051     -1.134335      0.021870
  C       0.869799     -0.291573      1.297569
  O       0.555805     -1.010365      2.386165
  C       0.531470     -0.288495      3.616081
  H       0.255701     -1.012793      4.377858
  H       1.513520      0.134970      3.829466
  H      -0.199309      0.518264      3.570554
  O       1.120509      0.882643      1.347816
  C      -0.574447     -1.640751     -0.112909
  H      -1.083848     -2.083559      0.731360
  H      -0.989839     -1.772600     -1.103070
  C       1.163584     -0.253453     -1.183217
  H       2.144670      0.211941     -1.105025
  H       0.430175      0.546840     -1.274087
  H       1.152623     -0.856508     -2.091194
  H       1.504714     -3.012772     -0.736131
  O       4.704927     -0.827981     -1.292201
44
Coordinates from ORCA-job orca E -887.629058962561
  O       3.418813     -2.331477     -2.204328
  C       3.809118     -1.815118     -1.192590
  C       3.291161     -2.268534      0.179862
  C       3.807717     -1.419901      1.360292
  H       3.045764     -1.372358      2.139879
  H       4.659672     -1.935831      1.813121
  C       4.273212     -0.031788      0.957120
  H       4.737141      0.464029      1.811909
  H       3.444549      0.602307      0.635657
  C       5.285178     -0.152166     -0.158287
  H       6.134586     -0.760185      0.181030
  C       5.802020      1.170050     -0.695533
  C       6.636720      1.958170      0.307610
  H       6.023981      2.233064      1.170914
  H       7.441267      1.320767      0.690827
  C       7.234068      3.219377     -0.302896
  H       7.827089      3.772438      0.427314
  H       6.450815      3.887113     -0.669014
  H       7.884089      2.977836     -1.146989
  H       4.947676      1.768047     -1.029599
  H       6.400770      0.956966     -1.585493
  C       3.816213     -3.707579      0.343869
  H       3.493941     -4.106576      1.308109
  H       4.907966     -3.730803      0.315263
  H       3.440712     -4.352074     -0.450149
  C       1.747567     -2.387015      0.123488
  H       1.440104     -2.947832      1.009236
  C       0.828354     -1.132452      0.021925
  C       0.858984     -0.299234      1.304167
  O       0.547211     -1.028481      2.386370
  C       0.517625     -0.317493      3.622156
  H       0.245001     -1.049631      4.377668
  H       1.497040      0.109791      3.840575
  H      -0.217509      0.485862      3.583068
  O       1.103203      0.875935      1.364574
  C      -0.574276     -1.644962     -0.120821
  H      -1.078991     -2.107961      0.715491
  H      -1.003884     -1.729836     -1.110054
  C       1.160926     -0.240430     -1.174595
  H       2.137379      0.232469     -1.085781
  H       0.422189      0.555374     -1.264214
  H       1.158792     -0.835757     -2.087661
  H       1.510794     -3.005435     -0.743608
  O       4.713405     -0.832898     -1.292600
44
Coordinates from ORCA-job orca E -887.629137006103
  O       3.427049     -2.334216     -2.206102
  C       3.804559     -1.808264     -1.194514
  C       3.289210     -2.266505      0.177631
  C       3.801495     -1.416736      1.359163
  H       3.037394     -1.369194      2.136737
  H       4.652471     -1.931621      1.814997
  C       4.266826     -0.028728      0.955986
  H       4.727123      0.468989      1.811592
  H       3.438256      0.603674      0.630686
  C       5.282570     -0.150549     -0.155906
  H       6.129473     -0.760361      0.186585
  C       5.804113      1.170812     -0.690670
  C       6.638966      1.955518      0.314930
  H       6.025866      2.229196      1.178382
  H       7.442203      1.316066      0.697482
  C       7.238536      3.217294     -0.292068
  H       7.832030      3.767658      0.439798
  H       6.456523      3.887195     -0.656909
  H       7.888596      2.976998     -1.136499
  H       4.952120      1.771601     -1.025793
  H       6.403979      0.956922     -1.579704
  C       3.821007     -3.703421      0.339539
  H       3.499975     -4.105929      1.302747
  H       4.912900     -3.721433      0.311774
  H       3.449012     -4.348360     -0.455851
  C       1.746590     -2.391128      0.121534
  H       1.441267     -2.951263      1.008422
  C       0.823230     -1.139362      0.018527
  C       0.862210     -0.299974      1.296577
  O       0.557230     -1.023994      2.384244
  C       0.534299     -0.307636      3.616640
  H       0.267192     -1.036376      4.377404
  H       1.514350      0.122108      3.827467
  H      -0.201926      0.494848      3.578827
  O       1.103252      0.876260      1.349619
  C      -0.579296     -1.657287     -0.111734
  H      -1.070439     -2.131007      0.726747
  H      -1.034629     -1.704799     -1.091833
  C       1.147534     -0.252786     -1.183774
  H       2.123074      0.223004     -1.100643
  H       0.407013      0.541474     -1.274157
  H       1.141136     -0.851657     -2.094415
  H       1.511277     -3.011936     -0.744244
  O       4.712533     -0.829305     -1.291942
44
Coordinates from ORCA-job orca E -887.629157183545
  O       3.414181     -2.328455     -2.203265
  C       3.794930     -1.802855     -1.192792
  C       3.290734     -2.267818      0.181398
  C       3.810557     -1.421546      1.362219
  H       3.052586     -1.377371      2.145375
  H       4.665010     -1.937288      1.810429
  C       4.271605     -0.031866      0.960248
  H       4.736350      0.464227      1.814272
  H       3.439979      0.600085      0.641705
  C       5.280419     -0.149793     -0.158369
  H       6.129171     -0.760921      0.176996
  C       5.799048      1.173417     -0.691444
  C       6.642783      1.952776      0.310796
  H       6.037766      2.220904      1.181589
  H       7.449817      1.311592      0.682107
  C       7.235871      3.218429     -0.294329
  H       7.836222      3.764603      0.434964
  H       6.450152      3.890178     -0.647429
  H       7.877699      2.983705     -1.146502
  H       4.945126      1.776549     -1.017106
  H       6.391428      0.962776     -1.586193
  C       3.825694     -3.704741      0.333648
  H       3.511757     -4.112075      1.297090
  H       4.917339     -3.720996      0.298577
  H       3.449270     -4.346865     -0.461882
  C       1.748266     -2.393345      0.132268
  H       1.444697     -2.948017      1.023074
  C       0.825524     -1.141751      0.020731
  C       0.855766     -0.298669      1.296720
  O       0.542838     -1.019434      2.384460
  C       0.516383     -0.301060      3.615180
  H       0.244500     -1.027523      4.376374
  H       1.496334      0.127119      3.829692
  H      -0.217599      0.503214      3.573463
  O       1.102570      0.876362      1.348868
  C      -0.576439     -1.659891     -0.116898
  H      -1.064439     -2.150173      0.713830
  H      -1.045942     -1.665653     -1.091145
  C       1.162025     -0.259585     -1.180600
  H       2.139729      0.210739     -1.090863
  H       0.427476      0.539549     -1.277572
  H       1.157291     -0.859226     -2.090679
  H       1.511172     -3.019677     -0.728925
  O       4.702503     -0.823839     -1.292800
44
Coordinates from ORCA-job orca E -887.629182310301
  O       3.424843     -2.335955     -2.203023
  C       3.801338     -1.807598     -1.192407
  C       3.290401     -2.267934      0.180946
  C       3.805697     -1.418768      1.361571
  H       3.044460     -1.372506      2.141584
  H       4.658217     -1.933606      1.814528
  C       4.268399     -0.030064      0.958087
  H       4.729749      0.468129      1.812738
  H       3.437931      0.601035      0.634904
  C       5.281424     -0.150488     -0.156563
  H       6.129162     -0.760233      0.183826
  C       5.801564      1.171610     -0.691076
  C       6.641525      1.953677      0.312222
  H       6.033744      2.222617      1.180845
  H       7.448215      1.314050      0.686973
  C       7.234928      3.218925     -0.293414
  H       7.832641      3.767039      0.436603
  H       6.449462      3.889197     -0.649884
  H       7.879409      2.983462     -1.143388
  H       4.948665      1.773718     -1.021301
  H       6.397202      0.958925     -1.583187
  C       3.823881     -3.704704      0.339493
  H       3.505646     -4.109219      1.302737
  H       4.915648     -3.721603      0.309105
  H       3.450469     -4.348875     -0.455774
  C       1.747954     -2.393066      0.126962
  H       1.442460     -2.950074      1.015673
  C       0.824687     -1.141316      0.017703
  C       0.857897     -0.299521      1.294603
  O       0.550969     -1.022386      2.382713
  C       0.527077     -0.305527      3.614218
  H       0.261037     -1.033720      4.375858
  H       1.506287      0.126096      3.825283
  H      -0.209943      0.496215      3.576770
  O       1.100375      0.876377      1.346801
  C      -0.577371     -1.659732     -0.115552
  H      -1.056978     -2.163763      0.711816
  H      -1.062022     -1.640693     -1.082045
  C       1.156275     -0.257778     -1.183629
  H       2.134691      0.211443     -1.097773
  H       0.422604      0.542841     -1.275607
  H       1.146408     -0.855557     -2.094806
  H       1.512863     -3.017074     -0.736434
  O       4.708261     -0.827806     -1.291420
44
Coordinates from ORCA-job orca E -887.629194040950
  O       3.432385     -2.343052     -2.201782
  C       3.806177     -1.813113     -1.191026
  C       3.290669     -2.270435      0.181681
  C       3.803512     -1.419745      1.362151
  H       3.040653     -1.373048      2.140722
  H       4.655378     -1.933870      1.817216
  C       4.266241     -0.031110      0.958288
  H       4.725646      0.468074      1.813402
  H       3.436022      0.599239      0.633093
  C       5.281304     -0.151689     -0.154585
  H       6.129280     -0.759699      0.188326
  C       5.800626      1.170436     -0.689977
  C       6.638659      1.954562      0.313329
  H       6.030310      2.222082      1.181997
  H       7.446907      1.316892      0.688059
  C       7.229095      3.221162     -0.292376
  H       7.825713      3.770638      0.437520
  H       6.442040      3.889643     -0.648712
  H       7.873964      2.987173     -1.142465
  H       4.947499      1.771297     -1.021900
  H       6.397541      0.957382     -1.581153
  C       3.822050     -3.707481      0.344450
  H       3.500807     -4.109838      1.307627
  H       4.913867     -3.725593      0.317003
  H       3.450047     -4.352787     -0.450518
  C       1.748245     -2.394181      0.123989
  H       1.440458     -2.951451      1.011746
  C       0.826616     -1.141548      0.014052
  C       0.861039     -0.299240      1.291087
  O       0.560308     -1.023176      2.380288
  C       0.537081     -0.306087      3.611487
  H       0.278772     -1.035509      4.374634
  H       1.514367      0.131856      3.818517
  H      -0.205025      0.491138      3.577173
  O       1.097443      0.877911      1.341858
  C      -0.576732     -1.656622     -0.116017
  H      -1.045301     -2.184928      0.702552
  H      -1.086760     -1.588996     -1.067060
  C       1.157571     -0.258687     -1.187444
  H       2.138042      0.206656     -1.104801
  H       0.427509      0.545650     -1.276098
  H       1.142575     -0.855515     -2.099129
  H       1.514356     -3.017270     -0.740385
  O       4.711194     -0.831331     -1.289537
44
Coordinates from ORCA-job orca E -887.629207557814
  O       3.438772     -2.350504     -2.200343
  C       3.810235     -1.819056     -1.189551
  C       3.292029     -2.274562      0.182689
  C       3.805541     -1.424380      1.363075
  H       3.043506     -1.379175      2.142470
  H       4.658483     -1.938148      1.816555
  C       4.266628     -0.034977      0.959939
  H       4.725959      0.463901      1.815303
  H       3.435886      0.595086      0.635421
  C       5.281617     -0.153743     -0.153186
  H       6.131019     -0.759726      0.189804
  C       5.797854      1.169413     -0.689029
  C       6.634315      1.955748      0.313861
  H       6.026041      2.221010      1.183294
  H       7.445018      1.320496      0.687413
  C       7.220227      3.224443     -0.291910
  H       7.816103      3.775349      0.437537
  H       6.430701      3.890714     -0.646969
  H       7.864776      2.992763     -1.142895
  H       4.943309      1.768280     -1.020983
  H       6.395132      0.957471     -1.580218
  C       3.819958     -3.712614      0.347285
  H       3.497207     -4.113172      1.310710
  H       4.911760     -3.733268      0.320473
  H       3.446975     -4.357889     -0.447242
  C       1.749309     -2.395153      0.122895
  H       1.439382     -2.951662      1.010383
  C       0.830681     -1.141248      0.011312
  C       0.863722     -0.297415      1.288237
  O       0.567861     -1.021739      2.378566
  C       0.542190     -0.303157      3.608847
  H       0.291605     -1.033527      4.373689
  H       1.516521      0.142790      3.812740
  H      -0.206322      0.488136      3.575438
  O       1.094098      0.880976      1.337213
  C      -0.574835     -1.650680     -0.117121
  H      -1.033697     -2.204833      0.689989
  H      -1.109009     -1.533326     -1.049889
  C       1.162878     -0.259109     -1.190189
  H       2.144972      0.203280     -1.109542
  H       0.435624      0.547904     -1.277236
  H       1.145571     -0.855857     -2.101905
  H       1.515434     -3.017976     -0.741690
  O       4.713113     -0.835078     -1.287962
44
Coordinates from ORCA-job orca E -887.629213989687
  O       3.440891     -2.354208     -2.199436
  C       3.811307     -1.822118     -1.188608
  C       3.292782     -2.277633      0.183436
  C       3.808051     -1.428802      1.363904
  H       3.047536     -1.385722      2.144921
  H       4.662627     -1.942437      1.814463
  C       4.267360     -0.038434      0.961889
  H       4.727648      0.459497      1.817297
  H       3.436074      0.591811      0.639167
  C       5.281257     -0.155033     -0.152410
  H       6.132042     -0.759788      0.189276
  C       5.794709      1.169236     -0.688180
  C       6.630573      1.956679      0.314347
  H       6.022556      2.220623      1.184340
  H       7.442710      1.322718      0.686960
  C       7.213895      3.226606     -0.291400
  H       7.809572      3.778129      0.437731
  H       6.422957      3.891729     -0.645435
  H       7.858016      2.996258     -1.143058
  H       4.938812      1.766682     -1.019210
  H       6.391668      0.958747     -1.579921
  C       3.817914     -3.716701      0.347697
  H       3.495033     -4.116535      1.311375
  H       4.909636     -3.739605      0.320072
  H       3.443151     -4.361199     -0.446622
  C       1.749881     -2.395543      0.123341
  H       1.438815     -2.950824      1.011224
  C       0.834288     -1.140866      0.009941
  C       0.865674     -0.295353      1.286425
  O       0.573579     -1.019599      2.377783
  C       0.544974     -0.299298      3.607116
  H       0.300265     -1.030243      4.373306
  H       1.516652      0.153323      3.808756
  H      -0.208926      0.486831      3.573353
  O       1.090921      0.884104      1.333675
  C      -0.572934     -1.646035     -0.117864
  H      -1.025903     -2.217473      0.680627
  H      -1.120305     -1.499361     -1.038737
  C       1.168607     -0.259939     -1.191965
  H       2.151217      0.201557     -1.111453
  H       0.442182      0.547608     -1.280121
  H       1.152084     -0.857870     -2.102960
  H       1.515355     -3.018818     -0.740764
  O       4.712950     -0.836911     -1.286998
44
Coordinates from ORCA-job orca E -887.629248530727
  O       3.449734     -2.366221     -2.197138
  C       3.815712     -1.831417     -1.186171
  C       3.295214     -2.286592      0.185112
  C       3.814498     -1.441077      1.365867
  H       3.058011     -1.404201      2.150959
  H       4.673734     -1.953669      1.808746
  C       4.268220     -0.047976      0.966754
  H       4.729934      0.448241      1.822435
  H       3.435296      0.581955      0.647719
  C       5.280251     -0.158751     -0.149736
  H       6.134651     -0.759670      0.189581
  C       5.786173      1.168437     -0.685293
  C       6.619499      1.959382      0.316563
  H       6.011394      2.220165      1.187427
  H       7.435184      1.329105      0.687694
  C       7.196233      3.232341     -0.289261
  H       7.790789      3.785885      0.439230
  H       6.401747      3.894188     -0.641450
  H       7.839849      3.005226     -1.142154
  H       4.926722      1.761725     -1.014672
  H       6.382915      0.961649     -1.578021
  C       3.812752     -3.728281      0.349217
  H       3.488528     -4.126118      1.313279
  H       4.904298     -3.757282      0.320567
  H       3.434046     -4.370762     -0.444837
  C       1.751790     -2.397045      0.123333
  H       1.437336     -2.949355      1.011931
  C       0.844239     -1.140240      0.005159
  C       0.871468     -0.289528      1.280099
  O       0.590522     -1.013045      2.374764
  C       0.554362     -0.287699      3.601236
  H       0.326854     -1.019810      4.371601
  H       1.518383      0.183843      3.795673
  H      -0.214648      0.483631      3.566920
  O       1.081800      0.892907      1.321922
  C      -0.567716     -1.633843     -0.119101
  H      -0.998948     -2.261913      0.648614
  H      -1.158205     -1.390500     -0.991425
  C       1.183078     -0.262768     -1.198060
  H       2.166814      0.196719     -1.118027
  H       0.458489      0.545972     -1.288954
  H       1.167519     -0.863660     -2.107185
  H       1.515868     -3.021456     -0.739623
  O       4.713760     -0.842705     -1.284016
44
Coordinates from ORCA-job orca E -887.629288764669
  O       3.457036     -2.374863     -2.195147
  C       3.819609     -1.837648     -1.184273
  C       3.296796     -2.291495      0.186551
  C       3.817483     -1.446921      1.367151
  H       3.062833     -1.413311      2.154157
  H       4.679227     -1.958474      1.806395
  C       4.268102     -0.052434      0.969004
  H       4.729850      0.443647      1.824762
  H       3.434381      0.576911      0.650893
  C       5.279921     -0.160659     -0.147984
  H       6.136130     -0.759064      0.191209
  C       5.782056      1.167758     -0.684149
  C       6.613895      1.961173      0.316995
  H       6.005663      2.220862      1.188082
  H       7.431363      1.333074      0.687870
  C       7.187328      3.235284     -0.289585
  H       7.781339      3.790243      0.438258
  H       6.391083      3.895292     -0.641229
  H       7.830682      3.009297     -1.142969
  H       4.920890      1.758669     -1.013295
  H       6.378869      0.962303     -1.577138
  C       3.809842     -3.734501      0.352224
  H       3.484261     -4.130303      1.316670
  H       4.901263     -3.767040      0.323697
  H       3.429322     -4.376581     -0.441268
  C       1.753231     -2.397816      0.122507
  H       1.436277     -2.948838      1.011055
  C       0.850151     -1.140256      0.001393
  C       0.873506     -0.287113      1.276076
  O       0.600309     -1.011203      2.372284
  C       0.558304     -0.283646      3.597347
  H       0.342508     -1.017045      4.369850
  H       1.516603      0.200918      3.787735
  H      -0.221031      0.477275      3.563324
  O       1.072595      0.897377      1.315263
  C      -0.564318     -1.627495     -0.121071
  H      -0.975787     -2.304385      0.615603
  H      -1.189799     -1.304123     -0.941481
  C       1.191913     -0.264014     -1.201808
  H       2.176232      0.194283     -1.121149
  H       0.468653      0.545720     -1.294002
  H       1.176910     -0.865743     -2.110414
  H       1.517314     -3.022610     -0.740200
  O       4.715354     -0.846713     -1.281912
44
Coordinates from ORCA-job orca E -887.629324886784
  O       3.461193     -2.379178     -2.194241
  C       3.821882     -1.840648     -1.183414
  C       3.297539     -2.293598      0.187177
  C       3.818265     -1.448986      1.367671
  H       3.064170     -1.416688      2.155233
  H       4.681009     -1.959827      1.805807
  C       4.267410     -0.053960      0.969674
  H       4.728547      0.442644      1.825472
  H       3.433277      0.574693      0.651214
  C       5.279699     -0.161405     -0.147028
  H       6.136471     -0.758611      0.192835
  C       5.780587      1.167368     -0.683486
  C       6.611444      1.961829      0.317632
  H       6.002759      2.221257      1.188488
  H       7.429355      1.334562      0.688922
  C       7.183974      3.236242     -0.289182
  H       7.777463      3.791823      0.438606
  H       6.387281      3.895551     -0.641114
  H       7.827640      3.010526     -1.142407
  H       4.918938      1.757355     -1.013025
  H       6.377818      0.962227     -1.576278
  C       3.809062     -3.736945      0.354120
  H       3.482658     -4.131726      1.318713
  H       4.900450     -3.770658      0.326108
  H       3.428264     -4.379255     -0.439062
  C       1.754014     -2.398441      0.121728
  H       1.435899     -2.948781      1.010331
  C       0.852445     -1.140969     -0.001143
  C       0.873904     -0.286153      1.273093
  O       0.605120     -1.010298      2.370366
  C       0.561070     -0.281580      3.594655
  H       0.350770     -1.015342      4.368327
  H       1.516830      0.208785      3.782863
  H      -0.222778      0.474731      3.561116
  O       1.066848      0.899426      1.310526
  C      -0.562841     -1.625987     -0.122085
  H      -0.960233     -2.334602      0.592250
  H      -1.210549     -1.251485     -0.902567
  C       1.194788     -0.265465     -1.204682
  H       2.179068      0.192897     -1.123599
  H       0.471781      0.544420     -1.297740
  H       1.179917     -0.867606     -2.112975
  H       1.518425     -3.023705     -0.740749
  O       4.716516     -0.848647     -1.280870
44
Coordinates from ORCA-job orca E -887.629356854779
  O       3.467712     -2.386425     -2.193258
  C       3.825316     -1.846090     -1.182332
  C       3.298926     -2.298356      0.187726
  C       3.820314     -1.454539      1.368363
  H       3.067496     -1.425027      2.157204
  H       4.685006     -1.964357      1.803880
  C       4.266513     -0.058263      0.971360
  H       4.727068      0.438519      1.827373
  H       3.431500      0.569409      0.653266
  C       5.279003     -0.163246     -0.145393
  H       6.137164     -0.758378      0.194607
  C       5.776823      1.166739     -0.681681
  C       6.605906      1.962843      0.319593
  H       5.996795      2.220438      1.190691
  H       7.425463      1.337444      0.690403
  C       7.175220      3.238923     -0.286750
  H       7.767826      3.795409      0.441062
  H       6.376844      3.896611     -0.637894
  H       7.818960      3.015114     -1.140409
  H       4.913848      1.754858     -1.011110
  H       6.374525      0.963110     -1.574494
  C       3.807431     -3.742573      0.355683
  H       3.479768     -4.136164      1.320343
  H       4.898746     -3.778593      0.328188
  H       3.425764     -4.384522     -0.437359
  C       1.755374     -2.400080      0.120492
  H       1.435243     -2.948598      1.009549
  C       0.857438     -1.142142     -0.005696
  C       0.876721     -0.283552      1.267201
  O       0.614579     -1.006672      2.366760
  C       0.566982     -0.274918      3.589145
  H       0.365742     -1.008537      4.365368
  H       1.518485      0.225124      3.773274
  H      -0.224302      0.473624      3.555553
  O       1.060414      0.903624      1.300833
  C      -0.560175     -1.620906     -0.123163
  H      -0.938979     -2.371786      0.557436
  H      -1.239354     -1.173235     -0.835236
  C       1.201257     -0.268840     -1.210418
  H       2.185877      0.188992     -1.129596
  H       0.479112      0.541606     -1.305088
  H       1.186417     -0.872523     -2.117652
  H       1.519591     -3.026309     -0.741263
  O       4.717791     -0.851968     -1.279283
44
Coordinates from ORCA-job orca E -887.629381655754
  O       3.466440     -2.381537     -2.195155
  C       3.825338     -1.842118     -1.184185
  C       3.298660     -2.294283      0.186175
  C       3.814646     -1.446533      1.366733
  H       3.057998     -1.413121      2.151721
  H       4.676301     -1.955385      1.809324
  C       4.262654     -0.051862      0.966693
  H       4.718633      0.449277      1.822561
  H       3.427817      0.573001      0.642453
  C       5.279158     -0.161006     -0.146241
  H       6.134293     -0.757955      0.198381
  C       5.782926      1.166904     -0.682206
  C       6.611704      1.960733      0.321156
  H       6.000628      2.220562      1.190280
  H       7.427903      1.332796      0.695064
  C       7.186642      3.234749     -0.283967
  H       7.778360      3.789960      0.445586
  H       6.391397      3.894674     -0.638095
  H       7.832640      3.008913     -1.135397
  H       4.923042      1.757867     -1.014535
  H       6.382532      0.960516     -1.573120
  C       3.815161     -3.735555      0.355675
  H       3.487220     -4.131077      1.319468
  H       4.906748     -3.765092      0.331278
  H       3.439136     -4.380033     -0.438022
  C       1.755899     -2.402530      0.119404
  H       1.438298     -2.951380      1.009220
  C       0.850971     -1.147910     -0.006516
  C       0.872919     -0.287883      1.264650
  O       0.606215     -1.008897      2.364700
  C       0.566150     -0.277691      3.587302
  H       0.351603     -1.008764      4.362377
  H       1.524440      0.207907      3.775427
  H      -0.213330      0.483156      3.553090
  O       1.061796      0.898549      1.297505
  C      -0.563168     -1.634713     -0.120983
  H      -0.928832     -2.399864      0.550428
  H      -1.256090     -1.148640     -0.794161
  C       1.188058     -0.274313     -1.213348
  H       2.169444      0.189798     -1.130773
  H       0.461196      0.532015     -1.309589
  H       1.173606     -0.877515     -2.120606
  H       1.521505     -3.030303     -0.741627
  O       4.719491     -0.849627     -1.280845
44
Coordinates from ORCA-job orca E -887.629409881262
  O       3.471122     -2.385259     -2.194404
  C       3.828335     -1.844660     -1.183480
  C       3.298980     -2.295129      0.186418
  C       3.812744     -1.445845      1.366958
  H       3.054566     -1.411511      2.150393
  H       4.673577     -1.953982      1.811978
  C       4.261055     -0.051566      0.965976
  H       4.714768      0.451353      1.822001
  H       3.426419      0.572076      0.638998
  C       5.279660     -0.161630     -0.145058
  H       6.134506     -0.757454      0.202155
  C       5.783518      1.165826     -0.682011
  C       6.609944      1.961650      0.321761
  H       5.996803      2.222837      1.189042
  H       7.425438      1.334603      0.698722
  C       7.185691      3.234826     -0.284357
  H       7.775345      3.791685      0.445634
  H       6.390966      3.893717     -0.641597
  H       7.833883      3.007852     -1.133838
  H       4.923876      1.755820     -1.016743
  H       6.384824      0.958527     -1.571563
  C       3.815936     -3.735944      0.358298
  H       3.486033     -4.130963      1.321677
  H       4.907604     -3.764823      0.336459
  H       3.442050     -4.381334     -0.435658
  C       1.756572     -2.403624      0.117772
  H       1.438345     -2.952101      1.007673
  C       0.851579     -1.149976     -0.009327
  C       0.872022     -0.288492      1.261343
  O       0.608246     -1.009590      2.362170
  C       0.569321     -0.278018      3.584516
  H       0.353111     -1.008490      4.359709
  H       1.528634      0.205576      3.772936
  H      -0.208444      0.484585      3.550206
  O       1.056441      0.898652      1.293242
  C      -0.563142     -1.635591     -0.124653
  H      -0.913609     -2.438072      0.510599
  H      -1.276118     -1.089522     -0.727853
  C       1.188349     -0.276081     -1.216433
  H       2.169206      0.188730     -1.132437
  H       0.461037      0.529912     -1.313110
  H       1.173352     -0.878657     -2.123944
  H       1.523010     -3.031885     -0.743145
  O       4.722594     -0.852241     -1.279746
44
Coordinates from ORCA-job orca E -887.629319326416
  O       3.483824     -2.395380     -2.191884
  C       3.836496     -1.851437     -1.181189
  C       3.299119     -2.296417      0.187230
  C       3.807093     -1.443019      1.367640
  H       3.044470     -1.405388      2.146507
  H       4.665124     -1.949754      1.819648
  C       4.257699     -0.050245      0.964086
  H       4.705955      0.456771      1.820575
  H       3.424418      0.571157      0.629975
  C       5.281824     -0.163449     -0.141816
  H       6.135944     -0.756015      0.212407
  C       5.785676      1.162398     -0.682512
  C       6.605210      1.965060      0.321609
  H       5.985950      2.231543      1.182954
  H       7.418355      1.340892      0.708417
  C       7.183966      3.234772     -0.288969
  H       7.767469      3.797293      0.441678
  H       6.391118      3.890296     -0.656509
  H       7.838783      3.003077     -1.132146
  H       4.926558      1.749056     -1.024599
  H       6.391841      0.951952     -1.568006
  C       3.815821     -3.736426      0.366258
  H       3.480052     -4.129364      1.328614
  H       4.907662     -3.764577      0.351521
  H       3.447266     -4.384191     -0.428224
  C       1.757613     -2.404698      0.112678
  H       1.437170     -2.953288      1.001922
  C       0.853532     -1.153026     -0.015965
  C       0.868931     -0.290214      1.255075
  O       0.611524     -1.013405      2.356369
  C       0.574382     -0.282527      3.579083
  H       0.351770     -1.012241      4.353209
  H       1.536763      0.194235      3.770301
  H      -0.197819      0.485679      3.544152
  O       1.042427      0.898487      1.287060
  C      -0.563423     -1.634230     -0.137765
  H      -0.879254     -2.525795      0.388608
  H      -1.313550     -0.965396     -0.540985
  C       1.191474     -0.276298     -1.221843
  H       2.171860      0.188187     -1.133419
  H       0.464332      0.530211     -1.317889
  H       1.174327     -0.875578     -2.131142
  H       1.526498     -3.032888     -0.748988
  O       4.731902     -0.860030     -1.276446
44
Coordinates from ORCA-job orca E -887.629202070883
  O       3.485646     -2.396030     -2.182997
  C       3.839563     -1.849502     -1.174034
  C       3.295682     -2.284513      0.193170
  C       3.798012     -1.424004      1.371572
  H       3.027264     -1.373662      2.141782
  H       4.647468     -1.932767      1.837133
  C       4.264226     -0.037677      0.962523
  H       4.714047      0.468200      1.819029
  H       3.438856      0.590406      0.623758
  C       5.290844     -0.162134     -0.139545
  H       6.143666     -0.752676      0.219773
  C       5.795782      1.157489     -0.693245
  C       6.608167      1.976162      0.304098
  H       5.980524      2.262854      1.152684
  H       7.414328      1.356320      0.712383
  C       7.199548      3.230914     -0.325911
  H       7.774871      3.807176      0.400522
  H       6.413730      3.880567     -0.718140
  H       7.865023      2.979201     -1.155106
  H       4.937099      1.737564     -1.048205
  H       6.407024      0.936675     -1.572683
  C       3.809391     -3.724381      0.382570
  H       3.468832     -4.111754      1.345850
  H       4.901418     -3.753731      0.372621
  H       3.443547     -4.375593     -0.410293
  C       1.754748     -2.396444      0.111688
  H       1.434962     -2.957445      0.993441
  C       0.849139     -1.145818      0.000201
  C       0.857908     -0.306148      1.285965
  O       0.597074     -1.047821      2.374153
  C       0.559264     -0.333470      3.607366
  H       0.317155     -1.070106      4.369002
  H       1.529429      0.121869      3.812884
  H      -0.197938      0.449381      3.574436
  O       1.038522      0.880049      1.342071
  C      -0.571307     -1.629231     -0.159473
  H      -0.937008     -2.507110      0.361405
  H      -1.267631     -1.015021     -0.718628
  C       1.196254     -0.250420     -1.190127
  H       2.183189      0.198217     -1.099705
  H       0.477291      0.565398     -1.267002
  H       1.169415     -0.834649     -2.109242
  H       1.528886     -3.013346     -0.759193
  O       4.744238     -0.867197     -1.271272
44
Coordinates from ORCA-job orca E -887.629425113232
  O       3.469792     -2.383220     -2.194380
  C       3.828251     -1.843635     -1.183290
  C       3.298625     -2.293815      0.186386
  C       3.812112     -1.444328      1.366902
  H       3.052808     -1.408184      2.149075
  H       4.671579     -1.953237      1.813637
  C       4.262683     -0.050932      0.965770
  H       4.716975      0.451116      1.822020
  H       3.429083      0.574201      0.638694
  C       5.281601     -0.161998     -0.144653
  H       6.136496     -0.757378      0.203020
  C       5.785187      1.165186     -0.682391
  C       6.607925      1.963753      0.322333
  H       5.990877      2.228759      1.185678
  H       7.420962      1.337285      0.705543
  C       7.187813      3.234205     -0.285660
  H       7.773513      3.793684      0.445495
  H       6.395426      3.891958     -0.650086
  H       7.840746      3.003569     -1.130496
  H       4.925525      1.753430     -1.020173
  H       6.388940      0.957326     -1.570157
  C       3.815998     -3.734619      0.358207
  H       3.486249     -4.129904      1.321524
  H       4.907673     -3.763180      0.336275
  H       3.442239     -4.379913     -0.435874
  C       1.756188     -2.403105      0.118329
  H       1.439332     -2.952750      1.008013
  C       0.850403     -1.150486     -0.007097
  C       0.870973     -0.288885      1.262917
  O       0.609322     -1.010535      2.364035
  C       0.570926     -0.278786      3.586534
  H       0.348451     -1.008147      4.360974
  H       1.532889      0.198603      3.777493
  H      -0.201850      0.488627      3.549934
  O       1.054359      0.898341      1.294819
  C      -0.564850     -1.636469     -0.124946
  H      -0.915039     -2.456787      0.487038
  H      -1.277042     -1.080732     -0.720721
  C       1.184985     -0.276410     -1.215247
  H       2.167186      0.186190     -1.134641
  H       0.458605      0.530760     -1.308825
  H       1.165976     -0.879045     -2.122588
  H       1.523024     -3.031025     -0.742877
  O       4.725233     -0.853701     -1.279267
44
Coordinates from ORCA-job orca E -887.629424959064
  O       3.472581     -2.386173     -2.193725
  C       3.830071     -1.845698     -1.182812
  C       3.299255     -2.294855      0.186835
  C       3.811477     -1.444181      1.367168
  H       3.051594     -1.407799      2.148806
  H       4.670890     -1.952195      1.815026
  C       4.261260     -0.050784      0.965000
  H       4.713939      0.453018      1.821046
  H       3.427323      0.572806      0.636138
  C       5.281376     -0.162278     -0.144474
  H       6.136158     -0.756899      0.204813
  C       5.784988      1.164590     -0.683079
  C       6.607436      1.963914      0.321247
  H       5.990225      2.229344      1.184339
  H       7.420471      1.337789      0.705018
  C       7.187146      3.234074     -0.287456
  H       7.772742      3.794053      0.443411
  H       6.394704      3.891560     -0.652283
  H       7.840151      3.003092     -1.132157
  H       4.925431      1.752581     -1.021543
  H       6.388970      0.956107     -1.570543
  C       3.817094     -3.735227      0.360164
  H       3.486229     -4.130121      1.323285
  H       4.908812     -3.763245      0.339779
  H       3.444683     -4.381227     -0.433987
  C       1.757172     -2.403934      0.117438
  H       1.439270     -2.952909      1.007219
  C       0.852217     -1.151455     -0.009369
  C       0.870801     -0.289708      1.261139
  O       0.607813     -1.011693      2.361737
  C       0.567626     -0.280386      3.584258
  H       0.342662     -1.009766      4.357967
  H       1.529617      0.196033      3.777711
  H      -0.204278      0.487909      3.546477
  O       1.052180      0.897851      1.293428
  C      -0.563094     -1.635376     -0.127742
  H      -0.901027     -2.480198      0.457463
  H      -1.290138     -1.039651     -0.663889
  C       1.188493     -0.276169     -1.216287
  H       2.169667      0.187859     -1.131943
  H       0.461485      0.530315     -1.311446
  H       1.171911     -0.877723     -2.124325
  H       1.524251     -3.032161     -0.743689
  O       4.726517     -0.855294     -1.278883
44
Coordinates from ORCA-job orca E -887.629430878071
  O       3.470918     -2.384572     -2.193183
  C       3.829083     -1.844295     -1.182400
  C       3.298821     -2.293364      0.187362
  C       3.811194     -1.442521      1.367553
  H       3.051191     -1.405504      2.149077
  H       4.670295     -1.950817      1.815676
  C       4.261952     -0.049464      0.965127
  H       4.715349      0.453878      1.821084
  H       3.428503      0.574865      0.636590
  C       5.281677     -0.161652     -0.144591
  H       6.136310     -0.756656      0.204322
  C       5.785694      1.164766     -0.683851
  C       6.609073      1.964164      0.319661
  H       5.992377      2.230714      1.182759
  H       7.421781      1.337677      0.703569
  C       7.189653      3.233404     -0.290193
  H       7.775927      3.793452      0.440074
  H       6.397632      3.891238     -0.655297
  H       7.842214      3.001207     -1.134918
  H       4.926217      1.752987     -1.022166
  H       6.389112      0.955633     -1.571542
  C       3.816664     -3.733745      0.360644
  H       3.486150     -4.128509      1.323955
  H       4.908383     -3.761787      0.339814
  H       3.443942     -4.379769     -0.433345
  C       1.756763     -2.403034      0.118036
  H       1.439154     -2.952828      1.007414
  C       0.851440     -1.150736     -0.007613
  C       0.869488     -0.290902      1.264184
  O       0.605972     -1.014285      2.363706
  C       0.565130     -0.284185      3.586981
  H       0.339752     -1.014305      4.359873
  H       1.527155      0.191869      3.781254
  H      -0.206650      0.484228      3.549349
  O       1.052096      0.896385      1.298443
  C      -0.563794     -1.635755     -0.128452
  H      -0.907937     -2.472370      0.465091
  H      -1.283226     -1.057644     -0.693258
  C       1.188481     -0.274074     -1.213236
  H       2.169887      0.189384     -1.128645
  H       0.461684      0.532692     -1.307344
  H       1.172308     -0.874823     -2.121878
  H       1.524131     -3.030592     -0.743632
  O       4.726201     -0.854565     -1.278777
44
Coordinates from ORCA-job orca E -887.629433551568
  O       3.469949     -2.383736     -2.193076
  C       3.828542     -1.843603     -1.182365
  C       3.298801     -2.292765      0.187565
  C       3.811237     -1.441713      1.367600
  H       3.051288     -1.404470      2.149164
  H       4.670324     -1.949985      1.815775
  C       4.262170     -0.048774      0.964923
  H       4.715830      0.454549      1.820761
  H       3.428808      0.575712      0.636441
  C       5.281740     -0.161337     -0.144865
  H       6.136251     -0.756589      0.203947
  C       5.786086      1.164864     -0.684316
  C       6.610126      1.963972      0.318870
  H       5.993869      2.230812      1.182200
  H       7.422719      1.337153      0.702472
  C       7.191059      3.232922     -0.291258
  H       7.777919      3.792708      0.438739
  H       6.399216      3.891134     -0.656057
  H       7.843147      3.000366     -1.136252
  H       4.926718      1.753385     -1.022394
  H       6.389136      0.955438     -1.572184
  C       3.817052     -3.733021      0.360820
  H       3.486867     -4.127769      1.324247
  H       4.908776     -3.760802      0.339724
  H       3.444296     -4.379183     -0.433044
  C       1.756770     -2.402881      0.118436
  H       1.439338     -2.952804      1.007803
  C       0.851296     -1.150777     -0.006996
  C       0.868868     -0.291490      1.265301
  O       0.604727     -1.015285      2.364396
  C       0.562725     -0.285465      3.587817
  H       0.336836     -1.015778      4.360376
  H       1.524508      0.190704      3.782992
  H      -0.209150      0.482816      3.549612
  O       1.051806      0.895725      1.300184
  C      -0.563851     -1.635913     -0.128499
  H      -0.908269     -2.473293      0.463789
  H      -1.282508     -1.060548     -0.697056
  C       1.188543     -0.273450     -1.212058
  H       2.169927      0.190088     -1.127239
  H       0.461667      0.533264     -1.305831
  H       1.172823     -0.873854     -2.120952
  H       1.524234     -3.030385     -0.743285
  O       4.725936     -0.854155     -1.278945
44
Coordinates from ORCA-job orca E -887.629438880277
  O       3.467534     -2.382169     -2.192809
  C       3.827162     -1.842449     -1.182239
  C       3.298835     -2.291948      0.188167
  C       3.811720     -1.440599      1.367814
  H       3.052289     -1.403096      2.149862
  H       4.671035     -1.948842      1.815585
  C       4.262673     -0.047786      0.964616
  H       4.717158      0.455358      1.820134
  H       3.429325      0.577046      0.636620
  C       5.281707     -0.160947     -0.145504
  H       6.136112     -0.756609      0.202944
  C       5.786458      1.164924     -0.685352
  C       6.612245      1.963256      0.316932
  H       5.997444      2.229976      1.181340
  H       7.425151      1.335873      0.698935
  C       7.192921      3.232160     -0.293513
  H       7.781565      3.791132      0.435667
  H       6.400901      3.891151     -0.656489
  H       7.843230      2.999542     -1.139853
  H       4.927141      1.754082     -1.022478
  H       6.388409      0.955068     -1.573852
  C       3.818082     -3.731910      0.361285
  H       3.489199     -4.126335      1.325249
  H       4.909802     -3.759170      0.338962
  H       3.444693     -4.378530     -0.431925
  C       1.756872     -2.402755      0.119653
  H       1.439637     -2.952416      1.009248
  C       0.851790     -1.150849     -0.005769
  C       0.868327     -0.292371      1.267534
  O       0.602062     -1.016780      2.365662
  C       0.556615     -0.287242      3.589168
  H       0.328927     -1.017737      4.361022
  H       1.517709      0.189189      3.786957
  H      -0.215391      0.480766      3.548757
  O       1.052222      0.894669      1.303517
  C      -0.563474     -1.634835     -0.128312
  H      -0.905834     -2.480924      0.452607
  H      -1.283198     -1.060082     -0.696020
  C       1.189874     -0.272095     -1.209589
  H       2.171210      0.191661     -1.124227
  H       0.462865      0.534467     -1.302875
  H       1.175679     -0.871941     -2.118916
  H       1.524293     -3.030502     -0.741922
  O       4.725170     -0.853612     -1.279312
44
Coordinates from ORCA-job orca E -887.629438798348
  O       3.466482     -2.381604     -2.192717
  C       3.826593     -1.842130     -1.182193
  C       3.298986     -2.292004      0.188367
  C       3.812225     -1.440716      1.367917
  H       3.053118     -1.403320      2.150301
  H       4.671710     -1.948981      1.815287
  C       4.263076     -0.047847      0.964752
  H       4.718034      0.455008      1.820180
  H       3.429658      0.577200      0.637312
  C       5.281704     -0.160898     -0.145749
  H       6.136165     -0.756732      0.202292
  C       5.786442      1.165063     -0.685482
  C       6.613167      1.962831      0.316475
  H       5.999324      2.228813      1.181791
  H       7.426607      1.335297      0.697049
  C       7.193002      3.232244     -0.293707
  H       7.782591      3.790668      0.435108
  H       6.400498      3.891501     -0.655142
  H       7.842206      3.000276     -1.141065
  H       4.927063      1.754546     -1.021806
  H       6.387748      0.955353     -1.574465
  C       3.818550     -3.731904      0.361090
  H       3.490090     -4.126497      1.325130
  H       4.910238     -3.758978      0.338356
  H       3.445027     -4.378499     -0.432087
  C       1.757040     -2.402962      0.120180
  H       1.439842     -2.952393      1.009921
  C       0.852243     -1.151094     -0.005432
  C       0.868695     -0.292380      1.267700
  O       0.600972     -1.016405      2.365689
  C       0.554087     -0.286576      3.588991
  H       0.325704     -1.016931      4.360759
  H       1.514826      0.190150      3.787728
  H      -0.218077      0.481218      3.547485
  O       1.053162      0.894586      1.303461
  C      -0.563066     -1.634143     -0.127417
  H      -0.903176     -2.486074      0.446071
  H      -1.284933     -1.056005     -0.688735
  C       1.190261     -0.272458     -1.209467
  H       2.171566      0.191548     -1.124366
  H       0.463142      0.533925     -1.302992
  H       1.176505     -0.872649     -2.118599
  H       1.524411     -3.030930     -0.741234
  O       4.724642     -0.853327     -1.279453
44
Coordinates from ORCA-job orca E -887.629442894874
  O       3.466798     -2.382160     -2.192668
  C       3.826754     -1.842668     -1.182098
  C       3.299074     -2.292620      0.188431
  C       3.812609     -1.441660      1.368056
  H       3.053667     -1.404468      2.150614
  H       4.672170     -1.950089      1.815110
  C       4.263367     -0.048659      0.965211
  H       4.718591      0.453851      1.820687
  H       3.429878      0.576560      0.638284
  C       5.281709     -0.161273     -0.145624
  H       6.136416     -0.756965      0.202059
  C       5.785932      1.164936     -0.685230
  C       6.612711      1.962764      0.316623
  H       5.999222      2.227922      1.182427
  H       7.426814      1.335608      0.696393
  C       7.191311      3.232858     -0.293309
  H       7.780964      3.791360      0.435400
  H       6.398119      3.891719     -0.653956
  H       7.840174      3.001736     -1.141149
  H       4.926302      1.754247     -1.021175
  H       6.387041      0.955575     -1.574428
  C       3.818161     -3.732697      0.360981
  H       3.489608     -4.127291      1.324974
  H       4.909841     -3.760143      0.338209
  H       3.444423     -4.379100     -0.432252
  C       1.757072     -2.403027      0.120246
  H       1.439617     -2.952264      1.010028
  C       0.852769     -1.150857     -0.005618
  C       0.869414     -0.291775      1.267129
  O       0.601540     -1.015444      2.365296
  C       0.554628     -0.285399      3.588465
  H       0.326961     -1.015757      4.360432
  H       1.515090      0.192031      3.786779
  H      -0.218094      0.481844      3.547090
  O       1.053852      0.895227      1.302465
  C      -0.562725     -1.633112     -0.127287
  H      -0.902332     -2.486720      0.443930
  H      -1.285402     -1.052555     -0.685003
  C       1.191132     -0.272717     -1.209997
  H       2.172477      0.191239     -1.124863
  H       0.464120      0.533683     -1.304111
  H       1.177590     -0.873311     -2.118862
  H       1.524291     -3.031064     -0.741097
  O       4.724495     -0.853574     -1.279313
44
Coordinates from ORCA-job orca E -887.629441237080
  O       3.467361     -2.382928     -2.192620
  C       3.827009     -1.843282     -1.182024
  C       3.299139     -2.293235      0.188433
  C       3.813016     -1.442667      1.368156
  H       3.054280     -1.405759      2.150934
  H       4.672724     -1.951223      1.814807
  C       4.263551     -0.049506      0.965644
  H       4.718974      0.452713      1.821193
  H       3.429939      0.575812      0.639171
  C       5.281662     -0.161646     -0.145461
  H       6.136604     -0.757182      0.201913
  C       5.785392      1.164856     -0.684867
  C       6.612082      1.962787      0.316974
  H       5.998799      2.227205      1.183144
  H       7.426765      1.336009      0.696128
  C       7.189615      3.233492     -0.292693
  H       7.779285      3.792052      0.435957
  H       6.395829      3.892001     -0.652679
  H       7.838207      3.003107     -1.140933
  H       4.925514      1.753978     -1.020518
  H       6.386409      0.955903     -1.574231
  C       3.817623     -3.733529      0.360839
  H       3.488992     -4.128085      1.324818
  H       4.909291     -3.761444      0.337955
  H       3.443555     -4.379714     -0.432412
  C       1.757057     -2.403025      0.120186
  H       1.439355     -2.952115      1.009963
  C       0.853185     -1.150577     -0.005865
  C       0.870052     -0.291121      1.266505
  O       0.602293     -1.014437      2.364918
  C       0.555812     -0.284133      3.587935
  H       0.329349     -1.014503      4.360248
  H       1.516026      0.194168      3.785326
  H      -0.217615      0.482440      3.547037
  O       1.054407      0.895918      1.301425
  C      -0.562494     -1.632261     -0.127222
  H      -0.902270     -2.485933      0.443790
  H      -1.285323     -1.050542     -0.683512
  C       1.191785     -0.273033     -1.210656
  H       2.173137      0.190917     -1.125529
  H       0.464830      0.533339     -1.305391
  H       1.178414     -0.874116     -2.119204
  H       1.524147     -3.031059     -0.741133
  O       4.724386     -0.853851     -1.279168
