44

O          3.44049       -2.39685       -2.18982
C          3.79301       -1.85283       -1.17892
C          3.23058       -2.28207        0.18975
C          3.78703       -1.46588        1.37824
H          3.04139       -1.43245        2.18489
H          4.65029       -2.00830        1.79821
C          4.26513       -0.07291        0.99821
H          4.75374        0.40102        1.86245
H          3.43429        0.58645        0.70738
C          5.26261       -0.17634       -0.13881
H          6.13570       -0.76601        0.20094
C          5.74973        1.15820       -0.68281
C          6.55575        1.98585        0.31476
H          5.92269        2.25879        1.17538
H          7.37710        1.37010        0.72195
C          7.12934        3.25515       -0.30592
H          7.69967        3.84053        0.43015
H          6.32803        3.89994       -0.69933
H          7.80408        3.01831       -1.14330
H          4.87469        1.73130       -1.03449
H          6.36172        0.94870       -1.57489
C          3.67063       -3.75235        0.35967
H          3.31697       -4.13853        1.32812
H          4.76776       -3.84040        0.33797
H          3.26264       -4.37889       -0.44467
C          1.68168       -2.31635        0.09864
H          1.32426       -2.88074        0.97325
C          0.81808       -1.02567       -0.01674
C          0.89814       -0.22234        1.27640
O          0.61913       -0.96303        2.35938
C          0.64681       -0.29180        3.60678
H          0.39229       -1.04033        4.36500
H          1.64508        0.12637        3.80269
H         -0.08328        0.53107        3.62400
O          1.16475        0.95155        1.36058
C         -0.63337       -1.57431       -0.21207
H         -0.85559       -2.23109        0.64367
H         -0.58195       -2.21836       -1.10191
C          1.26642       -0.14626       -1.18562
H          2.31627        0.15222       -1.08505
H          0.69118        0.78383       -1.24376
H          1.15380       -0.68737       -2.13316
H          1.44886       -2.92069       -0.79003
O          4.70053       -0.87144       -1.25988
