64
Coordinates from ORCA-job orca E -1423.257878799750
  C           1.75048890688373      0.69255277635816     -0.79440604625338
  H           1.68038112068433      1.47008913769911     -0.03304649877013
  H           2.69930462174510      0.79650519778085     -1.31976226106612
  C           1.62207822782145     -0.68346023414413     -0.14698218208936
  C           2.71612449139190     -0.92372280616016      0.92918919773617
  H           2.59856049472972     -1.94594340329446      1.29709605295953
  H           2.48062549782006     -0.26485921440492      1.76694564837982
  C           4.21398257430445     -0.73465945289840      0.60503822469675
  C           1.72377097733616     -1.74624879034928     -1.24135117504375
  O           1.87702997473824     -1.52663737886698     -2.41259970721347
  O           1.62169388951116     -2.98997056205520     -0.74931981482978
  C           4.57889220875038      0.72901322826156      0.37231079336487
  O           5.28741133201080      1.13531902989251     -0.50898231567971
  O           4.06339956592566      1.53507504840427      1.31362316750000
  C           4.68688542621415     -1.55889478543964     -0.59025119033836
  H           5.77079873122775     -1.50047418023484     -0.68612096760064
  H           4.40965413379421     -2.60565320041368     -0.44807957270159
  H           4.26319410410341     -1.20652691903954     -1.52904148342406
  C           5.00181778901408     -1.17050244209319      1.85527489907843
  H           4.85797167847022     -2.23935826727121      2.02432322647141
  H           6.07030925273194     -0.99040509484458      1.72140560569149
  H           4.66922641199816     -0.63238875857095      2.74351045907517
  C           1.70908149079115     -4.03852860754912     -1.71056378775781
  H           1.60768718273790     -4.96452223852497     -1.15062423942150
  H           0.91191744178573     -3.94722637406578     -2.44856489674997
  H           2.66985644056227     -4.00569368222251     -2.22483614845579
  C           4.37855190332729      2.91767527407717      1.17893424372656
  H           4.00636672613388      3.30259003530464      0.22893456275455
  H           3.88651385457984      3.41643816089300      2.01015446557417
  H           5.45621846601639      3.07335044497374      1.22466539685445
  H           0.97493815233212      0.85721212792286     -1.54154081206406
  C           0.28543809521721     -0.84989512878291      0.62577871476283
  C          -1.07417107806510     -0.56109458256926     -0.05791149508467
  H           0.34527369677025     -0.20808732750850      1.50635436480975
  H           0.23803578218333     -1.87696593571496      0.99328828945111
  C          -2.15220742853402     -0.89070015577869      0.93120666278576
  C          -1.25965540228532      0.93469601527718     -0.35499800907982
  C          -1.30157760427528     -1.35258042822148     -1.34452729792992
  C          -5.05880775329320      1.66454242535072     -0.30996862870625
  H          -3.08198770707348     -1.32509520134624      0.58810723145633
  H          -2.05923223924103     -0.57563094217464      1.96257812397812
  O          -1.67640348634632      1.38690739628059     -1.38722400743010
  O          -0.94543253615330      1.69830136454716      0.70016107288593
  H          -0.63312457798366     -1.03799658727009     -2.14383010450735
  H          -1.15017523873865     -2.41612175496393     -1.15121315735493
  H          -2.32325780386566     -1.21105405007558     -1.69595150317866
  C          -4.96680162235716      1.46189185108799     -1.78946440212795
  C          -5.33558774071571      0.42859707461920      0.48216532256386
  C          -1.10929572326908      3.10114201734194      0.51425957172169
  H          -4.79862190833458      2.41104698313119     -2.29587031624409
  H          -4.13968126932891      0.79409070114557     -2.03221621553925
  H          -5.87992192979171      1.00464911255011     -2.17343081300481
  O          -5.52396795143946     -0.65146209156237     -0.01898320728087
  O          -5.35755338402130      0.62852137249681      1.80583309039578
  H          -2.14922012219896      3.33532114116094      0.28749173115033
  H          -0.80893406359329      3.56113244671579      1.45222108894850
  H          -0.47868424820005      3.45266797511834     -0.30307326831149
  C          -5.64573822350264     -0.52071662400336      2.59623098049733
  H          -5.65130942473932     -0.17738248486182      3.62745795371172
  H          -6.61622156145118     -0.93746369043438      2.32702812817803
  H          -4.88204068415386     -1.28623089412101      2.45588079111779
  C          -4.92254307264476      2.84074305849284      0.29196057590779
  H          -4.99905549605023      2.94070554539022      1.36607822175486
  H          -4.73708936199709      3.73788732955833     -0.28734233470141
