64
Coordinates from ORCA-job orca E -1421.310018117083
  C           1.70234410921115      0.75296222096747     -0.75386999885404
  H           1.71685795106637      1.58115579521788     -0.03249505228086
  H           2.62334856331197      0.78504761636755     -1.35001789276785
  C           1.56194347273054     -0.58341810621975     -0.01678630670168
  C           2.72935422009248     -0.82632909217693      0.98853028924501
  H           2.58065766259238     -1.82176946866016      1.43443408237534
  H           2.60338530138013     -0.09679112715759      1.80183555687767
  C           4.20771734209830     -0.75256623375516      0.52676174368189
  C           1.52232998614381     -1.70861937325035     -1.05285880137737
  O           1.58521381184877     -1.56378976073448     -2.24949598047376
  O           1.40687579580172     -2.92182835825936     -0.47594011150178
  C           4.61644466506550      0.67008652680393      0.13833499863902
  O           5.23995915438376      0.97572178699029     -0.84853331977124
  O           4.24375738626984      1.57289350968444      1.06973545276763
  C           4.53358457070691     -1.69737476178400     -0.63714390156249
  H           5.61553069625001     -1.70406502542920     -0.83299995725821
  H           4.21775405146337     -2.72155413475862     -0.38729959313022
  H           4.04044924351482     -1.39495436456112     -1.56921089854047
  C           5.08076726052246     -1.13318139824609      1.74780085385019
  H           4.88459208963819     -2.17813885565665      2.03631896044972
  H           6.15179718288403     -1.04271708343437      1.50669439693113
  H           4.86488616670513     -0.48753402748211      2.61165857543414
  C           1.35953841591798     -4.03637611588704     -1.36476060405156
  H           1.26598026044127     -4.92876148361943     -0.73306414366824
  H           0.49785447715230     -3.95590396214388     -2.04484979779572
  H           2.27687038135726     -4.08981080726954     -1.97084814375312
  C           4.59603236501988      2.92867352536907      0.80531924886314
  H           4.10041813588073      3.28617404952326     -0.11090987574445
  H           4.25634209019772      3.50939132939867      1.67237626950128
  H           5.68357560628549      3.03435753753098      0.67424168715606
  H           0.87949054908593      0.90839846594607     -1.46204474394734
  C           0.27966032771868     -0.63691737525085      0.87267152595109
  C          -1.14003315555961     -0.37104329734451      0.26772745313387
  H           0.42495271548015      0.09078252757800      1.68412096792863
  H           0.24004829103654     -1.63097113326828      1.34204247006720
  C          -2.12167464228476     -0.55580709702205      1.39477473201136
  C          -1.27110315612469      1.08421272261492     -0.19985644851729
  C          -1.50006465139403     -1.30790295471356     -0.89437058369573
  C          -4.87518221395057      1.61656827085033     -0.30602971215147
  H          -2.67069130626549     -1.49563405277486      1.47858541250104
  H          -2.17691983425618      0.16859248253670      2.20921763182554
  O          -1.63842247665551      1.43857848460372     -1.29331864961425
  O          -0.94106062424004      1.95448432915581      0.77339659893161
  H          -0.88958915646139     -1.11231356687615     -1.78390917925850
  H          -1.35121923893443     -2.35346873580607     -0.58511732425375
  H          -2.55421494934977     -1.17526776995547     -1.17509932128812
  C          -4.73586354077687      1.87887174980081     -1.77769414794101
  C          -5.12112369784918      0.18584684631787      0.05739262827633
  C          -1.03488121623705      3.33713552678421      0.43793635213393
  H          -4.59652705680454      2.95150207711954     -1.97371905865087
  H          -3.86842795626261      1.33595196860538     -2.18044202078198
  H          -5.62630430028033      1.52531200572925     -2.32243985709516
  O          -5.08306233750147     -0.72591194108045     -0.73930130812162
  O          -5.41404710006045      0.00096901115332      1.36017811616236
  H          -2.05901446305633      3.59278271309509      0.13005294053862
  H          -0.75713807716990      3.89182830975831      1.34321058211725
  H          -0.34825176779375      3.58360081191950     -0.38676886890766
  C          -5.71931065109375     -1.33397182372237      1.74874605440765
  H          -5.93640924451020     -1.29933812979703      2.82395537901923
  H          -6.59238215505171     -1.71226484719651      1.19446864160865
  H          -4.87128405951743     -2.00733862787193      1.55297916260592
  C          -4.78913698011758      2.55920895812505      0.64569507689675
  H          -4.89362778621965      2.31035119251325      1.70292166282481
  H          -4.61816650347611      3.60670254110523      0.38049009874358
