41
Coordinates from ORCA-job orca E -847.147427143175
  C          -2.50423423098780     -1.91932568037761      0.31072788936670
  H          -2.69300763513461     -2.36248647390745      1.29160873092000
  C          -2.12782546868386     -0.64014898996313      0.18907531045362
  C          -1.93177932867667      0.29998947492691      1.35122983184265
  H          -0.86021383907551      0.31493655333389      1.62875873810722
  H          -2.48339707972305     -0.06622635758862      2.23010226629804
  C          -2.37001638750704      1.71239465502435      0.97236964827731
  H          -2.15382648167554      2.41505564213843      1.79197814464870
  H          -3.45802891624247      1.72986620084378      0.79872811984619
  C          -1.62716047460062      2.16549141776287     -0.27432843338956
  H          -0.54384149703828      2.21860082965633     -0.05057241504196
  C          -2.08421495073970      3.50415187059743     -0.84178753445176
  C          -1.80652550082281      4.70306133486338      0.06745587759408
  H          -2.35990534913882      4.59316415508425      1.01629843867232
  H          -0.73485712087298      4.71462275667047      0.34000718296782
  C          -2.18341961494313      6.03440483414309     -0.58295715348507
  H          -1.98058874869298      6.88396287422841      0.08844518176602
  H          -3.25510682017339      6.06113534350408     -0.84210910644487
  H          -1.61543964428057      6.19942827755340     -1.51383676307974
  H          -3.16340468835417      3.43589150013593     -1.06624110351103
  H          -1.57454593246932      3.64508154882250     -1.81001134709066
  O          -1.77242760851210      1.21616848890999     -1.35942122314961
  C          -1.94458750532800     -0.11076041610438     -1.20464698053256
  O          -2.00039221012425     -0.80608397569065     -2.19286090637656
  C          -5.15512132930584     -0.80254146606994     -1.21123485515314
  C          -5.37090299772728     -0.71182032517118      0.22301466385734
  O          -5.55777641863411     -1.91941014329841      0.81719931531773
  C          -5.75056395534133     -1.89691927145527      2.22374267110727
  H          -5.86226505042741     -2.94325413998381      2.53678533193305
  H          -4.89013752287974     -1.43659582865564      2.73571550439981
  H          -6.65103667235440     -1.32235542600927      2.49326111544653
  O          -5.37524565982619      0.32767679725471      0.86843546151919
  C          -5.09356914405179     -2.09942756022651     -1.94176807347371
  H          -5.20027918603166     -2.96456004207077     -1.27700968408622
  H          -5.88737950271748     -2.14743224344872     -2.71174411953376
  H          -4.13287779522619     -2.16825749778610     -2.48392573924857
  C          -5.07652101635688      0.46325742306077     -1.99534609798911
  H          -5.00557360495700      1.34167721167528     -1.34176279042956
  H          -5.98221591454828      0.57725211648235     -2.62391502187042
  H          -4.21730782271950      0.44352789985689     -2.68564520434114
  H          -2.61754937309526     -2.54980336872245     -0.57135487166254
