41
Coordinates from ORCA-job orca E -847.149832202987
  C          -2.37690036856994     -2.00105966968810      0.53902715081685
  H          -2.46614989865522     -2.41980158160220      1.54503518209049
  C          -2.04442861588926     -0.71729862624295      0.35081910106875
  C          -1.75828633580267      0.26012499232044      1.46285111344088
  H          -0.66542295164692      0.30604355087182      1.63349497156330
  H          -2.21020266780189     -0.09320788037920      2.40233047492102
  C          -2.26419612705436      1.65239497126903      1.09087707425894
  H          -1.99093508037618      2.38197141534097      1.86887612745551
  H          -3.36242510558727      1.64142762317057      1.00535715490919
  C          -1.64769927626552      2.08820484060198     -0.22888130399860
  H          -0.55050170367157      2.17727288331907     -0.10678604959017
  C          -2.19423893860325      3.39580548997972     -0.78956717704165
  C          -1.87311695605487      4.62863976619172      0.05757982242223
  H          -2.33058743949933      4.52890018402846      1.05732397605454
  H          -0.78154706121066      4.68276952260679      0.22649050773149
  C          -2.35658542986391      5.92752097705225     -0.58779754166093
  H          -2.12123258121597      6.80244611826983      0.03893550254921
  H          -3.44835018572068      5.91130606620437     -0.74330664881434
  H          -1.88627593273284      6.08448153365889     -1.57302936901241
  H          -3.28635725847433      3.29044123378100     -0.91352018817685
  H          -1.77689413401144      3.52168171750164     -1.80309860944824
  O          -1.86004169595705      1.10271154582130     -1.27040591659432
  C          -1.99202690818888     -0.22219063699424     -1.06668803355519
  O          -2.11106662403683     -0.94390280930708     -2.03018727213277
  C          -5.23915380853665     -0.68049721338769     -1.36076753725909
  C          -5.34408191889724     -0.57761877657349      0.08499654157933
  O          -5.52235298297917     -1.77492877111463      0.70156316046342
  C          -5.64248363282774     -1.73370916649343      2.11532287578235
  H          -5.83523200671794     -2.76477668982904      2.43964068560958
  H          -4.71724297992500     -1.35895374844928      2.58213316548874
  H          -6.46948457530456     -1.07579036340587      2.42558482617497
  O          -5.27895078422358      0.46671529615733      0.72109792795397
  C          -5.20707066627403     -1.99039595652897     -2.06903186325825
  H          -5.45573994131900     -2.82989513452209     -1.40896786976289
  H          -5.90010799464660     -1.98799290071657     -2.92974679581882
  H          -4.19402318907429     -2.14940523463453     -2.48498709182228
  C          -5.10934523557107      0.57549127119862     -2.15202953771181
  H          -5.16041076096189      1.46284242522640     -1.50832755496546
  H          -5.90760257272430      0.63683832511371     -2.91525224348883
  H          -4.15062087134143      0.58462883498682     -2.70125803232002
  H          -2.56569680178212     -2.65584542480393     -0.31324070590173
