41
Coordinates from ORCA-job orca E -847.155125674358
  C          -2.99137181583733     -1.41014493852918     -0.52873990900467
  H          -2.88803811103248     -1.94749590748924      0.42347111809272
  C          -2.65984591663935      0.00674038479922     -0.45151161815452
  C          -2.82868271545950      0.78182144346927      0.81879783346321
  H          -1.99986577413071      0.52076875485982      1.51030303597527
  H          -3.75520061946205      0.47415834225965      1.32820967492828
  C          -2.83338322333506      2.28683880734248      0.56167074152481
  H          -2.74329264223586      2.84064491346829      1.50827173806803
  H          -3.78749842821431      2.58752203798857      0.09511491673243
  C          -1.69161021927107      2.65832986542693     -0.37328633283924
  H          -0.73356112487452      2.33748292587164      0.08367265936386
  C          -1.59986675640310      4.13802639851500     -0.72535314143265
  C          -1.21641297944925      5.04463456929179      0.44626059065675
  H          -1.97978267371191      4.97786296653802      1.24125819885747
  H          -0.27568953586031      4.67912059726833      0.89803238140530
  C          -1.05029861405610      6.50654136866648      0.03068012643527
  H          -0.77796546155383      7.14249572065209      0.88806710976345
  H          -1.98375660655519      6.90678673170175     -0.39945666631738
  H          -0.26236204280155      6.61756760300590     -0.73299434306369
  H          -2.56605123616610      4.45573443881557     -1.15639802825010
  H          -0.85514937870474      4.23776225270023     -1.53306737752799
  O          -1.82983765789556      1.96241579565166     -1.62646040038649
  C          -2.19727415518459      0.65687530513271     -1.68139852520610
  O          -2.14602454406030      0.08422624297578     -2.75477063149446
  C          -4.78192833378590     -1.70772390849466     -0.97665531843433
  C          -5.47828064013734     -1.38155384554624      0.31890510208510
  O          -5.49121482888219     -2.42295622395673      1.17575693904237
  C          -6.07454530317170     -2.18211039010670      2.45419775815851
  H          -6.04656516667657     -3.13973780979971      2.98932777964403
  H          -5.50365963771053     -1.42096857765483      3.00931647962184
  H          -7.11193305640920     -1.82912201349844      2.35270964903140
  O          -5.93506092285752     -0.29747089239701      0.60900330770828
  C          -4.84573132065512     -3.17240409263292     -1.37939730559740
  H          -4.44873003707031     -3.83360461875608     -0.59727275440667
  H          -5.89012044429497     -3.47309448243048     -1.57299794961500
  H          -4.27387343140480     -3.33425481101209     -2.30590717208789
  C          -5.17729014251515     -0.75499936270748     -2.08837138559681
  H          -5.16165698632229      0.28781008426524     -1.74540519713573
  H          -6.20497657576625     -0.97853094191495     -2.42365063829473
  H          -4.49590655732219     -0.85334850342484     -2.94402091850551
  H          -2.48077438212270     -1.91925623031495     -1.35345152720700
