41
Coordinates from ORCA-job orca E -847.149001492259
  C          -2.43767422806773     -1.96160583738798      0.42934857190810
  H          -2.57943033048516     -2.39109164573183      1.42452146795352
  C          -2.10311874060304     -0.67424256649417      0.27285598681373
  C          -1.88602568785886      0.29034426963146      1.41183874512646
  H          -0.80757189077486      0.32124067124278      1.65961517308628
  H          -2.40821374902901     -0.06603815032976      2.31269523425841
  C          -2.34952700894569      1.69231416488492      1.02293747810306
  H          -2.11166964796820      2.41023233229520      1.82307281161061
  H          -3.44206825431928      1.69818588903777      0.88070017436543
  C          -1.65155467939568      2.12895008242388     -0.25498520264247
  H          -0.56115237222345      2.18989858294031     -0.07047456475276
  C          -2.13253067935997      3.45712762687137     -0.82731545597741
  C          -1.82680036274907      4.67125465263360      0.05212210464657
  H          -2.34794359438897      4.57660776315656      1.02070937208850
  H          -0.74667218997889      4.68900473680162      0.28855724457416
  C          -2.22833933533782      5.99090878273547     -0.60724741090183
  H          -2.00599942204573      6.85193811900364      0.04303609903435
  H          -3.30807454976383      6.01097031383093     -0.83126435278846
  H          -1.69200993686341      6.14199709469232     -1.55904942644318
  H          -3.21847615687768      3.38341122684477     -1.01372645236987
  H          -1.65684141090585      3.58364698682691     -1.81472417519597
  O          -1.83195381635927      1.16187971552218     -1.31830118704999
  C          -1.97766331956550     -0.16488462067964     -1.13536689467266
  O          -2.05294977045855     -0.87695762792415     -2.11007981961676
  C          -5.19908790410168     -0.73897980498077     -1.27434823500566
  C          -5.36337359714416     -0.66214705739992      0.16757285732472
  O          -5.52771447101076     -1.87467408106652      0.75827390241541
  C          -5.67801180577831     -1.86167113957032      2.16990975506856
  H          -5.81016629551630     -2.90758923580463      2.47641287710183
  H          -4.78900581275386     -1.43328289030015      2.66037338633927
  H          -6.55250680597325     -1.26378080989865      2.47163537477889
  O          -5.35010791576611      0.37220136728758      0.82193936521594
  C          -5.12915377331181     -2.03297391207864     -2.00897706822568
  H          -5.30181122521378     -2.89651328789469     -1.35605161538636
  H          -5.86640800012109     -2.05378848089533     -2.83302467185127
  H          -4.13291938389332     -2.12672626144969     -2.47990884569118
  C          -5.11532586878777      0.53306057588514     -2.04642276516122
  H          -5.08025169123646      1.40650469007816     -1.38329327350142
  H          -5.99497404791157      0.63574151017930     -2.71171095833893
  H          -4.22748742389729      0.53246911888489     -2.70160472590535
  H          -2.57250284325474     -2.60955286380439     -0.43779088033528
