41
Coordinates from ORCA-job orca E -847.169536725960
  C          -3.09942097830250     -1.40508124746988     -0.67543628086553
  H          -2.85287027203105     -1.93760976843700      0.25682141438679
  C          -2.77139164845574      0.03715431194369     -0.56304157038009
  C          -2.97120775960429      0.77856569483053      0.72098920287400
  H          -2.18142812268598      0.46673581648771      1.43709937179088
  H          -3.92458293534768      0.48548634912406      1.18903785282357
  C          -2.92069431715486      2.29137770688909      0.51580744261982
  H          -2.83991918699984      2.80999310001184      1.48296761498507
  H          -3.85022181104199      2.63968762966280      0.03307950334112
  C          -1.74249080391911      2.65463109264943     -0.37647713642260
  H          -0.80867831510979      2.28258888782814      0.09190190259172
  C          -1.58892658689313      4.14149311719557     -0.67174119366434
  C          -1.20324021797688      4.99188662925278      0.54042289012838
  H          -1.98886030946919      4.92647141260685      1.31365536236068
  H          -0.28826759708485      4.57653242748730      1.00202602274483
  C          -0.97304928032363      6.46005733753294      0.18124524945458
  H          -0.69980040792620      7.05514854457765      1.06718876732690
  H          -1.87970330365816      6.90981111439456     -0.25716060444779
  H          -0.16196447075907      6.56779690463200     -0.55827537780652
  H          -2.53154624675271      4.50940448058186     -1.11487446091460
  H          -0.82061494379355      4.24169899311615     -1.45695207717817
  O          -1.87599633672488      2.00959864571925     -1.65628858967531
  C          -2.26521844725667      0.71234965688612     -1.75861326668699
  O          -2.19666042961887      0.16908136913163     -2.84629235447139
  C          -4.69237916010950     -1.73377337182586     -0.98929928821149
  C          -5.46745697343361     -1.36245709970704      0.26747796243041
  O          -5.24608261973737     -2.23217085536365      1.27447064478751
  C          -5.89817707228148     -1.94962213612976      2.51060642191143
  H          -5.64244541630863     -2.77411302902227      3.18805224160802
  H          -5.54909462043235     -0.99241145507295      2.92931132577252
  H          -6.98853134971822     -1.88878199462933      2.37451235162674
  O          -6.17249529434742     -0.38900944377437      0.39606169435939
  C          -4.79548307257661     -3.23654971450772     -1.27819143961031
  H          -4.37916298399892     -3.83838298701793     -0.45845296323643
  H          -5.84711691561490     -3.53552932165260     -1.41973458881068
  H          -4.24961202572420     -3.47650954604719     -2.20383696267597
  C          -5.18897554094271     -0.90413741289667     -2.17152653655015
  H          -5.19790581767133      0.16787239998304     -1.93325875388210
  H          -6.21988380788329     -1.19133508583798     -2.43316788361082
  H          -4.54018608400886     -1.05724126977946     -3.04486190895162
  H          -2.54332651631958     -1.84731788335340     -1.51279200187141
