41
Coordinates from ORCA-job orca E -847.138197689489
  C          -2.73930829876236     -1.61713077772657     -0.57466031729819
  H          -2.95077622855706     -2.24001678507614      0.29722144198255
  C          -2.28543148164037     -0.33483672399408     -0.40876513457097
  C          -2.27062364633637      0.37360740808335      0.91721484956041
  H          -1.27243554901154      0.25453672407279      1.38392706550159
  H          -2.99261042794272     -0.08942705451182      1.60582800826902
  C          -2.55955830063437      1.86031448130555      0.72780618628070
  H          -2.46338066720230      2.39808658041667      1.68364618519299
  H          -3.59502810813690      1.99328708852167      0.37391947315609
  C          -1.57933171076357      2.44684397403165     -0.27669676426120
  H          -0.55209092144046      2.35093726653496      0.12754917261969
  C          -1.82996295865796      3.90518134713129     -0.64339494897451
  C          -1.61303453316360      4.89314368518560      0.50459544982942
  H          -2.32277458817488      4.68317351736505      1.32392947872361
  H          -0.60395221206379      4.74239725241544      0.93117689167697
  C          -1.76964242517194      6.34931764897258      0.06568347226841
  H          -1.61036321102967      7.04430635595288      0.90559942948127
  H          -2.77904296826432      6.53766874392750     -0.33704006240805
  H          -1.04617899211218      6.60790401058379     -0.72564086628609
  H          -2.85831379152906      3.99414295227848     -1.03661197774067
  H          -1.15632608923961      4.15386826334784     -1.48086047415734
  O          -1.60268180902685      1.72175911235018     -1.52668685615599
  C          -1.87891279396233      0.40299528056924     -1.63659873003067
  O          -1.81616939860735     -0.11289753552969     -2.73100447754617
  C          -4.96712769339841     -1.51841489020418     -1.11972420220146
  C          -5.35494232985741     -0.94797688591315      0.17935268108767
  O          -5.55714348879342     -1.89456689694973      1.13036940569949
  C          -5.90901060476026     -1.41706725864573      2.42386162963826
  H          -6.07114143181434     -2.30630658439345      3.04657246607480
  H          -5.10356822352317     -0.79860553768247      2.85162357502860
  H          -6.82413339091505     -0.80628805015245      2.38435816861238
  O          -5.44862637865528      0.24145996080230      0.42150186811944
  C          -5.20082017008838     -2.97546315863995     -1.38952685386961
  H          -4.95827545728966     -3.60699115369337     -0.52456868377095
  H          -6.26774802104565     -3.14984028409180     -1.63081968999821
  H          -4.61632748702631     -3.31117002794856     -2.26049788519590
  C          -4.99611666498738     -0.57830030588867     -2.28426309885915
  H          -4.78007472530208      0.45145371510236     -1.97321992219290
  H          -6.00584323189669     -0.58143376484753     -2.74001751213281
  H          -4.27683167267679     -0.87375296414141     -3.06164111033123
  H          -2.56940791653728     -2.11250872892060     -1.53103733082124
