41
Coordinates from ORCA-job orca E -847.171663360318
  C          -3.17312147148132     -1.36286418090263     -0.74586096752353
  H          -2.83422724950569     -1.86313705121036      0.17734975395963
  C          -2.89503471102741      0.10156924247589     -0.64678160049105
  C          -3.24504826644788      0.87313719609964      0.58664561356234
  H          -2.60581928418988      0.51484387883669      1.42036075245248
  H          -4.27873401012058      0.64837025093383      0.90069936866617
  C          -3.07472899410663      2.38019475339381      0.39390052774842
  H          -3.05177313793704      2.89287399381049      1.36726114102170
  H          -3.92775759156524      2.79225398486435     -0.17267722705962
  C          -1.80030658198993      2.66533161038717     -0.38754236035378
  H          -0.93901185330741      2.21959195067025      0.15053405835847
  C          -1.51433809360031      4.13935506118496     -0.64513733967901
  C          -1.17273631812122      4.94742817759984      0.60842191986193
  H          -2.02341667480954      4.93110127227377      1.31237930978837
  H          -0.33195608806752      4.46258273680299      1.13824324271076
  C          -0.80970048120420      6.39869020189298      0.29341152905649
  H          -0.57175173831432      6.96385735721378      1.20864845295928
  H          -1.64155792705398      6.91674711545968     -0.21269656467332
  H           0.06713838206036      6.45559632204177     -0.37313923209212
  H          -2.38619655392862      4.58056944159218     -1.16041268293178
  H          -0.67679101769212      4.19002758631667     -1.36132224266653
  O          -1.88029070289986      2.04427771268047     -1.68283530147140
  C          -2.30022829640030      0.75872093093113     -1.81068764568841
  O          -2.18501791955515      0.21199520653066     -2.89258956958716
  C          -4.65518703685130     -1.75131966367358     -0.98056077967299
  C          -5.47548673231565     -1.44664353897985      0.27414629435788
  O          -4.99260571630543     -2.09401916729901      1.35581730140087
  C          -5.68701350132290     -1.88248585456782      2.58267245475918
  H          -5.18186768837949     -2.50361345813687      3.33315132720460
  H          -5.64734192388739     -0.82198597948258      2.87788950817728
  H          -6.74418118810194     -2.17478168516306      2.49166411835555
  O          -6.43965545764455     -0.72186733326655      0.33072668080149
  C          -4.72309787284099     -3.27045443933203     -1.23987427612324
  H          -4.26509097367048     -3.83866360418861     -0.41740154033262
  H          -5.76745196824333     -3.60377301926846     -1.35030437194587
  H          -4.18976538121178     -3.51134807423284     -2.17278710970126
  C          -5.24735400866687     -0.98337025119012     -2.16759459807494
  H          -5.30021830406553      0.09533616735894     -1.96192173012417
  H          -6.27055102397888     -1.32644189622187     -2.38065751109701
  H          -4.62169528438142     -1.12872918990074     -3.05982706347718
  H          -2.59409935686599     -1.76556376433500     -1.58885164043584
