41
Coordinates from ORCA-job orca E -847.142669517597
  C          -2.81781467623900     -1.59920692150661     -0.63269960430806
  H          -2.87629294333897     -2.23288646456568      0.25769962938346
  C          -2.35970049428993     -0.27252629550396     -0.46108800008580
  C          -2.35691892184884      0.41397651722991      0.87209789663974
  H          -1.37273614593535      0.25810569985469      1.36057489690115
  H          -3.10233455023295     -0.04098882417741      1.54119351839505
  C          -2.60328025123095      1.91088529451540      0.70259545892524
  H          -2.49443164083583      2.43325708913869      1.66548684038634
  H          -3.63384835388932      2.07702929432841      0.34766907466325
  C          -1.60843130677660      2.48329422688021     -0.29691972737519
  H          -0.58309146332269      2.34401719421851      0.10041291922487
  C          -1.81064728411243      3.95661526354017     -0.63219488996777
  C          -1.54546705089552      4.91488358532900      0.53065742698982
  H          -2.25064106601886      4.71312822874302      1.35607612178497
  H          -0.53623156621253      4.72304172066407      0.93995676281107
  C          -1.65965192028610      6.38338975519779      0.12063484940474
  H          -1.46610837119824      7.05720485950509      0.97053927455123
  H          -2.66755898794273      6.61215165534954     -0.26451614989240
  H          -0.93879934220318      6.63256063834762     -0.67607510267946
  H          -2.83933090979310      4.08975181063289     -1.01193703477078
  H          -1.13801102134201      4.19655975402826     -1.47298641636907
  O          -1.66777434746133      1.78482023720878     -1.55817783410244
  C          -1.96345956803074      0.46741165766683     -1.67375763980035
  O          -1.91487940465306     -0.04219277688343     -2.77559076007036
  C          -4.84874633190766     -1.58633676257632     -1.09357914456823
  C          -5.34111031634949     -0.99512884406691      0.18094114057472
  O          -5.52182814571360     -1.92031125900308      1.15108582850391
  C          -5.95032598384389     -1.42798196065658      2.41727531540096
  H          -6.08969613223700     -2.30806945310736      3.05794209021954
  H          -5.19527677017524     -0.75643719896277      2.85642086427554
  H          -6.89359372135356     -0.86855934967787      2.32371744824196
  O          -5.51840005589470      0.18991421393162      0.37476345968269
  C          -5.12817510292343     -3.04947868359913     -1.33522402741353
  H          -4.86822256837612     -3.67269977739541     -0.46931082119941
  H          -6.20413961682088     -3.20152372107054     -1.54114422980193
  H          -4.57227672711493     -3.40690149806346     -2.21572516793057
  C          -5.00847258569676     -0.68127025656179     -2.28612808178019
  H          -4.79810631674547      0.36375613116561     -2.02748386597685
  H          -6.05281850343731     -0.72841963629175     -2.64777581715896
  H          -4.34455291233407     -0.98184685563164     -3.10814248651505
  H          -2.51188662098489     -2.09959828817456     -1.55482401519377
