41
Coordinates from ORCA-job orca E -847.140386370748
  C          -2.65917904881085     -1.64815770283922     -0.51728995241303
  H          -2.95571118502426     -2.25160700196709      0.34296293186915
  C          -2.21538957197382     -0.38247526785477     -0.36137984386678
  C          -2.18493466651624      0.34132612544994      0.95791934007564
  H          -1.17412977736748      0.24962867546692      1.40127157087775
  H          -2.88279625286322     -0.12964651023406      1.66582607076798
  C          -2.50983966089682      1.81907188842449      0.75702308018867
  H          -2.41599721299663      2.36789722996008      1.70684596550147
  H          -3.55162225718833      1.92535561610563      0.41341835560206
  C          -1.55215323922687      2.41937834724786     -0.26032869794186
  H          -0.52065826551493      2.36182099710106      0.13972538829917
  C          -1.85044700440361      3.86295770234777     -0.64925168116354
  C          -1.66808662164612      4.87410690789403      0.48451989982572
  H          -2.37294779573307      4.65344580797938      1.30518160225972
  H          -0.65580175131018      4.76201304325038      0.91541880301026
  C          -1.87056781507448      6.31782121620412      0.02369056758177
  H          -1.73798710193169      7.02977194120925      0.85396940960045
  H          -2.88389217512708      6.46661243994006     -0.38564035069017
  H          -1.15268873900189      6.58872330658823     -0.76859179417602
  H          -2.88091616658134      3.91149135419696     -1.04389753925203
  H          -1.18477715442214      4.12199825344949     -1.48995297131657
  O          -1.55485353222011      1.67448081518794     -1.50052044925228
  C          -1.81116780767942      0.35312461954792     -1.60190751077174
  O          -1.74236480424387     -0.16971990311209     -2.69044099949199
  C          -5.07927542551666     -1.45818391040993     -1.15021775725537
  C          -5.37526224095061     -0.90485052941454      0.16912723533275
  O          -5.59002768358059     -1.86368295841766      1.10848450500933
  C          -5.87406085612691     -1.39840656128404      2.42191542765083
  H          -6.05237668713126     -2.29228509642014      3.03363651062399
  H          -5.02821835561099     -0.82341461025189      2.83218488490143
  H          -6.76285726719225     -0.74841554301114      2.42857205652343
  O          -5.39982214458155      0.28331271744919      0.44414860361027
  C          -5.28894018681859     -2.91049678020510     -1.43778145773340
  H          -5.06879796434904     -3.54638136080362     -0.57012230423946
  H          -6.34651186769302     -3.09504054195209     -1.71432283818671
  H          -4.67817244264331     -3.23524239681565     -2.29529752642051
  C          -4.99166229264907     -0.50133761004107     -2.29171918379302
  H          -4.78317689100194      0.51815480980358     -1.94363832909159
  H          -5.95517957199011     -0.47759339765724     -2.83923436575209
  H          -4.21442153374254     -0.79929130841119     -3.01190877945087
  H          -2.57739698066604     -2.13287482370198     -1.48993787685275
