41
Coordinates from ORCA-job orca E -847.139170943934
  C          -2.77843710209043     -1.60617506166715     -0.59759431725288
  H          -2.91955926325238     -2.23651662197337      0.28408798164691
  C          -2.32332849131730     -0.30381813296564     -0.43034487506479
  C          -2.31689856346385      0.39658044929220      0.89802072537723
  H          -1.32675296946787      0.25979426143423      1.37837064459796
  H          -3.05283329760211     -0.06016858279682      1.57611651172784
  C          -2.58314340904441      1.88846074470351      0.71493801982138
  H          -2.48164637702579      2.42061145930606      1.67333230169883
  H          -3.61570953542245      2.03809317536569      0.35882837627802
  C          -1.59356178873523      2.46523074347070     -0.28659392537847
  H          -0.56782045429415      2.34757824909935      0.11619584541262
  C          -1.81824828726957      3.93079883738059     -0.64104391570434
  C          -1.57683642592525      4.90658333767529      0.51237493197650
  H          -2.28454960353475      4.70299058913934      1.33511973449763
  H          -0.56762967185669      4.73567089880480      0.93094616335447
  C          -1.71142260204915      6.36829018823575      0.08462686176204
  H          -1.53415757097692      7.05467072120942      0.92800899740692
  H          -2.72025246236049      6.57676073086061     -0.30953364283827
  H          -0.98928337817900      6.61978643529527     -0.71018832637300
  H          -2.84656436584422      4.04214620005242     -1.02870594485960
  H          -1.14412895206970      4.17235527203695     -1.48019672771483
  O          -1.63343810843694      1.75073970742557     -1.54094867272106
  C          -1.92125647497325      0.43288037881514     -1.65183738896392
  O          -1.86622259110239     -0.08126461413904     -2.74933618760970
  C          -4.90722514357707     -1.55046795096916     -1.10498978462665
  C          -5.34880609710145     -0.97591157303889      0.18447542598658
  O          -5.54298305470385     -1.91758455888425      1.13912818471172
  C          -5.93306221979511     -1.43904861076948      2.42201720197232
  H          -6.08211143528932     -2.32730135308885      3.04924976210138
  H          -5.15314859525947     -0.79480008896872      2.85871903854299
  H          -6.86383324797799     -0.85465588189938      2.35906130309965
  O          -5.48353429242473      0.21111795955702      0.40944097951296
  C          -5.16205388730511     -3.00904891641366     -1.36924974724416
  H          -4.91163558457728     -3.64095909246987     -0.50683432709147
  H          -6.23338954972620     -3.17176424081143     -1.59515287127381
  H          -4.59024345066027     -3.35032000503268     -2.24619310385356
  C          -5.00103443234899     -0.62016220897694     -2.27878395777539
  H          -4.78541088438476      0.41533556608225     -1.98758279692376
  H          -6.03025492519964     -0.64145038796165     -2.68617807349798
  H          -4.31061738140941     -0.91349269550526     -3.08192918188820
  H          -2.54204407196424     -2.10817532691006     -1.53738122283002
