41
Coordinates from ORCA-job orca E -847.147864549894
  C          -2.94386768029526     -1.41472631412378     -0.48014887656994
  H          -2.90931482068524     -1.95657216389888      0.47266199376101
  C          -2.62102987562685     -0.01358824973404     -0.41401575105880
  C          -2.79712629767226      0.77617593483512      0.84840439937672
  H          -1.96403387562316      0.53628422926981      1.54169227460003
  H          -3.71993309653506      0.46364308417950      1.36134584293185
  C          -2.82042445135779      2.27719216795621      0.57128792450607
  H          -2.73910094243930      2.84449764196692      1.51069483837697
  H          -3.77713469561516      2.56044285541031      0.09905794436945
  C          -1.68067142270069      2.65031944049862     -0.36535400573171
  H          -0.72016953872229      2.34578623497476      0.09745248990334
  C          -1.60434166713747      4.12652231076412     -0.73538655988643
  C          -1.23117512734883      5.05103191798898      0.42553435789347
  H          -1.99444260696307      4.98587897604892      1.22074473618446
  H          -0.28712963190015      4.70054463171457      0.88223045664962
  C          -1.07971226693964      6.50945516839907     -0.00749928300075
  H          -0.81456113031825      7.15846473974584      0.84232175879914
  H          -2.01687890588838      6.89491592943934     -0.44305028816250
  H          -0.29236419453516      6.61931278762052     -0.77195412740632
  H          -2.57350885417640      4.42895880871035     -1.17070816614532
  H          -0.86008362705002      4.22441267832157     -1.54376042204662
  O          -1.80765839318538      1.93765247353112     -1.61061875153273
  C          -2.16705549192098      0.63012628769826     -1.65406663032281
  O          -2.11631916273825      0.04979075330818     -2.72263153239854
  C          -4.83262987904824     -1.69664417350518     -0.98810490533107
  C          -5.48862935451025     -1.38204810023081      0.32160212772331
  O          -5.52767883050128     -2.44580193285481      1.15191718338546
  C          -6.07865816300146     -2.21552375457289      2.44607892035857
  H          -6.07988538941328     -3.18714642469122      2.95622448557967
  H          -5.46847005307116     -1.49240672550502      3.01028764217862
  H          -7.10276051821704     -1.81922131864681      2.37295345887949
  O          -5.89874894301947     -0.28848522058280      0.64868733478689
  C          -4.87448785525336     -3.14823696814079     -1.41888820040440
  H          -4.49164663460863     -3.82250814040901     -0.64108624517276
  H          -5.91383526357970     -3.45125853170704     -1.63970340373124
  H          -4.28463559050918     -3.28955811817432     -2.33733322388914
  C          -5.17618197958263     -0.70491230599263     -2.07487505128716
  H          -5.14791233603517      0.32596962674744     -1.69854740155229
  H          -6.20101607030528     -0.89595854590486     -2.44093937305160
  H          -4.47900747078833     -0.79287712248765     -2.91885560606142
  H          -2.47084791117991     -1.94651456796708     -1.31119236550056
