41
Coordinates from ORCA-job orca E -847.151048716116
  C          -2.34292321146001     -2.09998211981440      0.67220815276665
  H          -2.33221734337592     -2.51856190704495      1.68261549834336
  C          -1.91522442213777     -0.85340042904161      0.43532187327821
  C          -1.39116251142409      0.09361085591781      1.48170986397070
  H          -0.28715791524662      0.13946337945290      1.41442239461198
  H          -1.63082969395926     -0.27760913681727      2.49034255415236
  C          -1.97194445437753      1.48629641056649      1.24341235551053
  H          -1.56903966615176      2.20465590024249      1.97422524984821
  H          -3.06676934863250      1.46363926463018      1.35489524156390
  C          -1.61840112808376      1.97485758119134     -0.15538547005171
  H          -0.53243043137129      2.18482512383694     -0.19975300886148
  C          -2.39556630497778      3.20910657210937     -0.59963558856337
  C          -2.11146721460442      4.46199789136281      0.23138875718212
  H          -2.42016722582607      4.29715670771168      1.27850866330429
  H          -1.02115678025491      4.64651926215613      0.26064932866997
  C          -2.82543717537586      5.69985081671039     -0.31236096243567
  H          -2.61628495057272      6.59072468782710      0.30128372472506
  H          -3.91818931351441      5.55209396785464     -0.32791538283325
  H          -2.50850777849314      5.92171943527606     -1.34523121628909
  H          -3.46902467094261      2.95790626822131     -0.56723477257215
  H          -2.14216254065692      3.39896511019471     -1.65655569411028
  O          -1.85786923946699      0.97362112194621     -1.17887996903082
  C          -1.99885425335857     -0.34648533616250     -0.97563971468583
  O          -2.21542139634750     -1.06212734760766     -1.92759822525876
  C          -5.24293940735983     -0.58302346862813     -1.62751849445450
  C          -5.22707371959824     -0.22274057966453     -0.22099297983174
  O          -5.50625539638853     -1.26263962999560      0.60762820785212
  C          -5.50128935132644     -0.97677600613973      1.99824289076696
  H          -5.90181550067820     -1.86832804847812      2.49872869018483
  H          -4.47631448818088     -0.78254343955355      2.35373204579470
  H          -6.12189058039395     -0.09700173333686      2.22712235381255
  O          -4.98522933820793      0.89807875218435      0.21255122898047
  C          -5.36944789602014     -1.99662711907453     -2.08105091917126
  H          -5.72304337353137     -2.66291389090100     -1.28476853899532
  H          -6.04761223289594     -2.07268034334531     -2.94900256563242
  H          -4.37844715803297     -2.35264768640476     -2.42338747448919
  C          -4.98737414174789      0.48482471495609     -2.63361282173068
  H          -5.08836872940429      1.48673987839554     -2.19717824822784
  H          -5.66959977882092      0.38376673949448     -3.49551361825999
  H          -3.95676133120876      0.38202754276127     -3.02368045030410
  H          -2.71339860558825     -2.72296976299047     -0.14363295952935
