41
Coordinates from ORCA-job orca E -847.149453761709
  C          -2.38846893530891     -1.97862785349137      0.47646796584548
  H          -2.50421415612836     -2.40661145949694      1.47578389852625
  C          -2.08684818622134     -0.68452237637621      0.30744964060527
  C          -1.87173319670981      0.29144067424492      1.43746315080073
  H          -0.79279899648765      0.33063361916739      1.68185931395398
  H          -2.38870144135671     -0.06088918425217      2.34301217125149
  C          -2.34533760122621      1.68757054775996      1.03991739195842
  H          -2.10850810828364      2.41272891071625      1.83372495170550
  H          -3.43815385569012      1.68578053352002      0.89965478912215
  C          -1.65687493163216      2.11728146737211     -0.24521633858724
  H          -0.56488507395622      2.17918022068926     -0.07054678740272
  C          -2.14294749147616      3.44148044996219     -0.82237846668269
  C          -1.83659662771564      4.66101299440147      0.04925222652446
  H          -2.35507454450215      4.57133918152133      1.01971577380646
  H          -0.75587024786154      4.68174408172074      0.28273614991983
  C          -2.24187362931422      5.97617098758340     -0.61683962367507
  H          -2.01947336303337      6.84139318242542      0.02783264869095
  H          -3.32216693022105      5.99305287269061     -0.83841293247839
  H          -1.70807869148473      6.12255397404812     -1.57079912909754
  H          -3.22930571765333      3.36396416093644     -1.00456335344816
  H          -1.67143158803193      3.56404995353277     -1.81233517099228
  O          -1.84750015386475      1.14306476757598     -1.30040040598312
  C          -1.99112510278491     -0.18228491303910     -1.10630374955137
  O          -2.08337153717995     -0.90014356869176     -2.07535004460760
  C          -5.22208218505391     -0.71741860279497     -1.29915634045547
  C          -5.35972053746185     -0.64590624784963      0.14588976396604
  O          -5.51638532229744     -1.86012673166273      0.73499692903404
  C          -5.64935299950584     -1.85091842625629      2.14860143159632
  H          -5.77915292866423     -2.89773079148758      2.45309538015762
  H          -4.75330725140988     -1.42585945862459      2.62878060094092
  H          -6.51944192204939     -1.25294925969770      2.46261060028641
  O          -5.33385165319059      0.38607848817481      0.80408746551831
  C          -5.16707745045380     -2.01031639056557     -2.03684205634368
  H          -5.36552623049699     -2.87186740968413     -1.38851105260799
  H          -5.89077504163031     -2.01486493551141     -2.87267131119469
  H          -4.16512811216491     -2.12360600236810     -2.49173307185768
  C          -5.12888340780700      0.55603762198679     -2.06701030929180
  H          -5.10507300590685      1.42841463555154     -1.40187585435091
  H          -5.99566687164487      0.65712275456850     -2.74863278208404
  H          -4.22781166986462      0.55884027562645     -2.70477023021805
  H          -2.52449330227029     -2.63290274392669     -0.38612323330005
