41
Coordinates from ORCA-job orca E -847.145499711262
  C          -2.43697914136156     -1.75479282842878     -0.28887397845798
  H          -2.70950834276594     -2.33196857449456      0.59832067210888
  C          -2.10853998619956     -0.45817503429047     -0.20380634629972
  C          -2.06024286792790      0.31911211361165      1.08713838537449
  H          -1.03112657443764      0.28298931471590      1.49345987362850
  H          -2.71163874636943     -0.15511129780722      1.83648733100265
  C          -2.45241093468689      1.77493466035428      0.84992695671306
  H          -2.33820919829909      2.35975692884931      1.77569160085223
  H          -3.51005073886033      1.83030887656695      0.54629024564883
  C          -1.56472715770639      2.37262693595352     -0.22950608472981
  H          -0.51196548487362      2.35326474382220      0.11478448683917
  C          -1.92349538591586      3.79506724919080     -0.64312154252369
  C          -1.70627760238338      4.84376572274166      0.44971672526669
  H          -2.35942774762770      4.62991413400534      1.31372195508414
  H          -0.66936298680985      4.76989481914938      0.82699304515024
  C          -1.97160969133780      6.26762229829268     -0.04005772617903
  H          -1.81366405682629      7.00697213357626      0.76133394910622
  H          -3.00898294017180      6.37867175635949     -0.39781398700210
  H          -1.30464104564539      6.53282158858479     -0.87749134819285
  H          -2.97512534599774      3.80492886543955     -0.98036125363467
  H          -1.31235488187895      4.04596678235177     -1.52665911351582
  O          -1.61497110202969      1.59045654647153     -1.44652617795677
  C          -1.81365151435016      0.25888877141278     -1.49308255860444
  O          -1.78834724269239     -0.29554786087899     -2.56702736470774
  C          -5.28745804045715     -1.34355734641277     -1.26621083005019
  C          -5.41283657414927     -0.82366851101601      0.08634998876122
  O          -5.60144062854276     -1.79717126816305      1.01767271049668
  C          -5.75445940960983     -1.35482866316669      2.35913472694209
  H          -5.94012907736670     -2.25366633859385      2.96151630311602
  H          -4.84621391346645     -0.84336891972959      2.71689818098326
  H          -6.59808903500459     -0.65302323669810      2.45249788909597
  O          -5.34659306110636      0.35668383156725      0.39665131649312
  C          -5.42690917039321     -2.79735305190932     -1.57045974993207
  H          -5.26755885014429     -3.42765132833011     -0.68651899017646
  H          -6.44347132169371     -3.01627152511725     -1.95530439923076
  H          -4.72557331891108     -3.09763416879141     -2.36738006987160
  C          -5.10442412488050     -0.37829735635551     -2.38434326348981
  H          -5.05378302350646      0.65486164577158     -2.01780530446148
  H          -5.93918026127440     -0.45827121480120     -3.10727189991682
  H          -4.17914088331340     -0.59755790559462     -2.94557142015568
  H          -2.43049858902300     -2.25820328820947     -1.25693293357392
