41
Coordinates from ORCA-job orca E -847.144997205717
  C          -2.48277534191853     -1.72541279380508     -0.35210305942068
  H          -2.78010068887419     -2.30583430083371      0.52484561955307
  C          -2.12803362211162     -0.43654438729830     -0.24712342499589
  C          -2.09302755628423      0.32780706644613      1.05136414771413
  H          -1.07039204593972      0.28024795603011      1.47277782357019
  H          -2.75991141436326     -0.14706912481443      1.78630032381479
  C          -2.46946912543512      1.78860811265561      0.81996388202834
  H          -2.36874898649743      2.36457951621616      1.75281134515046
  H          -3.52117932463585      1.85467853769071      0.49806448958986
  C          -1.55679027619865      2.38888545399993     -0.23711950288121
  H          -0.51145557641922      2.36019823660435      0.12846761946349
  C          -1.89803561848600      3.81702368592112     -0.64619421489447
  C          -1.69628639445833      4.85566142365223      0.45913335582369
  H          -2.36785755535210      4.63930909366567      1.30829507320677
  H          -0.66762528759069      4.77212879198149      0.85643499797984
  C          -1.94286745161450      6.28499874103086     -0.02443072151843
  H          -1.79624076304947      7.01697113228747      0.78583046611633
  H          -2.97222025098690      6.40555736667967     -0.40174564458528
  H          -1.25772857478291      6.55248360513767     -0.84632075262861
  H          -2.94251763837334      3.83666460534331     -1.00464202669627
  H          -1.26754266234107      4.07088366918929     -1.51515924049549
  O          -1.58683271542217      1.61689025833590     -1.46114004424920
  C          -1.79791534108934      0.28741654046509     -1.52341905131816
  O          -1.75531364638132     -0.25799416266870     -2.60136695765889
  C          -5.25936079155756     -1.37603339333981     -1.23610306950586
  C          -5.41266493086421     -0.85028246202734      0.11183201616333
  O          -5.61132027430734     -1.82174192812459      1.04336812848621
  C          -5.78467362342443     -1.37610004399641      2.38148914661236
  H          -5.97525870429018     -2.27404177155967      2.98364943152370
  H          -4.88316989006598     -0.86041428769317      2.75021554969850
  H          -6.63207256934617     -0.67721631257013      2.46099906562810
  O          -5.35663233274478      0.33117863934042      0.41872970961679
  C          -5.40865175881007     -2.83021079801047     -1.53613526017827
  H          -5.22454305626223     -3.46032975846465     -0.65662867287826
  H          -6.43740254633042     -3.04882777467556     -1.88752133163727
  H          -4.73254590994214     -3.13232148296917     -2.35335149689230
  C          -5.07913774158741     -0.41284754034862     -2.35697002174446
  H          -5.01031646061732      0.61952974394860     -1.99139592400715
  H          -5.92750535623321     -0.47979769534154     -3.06559433444764
  H          -4.16717215999049     -0.64389022008795     -2.93420441040321
  H          -2.46177403501871     -2.22140193799276     -1.32344302870287
