41
Coordinates from ORCA-job orca E -847.148327391602
  C          -2.46043099101641     -1.94513134820556      0.35669324374751
  H          -2.62027521680873     -2.38617732851378      1.34384906205558
  C          -2.12094360543136     -0.65677164465448      0.22100102923738
  C          -1.92714907509084      0.29460121400293      1.37491897113765
  H          -0.85521323342992      0.31663397625986      1.65044464174115
  H          -2.47419940033876     -0.06793986176278      2.25830450377427
  C          -2.37260952223585      1.70293071491700      0.98906661323639
  H          -2.15196709112464      2.41075689217925      1.80292956911768
  H          -3.46122658303685      1.71718093249777      0.81969092276861
  C          -1.63979458917659      2.14848978514011     -0.26605299522504
  H          -0.55419176581433      2.20105006960702     -0.05324393600572
  C          -2.09926571513330      3.48505060469144     -0.83672712068607
  C          -1.82203796785879      4.68728019453872      0.06817714310033
  H          -2.38010633576590      4.58340163120091      1.01492274896906
  H          -0.75158759218130      4.69736435778085      0.34559570243694
  C          -2.19256362334496      6.01645317282044     -0.59035153347416
  H          -1.99273210374602      6.86872636355081      0.07851698032109
  H          -3.26256860741986      6.04370043619465     -0.85634368527224
  H          -1.61859291793589      6.17650452817055     -1.51840725799256
  H          -3.17847130995676      3.41468965700129     -1.06029856404165
  H          -1.59120035401480      3.62374665985749     -1.80619904041441
  O          -1.79898777504214      1.19368032960160     -1.34390549655790
  C          -1.96627634638699     -0.13269340356390     -1.17891929710393
  O          -2.03543703669820     -0.83313376190335     -2.16250664744012
  C          -5.17693529249998     -0.77466600601790     -1.23894432484833
  C          -5.36688282778887     -0.68727136973565      0.19923189000096
  O          -5.53732750419787     -1.89600577923720      0.79612884333719
  C          -5.70634422086950     -1.87323719949447      2.20575316333763
  H          -5.82771249563323     -2.91841984392911      2.51911540302870
  H          -4.82991969371586     -1.42783649021013      2.70360905026532
  H          -6.59321297116673     -1.28554211810259      2.49097769688071
  O          -5.36642075860386      0.35170072832005      0.84601504539315
  C          -5.10891353870894     -2.07254563727720     -1.96706840241673
  H          -5.23816137380210     -2.93498941782437     -1.30285576830502
  H          -5.88183301485903     -2.11568663531852     -2.75771675355499
  H          -4.13382265529350     -2.14920329760154     -2.48237265529626
  C          -5.10320220608998      0.49173013573848     -2.02143955836975
  H          -5.03869506427830      1.36991254815142     -1.36679585197910
  H          -6.00454602571421      0.60074784502826     -2.65666413946913
  H          -4.23829516446924      0.47773099533321     -2.70556309436755
  H          -2.57501643331754     -2.58342262923199     -0.52010610106658
