41
Coordinates from ORCA-job orca E -847.145928725957
  C          -2.43005679767064     -1.81558872737176     -0.13339680684924
  H          -2.66041228337501     -2.37137101582832      0.77899028407216
  C          -2.08790309535497     -0.52090776822529     -0.09307133029330
  C          -1.96680559209352      0.28612812051780      1.17430361109531
  H          -0.91318734250644      0.27182749880397      1.51383679736408
  H          -2.56090129957480     -0.17896368240169      1.97576663802243
  C          -2.39258261664720      1.73142304768930      0.92876638918870
  H          -2.23123261898950      2.33899121559246      1.83261500735210
  H          -3.46608321244904      1.76739695918578      0.68397999197529
  C          -1.57863558176318      2.31626808252327     -0.21441599038447
  H          -0.50811410136436      2.32687613724321      0.07018914932943
  C          -1.99172179635127      3.71950617432903     -0.64277702805643
  C          -1.73870051948687      4.80027146846678      0.41047350206182
  H          -2.33227675938676      4.58954234264937      1.31709657384105
  H          -0.67919562368565      4.76376724021656      0.72529904335955
  C          -2.07393832389240      6.20389707552903     -0.09435427644627
  H          -1.88717477937742      6.96686911825372      0.67819764874486
  H          -3.13431940835744      6.27822816805508     -0.38846982648256
  H          -1.46833869989223      6.46615484579123     -0.97808596109648
  H          -3.06048721959830      3.69767964153565     -0.92011612181953
  H          -1.43637355266157      3.96088250059462     -1.56494768804014
  O          -1.67809264738834      1.50138242413554     -1.40704604067406
  C          -1.85680013905747      0.16649482813161     -1.41122691571336
  O          -1.86856513223474     -0.41570031130537     -2.47061512095710
  C          -5.28450583620469     -1.23780926437791     -1.32801005535860
  C          -5.39441034881871     -0.74266061199030      0.03476835169820
  O          -5.57450589715904     -1.73051463810154      0.95184471051478
  C          -5.69615766625655     -1.31041723011841      2.30328922798706
  H          -5.87782420732410     -2.21783128276773      2.89393361689895
  H          -4.77567606478061     -0.81353419547966      2.65020372673105
  H          -6.53076978780091     -0.60248005681462      2.42631202763764
  O          -5.32482711385128      0.43290255703616      0.36356086713196
  C          -5.39318977367577     -2.68858538155619     -1.65690383364039
  H          -5.26234932424039     -3.32941070944388     -0.77630897078469
  H          -6.38783668956786     -2.91412026481117     -2.09135672090760
  H          -4.65302252600612     -2.96643924438786     -2.42708243547528
  C          -5.13362073480289     -0.25099375790421     -2.43231047858481
  H          -5.09168410495327      0.77654982186367     -2.04928419398348
  H          -5.97794670493318     -0.33221798055304     -3.14397251113476
  H          -4.21324361582534     -0.45090880108323     -3.00817079259767
  H          -2.48160046063858     -2.33919434362199     -1.08904406572613
