41
Coordinates from ORCA-job orca E -847.150190502421
  C          -2.28776940755338     -2.01803177866728      0.65154950476659
  H          -2.32453283343212     -2.42763345318477      1.66476156205943
  C          -2.02222233064378     -0.72274687055519      0.43606620836145
  C          -1.74095763853567      0.28169052719335      1.52573114206470
  H          -0.64801709545513      0.33979764010031      1.69161234329421
  H          -2.18567985205226     -0.05620293969281      2.47453152228667
  C          -2.26060161405604      1.66235392014214      1.13121347863884
  H          -1.98207197715681      2.40842317059468      1.89132578922708
  H          -3.35926556961840      1.64396746496006      1.05517388403425
  C          -1.66649274355964      2.07222882498565     -0.20675809441491
  H          -0.56617355889510      2.15414113805708     -0.10938492906852
  C          -2.21370546873329      3.37472416122247     -0.77836039008384
  C          -1.87011081623091      4.61831523939360      0.04393089836710
  H          -2.31246146655127      4.53796041374226      1.05213523637722
  H          -0.77563345041533      4.66701720929784      0.19479251799105
  C          -2.35423140765030      5.91033238709030     -0.61461206893436
  H          -2.10237044234555      6.79342870396808     -0.00601203879911
  H          -3.44844304959127      5.90001176404237     -0.75240980115463
  H          -1.89867983772377      6.04779053359142     -1.60964778670249
  H          -3.30827756332576      3.27499665890033     -0.88298702420992
  H          -1.81268064318329      3.48271572343335     -1.80056876303724
  O          -1.91243863272617      1.07029687871557     -1.22432087803430
  C          -2.03240558128375     -0.25079275408411     -0.99120336781996
  O          -2.18382406784670     -0.99082178175389     -1.93601920238423
  C          -5.29087765106074     -0.65165876752553     -1.41570445654187
  C          -5.33967699430030     -0.56998624574305      0.03429131432157
  O          -5.49951011323259     -1.77556779373733      0.63923084616207
  C          -5.57042664498731     -1.75316104565552      2.05698500483237
  H          -5.72230541017677     -2.79306389303464      2.37484096355339
  H          -4.63963976037663     -1.35717493083035      2.49308275084117
  H          -6.40531899530114     -1.12393685462467      2.40409489663414
  O          -5.24699098512554      0.46475718808335      0.68327950200295
  C          -5.29350539081236     -1.95356210439386     -2.13944084316783
  H          -5.61219669584857     -2.78635852264053     -1.50060829789427
  H          -5.94326943343556     -1.90709201795361     -3.03093544230158
  H          -4.26968420779320     -2.16332414559687     -2.50485426615070
  C          -5.15018935390751      0.61287178080410     -2.19020426823464
  H          -5.21069248879959      1.49250084684060     -1.53665742132728
  H          -5.93406912682696      0.68280295635612     -2.96674044135911
  H          -4.18031257334332      0.63081816317336     -2.72090118919131
  H          -2.47735712610351     -2.68943739501496     -0.18783839500404
