41
Coordinates from ORCA-job orca E -847.144257582022
  C          -2.52627519250595     -1.69886656898615     -0.40206256391780
  H          -2.84301738721215     -2.28131911486397      0.46650347606565
  C          -2.14617662468163     -0.41756785388225     -0.28177789091685
  C          -2.11964547659392      0.33723215066230      1.02208959756571
  H          -1.10238077614895      0.27857358201427      1.45509110794705
  H          -2.79970106294926     -0.13565725078741      1.74588458648491
  C          -2.48086844773825      1.80243805796243      0.79471209869265
  H          -2.38910386754972      2.37170164115502      1.73262550390404
  H          -3.52785855281306      1.87869393759507      0.45962513463114
  C          -1.54816406821031      2.40245409579344     -0.24497504799801
  H          -0.50930289901561      2.36740773076370      0.13804923733094
  C          -1.87574999057744      3.83416285403472     -0.65310466861300
  C          -1.68950305388433      4.86664023305867      0.46069180978850
  H          -2.37709619544853      4.64919970736632      1.29666867658081
  H          -0.66851485613704      4.77668367070501      0.87597609747772
  C          -1.92130229499147      6.29934251053262     -0.02026258348095
  H          -1.78658364317974      7.02676440441618      0.79613380632113
  H          -2.94307379122999      6.42598447455816     -0.41577055716539
  H          -1.22015548058682      6.56793208237752     -0.82816723833736
  H          -2.91354750384914      3.86010962957356     -1.03015970076313
  H          -1.22876514042774      4.08942394348286     -1.50942272135109
  O          -1.56034618050590      1.63619944938214     -1.47278938036323
  C          -1.78476506264524      0.30900172389523     -1.54695127282444
  O          -1.72805891077604     -0.23044622373343     -2.62722921753591
  C          -5.22147408406683     -1.40001152472056     -1.20558507708815
  C          -5.40738595659758     -0.87647102630413      0.13999341270166
  O          -5.62206180182428     -1.85121715834062      1.06429949464084
  C          -5.82155818390277     -1.41044984119618      2.40064042863873
  H          -6.02063632797403     -2.31099177144691      2.99610224622555
  H          -4.92847565151082     -0.89352265459697      2.78770162185654
  H          -6.67240457370469     -0.71439027492125      2.46648404541913
  O          -5.36016891723669      0.30402832198982      0.45060736484605
  C          -5.38959328847714     -2.85176366714279     -1.51141647232927
  H          -5.18160266931846     -3.48939845461374     -0.64232103007383
  H          -6.43177312396668     -3.06131535978645     -1.82693742710034
  H          -4.74373181860326     -3.15371439218294     -2.35223987922778
  C          -5.04791558137353     -0.43141578106486     -2.32368487817622
  H          -4.93949138715225      0.59505689262620     -1.95133572524508
  H          -5.92290601522820     -0.46517844140014     -3.00221642059882
  H          -4.16389182090245     -0.68106766833711     -2.93429716803518
  H          -2.49004233850083     -2.19087606563765     -1.37471282597686
