41
Coordinates from ORCA-job orca E -847.169533469228
  C      -3.174909     -1.342501     -0.767206
  H      -2.810913     -1.831303      0.141692
  C      -2.908680      0.119910     -0.676360
  C      -3.260674      0.884726      0.553700
  H      -2.624766      0.528814      1.377114
  H      -4.285846      0.657131      0.861457
  C      -3.089051      2.384981      0.366932
  H      -3.070951      2.888467      1.334350
  H      -3.927587      2.797321     -0.202094
  C      -1.809200      2.661964     -0.394186
  H      -0.962087      2.208865      0.140477
  C      -1.515712      4.130626     -0.637980
  C      -1.186256      4.916626      0.626158
  H      -2.042184      4.908680      1.307447
  H      -0.365390      4.423120      1.157682
  C      -0.802314      6.359257      0.323445
  H      -0.577854      6.911897      1.237121
  H      -1.612666      6.880903     -0.190929
  H       0.080115      6.404355     -0.318781
  H      -2.373433      4.579381     -1.149658
  H      -0.674756      4.187473     -1.334596
  O      -1.877809      2.054164     -1.692442
  C      -2.291131      0.774233     -1.821445
  O      -2.151866      0.229672     -2.894417
  C      -4.657226     -1.746403     -0.972391
  C      -5.474053     -1.453156      0.281001
  O      -4.949340     -2.035642      1.371194
  C      -5.665978     -1.834936      2.586076
  H      -5.114606     -2.377139      3.349881
  H      -5.713263     -0.773747      2.833274
  H      -6.681415     -2.221360      2.501531
  O      -6.480315     -0.796225      0.322080
  C      -4.709268     -3.260788     -1.219652
  H      -4.224690     -3.812916     -0.414069
  H      -5.741993     -3.605880     -1.301702
  H      -4.199880     -3.494139     -2.156084
  C      -5.264327     -1.000189     -2.155920
  H      -5.312328      0.073233     -1.969630
  H      -6.280036     -1.344172     -2.351023
  H      -4.653222     -1.161057     -3.044629
  H      -2.617209     -1.740857     -1.614958
41
Coordinates from ORCA-job orca E -847.171589530605
  C      -3.174841     -1.362321     -0.759811
  H      -2.823493     -1.860269      0.159895
  C      -2.899130      0.101385     -0.663648
  C      -3.262883      0.872789      0.565547
  H      -2.628979      0.515976      1.403190
  H      -4.298419      0.644205      0.869887
  C      -3.090219      2.379273      0.375647
  H      -3.076514      2.890061      1.349807
  H      -3.935312      2.792670     -0.200745
  C      -1.806524      2.661769     -0.389365
  H      -0.952223      2.211330      0.154586
  C      -1.514287      4.135680     -0.638856
  C      -1.183751      4.937133      0.622518
  H      -2.045212      4.929189      1.312454
  H      -0.353986      4.445116      1.161804
  C      -0.803814      6.385610      0.312921
  H      -0.577099      6.948917      1.231903
  H      -1.623784      6.908049     -0.206925
  H       0.084707      6.432967     -0.337992
  H      -2.379953      4.582248     -1.158659
  H      -0.668175      4.189558     -1.343914
  O      -1.873145      2.042915     -1.687245
  C      -2.284242      0.755991     -1.816897
  O      -2.151821      0.206639     -2.895302
  C      -4.659032     -1.751051     -0.980190
  C      -5.477080     -1.453133      0.276213
  O      -4.957150     -2.051821      1.366549
  C      -5.656488     -1.846792      2.594329
  H      -5.105161     -2.411712      3.356503
  H      -5.680921     -0.777529      2.854476
  H      -6.691279     -2.212351      2.518887
  O      -6.470618     -0.768913      0.322882
  C      -4.728353     -3.270377     -1.236365
  H      -4.257396     -3.836852     -0.420103
  H      -5.773317     -3.605171     -1.332710
  H      -4.206172     -3.510509     -2.175447
  C      -5.253875     -0.984902     -2.165599
  H      -5.294181      0.095735     -1.967198
  H      -6.280639     -1.319873     -2.371652
  H      -4.634312     -1.142103     -3.060226
  H      -2.605994     -1.766140     -1.608691
41
Coordinates from ORCA-job orca E -847.171586293951
  C      -3.173307     -1.356752     -0.746918
  H      -2.826059     -1.854104      0.175100
  C      -2.897087      0.108117     -0.652744
  C      -3.259182      0.884657      0.574709
  H      -2.626096      0.529138      1.414531
  H      -4.295259      0.660232      0.880944
  C      -3.084023      2.390952      0.379217
  H      -3.068053      2.905950      1.351722
  H      -3.930352      2.803921     -0.196927
  C      -1.801499      2.669845     -0.390977
  H      -0.946088      2.220450      0.153567
  C      -1.507449      4.142428     -0.647377
  C      -1.171723      4.949634      0.609163
  H      -2.030477      4.943389      1.303599
  H      -0.339951      4.458983      1.147974
  C      -0.792991      6.397502      0.293797
  H      -0.561863      6.963804      1.210337
  H      -1.615232      6.919534     -0.224131
  H       0.092719      6.443927     -0.361996
  H      -2.374129      4.587950     -1.167860
  H      -0.663516      4.190811     -1.356382
  O      -1.873403      2.047035     -1.686684
  C      -2.291045      0.760827     -1.812993
  O      -2.159216      0.206580     -2.889584
  C      -4.656249     -1.746917     -0.973092
  C      -5.477191     -1.455335      0.283995
  O      -4.976117     -2.086125      1.366296
  C      -5.687421     -1.905145      2.590169
  H      -5.153158     -2.496696      3.344649
  H      -5.703227     -0.842419      2.879104
  H      -6.726687     -2.254619      2.493653
  O      -6.475207     -0.776938      0.333145
  C      -4.723700     -3.266026     -1.236559
  H      -4.258811     -3.835640     -0.418435
  H      -5.768312     -3.600860     -1.341567
  H      -4.194587     -3.503458     -2.173049
  C      -5.252449     -0.975921     -2.156016
  H      -5.300150      0.103254     -1.949712
  H      -6.277375     -1.315303     -2.366776
  H      -4.629663     -1.122252     -3.050606
  H      -2.599486     -1.761019     -1.592830
41
Coordinates from ORCA-job orca E -847.171640016549
  C      -3.173276     -1.362085     -0.745528
  H      -2.831431     -1.861615      0.177346
  C      -2.895242      0.102788     -0.648143
  C      -3.258379      0.879047      0.579536
  H      -2.626960      0.522948      1.420635
  H      -4.294961      0.655415      0.884993
  C      -3.083710      2.385808      0.384381
  H      -3.067796      2.901085      1.356830
  H      -3.931015      2.798501     -0.190861
  C      -1.802217      2.666519     -0.387883
  H      -0.945695      2.218613      0.156604
  C      -1.510015      4.139222     -0.645535
  C      -1.173721      4.948073      0.609614
  H      -2.030699      4.938765      1.306517
  H      -0.339861      4.459358      1.147314
  C      -0.799659      6.397089      0.294267
  H      -0.567484      6.963505      1.210447
  H      -1.624332      6.917960     -0.221201
  H       0.083990      6.447110     -0.364217
  H      -2.377639      4.583088     -1.166296
  H      -0.667353      4.187048     -1.356302
  O      -1.875520      2.043924     -1.683372
  C      -2.293376      0.757255     -1.810337
  O      -2.167886      0.205771     -2.889242
  C      -4.655958     -1.749646     -0.977798
  C      -5.479460     -1.457805      0.278193
  O      -4.977806     -2.086716      1.362146
  C      -5.677387     -1.888759      2.589216
  H      -5.147056     -2.483108      3.344124
  H      -5.677157     -0.824222      2.872643
  H      -6.722717     -2.222981      2.502764
  O      -6.461483     -0.756583      0.332872
  C      -4.725811     -3.268541     -1.243779
  H      -4.267518     -3.840074     -0.423332
  H      -5.770690     -3.600591     -1.355051
  H      -4.192121     -3.506830     -2.177509
  C      -5.250200     -0.976624     -2.161118
  H      -5.301789      0.101672     -1.951311
  H      -6.273834     -1.317800     -2.375575
  H      -4.624528     -1.117901     -3.054396
  H      -2.595319     -1.765294     -1.589201
41
Coordinates from ORCA-job orca E -847.171654072563
  C      -3.171356     -1.364474     -0.749654
  H      -2.829691     -1.865241      0.172291
  C      -2.892484      0.099766     -0.650338
  C      -3.253139      0.873062      0.579302
  H      -2.620224      0.515832      1.418294
  H      -4.289043      0.647997      0.886052
  C      -3.080925      2.380057      0.386646
  H      -3.063548      2.893412      1.359781
  H      -3.929973      2.792522     -0.185616
  C      -1.801873      2.664017     -0.387854
  H      -0.943738      2.217048      0.154216
  C      -1.513094      4.137609     -0.643724
  C      -1.176499      4.944836      0.611965
  H      -2.031616      4.931478      1.310609
  H      -0.340345      4.457588      1.146846
  C      -0.807417      6.395166      0.298757
  H      -0.574603      6.960184      1.215382
  H      -1.634543      6.914783     -0.213472
  H       0.074219      6.449208     -0.361662
  H      -2.382137      4.580328     -1.162437
  H      -0.671984      4.187981     -1.355723
  O      -1.876519      2.043217     -1.683824
  C      -2.291474      0.755984     -1.811686
  O      -2.174519      0.209639     -2.893709
  C      -4.654965     -1.749610     -0.980029
  C      -5.475028     -1.448839      0.275815
  O      -4.977324     -2.079422      1.360514
  C      -5.674615     -1.874182      2.587297
  H      -5.149552     -2.472309      3.342720
  H      -5.665064     -0.809688      2.869886
  H      -6.722797     -2.198805      2.501858
  O      -6.453169     -0.742674      0.329578
  C      -4.727992     -3.269021     -1.239933
  H      -4.269858     -3.838250     -0.418099
  H      -5.773501     -3.599172     -1.348375
  H      -4.196579     -3.511833     -2.173481
  C      -5.248424     -0.980097     -2.165583
  H      -5.297782      0.098906     -1.959809
  H      -6.272784     -1.320093     -2.377221
  H      -4.624314     -1.126359     -3.058868
  H      -2.594794     -1.767161     -1.594252
41
Coordinates from ORCA-job orca E -847.171639268106
  C      -3.172197     -1.363018     -0.750020
  H      -2.830420     -1.862997      0.172179
  C      -2.895468      0.101603     -0.651225
  C      -3.253846      0.874272      0.579094
  H      -2.620339      0.516376      1.417134
  H      -4.289511      0.649877      0.886826
  C      -3.081239      2.381018      0.386672
  H      -3.062985      2.894069      1.359817
  H      -3.930433      2.793940     -0.184805
  C      -1.802485      2.664296     -0.388256
  H      -0.944719      2.216510      0.153451
  C      -1.512654      4.137802     -0.643474
  C      -1.175421      4.944065      0.612406
  H      -2.029946      4.929971      1.311559
  H      -0.339085      4.456474      1.146454
  C      -0.806601      6.394412      0.300173
  H      -0.572912      6.958553      1.217027
  H      -1.633985      6.914621     -0.210812
  H       0.074339      6.449138     -0.360947
  H      -2.381232      4.581234     -1.162076
  H      -0.671736      4.187640     -1.355567
  O      -1.878007      2.044202     -1.684329
  C      -2.296729      0.758428     -1.813185
  O      -2.175989      0.210869     -2.893923
  C      -4.655118     -1.750708     -0.980541
  C      -5.474690     -1.448343      0.275074
  O      -4.978950     -2.080919      1.359534
  C      -5.674812     -1.873240      2.586413
  H      -5.153190     -2.475052      3.341256
  H      -5.659391     -0.809263      2.870474
  H      -6.724858     -2.191499      2.501088
  O      -6.450334     -0.739074      0.329342
  C      -4.725229     -3.270258     -1.238671
  H      -4.266073     -3.837806     -0.416386
  H      -5.770094     -3.602303     -1.346604
  H      -4.193818     -3.512942     -2.172111
  C      -5.249716     -0.983515     -2.166754
  H      -5.301269      0.095483     -1.961948
  H      -6.273403     -1.325783     -2.377627
  H      -4.625664     -1.129652     -3.059958
  H      -2.594865     -1.765092     -1.594294
41
Coordinates from ORCA-job orca E -847.171655790823
  C      -3.173243     -1.361550     -0.745953
  H      -2.833133     -1.861004      0.177200
  C      -2.896907      0.103378     -0.647937
  C      -3.251657      0.876684      0.583092
  H      -2.616567      0.518565      1.419948
  H      -4.286780      0.653441      0.893261
  C      -3.078800      2.383330      0.389706
  H      -3.058247      2.896810      1.362651
  H      -3.929282      2.796307     -0.179959
  C      -1.801653      2.666003     -0.388199
  H      -0.942792      2.218576      0.152258
  C      -1.512095      4.139359     -0.645163
  C      -1.172043      4.946721      0.609221
  H      -2.024778      4.932638      1.310684
  H      -0.334194      4.459730      1.141622
  C      -0.804454      6.396979      0.295205
  H      -0.568254      6.961707      1.211127
  H      -1.633354      6.916917     -0.213760
  H       0.074641      6.451720     -0.368490
  H      -2.381686      4.582404     -1.162582
  H      -0.672706      4.188263     -1.359255
  O      -1.879783      2.044972     -1.683588
  C      -2.299956      0.759467     -1.811320
  O      -2.182409      0.211759     -2.892374
  C      -4.655185     -1.751090     -0.979634
  C      -5.476852     -1.451022      0.275249
  O      -4.985779     -2.089896      1.358321
  C      -5.682627     -1.883945      2.584733
  H      -5.166570     -2.492866      3.337757
  H      -5.660940     -0.821493      2.874499
  H      -6.734742     -2.194611      2.496019
  O      -6.449696     -0.737941      0.330524
  C      -4.722257     -3.270251     -1.240280
  H      -4.263956     -3.838501     -0.417972
  H      -5.766434     -3.603850     -1.350944
  H      -4.188625     -3.510485     -2.173148
  C      -5.249025     -0.982809     -2.165576
  H      -5.303176      0.095689     -1.958814
  H      -6.271795     -1.326805     -2.378631
  H      -4.623332     -1.126167     -3.058117
  H      -2.593948     -1.763742     -1.588920
41
Coordinates from ORCA-job orca E -847.171659738924
  C      -3.173095     -1.362208     -0.746103
  H      -2.833598     -1.862059      0.177093
  C      -2.896119      0.102548     -0.647552
  C      -3.249112      0.875096      0.584430
  H      -2.612652      0.516743      1.420221
  H      -4.283811      0.651347      0.895905
  C      -3.077201      2.381941      0.391415
  H      -3.055748      2.895063      1.364576
  H      -3.928711      2.794619     -0.177007
  C      -1.801120      2.665683     -0.387905
  H      -0.941286      2.218926      0.151676
  C      -1.512979      4.139342     -0.645059
  C      -1.172326      4.946990      0.608995
  H      -2.024182      4.931791      1.311572
  H      -0.333215      4.460892      1.140324
  C      -0.806742      6.397726      0.294722
  H      -0.569770      6.962554      1.210420
  H      -1.636926      6.916962     -0.212949
  H       0.071371      6.453565     -0.370246
  H      -2.383468      4.581641     -1.161721
  H      -0.674321      4.188896     -1.360036
  O      -1.879969      2.044699     -1.683265
  C      -2.300185      0.759190     -1.811208
  O      -2.183839      0.212060     -2.892745
  C      -4.655099     -1.751283     -0.980163
  C      -5.476002     -1.448849      0.274703
  O      -4.988635     -2.091683      1.357170
  C      -5.684110     -1.883003      2.583833
  H      -5.172980     -2.497461      3.335744
  H      -5.654178     -0.821354      2.876031
  H      -6.738667     -2.185161      2.494369
  O      -6.444765     -0.730237      0.330692
  C      -4.722633     -3.270502     -1.239924
  H      -4.264543     -3.838594     -0.417383
  H      -5.766942     -3.603905     -1.350438
  H      -4.189159     -3.511286     -2.172781
  C      -5.248347     -0.983345     -2.166672
  H      -5.302102      0.095267     -1.960489
  H      -6.271317     -1.327098     -2.379550
  H      -4.622748     -1.127594     -3.059141
  H      -2.593840     -1.764527     -1.589096
41
Coordinates from ORCA-job orca E -847.171663360318
  C      -3.173121     -1.362864     -0.745861
  H      -2.834227     -1.863137      0.177350
  C      -2.895035      0.101569     -0.646782
  C      -3.245048      0.873137      0.586646
  H      -2.605819      0.514844      1.420361
  H      -4.278734      0.648370      0.900699
  C      -3.074729      2.380195      0.393901
  H      -3.051773      2.892874      1.367261
  H      -3.927758      2.792254     -0.172677
  C      -1.800307      2.665332     -0.387542
  H      -0.939012      2.219592      0.150534
  C      -1.514338      4.139355     -0.645137
  C      -1.172736      4.947428      0.608422
  H      -2.023417      4.931101      1.312379
  H      -0.331956      4.462583      1.138243
  C      -0.809700      6.398690      0.293412
  H      -0.571752      6.963857      1.208648
  H      -1.641558      6.916747     -0.212697
  H       0.067138      6.455596     -0.373139
  H      -2.386197      4.580569     -1.160413
  H      -0.676791      4.190028     -1.361322
  O      -1.880291      2.044278     -1.682835
  C      -2.300228      0.758721     -1.810688
  O      -2.185018      0.211995     -2.892590
  C      -4.655187     -1.751320     -0.980561
  C      -5.475487     -1.446644      0.274146
  O      -4.992606     -2.094019      1.355817
  C      -5.687014     -1.882486      2.582672
  H      -5.181868     -2.503613      3.333151
  H      -5.647342     -0.821986      2.877890
  H      -6.744181     -2.174782      2.491664
  O      -6.439655     -0.721867      0.330727
  C      -4.723098     -3.270454     -1.239874
  H      -4.265091     -3.838664     -0.417402
  H      -5.767452     -3.603773     -1.350304
  H      -4.189765     -3.511348     -2.172787
  C      -5.247354     -0.983370     -2.167595
  H      -5.300218      0.095336     -1.961922
  H      -6.270551     -1.326442     -2.380658
  H      -4.621695     -1.128729     -3.059827
  H      -2.594099     -1.765564     -1.588852
41
Coordinates from ORCA-job orca E -847.168429728687
  C      -3.118959     -1.351716     -0.738197
  H      -2.774581     -1.848906      0.184672
  C      -2.850896      0.114738     -0.640850
  C      -3.203649      0.884814      0.592734
  H      -2.560121      0.531634      1.425351
  H      -4.235087      0.653064      0.909186
  C      -3.044279      2.392913      0.398456
  H      -3.022812      2.906506      1.371370
  H      -3.901408      2.798570     -0.166605
  C      -1.773532      2.686353     -0.385951
  H      -0.907963      2.247051      0.150617
  C      -1.498421      4.162176     -0.645302
  C      -1.159771      4.973608      0.606897
  H      -2.008822      4.951879      1.312697
  H      -0.314461      4.495050      1.135284
  C      -0.807558      6.427164      0.289982
  H      -0.571590      6.994703      1.204269
  H      -1.644126      6.939014     -0.214737
  H       0.067449      6.489683     -0.378500
  H      -2.374473      4.596897     -1.159043
  H      -0.662770      4.218149     -1.363329
  O      -1.851962      2.063738     -1.680591
  C      -2.263188      0.775146     -1.806544
  O      -2.146484      0.228389     -2.888271
  C      -4.700630     -1.777400     -0.985530
  C      -5.520360     -1.477487      0.270706
  O      -5.030626     -2.120650      1.351839
  C      -5.723872     -1.913021      2.580025
  H      -5.212769     -2.530037      3.329898
  H      -5.690978     -0.852015      2.874336
  H      -6.779192     -2.212777      2.491518
  O      -6.489473     -0.759407      0.328801
  C      -4.758480     -3.297210     -1.243522
  H      -4.294731     -3.861581     -0.421595
  H      -5.800742     -3.637915     -1.351446
  H      -4.225471     -3.535098     -2.177396
  C      -5.300720     -1.014509     -2.171884
  H      -5.360682      0.063987     -1.966932
  H      -6.321977     -1.364898     -2.382480
  H      -4.675965     -1.156185     -3.065350
  H      -2.538936     -1.751021     -1.582122
41
Coordinates from ORCA-job orca E -847.169136631311
  C      -3.107194     -1.375822     -0.728823
  H      -2.793425     -1.882140      0.198813
  C      -2.835976      0.083385     -0.631140
  C      -3.198374      0.852488      0.599932
  H      -2.553104      0.507385      1.434493
  H      -4.228548      0.609900      0.914660
  C      -3.052032      2.361558      0.402224
  H      -3.033274      2.877621      1.373893
  H      -3.913404      2.758650     -0.162404
  C      -1.785364      2.663773     -0.385903
  H      -0.914980      2.231823      0.148769
  C      -1.522519      4.141346     -0.647681
  C      -1.186817      4.956891      0.602650
  H      -2.033798      4.929576      1.310705
  H      -0.336463      4.485547      1.129323
  C      -0.846693      6.412703      0.282971
  H      -0.612766      6.983222      1.195908
  H      -1.688506      6.917351     -0.220201
  H       0.026035      6.481068     -0.387864
  H      -2.403334      4.568595     -1.159439
  H      -0.689307      4.203032     -1.368021
  O      -1.862795      2.039284     -1.679930
  C      -2.264207      0.747376     -1.802721
  O      -2.154498      0.201509     -2.885567
  C      -4.697163     -1.761357     -0.988488
  C      -5.491098     -1.436536      0.272949
  O      -5.017684     -2.103847      1.346724
  C      -5.696307     -1.880198      2.580254
  H      -5.202520     -2.519211      3.323256
  H      -5.625062     -0.822822      2.880814
  H      -6.761862     -2.142802      2.496375
  O      -6.434086     -0.685313      0.340253
  C      -4.778207     -3.275333     -1.254325
  H      -4.332860     -3.852903     -0.431425
  H      -5.826501     -3.593912     -1.371980
  H      -4.242932     -3.519724     -2.185243
  C      -5.248949     -0.963094     -2.170239
  H      -5.267689      0.114869     -1.953676
  H      -6.280873     -1.270700     -2.395389
  H      -4.620468     -1.120974     -3.058808
  H      -2.539468     -1.788874     -1.573238
41
Coordinates from ORCA-job orca E -847.169315927417
  C      -3.114668     -1.371352     -0.697485
  H      -2.829643     -1.876689      0.238604
  C      -2.849448      0.086401     -0.610267
  C      -3.198385      0.863328      0.620721
  H      -2.545235      0.522571      1.450907
  H      -4.224801      0.625008      0.947139
  C      -3.051500      2.370852      0.412903
  H      -3.023533      2.892598      1.381266
  H      -3.916848      2.766281     -0.146785
  C      -1.790642      2.665941     -0.386981
  H      -0.917056      2.234569      0.142830
  C      -1.526319      4.141440     -0.658695
  C      -1.177024      4.962493      0.584289
  H      -2.017738      4.941642      1.299975
  H      -0.323447      4.491270      1.105792
  C      -0.835241      6.415510      0.253809
  H      -0.591494      6.990167      1.161563
  H      -1.679927      6.920043     -0.244616
  H       0.031715      6.477489     -0.425071
  H      -2.410592      4.568464     -1.164599
  H      -0.699515      4.197205     -1.386857
  O      -1.879827      2.034924     -1.677041
  C      -2.287378      0.744108     -1.790430
  O      -2.181549      0.190504     -2.869638
  C      -4.699976     -1.757203     -0.983810
  C      -5.498965     -1.453358      0.275719
  O      -5.041875     -2.147458      1.339617
  C      -5.720364     -1.930873      2.574569
  H      -5.242137     -2.592017      3.308280
  H      -5.629024     -0.880383      2.893225
  H      -6.790615     -2.170639      2.482741
  O      -6.419307     -0.675253      0.355940
  C      -4.758825     -3.264104     -1.274225
  H      -4.322079     -3.850069     -0.452974
  H      -5.802303     -3.591001     -1.414412
  H      -4.206125     -3.489048     -2.199636
  C      -5.231827     -0.938159     -2.156957
  H      -5.258222      0.134657     -1.919026
  H      -6.259356     -1.244449     -2.406043
  H      -4.588314     -1.075811     -3.037566
  H      -2.545660     -1.796208     -1.534314
41
Coordinates from ORCA-job orca E -847.169334826134
  C      -3.112712     -1.364496     -0.685846
  H      -2.840882     -1.871076      0.252662
  C      -2.845399      0.091591     -0.603003
  C      -3.180305      0.869976      0.631261
  H      -2.517606      0.530806      1.454503
  H      -4.202962      0.631592      0.969014
  C      -3.037361      2.377246      0.420036
  H      -3.001376      2.900358      1.387397
  H      -3.908303      2.770786     -0.132245
  C      -1.784139      2.673260     -0.391148
  H      -0.905225      2.244780      0.132127
  C      -1.525319      4.148793     -0.667924
  C      -1.167617      4.972826      0.570733
  H      -2.002331      4.951162      1.293366
  H      -0.308606      4.504497      1.085903
  C      -0.832111      6.426140      0.235061
  H      -0.582317      7.002889      1.139844
  H      -1.682126      6.927764     -0.257211
  H       0.029072      6.489075     -0.451040
  H      -2.414745      4.572947     -1.167187
  H      -0.704653      4.205092     -1.402953
  O      -1.882399      2.039091     -1.679006
  C      -2.287095      0.746916     -1.786782
  O      -2.193050      0.194061     -2.867444
  C      -4.697340     -1.750401     -0.975838
  C      -5.489979     -1.445699      0.286200
  O      -5.073631     -2.186732      1.335093
  C      -5.765906     -1.986033      2.565152
  H      -5.322660     -2.685574      3.285093
  H      -5.645219     -0.949748      2.918489
  H      -6.841738     -2.186624      2.448328
  O      -6.400056     -0.655582      0.372173
  C      -4.747513     -3.255843     -1.268977
  H      -4.309907     -3.841197     -0.447939
  H      -5.789233     -3.588377     -1.411609
  H      -4.192699     -3.477287     -2.193847
  C      -5.231310     -0.931374     -2.146804
  H      -5.265990      0.139942     -1.904977
  H      -6.256858     -1.243230     -2.399426
  H      -4.585763     -1.061252     -3.026570
  H      -2.549699     -1.797676     -1.522201
41
Coordinates from ORCA-job orca E -847.169421417229
  C      -3.111951     -1.370257     -0.696045
  H      -2.843413     -1.880231      0.241702
  C      -2.839693      0.084477     -0.608697
  C      -3.173112      0.857849      0.628756
  H      -2.507138      0.517980      1.449097
  H      -4.194922      0.614974      0.967814
  C      -3.035206      2.366050      0.421707
  H      -3.000543      2.886491      1.390578
  H      -3.907744      2.758245     -0.128996
  C      -1.783272      2.668558     -0.389017
  H      -0.902736      2.242179      0.133272
  C      -1.530054      4.145731     -0.662218
  C      -1.176727      4.968065      0.578869
  H      -2.011833      4.940688      1.300836
  H      -0.315990      4.502145      1.093378
  C      -0.847487      6.423802      0.247447
  H      -0.600878      6.999127      1.154015
  H      -1.699425      6.922994     -0.243987
  H       0.013860      6.492500     -0.437896
  H      -2.420840      4.567544     -1.161084
  H      -0.709004      4.207157     -1.396395
  O      -1.879018      2.036788     -1.678344
  C      -2.279746      0.743689     -1.789658
  O      -2.182575      0.193927     -2.871656
  C      -4.697708     -1.753629     -0.983213
  C      -5.485464     -1.435659      0.279363
  O      -5.079799     -2.179894      1.330049
  C      -5.752167     -1.948470      2.565757
  H      -5.322614     -2.655664      3.286546
  H      -5.596122     -0.913692      2.909365
  H      -6.834795     -2.117041      2.461877
  O      -6.362296     -0.609203      0.372328
  C      -4.752300     -3.261174     -1.267855
  H      -4.312529     -3.843264     -0.445756
  H      -5.794944     -3.593427     -1.404296
  H      -4.202431     -3.488892     -2.194167
  C      -5.237585     -0.943712     -2.158398
  H      -5.275458      0.128966     -1.923262
  H      -6.263001     -1.259964     -2.406310
  H      -4.594483     -1.077308     -3.039307
  H      -2.551929     -1.805057     -1.533739
41
Coordinates from ORCA-job orca E -847.169446167446
  C      -3.111681     -1.368751     -0.691694
  H      -2.842731     -1.879198      0.246311
  C      -2.838742      0.086235     -0.602694
  C      -3.157852      0.856149      0.640482
  H      -2.479280      0.516958      1.450857
  H      -4.174235      0.609922      0.992411
  C      -3.025969      2.364854      0.433967
  H      -2.982147      2.884018      1.403159
  H      -3.905439      2.755444     -0.106746
  C      -1.783247      2.671185     -0.389573
  H      -0.896366      2.245973      0.122871
  C      -1.535872      4.149197     -0.663612
  C      -1.171330      4.970753      0.574757
  H      -1.998761      4.940624      1.305393
  H      -0.304233      4.506064      1.079609
  C      -0.848674      6.427609      0.241808
  H      -0.593674      7.002241      1.146493
  H      -1.706826      6.925651     -0.239883
  H       0.005209      6.499055     -0.452541
  H      -2.432690      4.569755     -1.152629
  H      -0.722649      4.213270     -1.406233
  O      -1.891235      2.041069     -1.678831
  C      -2.294832      0.748783     -1.788777
  O      -2.197493      0.196635     -2.869600
  C      -4.695557     -1.756250     -0.983661
  C      -5.488531     -1.435131      0.275826
  O      -5.100072     -2.191054      1.324303
  C      -5.771119     -1.952179      2.559335
  H      -5.358109     -2.671720      3.277563
  H      -5.594920     -0.922584      2.908745
  H      -6.856612     -2.098117      2.451464
  O      -6.351182     -0.593810      0.369549
  C      -4.748283     -3.264745     -1.268180
  H      -4.308875     -3.846913     -0.445910
  H      -5.789870     -3.599006     -1.406019
  H      -4.197202     -3.491394     -2.194109
  C      -5.234283     -0.948822     -2.161961
  H      -5.275818      0.124242     -1.928336
  H      -6.257866     -1.268178     -2.412483
  H      -4.588455     -1.082532     -3.041261
  H      -2.547564     -1.801911     -1.527709
41
Coordinates from ORCA-job orca E -847.169472493039
  C      -3.110550     -1.370730     -0.680794
  H      -2.847449     -1.883009      0.258355
  C      -2.831190      0.083128     -0.589570
  C      -3.126827      0.848988      0.661815
  H      -2.428349      0.512060      1.456200
  H      -4.133970      0.597230      1.034436
  C      -3.006408      2.358497      0.455082
  H      -2.948899      2.876654      1.424109
  H      -3.897337      2.744573     -0.069852
  C      -1.779504      2.672707     -0.389038
  H      -0.881466      2.253530      0.108733
  C      -1.546346      4.152202     -0.667499
  C      -1.167426      4.976723      0.564589
  H      -1.982755      4.941293      1.308458
  H      -0.289167      4.518111      1.055544
  C      -0.859880      6.435559      0.226088
  H      -0.593905      7.012121      1.126378
  H      -1.729074      6.927776     -0.241581
  H      -0.017962      6.512441     -0.482160
  H      -2.453725      4.566503     -1.142161
  H      -0.745618      4.221429     -1.423117
  O      -1.904016      2.041626     -1.676414
  C      -2.302054      0.747238     -1.781079
  O      -2.224275      0.198177     -2.865124
  C      -4.692947     -1.755847     -0.983727
  C      -5.490222     -1.429301      0.272213
  O      -5.136447     -2.212696      1.312275
  C      -5.804221     -1.964893      2.547383
  H      -5.424661     -2.711142      3.256744
  H      -5.588277     -0.948582      2.913076
  H      -6.894052     -2.065070      2.431751
  O      -6.322671     -0.558601      0.372012
  C      -4.747468     -3.263760     -1.271614
  H      -4.312101     -3.849548     -0.449782
  H      -5.788721     -3.596613     -1.413921
  H      -4.193872     -3.488478     -2.196559
  C      -5.223830     -0.945595     -2.164369
  H      -5.265751      0.127149     -1.929368
  H      -6.246161     -1.263831     -2.421129
  H      -4.573668     -1.079559     -3.040616
  H      -2.541848     -1.805069     -1.513308
41
Coordinates from ORCA-job orca E -847.169497967569
  C      -3.109791     -1.373061     -0.673297
  H      -2.853145     -1.886567      0.266930
  C      -2.822639      0.079140     -0.581246
  C      -3.098806      0.842242      0.676102
  H      -2.382737      0.509570      1.456631
  H      -4.097413      0.584397      1.066206
  C      -2.989834      2.352151      0.467215
  H      -2.926047      2.871322      1.435312
  H      -3.888454      2.731854     -0.049176
  C      -1.772548      2.672913     -0.388297
  H      -0.867451      2.261269      0.102892
  C      -1.552025      4.153349     -0.672004
  C      -1.170110      4.983635      0.555298
  H      -1.979687      4.944022      1.305188
  H      -0.284897      4.532702      1.040912
  C      -0.875596      6.443834      0.211102
  H      -0.606708      7.024311      1.108009
  H      -1.751884      6.928800     -0.250865
  H      -0.039789      6.525051     -0.503867
  H      -2.465880      4.559803     -1.141007
  H      -0.757357      4.226541     -1.433607
  O      -1.902382      2.038225     -1.673550
  C      -2.297969      0.742876     -1.774984
  O      -2.220248      0.192067     -2.858214
  C      -4.692451     -1.752091     -0.982469
  C      -5.483433     -1.417221      0.275102
  O      -5.174650     -2.239941      1.298619
  C      -5.834351     -1.986097      2.536922
  H      -5.499301     -2.768749      3.229255
  H      -5.565252     -0.992200      2.928185
  H      -6.927362     -2.024043      2.414718
  O      -6.274625     -0.510543      0.389605
  C      -4.750942     -3.258274     -1.272905
  H      -4.316337     -3.847764     -0.453436
  H      -5.793096     -3.588601     -1.414569
  H      -4.199294     -3.481622     -2.199324
  C      -5.219371     -0.937646     -2.162208
  H      -5.259171      0.134254     -1.924732
  H      -6.242393     -1.253567     -2.420400
  H      -4.569452     -1.071763     -3.038164
  H      -2.540193     -1.811189     -1.503423
41
Coordinates from ORCA-job orca E -847.169512885058
  C      -3.109273     -1.377095     -0.664731
  H      -2.856575     -1.891872      0.275774
  C      -2.813087      0.073514     -0.571439
  C      -3.068103      0.834216      0.691763
  H      -2.332479      0.507320      1.456565
  H      -4.056480      0.569422      1.101962
  C      -2.972045      2.344446      0.479959
  H      -2.902350      2.865400      1.446690
  H      -3.878674      2.716432     -0.027976
  C      -1.764762      2.672232     -0.386912
  H      -0.852405      2.269556      0.098190
  C      -1.558403      4.153518     -0.676982
  C      -1.173848      4.990981      0.544574
  H      -1.977422      4.947662      1.300674
  H      -0.281475      4.548696      1.025035
  C      -0.893201      6.452200      0.193144
  H      -0.621522      7.037726      1.085921
  H      -1.776798      6.928981     -0.263395
  H      -0.063779      6.537258     -0.528770
  H      -2.479124      4.550844     -1.140346
  H      -0.770213      4.230603     -1.444905
  O      -1.898535      2.032712     -1.669468
  C      -2.291796      0.736384     -1.767319
  O      -2.214451      0.183928     -2.849797
  C      -4.692763     -1.747384     -0.980186
  C      -5.478841     -1.408041      0.279198
  O      -5.211733     -2.264269      1.286580
  C      -5.866675     -2.007918      2.526973
  H      -5.572906     -2.820843      3.202954
  H      -5.553487     -1.037007      2.942483
  H      -6.959456     -1.991519      2.398259
  O      -6.230736     -0.470487      0.408919
  C      -4.756197     -3.250753     -1.277659
  H      -4.323179     -3.846309     -0.461964
  H      -5.799662     -3.576821     -1.420066
  H      -4.205748     -3.470559     -2.205634
  C      -5.212418     -0.924576     -2.157259
  H      -5.247886      0.145927     -1.914136
  H      -6.236333     -1.235634     -2.418933
  H      -4.561426     -1.057479     -3.032333
  H      -2.538826     -1.818004     -1.492945
41
Coordinates from ORCA-job orca E -847.169520630246
  C      -3.108459     -1.381202     -0.660495
  H      -2.857084     -1.897752      0.279441
  C      -2.804904      0.068052     -0.565311
  C      -3.045958      0.826874      0.701721
  H      -2.296784      0.504515      1.455374
  H      -4.026601      0.556670      1.126201
  C      -2.959462      2.337345      0.488277
  H      -2.886582      2.859555      1.454103
  H      -3.871410      2.703528     -0.014335
  C      -1.758777      2.670724     -0.385483
  H      -0.841568      2.274958      0.096130
  C      -1.563146      4.152700     -0.679656
  C      -1.177679      4.995189      0.538113
  H      -1.977295      4.948880      1.298223
  H      -0.280374      4.559282      1.015204
  C      -0.907375      6.457232      0.181947
  H      -0.634575      7.046403      1.071982
  H      -1.796034      6.927816     -0.271193
  H      -0.082129      6.545406     -0.544368
  H      -2.488660      4.543170     -1.139285
  H      -0.779327      4.232965     -1.451716
  O      -1.893655      2.027718     -1.666201
  C      -2.285630      0.730832     -1.762238
  O      -2.208875      0.177925     -2.844551
  C      -4.693208     -1.743554     -0.978830
  C      -5.476529     -1.402205      0.281461
  O      -5.232412     -2.275001      1.280303
  C      -5.886367     -2.017450      2.520981
  H      -5.614797     -2.844786      3.188712
  H      -5.551881     -1.059183      2.949079
  H      -6.977888     -1.973491      2.388165
  O      -6.206369     -0.448417      0.419330
  C      -4.761875     -3.245271     -1.281325
  H      -4.330663     -3.845171     -0.467914
  H      -5.806604     -3.567092     -1.424281
  H      -4.212187     -3.463668     -2.210040
  C      -5.207276     -0.914363     -2.153817
  H      -5.238997      0.155187     -1.906266
  H      -6.231822     -1.221148     -2.418366
  H      -4.555050     -1.046284     -3.028059
  H      -2.538802     -1.823497     -1.488558
41
Coordinates from ORCA-job orca E -847.169537011718
  C      -3.107233     -1.385257     -0.660396
  H      -2.856209     -1.904114      0.278423
  C      -2.798126      0.062751     -0.562746
  C      -3.031113      0.819693      0.706865
  H      -2.273306      0.500508      1.453340
  H      -4.006392      0.545272      1.140612
  C      -2.951521      2.330404      0.493105
  H      -2.877635      2.853137      1.458579
  H      -3.866694      2.692487     -0.006630
  C      -1.754625      2.668459     -0.383976
  H      -0.834457      2.277733      0.096100
  C      -1.566815      4.151098     -0.680113
  C      -1.181893      4.996537      0.535747
  H      -1.979296      4.947568      1.298018
  H      -0.281439      4.565049      1.010903
  C      -0.918991      6.459366      0.177254
  H      -0.646428      7.050769      1.065880
  H      -1.810910      6.925508     -0.274064
  H      -0.096072      6.550304     -0.551361
  H      -2.495417      4.536740     -1.137581
  H      -0.785509      4.234199     -1.454423
  O      -1.888490      2.023475     -1.663776
  C      -2.280027      0.726417     -1.759743
  O      -2.203841      0.174153     -2.842422
  C      -4.693523     -1.740672     -0.978873
  C      -5.475113     -1.397245      0.281671
  O      -5.240299     -2.275067      1.278273
  C      -5.894486     -2.015456      2.518398
  H      -5.631234     -2.846904      3.184362
  H      -5.552818     -1.061272      2.949928
  H      -6.985339     -1.961902      2.383593
  O      -6.195888     -0.436761      0.421612
  C      -4.767786     -3.241839     -1.283197
  H      -4.338506     -3.844021     -0.470445
  H      -5.813753     -3.559616     -1.426086
  H      -4.218867     -3.461393     -2.212069
  C      -5.203680     -0.908036     -2.153106
  H      -5.231869      0.161187     -1.903643
  H      -6.228926     -1.211108     -2.419126
  H      -4.550817     -1.040651     -3.026790
  H      -2.539726     -1.828109     -1.489640
41
Coordinates from ORCA-job orca E -847.169542907530
  C      -3.105078     -1.391232     -0.663635
  H      -2.854536     -1.913942      0.273230
  C      -2.789461      0.055022     -0.561836
  C      -3.013999      0.808564      0.711219
  H      -2.246704      0.492650      1.449507
  H      -3.982980      0.528681      1.155147
  C      -2.942886      2.319720      0.498558
  H      -2.868401      2.842226      1.464115
  H      -3.861693      2.677183      0.002161
  C      -1.750247      2.664473     -0.381658
  H      -0.826651      2.279727      0.096662
  C      -1.572254      4.148194     -0.678672
  C      -1.188220      4.996048      0.535768
  H      -1.982893      4.942821      1.300615
  H      -0.283862      4.569667      1.008088
  C      -0.934765      6.460257      0.176059
  H      -0.662892      7.053541      1.063638
  H      -1.830703      6.921121     -0.272712
  H      -0.114597      6.555615     -0.555093
  H      -2.504624      4.528252     -1.133122
  H      -0.794009      4.235669     -1.455588
  O      -1.882106      2.018233     -1.660984
  C      -2.273351      0.721165     -1.758321
  O      -2.198523      0.170951     -2.842131
  C      -4.693637     -1.737674     -0.980689
  C      -5.473272     -1.389070      0.279409
  O      -5.243293     -2.266332      1.277540
  C      -5.897420     -2.001516      2.516587
  H      -5.637533     -2.832311      3.184694
  H      -5.552966     -1.047487      2.946198
  H      -6.987990     -1.944596      2.380846
  O      -6.188815     -0.424309      0.417641
  C      -4.776490     -3.238998     -1.283699
  H      -4.350361     -3.842402     -0.470157
  H      -5.824241     -3.551050     -1.425948
  H      -4.228759     -3.462959     -2.212206
  C      -5.199237     -0.903344     -2.155693
  H      -5.221959      0.166155     -1.906752
  H      -6.225825     -1.201306     -2.422082
  H      -4.546463     -1.039761     -3.028893
  H      -2.541374     -1.834255     -1.495351
41
Coordinates from ORCA-job orca E -847.169537254476
  C      -3.103216     -1.396255     -0.668667
  H      -2.853322     -1.922572      0.266350
  C      -2.783211      0.048574     -0.562922
  C      -3.001512      0.798420      0.713311
  H      -2.227412      0.484320      1.445332
  H      -3.965743      0.514116      1.164529
  C      -2.937004      2.310068      0.502763
  H      -2.862130      2.831604      1.468818
  H      -3.858559      2.664365      0.009180
  C      -1.747597      2.660727     -0.379539
  H      -0.821402      2.280276      0.097184
  C      -1.577177      4.145493     -0.675966
  C      -1.193901      4.994169      0.538149
  H      -1.986549      4.937096      1.304830
  H      -0.286664      4.571232      1.008028
  C      -0.947469      6.459668      0.178815
  H      -0.676262      7.053608      1.066157
  H      -1.846327      6.916932     -0.267788
  H      -0.129281      6.558956     -0.554029
  H      -2.512381      4.521663     -1.127804
  H      -0.801240      4.237003     -1.454720
  O      -1.877801      2.014573     -1.659058
  C      -2.269122      0.717692     -1.758575
  O      -2.195860      0.169975     -2.843741
  C      -4.693594     -1.736124     -0.983713
  C      -5.471878     -1.380933      0.275341
  O      -5.240636     -2.252754      1.277927
  C      -5.894332     -1.982015      2.515921
  H      -5.631743     -2.808078      3.188827
  H      -5.552193     -1.024437      2.939438
  H      -6.985172     -1.928843      2.380755
  O      -6.187773     -0.415791      0.408960
  C      -4.783846     -3.238170     -1.282249
  H      -4.360722     -3.840955     -0.466653
  H      -5.833059     -3.545561     -1.423674
  H      -4.237107     -3.467870     -2.209941
  C      -5.196207     -0.903073     -2.160942
  H      -5.214131      0.167248     -1.915193
  H      -6.224218     -1.197107     -2.426082
  H      -4.544461     -1.044951     -3.034058
  H      -2.542857     -1.838899     -1.502842
41
Coordinates from ORCA-job orca E -847.169532140278
  C      -3.098752     -1.407602     -0.677015
  H      -2.852276     -1.941689      0.254458
  C      -2.767787      0.033772     -0.562952
  C      -2.965891      0.774299      0.721791
  H      -2.172787      0.464681      1.435315
  H      -3.916774      0.478902      1.193217
  C      -2.918734      2.287097      0.516536
  H      -2.839354      2.806091      1.483609
  H      -3.848915      2.633302      0.033511
  C      -1.740933      2.652644     -0.375350
  H      -0.806542      2.282991      0.093753
  C      -1.590684      4.139818     -0.670923
  C      -1.206097      4.991022      0.541024
  H      -1.991119      4.923952      1.314717
  H      -0.289974      4.577577      1.002037
  C      -0.979389      6.459690      0.181702
  H      -0.707199      7.055502      1.067482
  H      -1.887244      6.907292     -0.256409
  H      -0.168830      6.569206     -0.558129
  H      -2.534305      4.505747     -1.113555
  H      -0.822981      4.241509     -1.456528
  O      -1.871942      2.006825     -1.654975
  C      -2.261925      0.709846     -1.758123
  O      -2.194208      0.167574     -2.846359
  C      -4.692672     -1.732385     -0.990063
  C      -5.467154     -1.359902      0.266477
  O      -5.245652     -2.227762      1.274721
  C      -5.896656     -1.942321      2.510825
  H      -5.640599     -2.765460      3.189793
  H      -5.546980     -0.984307      2.927134
  H      -6.987086     -1.881477      2.375447
  O      -6.171896     -0.385845      0.393733
  C      -4.799444     -3.235339     -1.278880
  H      -4.383724     -3.837485     -0.459016
  H      -5.851813     -3.532109     -1.419326
  H      -4.254683     -3.477165     -2.204670
  C      -5.187186     -0.901859     -2.172565
  H      -5.194182      0.170119     -1.933988
  H      -6.218344     -1.186922     -2.435328
  H      -4.537708     -1.056254     -3.045215
  H      -2.544646     -1.850185     -1.515454
41
Coordinates from ORCA-job orca E -847.169529691601
  C      -3.099769     -1.404561     -0.675168
  H      -2.852782     -1.936722      0.257227
  C      -2.772024      0.037769     -0.563169
  C      -2.974486      0.780191      0.719863
  H      -2.186197      0.468742      1.437813
  H      -3.928859      0.487713      1.186232
  C      -2.922863      2.292831      0.513806
  H      -2.843774      2.812049      1.480782
  H      -3.851222      2.641383      0.028992
  C      -1.742768      2.654870     -0.376471
  H      -0.810082      2.282310      0.093729
  C      -1.587572      4.141519     -0.672002
  C      -1.202757      4.991874      0.540468
  H      -1.989379      4.927200      1.312741
  H      -0.288664      4.575932      1.003267
  C      -0.971124      6.459807      0.181277
  H      -0.698673      7.054937      1.067438
  H      -1.876907      6.910031     -0.258439
  H      -0.158985      6.566837     -0.557189
  H      -2.529295      4.510123     -1.116456
  H      -0.818140      4.240846     -1.456225
  O      -1.874552      2.009387     -1.656207
  C      -2.264520      0.712348     -1.758512
  O      -2.195450      0.168784     -2.846015
  C      -4.692689     -1.733668     -0.988790
  C      -5.468079     -1.364409      0.268267
  O      -5.244375     -2.233327      1.275256
  C      -5.896427     -1.951771      2.511680
  H      -5.638712     -2.775612      3.189166
  H      -5.548988     -0.993780      2.929940
  H      -6.986954     -1.893108      2.376104
  O      -6.175447     -0.392539      0.396914
  C      -4.795144     -3.236453     -1.278937
  H      -4.377957     -3.838441     -0.459721
  H      -5.846677     -3.535961     -1.419986
  H      -4.249582     -3.475625     -2.204955
  C      -5.189642     -0.903353     -2.170399
  H      -5.199296      0.168434     -1.931041
  H      -6.220222     -1.190891     -2.432829
  H      -4.540261     -1.055325     -3.043523
  H      -2.543776     -1.846978     -1.512467
41
Coordinates from ORCA-job orca E -847.169536725960
  C      -3.099421     -1.405081     -0.675436
  H      -2.852870     -1.937610      0.256821
  C      -2.771392      0.037154     -0.563042
  C      -2.971208      0.778566      0.720989
  H      -2.181428      0.466736      1.437099
  H      -3.924583      0.485486      1.189038
  C      -2.920694      2.291378      0.515807
  H      -2.839919      2.809993      1.482968
  H      -3.850222      2.639688      0.033080
  C      -1.742491      2.654631     -0.376477
  H      -0.808678      2.282589      0.091902
  C      -1.588927      4.141493     -0.671741
  C      -1.203240      4.991887      0.540423
  H      -1.988860      4.926471      1.313655
  H      -0.288268      4.576532      1.002026
  C      -0.973049      6.460057      0.181245
  H      -0.699800      7.055149      1.067189
  H      -1.879703      6.909811     -0.257161
  H      -0.161964      6.567797     -0.558275
  H      -2.531546      4.509404     -1.114874
  H      -0.820615      4.241699     -1.456952
  O      -1.875996      2.009599     -1.656289
  C      -2.265218      0.712350     -1.758613
  O      -2.196660      0.169081     -2.846292
  C      -4.692379     -1.733773     -0.989299
  C      -5.467457     -1.362457      0.267478
  O      -5.246083     -2.232171      1.274471
  C      -5.898177     -1.949622      2.510606
  H      -5.642445     -2.774113      3.188052
  H      -5.549095     -0.992411      2.929311
  H      -6.988531     -1.888782      2.374512
  O      -6.172495     -0.389009      0.396062
  C      -4.795483     -3.236550     -1.278191
  H      -4.379163     -3.838383     -0.458453
  H      -5.847117     -3.535529     -1.419735
  H      -4.249612     -3.476510     -2.203837
  C      -5.188976     -0.904137     -2.171527
  H      -5.197906      0.167872     -1.933259
  H      -6.219884     -1.191335     -2.433168
  H      -4.540186     -1.057241     -3.044862
  H      -2.543327     -1.847318     -1.512792
41
Coordinates from ORCA-job orca E -847.162049361860
  C      -3.044171     -1.395662     -0.665547
  H      -2.791745     -1.925379      0.266763
  C      -2.726254      0.049055     -0.555483
  C      -2.928573      0.790464      0.728160
  H      -2.134979      0.485107      1.442881
  H      -3.878813      0.491059      1.198632
  C      -2.889377      2.303410      0.521179
  H      -2.810201      2.823685      1.487583
  H      -3.822468      2.644504      0.040106
  C      -1.715745      2.674131     -0.374102
  H      -0.778230      2.309319      0.092639
  C      -1.573510      4.161767     -0.671363
  C      -1.191267      5.016283      0.539004
  H      -1.974717      4.946088      1.314037
  H      -0.272296      4.608017      0.999059
  C      -0.972412      6.485707      0.177682
  H      -0.701490      7.083749      1.062361
  H      -1.883260      6.928459     -0.259232
  H      -0.163727      6.598447     -0.563742
  H      -2.519747      4.522412     -1.112834
  H      -0.807644      4.266615     -1.458375
  O      -1.847431      2.026711     -1.652900
  C      -2.227559      0.726552     -1.752921
  O      -2.157490      0.182563     -2.840145
  C      -4.737849     -1.757274     -0.995715
  C      -5.512831     -1.390123      0.262352
  O      -5.282996     -2.257123      1.269828
  C      -5.934402     -1.977879      2.507083
  H      -5.671258     -2.799777      3.184886
  H      -5.591274     -1.017693      2.923952
  H      -7.025492     -1.925023      2.373318
  O      -6.224579     -0.421596      0.391399
  C      -4.830794     -3.261114     -1.282704
  H      -4.408348     -3.859042     -0.463209
  H      -5.880591     -3.567805     -1.421601
  H      -4.285234     -3.498185     -2.209282
  C      -5.243004     -0.932525     -2.177776
  H      -5.259111      0.139687     -1.940685
  H      -6.272425     -1.227420     -2.436831
  H      -4.595035     -1.081943     -3.052367
  H      -2.486741     -1.834839     -1.503632
41
Coordinates from ORCA-job orca E -847.162798975129
  C      -3.029666     -1.421141     -0.654451
  H      -2.808227     -1.957656      0.280882
  C      -2.710388      0.015987     -0.545669
  C      -2.929122      0.760348      0.733503
  H      -2.138388      0.465052      1.455345
  H      -3.880756      0.452572      1.197710
  C      -2.901539      2.272983      0.520952
  H      -2.827552      2.797651      1.485402
  H      -3.836750      2.604832      0.037567
  C      -1.730730      2.649699     -0.375849
  H      -0.790334      2.291946      0.090497
  C      -1.598880      4.137681     -0.675974
  C      -1.221248      4.997009      0.532421
  H      -2.003378      4.922888      1.308405
  H      -0.299053      4.595917      0.992245
  C      -1.012932      6.467200      0.168169
  H      -0.745239      7.068727      1.051455
  H      -1.927243      6.902832     -0.268594
  H      -0.205831      6.584132     -0.574302
  H      -2.547970      4.491051     -1.117113
  H      -0.834589      4.246248     -1.463991
  O      -1.860443      1.999380     -1.653481
  C      -2.230084      0.695980     -1.749371
  O      -2.171522      0.152666     -2.837509
  C      -4.730237     -1.736473     -0.996423
  C      -5.472988     -1.349846      0.270702
  O      -5.274387     -2.238811      1.265828
  C      -5.909191     -1.949104      2.509090
  H      -5.676269     -2.788970      3.175837
  H      -5.526461     -1.008382      2.935837
  H      -6.997893     -1.851239      2.381144
  O      -6.147544     -0.356808      0.413231
  C      -4.849230     -3.232792     -1.296086
  H      -4.445246     -3.846276     -0.478826
  H      -5.904987     -3.514832     -1.443475
  H      -4.303686     -3.474372     -2.221550
  C      -5.182094     -0.874123     -2.168808
  H      -5.154226      0.194342     -1.915178
  H      -6.220255     -1.121014     -2.443266
  H      -4.531153     -1.039300     -3.038945
  H      -2.487359     -1.872595     -1.494901
41
Coordinates from ORCA-job orca E -847.162931899041
  C      -3.043977     -1.416735     -0.634324
  H      -2.847939     -1.951774      0.306507
  C      -2.729996      0.018416     -0.533698
  C      -2.948096      0.771143      0.741522
  H      -2.160109      0.477630      1.467026
  H      -3.901176      0.470370      1.204977
  C      -2.914589      2.282058      0.519779
  H      -2.842671      2.812308      1.481274
  H      -3.846389      2.614492      0.030286
  C      -1.737625      2.648225     -0.373267
  H      -0.801475      2.288189      0.099752
  C      -1.596442      4.133847     -0.680723
  C      -1.218849      4.997512      0.524557
  H      -2.004573      4.932193      1.297671
  H      -0.300948      4.593522      0.990356
  C      -1.000372      6.464414      0.153147
  H      -0.732874      7.069238      1.034241
  H      -1.910253      6.902959     -0.289892
  H      -0.189473      6.572522     -0.586528
  H      -2.541770      4.490033     -1.127584
  H      -0.828436      4.234040     -1.466256
  O      -1.863736      1.991647     -1.648095
  C      -2.242814      0.690698     -1.739578
  O      -2.168205      0.137627     -2.821736
  C      -4.739758     -1.733519     -0.998049
  C      -5.482788     -1.364089      0.269744
  O      -5.279965     -2.261701      1.256423
  C      -5.896434     -1.974573      2.509468
  H      -5.663002     -2.821033      3.167610
  H      -5.499938     -1.040422      2.938036
  H      -6.985726     -1.865981      2.395912
  O      -6.127021     -0.354060      0.434499
  C      -4.836132     -3.224689     -1.314532
  H      -4.435829     -3.842276     -0.498843
  H      -5.887395     -3.516487     -1.477732
  H      -4.277376     -3.450540     -2.235888
  C      -5.178460     -0.857612     -2.161958
  H      -5.161432      0.206556     -1.892079
  H      -6.211766     -1.106899     -2.454440
  H      -4.515071     -1.005484     -3.025068
  H      -2.504192     -1.878376     -1.470057
41
Coordinates from ORCA-job orca E -847.162968480004
  C      -3.049663     -1.400349     -0.611146
  H      -2.869894     -1.934019      0.332724
  C      -2.737316      0.033246     -0.520090
  C      -2.937357      0.792918      0.754827
  H      -2.142742      0.499799      1.473195
  H      -3.886194      0.499158      1.229226
  C      -2.901338      2.302391      0.525743
  H      -2.819691      2.836788      1.484134
  H      -3.836308      2.635422      0.042779
  C      -1.730439      2.661137     -0.377968
  H      -0.791717      2.301418      0.090108
  C      -1.587876      4.144751     -0.694402
  C      -1.197747      5.013543      0.503164
  H      -1.977121      4.954476      1.283159
  H      -0.277146      4.609239      0.963316
  C      -0.978176      6.477864      0.122331
  H      -0.701652      7.086497      0.998007
  H      -1.890453      6.916724     -0.315451
  H      -0.173141      6.579783     -0.624604
  H      -2.535963      4.501224     -1.135152
  H      -0.826240      4.238803     -1.486890
  O      -1.866338      1.997597     -1.648143
  C      -2.247389      0.696690     -1.730467
  O      -2.183843      0.140109     -2.811518
  C      -4.741355     -1.727873     -0.984280
  C      -5.480392     -1.380086      0.288772
  O      -5.312753     -2.314396      1.247917
  C      -5.955065     -2.062864      2.495642
  H      -5.749101     -2.935441      3.128337
  H      -5.556407     -1.150495      2.966901
  H      -7.039766     -1.934687      2.360653
  O      -6.135236     -0.378437      0.466368
  C      -4.810356     -3.214679     -1.317369
  H      -4.404568     -3.834568     -0.506406
  H      -5.856238     -3.522201     -1.489074
  H      -4.244253     -3.421817     -2.238459
  C      -5.186399     -0.844030     -2.137362
  H      -5.189367      0.215880     -1.852507
  H      -6.214399     -1.106135     -2.439472
  H      -4.516594     -0.968546     -2.998474
  H      -2.517079     -1.871444     -1.445608
41
Coordinates from ORCA-job orca E -847.163043584665
  C      -3.045790     -1.406437     -0.620638
  H      -2.862108     -1.941671      0.322044
  C      -2.727775      0.026754     -0.525108
  C      -2.935129      0.783738      0.749676
  H      -2.143241      0.490527      1.470987
  H      -3.886695      0.486747      1.219059
  C      -2.900914      2.293876      0.523612
  H      -2.823543      2.826638      1.483322
  H      -3.835051      2.625928      0.038346
  C      -1.728516      2.657380     -0.376156
  H      -0.789974      2.299913      0.094054
  C      -1.589865      4.141906     -0.690022
  C      -1.207134      5.010124      0.510389
  H      -1.988929      4.946561      1.287618
  H      -0.286519      4.608604      0.972977
  C      -0.992112      6.476027      0.132998
  H      -0.720933      7.084113      1.010722
  H      -1.904672      6.912090     -0.306999
  H      -0.185025      6.582532     -0.611057
  H      -2.537626      4.495837     -1.133583
  H      -0.825676      4.239787     -1.479554
  O      -1.859119      1.995079     -1.647546
  C      -2.233954      0.692539     -1.732413
  O      -2.173177      0.139941     -2.815727
  C      -4.739383     -1.729922     -0.988635
  C      -5.477512     -1.372144      0.284260
  O      -5.317006     -2.303708      1.247140
  C      -5.941902     -2.033037      2.499637
  H      -5.745861     -2.905679      3.135432
  H      -5.521506     -1.125540      2.961300
  H      -7.025309     -1.885376      2.374526
  O      -6.106944     -0.355037      0.465732
  C      -4.820732     -3.219089     -1.316633
  H      -4.414730     -3.839268     -0.505926
  H      -5.868981     -3.521110     -1.482057
  H      -4.260811     -3.432837     -2.240088
  C      -5.188824     -0.851296     -2.145708
  H      -5.187586      0.210700     -1.867049
  H      -6.218703     -1.112267     -2.441274
  H      -4.523633     -0.983175     -3.009741
  H      -2.512169     -1.876361     -1.455461
41
Coordinates from ORCA-job orca E -847.163058268847
  C      -3.043195     -1.404961     -0.619378
  H      -2.856675     -1.939907      0.323308
  C      -2.725291      0.028776     -0.523631
  C      -2.929048      0.784703      0.751999
  H      -2.133481      0.492462      1.469725
  H      -3.878773      0.485883      1.224639
  C      -2.897068      2.294948      0.526188
  H      -2.816431      2.827480      1.485778
  H      -3.833398      2.626281      0.044652
  C      -1.728456      2.659598     -0.378041
  H      -0.787864      2.301909      0.087938
  C      -1.591507      4.144409     -0.691252
  C      -1.204680      5.011595      0.508625
  H      -1.983393      4.946545      1.288819
  H      -0.281979      4.610207      0.967155
  C      -0.992243      6.478101      0.132110
  H      -0.718068      7.085353      1.009478
  H      -1.906867      6.913991     -0.303761
  H      -0.188188      6.586094     -0.615006
  H      -2.541089      4.498430     -1.130855
  H      -0.830291      4.243347     -1.483510
  O      -1.864828      1.998502     -1.649534
  C      -2.244089      0.697282     -1.734245
  O      -2.174760      0.140647     -2.815049
  C      -4.736242     -1.731909     -0.986829
  C      -5.476144     -1.372613      0.285713
  O      -5.333966     -2.312546      1.243031
  C      -5.954756     -2.037510      2.496603
  H      -5.776375     -2.917765      3.127104
  H      -5.517076     -1.141266      2.964161
  H      -7.034922     -1.867961      2.371354
  O      -6.089217     -0.346381      0.472365
  C      -4.818501     -3.221792     -1.315752
  H      -4.410508     -3.842910     -0.506675
  H      -5.866635     -3.524632     -1.479034
  H      -4.260758     -3.434509     -2.240829
  C      -5.188922     -0.854898     -2.144986
  H      -5.189369      0.207570     -1.867107
  H      -6.218306     -1.118135     -2.439642
  H      -4.524284     -0.986792     -3.009782
  H      -2.507427     -1.874238     -1.453387
41
Coordinates from ORCA-job orca E -847.163080715832
  C      -3.043439     -1.403470     -0.610160
  H      -2.861752     -1.938137      0.333667
  C      -2.723636      0.029618     -0.516025
  C      -2.917633      0.786106      0.760859
  H      -2.116260      0.494668      1.472468
  H      -3.863590      0.487274      1.240329
  C      -2.888324      2.296191      0.534013
  H      -2.801030      2.829239      1.492721
  H      -3.828568      2.626425      0.059411
  C      -1.726866      2.661635     -0.379063
  H      -0.782324      2.305954      0.080401
  C      -1.594540      4.146306     -0.694887
  C      -1.200396      5.015350      0.501281
  H      -1.973234      4.949687      1.287232
  H      -0.273668      4.615973      0.953396
  C      -0.993255      6.481856      0.121847
  H      -0.713636      7.090397      0.996601
  H      -1.911830      6.915773     -0.307636
  H      -0.194948      6.590525     -0.631315
  H      -2.547861      4.498364     -1.127906
  H      -0.839258      4.245651     -1.492760
  O      -1.871190      1.998850     -1.648835
  C      -2.247852      0.696698     -1.729563
  O      -2.191284      0.141132     -2.811701
  C      -4.734957     -1.730856     -0.984204
  C      -5.476949     -1.375009      0.287685
  O      -5.355386     -2.327494      1.235108
  C      -5.975347     -2.054653      2.489600
  H      -5.815953     -2.945136      3.110751
  H      -5.522255     -1.172228      2.968630
  H      -7.051616     -1.863152      2.362616
  O      -6.072849     -0.340126      0.483048
  C      -4.813458     -3.219248     -1.318958
  H      -4.405874     -3.843057     -0.511736
  H      -5.860548     -3.523896     -1.485363
  H      -4.253674     -3.426973     -2.243921
  C      -5.184934     -0.850230     -2.140708
  H      -5.188423      0.211030     -1.858553
  H      -6.212719     -1.114473     -2.440290
  H      -4.517109     -0.977775     -3.003634
  H      -2.506645     -1.875396     -1.441983
41
Coordinates from ORCA-job orca E -847.163091885333
  C      -3.044176     -1.400622     -0.602561
  H      -2.866568     -1.934302      0.342570
  C      -2.721971      0.031686     -0.510878
  C      -2.908591      0.789717      0.766163
  H      -2.103339      0.499330      1.473852
  H      -3.852303      0.491655      1.249861
  C      -2.880779      2.299318      0.536761
  H      -2.791090      2.833891      1.494377
  H      -3.822723      2.627940      0.064457
  C      -1.722015      2.664259     -0.379888
  H      -0.775862      2.311594      0.078549
  C      -1.592979      4.148315     -0.699922
  C      -1.198683      5.021233      0.493404
  H      -1.970068      4.955856      1.280790
  H      -0.270383      4.624928      0.945007
  C      -0.995238      6.487225      0.110014
  H      -0.715230      7.098464      0.982767
  H      -1.915508      6.918217     -0.318782
  H      -0.198593      6.595703     -0.644939
  H      -2.547657      4.497397     -1.132335
  H      -0.839128      4.247082     -1.499231
  O      -1.867100      1.997688     -1.647722
  C      -2.242383      0.695038     -1.725122
  O      -2.187696      0.137895     -2.806606
  C      -4.734876     -1.728662     -0.979718
  C      -5.471605     -1.376403      0.295536
  O      -5.384220     -2.350344      1.224244
  C      -5.999327     -2.082180      2.482219
  H      -5.872085     -2.989876      3.085613
  H      -5.518380     -1.225411      2.980293
  H      -7.068061     -1.852019      2.355971
  O      -6.037728     -0.327974      0.507838
  C      -4.809156     -3.214835     -1.321311
  H      -4.397090     -3.841835     -0.518840
  H      -5.855640     -3.522605     -1.485730
  H      -4.251681     -3.415542     -2.249178
  C      -5.187727     -0.843421     -2.131596
  H      -5.194333      0.216012     -1.843599
  H      -6.214906     -1.109877     -2.432019
  H      -4.520361     -0.964679     -2.995389
  H      -2.507831     -1.876465     -1.432461
41
Coordinates from ORCA-job orca E -847.163100323751
  C      -3.044249     -1.399540     -0.596650
  H      -2.866309     -1.932243      0.349126
  C      -2.720446      0.032842     -0.505937
  C      -2.898129      0.790775      0.772346
  H      -2.087094      0.501323      1.473843
  H      -3.838021      0.492029      1.262736
  C      -2.873012      2.300279      0.542190
  H      -2.778433      2.835289      1.499091
  H      -3.818019      2.627582      0.075131
  C      -1.719635      2.666049     -0.380867
  H      -0.770578      2.315274      0.072974
  C      -1.594505      4.150005     -0.702943
  C      -1.196200      5.024730      0.487735
  H      -1.963818      4.958734      1.278731
  H      -0.265151      4.630438      0.935429
  C      -0.997047      6.490711      0.102072
  H      -0.713935      7.103203      0.972945
  H      -1.920074      6.919769     -0.322725
  H      -0.204189      6.599864     -0.656755
  H      -2.551764      4.497076     -1.131253
  H      -0.844525      4.249308     -1.505817
  O      -1.870018      1.998132     -1.647439
  C      -2.245881      0.695529     -1.722471
  O      -2.193794      0.137138     -2.803485
  C      -4.734096     -1.728239     -0.977040
  C      -5.471888     -1.378418      0.298516
  O      -5.402245     -2.361935      1.218185
  C      -6.017734     -2.096455      2.476638
  H      -5.907107     -3.011974      3.071412
  H      -5.524903     -1.252466      2.984778
  H      -7.082168     -1.848012      2.348829
  O      -6.023845     -0.323912      0.518340
  C      -4.806645     -3.213231     -1.323407
  H      -4.393132     -3.842661     -0.523602
  H      -5.852730     -3.522127     -1.487947
  H      -4.249318     -3.409646     -2.252290
  C      -5.185880     -0.839751     -2.127206
  H      -5.193332      0.218756     -1.835812
  H      -6.212356     -1.106493     -2.429776
  H      -4.517227     -0.958174     -2.990452
  H      -2.505635     -1.876167     -1.424712
41
Coordinates from ORCA-job orca E -847.163109683981
  C      -3.043972     -1.400475     -0.595475
  H      -2.864811     -1.932823      0.350338
  C      -2.718201      0.031759     -0.504628
  C      -2.892138      0.789386      0.774270
  H      -2.078142      0.500852      1.472748
  H      -3.829948      0.489668      1.268023
  C      -2.869030      2.298863      0.543789
  H      -2.773491      2.834193      1.500420
  H      -3.815205      2.624830      0.078169
  C      -1.717346      2.665711     -0.380886
  H      -0.767235      2.316832      0.072202
  C      -1.594974      4.149648     -0.704150
  C      -1.197838      5.026047      0.485679
  H      -1.965146      4.959445      1.276924
  H      -0.266034      4.633691      0.933497
  C      -1.001224      6.492022      0.098705
  H      -0.718834      7.105717      0.968968
  H      -1.925093      6.919208     -0.326153
  H      -0.208794      6.601840     -0.660472
  H      -2.553030      4.494620     -1.132382
  H      -0.845484      4.249700     -1.507386
  O      -1.867732      1.996722     -1.646913
  C      -2.243957      0.694156     -1.721451
  O      -2.190326      0.134977     -2.801993
  C      -4.734191     -1.727095     -0.976002
  C      -5.470590     -1.377493      0.300532
  O      -5.408807     -2.365077      1.216167
  C      -6.024640     -2.100738      2.474762
  H      -5.921782     -3.019699      3.065596
  H      -5.526484     -1.262685      2.987479
  H      -7.086960     -1.843883      2.346069
  O      -6.015278     -0.319942      0.523957
  C      -4.808395     -3.211378     -1.324503
  H      -4.394230     -3.842405     -0.526295
  H      -5.854944     -3.519269     -1.487956
  H      -4.252106     -3.406600     -2.254250
  C      -5.184938     -0.836129     -2.124748
  H      -5.190540      0.221891     -1.831521
  H      -6.211839     -1.101292     -2.427258
  H      -4.516604     -0.954147     -2.988310
  H      -2.504758     -1.877261     -1.423106
41
Coordinates from ORCA-job orca E -847.163105170987
  C      -3.043651     -1.402139     -0.596117
  H      -2.864151     -1.934838      0.349443
  C      -2.716103      0.029735     -0.504518
  C      -2.888262      0.786731      0.774956
  H      -2.072403      0.498928      1.471598
  H      -3.824617      0.485903      1.270796
  C      -2.866940      2.296260      0.544741
  H      -2.771418      2.831552      1.501390
  H      -3.813786      2.621134      0.079716
  C      -1.716056      2.664518     -0.380345
  H      -0.765331      2.317179      0.072646
  C      -1.595944      4.148580     -0.703989
  C      -1.200273      5.025987      0.485583
  H      -1.967699      4.958706      1.276654
  H      -0.268068      4.635047      0.933809
  C      -1.005521      6.492060      0.098029
  H      -0.724204      7.106512      0.968107
  H      -1.929843      6.917818     -0.327280
  H      -0.213016      6.602615     -0.660963
  H      -2.554498      4.491908     -1.132427
  H      -0.846563      4.249558     -1.507215
  O      -1.865481      1.995071     -1.646233
  C      -2.241583      0.692447     -1.721058
  O      -2.187225      0.133439     -2.801647
  C      -4.734461     -1.726053     -0.976332
  C      -5.469808     -1.375437      0.300514
  O      -5.409306     -2.363100      1.216092
  C      -6.025139     -2.098066      2.474578
  H      -5.924046     -3.017372      3.065171
  H      -5.525761     -1.260996      2.987693
  H      -7.086965     -1.839372      2.345494
  O      -6.012706     -0.316992      0.524097
  C      -4.810970     -3.210148     -1.325034
  H      -4.397496     -3.841810     -0.526967
  H      -5.858030     -3.516468     -1.488190
  H      -4.254984     -3.406102     -2.254798
  C      -5.183746     -0.834028     -2.124771
  H      -5.187407      0.223902     -1.831191
  H      -6.211127     -1.097464     -2.427146
  H      -4.515623     -0.952888     -2.988382
  H      -2.504859     -1.878925     -1.424043
41
Coordinates from ORCA-job orca E -847.154066702397
  C      -2.988398     -1.392957     -0.584688
  H      -2.802966     -1.923071      0.361202
  C      -2.670915      0.041392     -0.495787
  C      -2.845645      0.798910      0.783032
  H      -2.026166      0.517915      1.478247
  H      -3.778736      0.492048      1.281375
  C      -2.835663      2.308276      0.550696
  H      -2.741844      2.845567      1.506397
  H      -3.785877      2.625721      0.087339
  C      -1.689485      2.683518     -0.377466
  H      -0.735258      2.343619      0.073879
  C      -1.580739      4.167996     -0.703415
  C      -1.188705      5.049874      0.484068
  H      -1.953882      4.978177      1.276944
  H      -0.252695      4.666235      0.930750
  C      -1.005332      6.516812      0.094066
  H      -0.726479      7.134477      0.962671
  H      -1.933657      6.935357     -0.329764
  H      -0.215315      6.632008     -0.666848
  H      -2.542712      4.503862     -1.130185
  H      -0.833876      4.273245     -1.508454
  O      -1.836936      2.011260     -1.642100
  C      -2.203864      0.705836     -1.714297
  O      -2.147909      0.145734     -2.794240
  C      -4.779845     -1.749081     -0.983645
  C      -5.514856     -1.401985      0.294362
  O      -5.445226     -2.387957      1.211161
  C      -6.060150     -2.125611      2.470658
  H      -5.951145     -3.043380      3.062287
  H      -5.565629     -1.284255      2.981508
  H      -7.124119     -1.874709      2.343589
  O      -6.064845     -0.347126      0.517703
  C      -4.846490     -3.234203     -1.330138
  H      -4.426703     -3.861804     -0.532127
  H      -5.891717     -3.548257     -1.490536
  H      -4.291174     -3.427447     -2.260875
  C      -5.238092     -0.861855     -2.132306
  H      -5.248684      0.196452     -1.840170
  H      -6.264259     -1.133074     -2.432025
  H      -4.571045     -0.977110     -2.997245
  H      -2.448035     -1.867016     -1.413162
41
Coordinates from ORCA-job orca E -847.154856818077
  C      -2.970394     -1.422195     -0.576283
  H      -2.816530     -1.959078      0.370765
  C      -2.652397      0.003719     -0.487534
  C      -2.846108      0.763751      0.787211
  H      -2.029733      0.494215      1.490206
  H      -3.780655      0.447310      1.278650
  C      -2.849739      2.272569      0.549726
  H      -2.762908      2.814172      1.503661
  H      -3.801959      2.579430      0.083397
  C      -1.706243      2.655465     -0.378934
  H      -0.749158      2.323844      0.072457
  C      -1.609682      4.140272     -0.707083
  C      -1.224118      5.027047      0.478855
  H      -1.988275      4.950449      1.272247
  H      -0.284869      4.651594      0.925591
  C      -1.052767      6.494767      0.086491
  H      -0.778521      7.116011      0.953993
  H      -1.984608      6.905126     -0.337546
  H      -0.264068      6.615133     -0.674972
  H      -2.574544      4.467712     -1.133783
  H      -0.864181      4.250330     -1.512719
  O      -1.849840      1.980597     -1.642710
  C      -2.204704      0.671808     -1.711851
  O      -2.161925      0.113818     -2.793258
  C      -4.769357     -1.724900     -0.985396
  C      -5.468208     -1.357956      0.303309
  O      -5.437995     -2.358014      1.207272
  C      -6.033142     -2.083758      2.473463
  H      -5.961881     -3.012544      3.053536
  H      -5.498440     -1.271487      2.990946
  H      -7.085552     -1.783940      2.356430
  O      -5.971189     -0.282772      0.541191
  C      -4.866215     -3.202411     -1.344575
  H      -4.466170     -3.846672     -0.549741
  H      -5.918477     -3.488932     -1.512301
  H      -4.311552     -3.401444     -2.274532
  C      -5.170432     -0.800742     -2.122150
  H      -5.135168      0.252387     -1.812797
  H      -6.204786     -1.020188     -2.436518
  H      -4.500042     -0.933965     -2.982623
  H      -2.448540     -1.907139     -1.409629
41
Coordinates from ORCA-job orca E -847.155025959248
  C      -2.989036     -1.414735     -0.555633
  H      -2.861480     -1.950364      0.395096
  C      -2.674037      0.007786     -0.474332
  C      -2.862026      0.776009      0.797362
  H      -2.045824      0.507712      1.501004
  H      -3.796453      0.467581      1.291321
  C      -2.859568      2.282894      0.550456
  H      -2.773745      2.829979      1.501303
  H      -3.808931      2.590647      0.078910
  C      -1.710110      2.654770     -0.375250
  H      -0.756920      2.321170      0.082811
  C      -1.604394      4.137102     -0.711702
  C      -1.219172      5.028818      0.470618
  H      -1.987152      4.961068      1.261101
  H      -0.283952      4.650907      0.923640
  C      -1.038166      6.493208      0.070289
  H      -0.764521      7.118193      0.935296
  H      -1.965861      6.905970     -0.360445
  H      -0.245398      6.604789     -0.688291
  H      -2.565707      4.467038     -1.144392
  H      -0.854950      4.238566     -1.514839
  O      -1.850163      1.973043     -1.635865
  C      -2.217516      0.667561     -1.700765
  O      -2.156512      0.099450     -2.775915
  C      -4.781935     -1.720699     -0.988266
  C      -5.482830     -1.372244      0.300110
  O      -5.437248     -2.377293      1.198129
  C      -6.018838     -2.112813      2.472642
  H      -5.937172     -3.044635      3.046402
  H      -5.481632     -1.301482      2.988971
  H      -7.073765     -1.816687      2.369492
  O      -5.975439     -0.295718      0.555168
  C      -4.852474     -3.193149     -1.361394
  H      -4.455016     -3.839156     -0.566874
  H      -5.899123     -3.491683     -1.545526
  H      -4.283603     -3.376651     -2.285785
  C      -5.172158     -0.785711     -2.116714
  H      -5.149327      0.263047     -1.793288
  H      -6.201211     -1.008534     -2.447593
  H      -4.490222     -0.902816     -2.969703
  H      -2.471487     -1.909548     -1.385089
41
Coordinates from ORCA-job orca E -847.155028636092
  C      -2.998559     -1.402423     -0.534717
  H      -2.892624     -1.938449      0.417403
  C      -2.679185      0.015926     -0.460018
  C      -2.850403      0.790708      0.810988
  H      -2.028246      0.522941      1.507784
  H      -3.780866      0.488924      1.314872
  C      -2.846189      2.296129      0.557093
  H      -2.754228      2.847359      1.504963
  H      -3.797577      2.603623      0.089464
  C      -1.700546      2.662080     -0.375414
  H      -0.745704      2.331528      0.081320
  C      -1.596048      4.142255     -0.721779
  C      -1.205526      5.041352      0.453193
  H      -1.970088      4.978742      1.247389
  H      -0.268442      4.666040      0.904516
  C      -1.026021      6.503146      0.042817
  H      -0.748766      7.133630      0.902673
  H      -1.955457      6.913245     -0.386728
  H      -0.236394      6.609799     -0.719737
  H      -2.559199      4.469641     -1.152329
  H      -0.850098      4.238548     -1.528817
  O      -1.843573      1.971783     -1.631022
  C      -2.210456      0.665921     -1.688041
  O      -2.163182      0.096685     -2.763240
  C      -4.787445     -1.713979     -0.979796
  C      -5.483672     -1.387605      0.313500
  O      -5.454109     -2.413405      1.189043
  C      -6.055004     -2.176903      2.460071
  H      -5.985839     -3.122384      3.012741
  H      -5.523295     -1.380292      3.004221
  H      -7.107122     -1.874346      2.347401
  O      -5.998975     -0.323306      0.577503
  C      -4.833278     -3.181222     -1.369027
  H      -4.432232     -3.829988     -0.578787
  H      -5.874642     -3.493199     -1.563224
  H      -4.256711     -3.346944     -2.291836
  C      -5.183051     -0.770075     -2.096558
  H      -5.176094      0.274135     -1.759052
  H      -6.208277     -1.001560     -2.434944
  H      -4.497103     -0.867048     -2.948167
  H      -2.490842     -1.907621     -1.363262
41
Coordinates from ORCA-job orca E -847.155101419041
  C      -2.995345     -1.408980     -0.543075
  H      -2.886997     -1.946037      0.408492
  C      -2.671966      0.009513     -0.464721
  C      -2.856445      0.783426      0.804422
  H      -2.040175      0.516641      1.508398
  H      -3.791828      0.479066      1.299868
  C      -2.852179      2.289215      0.551264
  H      -2.768383      2.840210      1.500069
  H      -3.800371      2.595568      0.076448
  C      -1.700464      2.657621     -0.372708
  H      -0.748282      2.328549      0.090637
  C      -1.596324      4.138125     -0.717741
  C      -1.216349      5.037461      0.460523
  H      -1.986596      4.972802      1.249052
  H      -0.281792      4.663926      0.918533
  C      -1.036998      6.499857      0.052195
  H      -0.767361      7.130487      0.914356
  H      -1.964169      6.908182     -0.383892
  H      -0.242090      6.608587     -0.704547
  H      -2.556918      4.463829     -1.155282
  H      -0.844575      4.236228     -1.519129
  O      -1.833800      1.967706     -1.629543
  C      -2.198124      0.661279     -1.689565
  O      -2.143131      0.092425     -2.764645
  C      -4.786234     -1.714480     -0.984279
  C      -5.481562     -1.380017      0.309190
  O      -5.453799     -2.401734      1.189615
  C      -6.034918     -2.150952      2.467057
  H      -5.970842     -3.094461      3.023741
  H      -5.485838     -1.358568      3.000032
  H      -7.084357     -1.835231      2.366361
  O      -5.967093     -0.303675      0.580211
  C      -4.845733     -3.183483     -1.370856
  H      -4.446767     -3.834114     -0.581056
  H      -5.889804     -3.488252     -1.560834
  H      -4.273837     -3.355205     -2.295539
  C      -5.183781     -0.773142     -2.103800
  H      -5.170817      0.272717     -1.770546
  H      -6.211262     -1.001479     -2.436665
  H      -4.502043     -0.876855     -2.958396
  H      -2.485721     -1.913363     -1.371183
41
Coordinates from ORCA-job orca E -847.155118178516
  C      -2.991189     -1.408298     -0.539841
  H      -2.880029     -1.945412      0.411624
  C      -2.668177      0.010952     -0.461603
  C      -2.848027      0.784227      0.808343
  H      -2.027159      0.519152      1.507669
  H      -3.780232      0.477746      1.308713
  C      -2.847006      2.290070      0.555173
  H      -2.758730      2.841134      1.503547
  H      -3.798108      2.595348      0.085474
  C      -1.700712      2.659673     -0.375057
  H      -0.745707      2.330613      0.082490
  C      -1.599217      4.140421     -0.719765
  C      -1.212717      5.039105      0.456890
  H      -1.978239      4.973458      1.249922
  H      -0.275264      4.665708      0.909037
  C      -1.036561      6.501891      0.048556
  H      -0.762144      7.132051      0.909546
  H      -1.966529      6.910027     -0.381718
  H      -0.246226      6.611583     -0.712825
  H      -2.562511      4.466049     -1.151397
  H      -0.852216      4.239375     -1.525460
  O      -1.841706      1.970783     -1.631637
  C      -2.210353      0.665581     -1.690722
  O      -2.151389      0.093480     -2.763912
  C      -4.781900     -1.714992     -0.980942
  C      -5.480637     -1.381599      0.311923
  O      -5.464275     -2.407488      1.187719
  C      -6.050923     -2.158853      2.463044
  H      -5.996350     -3.105430      3.015532
  H      -5.499460     -1.372759      3.002841
  H      -7.097596     -1.835530      2.357952
  O      -5.964625     -0.304853      0.583979
  C      -4.843652     -3.183871     -1.370651
  H      -4.445462     -3.836854     -0.582314
  H      -5.887785     -3.487353     -1.561402
  H      -4.271917     -3.354161     -2.295756
  C      -5.179723     -0.772556     -2.100279
  H      -5.166695      0.273235     -1.766108
  H      -6.206872     -1.000616     -2.433835
  H      -4.497617     -0.875860     -2.954998
  H      -2.479431     -1.911787     -1.367293
41
Coordinates from ORCA-job orca E -847.155114469745
  C      -2.992396     -1.408517     -0.535285
  H      -2.885867     -1.945791      0.416536
  C      -2.666926      0.009765     -0.457643
  C      -2.843625      0.783984      0.812274
  H      -2.021164      0.519466      1.509940
  H      -3.774646      0.477996      1.314727
  C      -2.843459      2.289592      0.558006
  H      -2.753894      2.841355      1.505847
  H      -3.795503      2.594129      0.089731
  C      -1.698918      2.659274     -0.374333
  H      -0.742857      2.332107      0.082344
  C      -1.599806      4.139691     -0.721173
  C      -1.212771      5.040437      0.453737
  H      -1.977049      4.974815      1.247967
  H      -0.274173      4.668858      0.904997
  C      -1.039152      6.502910      0.043215
  H      -0.764349      7.134590      0.902970
  H      -1.970282      6.909221     -0.386271
  H      -0.250061      6.612640     -0.719450
  H      -2.564134      4.463513     -1.151836
  H      -0.854085      4.238534     -1.528072
  O      -1.840362      1.968380     -1.629782
  C      -2.206365      0.662404     -1.686907
  O      -2.156079      0.091819     -2.761356
  C      -4.782464     -1.712991     -0.980511
  C      -5.481897     -1.382372      0.312255
  O      -5.470069     -2.411559      1.184219
  C      -6.055434     -2.164997      2.460537
  H      -6.005326     -3.113929      3.009387
  H      -5.500161     -1.383636      3.003288
  H      -7.100557     -1.836273      2.356792
  O      -5.959945     -0.304058      0.588839
  C      -4.843016     -3.180652     -1.373791
  H      -4.446183     -3.835530     -0.586327
  H      -5.886709     -3.484028     -1.567204
  H      -4.269606     -3.348442     -2.298298
  C      -5.178391     -0.767859     -2.098078
  H      -5.166038      0.277034     -1.761270
  H      -6.205029     -0.995209     -2.433873
  H      -4.495097     -0.869101     -2.951974
  H      -2.481225     -1.914179     -1.361716
41
Coordinates from ORCA-job orca E -847.155117954508
  C      -2.992889     -1.408041     -0.534716
  H      -2.888270     -1.945347      0.417233
  C      -2.665990      0.009644     -0.457528
  C      -2.844111      0.785004      0.811480
  H      -2.022615      0.521188      1.510555
  H      -3.775955      0.479597      1.312652
  C      -2.843466      2.290259      0.555493
  H      -2.756873      2.843098      1.502979
  H      -3.794166      2.594055      0.084021
  C      -1.696027      2.659152     -0.373567
  H      -0.741329      2.333502      0.087014
  C      -1.596783      4.139087     -0.722449
  C      -1.214669      5.041999      0.452424
  H      -1.981710      4.976959      1.244029
  H      -0.277375      4.671896      0.907596
  C      -1.040827      6.503970      0.040223
  H      -0.769611      7.137240      0.899947
  H      -1.970777      6.908805     -0.393195
  H      -0.249144      6.613171     -0.719828
  H      -2.559805      4.461487     -1.157072
  H      -0.848233      4.237229     -1.526814
  O      -1.832155      1.966039     -1.628440
  C      -2.198616      0.660243     -1.685431
  O      -2.143842      0.088381     -2.758996
  C      -4.783385     -1.711116     -0.979177
  C      -5.479125     -1.382566      0.315851
  O      -5.474147     -2.416452      1.182251
  C      -6.057335     -2.172679      2.460110
  H      -6.013854     -3.124935      3.003743
  H      -5.496248     -1.398312      3.006893
  H      -7.100096     -1.835877      2.358563
  O      -5.950746     -0.302770      0.597836
  C      -4.843983     -3.177792     -1.375183
  H      -4.445563     -3.834216     -0.589791
  H      -5.887876     -3.481298     -1.567367
  H      -4.272159     -3.343300     -2.301064
  C      -5.182127     -0.764013     -2.094032
  H      -5.169415      0.280172     -1.755248
  H      -6.209526     -0.991249     -2.427778
  H      -4.501052     -0.863504     -2.949708
  H      -2.483195     -1.915318     -1.361050
41
Coordinates from ORCA-job orca E -847.155123903578
  C      -2.992209     -1.408406     -0.531946
  H      -2.888115     -1.945668      0.420152
  C      -2.664145      0.009144     -0.454942
  C      -2.839044      0.784539      0.814445
  H      -2.015080      0.521591      1.510963
  H      -3.769123      0.478479      1.318433
  C      -2.840064      2.289720      0.558029
  H      -2.751656      2.842876      1.505166
  H      -3.792122      2.592671      0.088745
  C      -1.695056      2.659265     -0.373770
  H      -0.738997      2.334829      0.084835
  C      -1.598095      4.139130     -0.723616
  C      -1.214270      5.043002      0.449973
  H      -1.979453      4.977527      1.243334
  H      -0.275566      4.674078      0.903190
  C      -1.042890      6.504956      0.036686
  H      -0.770395      7.138926      0.895489
  H      -1.974245      6.908606     -0.394820
  H      -0.253049      6.614621     -0.725213
  H      -2.562421      4.460348     -1.156218
  H      -0.851444      4.237652     -1.529698
  O      -1.833177      1.965422     -1.628045
  C      -2.199901      0.659691     -1.684015
  O      -2.147390      0.087538     -2.757559
  C      -4.782490     -1.710264     -0.978095
  C      -5.479460     -1.382981      0.316762
  O      -5.480289     -2.419451      1.179969
  C      -6.064070     -2.176946      2.457821
  H      -6.025698     -3.131074      2.998547
  H      -5.500103     -1.406880      3.007702
  H      -7.105118     -1.835003      2.355930
  O      -5.946636     -0.301940      0.601417
  C      -4.843763     -3.176262     -1.376728
  H      -4.446073     -3.834420     -0.592409
  H      -5.887657     -3.478978     -1.569969
  H      -4.271515     -3.340228     -2.302632
  C      -5.180009     -0.761282     -2.092010
  H      -5.166861      0.282434     -1.751706
  H      -6.207245     -0.987577     -2.426816
  H      -4.498395     -0.860066     -2.947409
  H      -2.481781     -1.916229     -1.357512
41
Coordinates from ORCA-job orca E -847.155129208813
  C      -2.991582     -1.409224     -0.529425
  H      -2.887983     -1.946449      0.422811
  C      -2.661610      0.007998     -0.452487
  C      -2.832679      0.783331      0.817391
  H      -2.005715      0.521554      1.510814
  H      -3.760586      0.476373      1.324741
  C      -2.835857      2.288389      0.560404
  H      -2.746127      2.842002      1.507150
  H      -3.789258      2.590029      0.093007
  C      -1.693051      2.658941     -0.373682
  H      -0.735676      2.336571      0.083613
  C      -1.599179      4.138683     -0.724937
  C      -1.215027      5.044162      0.447319
  H      -1.978788      4.977920      1.241982
  H      -0.274933      4.677227      0.899262
  C      -1.046921      6.506100      0.032624
  H      -0.774110      7.141222      0.890477
  H      -1.979717      6.907764     -0.397630
  H      -0.258561      6.616572     -0.730692
  H      -2.564754      4.457900     -1.156231
  H      -0.853990      4.237841     -1.532289
  O      -1.831778      1.963818     -1.627222
  C      -2.198988      0.658221     -1.682320
  O      -2.147662      0.085640     -2.755719
  C      -4.781911     -1.708799     -0.976917
  C      -5.478897     -1.382585      0.318305
  O      -5.487764     -2.422487      1.177135
  C      -6.071514     -2.181358      2.455300
  H      -6.040144     -3.137936      2.992121
  H      -5.503055     -1.417327      3.008946
  H      -7.110121     -1.832054      2.353536
  O      -5.939401     -0.299640      0.606675
  C      -4.844475     -3.173909     -1.378496
  H      -4.447194     -3.834132     -0.595690
  H      -5.888587     -3.475512     -1.572187
  H      -4.272345     -3.336169     -2.304770
  C      -5.178232     -0.757379     -2.089381
  H      -5.163745      0.285738     -1.747272
  H      -6.205673     -0.982096     -2.424605
  H      -4.496695     -0.855672     -2.944925
  H      -2.480785     -1.917880     -1.354276
41
Coordinates from ORCA-job orca E -847.155125674358
  C      -2.991372     -1.410145     -0.528740
  H      -2.888038     -1.947496      0.423471
  C      -2.659846      0.006740     -0.451512
  C      -2.828683      0.781821      0.818798
  H      -1.999866      0.520769      1.510303
  H      -3.755201      0.474158      1.328210
  C      -2.833383      2.286839      0.561671
  H      -2.743293      2.840645      1.508272
  H      -3.787498      2.587522      0.095115
  C      -1.691610      2.658330     -0.373286
  H      -0.733561      2.337483      0.083673
  C      -1.599867      4.138026     -0.725353
  C      -1.216413      5.044635      0.446261
  H      -1.979783      4.977863      1.241258
  H      -0.275690      4.679121      0.898032
  C      -1.050299      6.506541      0.030680
  H      -0.777965      7.142496      0.888067
  H      -1.983757      6.906787     -0.399457
  H      -0.262362      6.617568     -0.732994
  H      -2.566051      4.455734     -1.156398
  H      -0.855149      4.237762     -1.533067
  O      -1.829838      1.962416     -1.626460
  C      -2.197274      0.656875     -1.681399
  O      -2.146025      0.084226     -2.754771
  C      -4.781928     -1.707724     -0.976655
  C      -5.478281     -1.381554      0.318905
  O      -5.491215     -2.422956      1.175757
  C      -6.074545     -2.182110      2.454198
  H      -6.046565     -3.139738      2.989328
  H      -5.503660     -1.420969      3.009316
  H      -7.111933     -1.829122      2.352710
  O      -5.935061     -0.297471      0.609003
  C      -4.845731     -3.172404     -1.379397
  H      -4.448730     -3.833605     -0.597273
  H      -5.890120     -3.473094     -1.572998
  H      -4.273873     -3.334255     -2.305907
  C      -5.177290     -0.754999     -2.088371
  H      -5.161657      0.287810     -1.745405
  H      -6.204977     -0.978531     -2.423651
  H      -4.495907     -0.853349     -2.944021
  H      -2.480774     -1.919256     -1.353452
41
Coordinates from ORCA-job orca E -847.146741827756
  C      -2.935817     -1.401565     -0.515977
  H      -2.826392     -1.936663      0.436844
  C      -2.614383      0.017846     -0.441751
  C      -2.785908      0.793709      0.827723
  H      -1.953604      0.539756      1.517729
  H      -3.709021      0.480134      1.339758
  C      -2.802111      2.298286      0.568230
  H      -2.713852      2.854240      1.513749
  H      -3.759482      2.591317      0.103401
  C      -1.665188      2.676577     -0.369947
  H      -0.703759      2.363396      0.085309
  C      -1.584982      4.156383     -0.724562
  C      -1.205397      5.067620      0.444735
  H      -1.966449      4.996571      1.241599
  H      -0.260982      4.709639      0.894915
  C      -1.050838      6.530075      0.026463
  H      -0.781137      7.169357      0.882218
  H      -1.988190      6.922875     -0.402153
  H      -0.265468      6.645607     -0.739204
  H      -2.554464      4.466406     -1.153880
  H      -0.842851      4.260241     -1.534152
  O      -1.801261      1.977682     -1.621703
  C      -2.159361      0.669391     -1.673732
  O      -2.106436      0.095419     -2.746318
  C      -4.827219     -1.729777     -0.984801
  C      -5.522947     -1.406608      0.311851
  O      -5.526356     -2.446751      1.170377
  C      -6.108484     -2.208115      2.449783
  H      -6.072328     -3.164694      2.986361
  H      -5.541835     -1.441958      3.002383
  H      -7.148664     -1.862806      2.350130
  O      -5.986916     -0.325378      0.601290
  C      -4.881334     -3.195555     -1.385083
  H      -4.477736     -3.852643     -0.602830
  H      -5.923990     -3.504122     -1.575799
  H      -4.310440     -3.354724     -2.312656
  C      -5.232051     -0.781674     -2.097110
  H      -5.223186      0.261791     -1.755826
  H      -6.258890     -1.013184     -2.429665
  H      -4.551928     -0.876435     -2.954175
  H      -2.423432     -1.908277     -1.341063
41
Coordinates from ORCA-job orca E -847.147580306008
  C      -2.917445     -1.431072     -0.510388
  H      -2.839172     -1.971671      0.442012
  C      -2.598820     -0.020619     -0.435908
  C      -2.789756      0.756927      0.830186
  H      -1.960751      0.514395      1.527718
  H      -3.714301      0.433448      1.335176
  C      -2.819664      2.260769      0.566494
  H      -2.738792      2.820302      1.510567
  H      -3.778673      2.543425      0.098658
  C      -1.685091      2.647099     -0.371520
  H      -0.721243      2.341265      0.083548
  C      -1.616081      4.127274     -0.726770
  C      -1.242281      5.041796      0.441812
  H      -2.002234      4.965716      1.239247
  H      -0.295036      4.690842      0.891493
  C      -1.098486      6.505048      0.022645
  H      -0.832764      7.146694      0.877856
  H      -2.038891      6.890886     -0.405512
  H      -0.314510      6.625758     -0.743633
  H      -2.588092      4.429960     -1.155512
  H      -0.875367      4.236194     -1.536972
  O      -1.817348      1.947105     -1.623182
  C      -2.163561      0.635753     -1.673591
  O      -2.123181      0.064912     -2.747986
  C      -4.815429     -1.704013     -0.987965
  C      -5.474051     -1.360820      0.319308
  O      -5.516902     -2.408529      1.168000
  C      -6.077975     -2.156349      2.453902
  H      -6.079285     -3.118323      2.981981
  H      -5.474116     -1.420395      3.008232
  H      -7.102892     -1.765179      2.366063
  O      -5.890488     -0.263233      0.620553
  C      -4.898577     -3.163067     -1.397826
  H      -4.514794     -3.834506     -0.617823
  H      -5.947877     -3.445050     -1.595161
  H      -4.327385     -3.329778     -2.323961
  C      -5.160804     -0.724038     -2.088794
  H      -5.108103      0.313099     -1.731765
  H      -6.193382     -0.904227     -2.435921
  H      -4.475685     -0.838205     -2.940300
  H      -2.425786     -1.946205     -1.342501
41
Coordinates from ORCA-job orca E -847.147787152902
  C      -2.938336     -1.421049     -0.491341
  H      -2.885699     -1.959959      0.462947
  C      -2.623523     -0.015299     -0.424079
  C      -2.807296      0.770294      0.839398
  H      -1.978276      0.527963      1.536891
  H      -3.731882      0.455736      1.347086
  C      -2.829873      2.272232      0.566956
  H      -2.749437      2.836648      1.508114
  H      -3.785855      2.556962      0.094190
  C      -1.688778      2.647039     -0.367724
  H      -0.729102      2.338380      0.094117
  C      -1.609268      4.124788     -0.730837
  C      -1.235343      5.043536      0.434359
  H      -1.999315      4.976332      1.228730
  H      -0.292259      4.689473      0.890270
  C      -1.081024      6.503559      0.007796
  H      -0.815467      7.148390      0.860669
  H      -2.017165      6.892508     -0.426833
  H      -0.292844      6.615431     -0.755516
  H      -2.577473      4.430869     -1.165692
  H      -0.864230      4.224842     -1.538250
  O      -1.817556      1.940657     -1.616363
  C      -2.176756      0.632809     -1.663431
  O      -2.117859      0.052799     -2.731824
  C      -4.829634     -1.700295     -0.991277
  C      -5.489206     -1.374670      0.315514
  O      -5.510841     -2.426616      1.160241
  C      -6.061255     -2.186427      2.452973
  H      -6.045845     -3.150552      2.976847
  H      -5.460393     -1.445937      3.004478
  H      -7.091580     -1.806958      2.377609
  O      -5.905013     -0.280029      0.630076
  C      -4.883415     -3.154726     -1.411724
  H      -4.500693     -3.825761     -0.630980
  H      -5.926190     -3.450780     -1.625057
  H      -4.297917     -3.306548     -2.331326
  C      -5.165686     -0.711733     -2.083943
  H      -5.126074      0.321229     -1.714719
  H      -6.192865     -0.895711     -2.446531
  H      -4.469589     -0.811194     -2.927604
  H      -2.454256     -1.944840     -1.321749
41
Coordinates from ORCA-job orca E -847.147779201008
  C      -2.949070     -1.409571     -0.475372
  H      -2.916890     -1.949122      0.478508
  C      -2.629826     -0.009088     -0.412762
  C      -2.799255      0.782105      0.850303
  H      -1.965722      0.539311      1.542045
  H      -3.721200      0.473911      1.365719
  C      -2.819257      2.282912      0.572776
  H      -2.733915      2.850302      1.511732
  H      -3.776473      2.568463      0.103000
  C      -1.680598      2.652617     -0.366578
  H      -0.719967      2.346372      0.094768
  C      -1.601601      4.128399     -0.737852
  C      -1.223949      5.053155      0.421366
  H      -1.985620      4.990422      1.218292
  H      -0.279680      4.701103      0.876388
  C      -1.070328      6.510843     -0.013364
  H      -0.802116      7.160108      0.835309
  H      -2.007572      6.897824     -0.447389
  H      -0.284296      6.618369     -0.779510
  H      -2.570964      4.432574     -1.171507
  H      -0.858856      4.223931     -1.547930
  O      -1.810642      1.939056     -1.611011
  C      -2.167408      0.630531     -1.652183
  O      -2.125491      0.052133     -2.722085
  C      -4.836493     -1.695728     -0.985927
  C      -5.490868     -1.388380      0.324625
  O      -5.517944     -2.453193      1.153870
  C      -6.084684     -2.234296      2.443254
  H      -6.072166     -3.206121      2.952806
  H      -5.493314     -1.500237      3.013291
  H      -7.115424     -1.857345      2.361263
  O      -5.933205     -0.304918      0.643781
  C      -4.865882     -3.145772     -1.417812
  H      -4.479487     -3.817384     -0.639581
  H      -5.903161     -3.455431     -1.640515
  H      -4.272987     -3.282444     -2.334912
  C      -5.177959     -0.701151     -2.069079
  H      -5.152752      0.328150     -1.689226
  H      -6.201888     -0.893032     -2.438008
  H      -4.478436     -0.784208     -2.911099
  H      -2.477724     -1.941780     -1.306937
41
Coordinates from ORCA-job orca E -847.147853635797
  C      -2.947277     -1.414736     -0.482752
  H      -2.912827     -1.955180      0.470739
  C      -2.625860     -0.013421     -0.417104
  C      -2.808219      0.777170      0.844029
  H      -1.980454      0.535403      1.542959
  H      -3.734974      0.466798      1.351393
  C      -2.827353      2.278238      0.566641
  H      -2.749903      2.845591      1.506342
  H      -3.781072      2.563042      0.089354
  C      -1.682070      2.649222     -0.364073
  H      -0.724597      2.343057      0.103894
  C      -1.601221      4.125259     -0.733882
  C      -1.232693      5.049441      0.428744
  H      -2.000250      4.985780      1.219938
  H      -0.291648      4.697563      0.890540
  C      -1.076576      6.507501     -0.003870
  H      -0.814958      7.156321      0.847191
  H      -2.010777      6.894325     -0.444552
  H      -0.284962      6.615907     -0.764114
  H      -2.567536      4.429198     -1.174491
  H      -0.852536      4.221722     -1.538333
  O      -1.803592      1.936588     -1.609825
  C      -2.161422      0.628474     -1.654239
  O      -2.106352      0.048389     -2.722691
  C      -4.836033     -1.696969     -0.990559
  C      -5.490525     -1.382293      0.319596
  O      -5.516362     -2.442357      1.155038
  C      -6.063756     -2.211008      2.450561
  H      -6.053548     -3.180098      2.965391
  H      -5.458008     -1.479380      3.008531
  H      -7.091894     -1.824792      2.380032
  O      -5.905358     -0.289871      0.644586
  C      -4.876174     -3.148909     -1.419292
  H      -4.491735     -3.821265     -0.640730
  H      -5.915618     -3.453096     -1.638592
  H      -4.286739     -3.291188     -2.337823
  C      -5.179270     -0.705719     -2.077259
  H      -5.150146      0.325308     -1.701645
  H      -6.204684     -0.896291     -2.442129
  H      -4.482636     -0.794303     -2.921476
  H      -2.473456     -1.946032     -1.313608
41
Coordinates from ORCA-job orca E -847.147850424363
  C      -2.942803     -1.414035     -0.480884
  H      -2.904614     -1.955051      0.472326
  C      -2.622400     -0.011721     -0.415115
  C      -2.799044      0.777530      0.847466
  H      -1.966217      0.537019      1.540872
  H      -3.721964      0.464847      1.360358
  C      -2.821815      2.278790      0.571199
  H      -2.738857      2.845576      1.510781
  H      -3.778931      2.562907      0.100306
  C      -1.683055      2.651462     -0.366849
  H      -0.722234      2.344754      0.093891
  C      -1.605093      4.128006     -0.735162
  C      -1.228446      5.050534      0.426187
  H      -1.990379      4.985617      1.222697
  H      -0.284113      4.698080      0.880766
  C      -1.075540      6.509241     -0.005393
  H      -0.807924      7.156839      0.844727
  H      -2.012889      6.896625     -0.438845
  H      -0.289364      6.618826     -0.771092
  H      -2.574570      4.432448     -1.168408
  H      -0.862143      4.225738     -1.544753
  O      -1.813890      1.940757     -1.612763
  C      -2.175331      0.633680     -1.656551
  O      -2.120181      0.051856     -2.724088
  C      -4.831490     -1.698479     -0.987709
  C      -5.489443     -1.383509      0.321350
  O      -5.524096     -2.445307      1.154288
  C      -6.079438     -2.215034      2.446602
  H      -6.075919     -3.185319      2.959275
  H      -5.474990     -1.486706      3.010277
  H      -7.105772     -1.825209      2.370050
  O      -5.908246     -0.291984      0.644066
  C      -4.873015     -3.150730     -1.417260
  H      -4.489467     -3.823948     -0.638921
  H      -5.912373     -3.454210     -1.637305
  H      -4.283324     -3.292898     -2.335690
  C      -5.174886     -0.707727     -2.075527
  H      -5.146710      0.323589     -1.700213
  H      -6.199585     -0.899076     -2.441619
  H      -4.477169     -0.796299     -2.919179
  H      -2.467348     -1.944086     -1.311699
41
Coordinates from ORCA-job orca E -847.147858879692
  C      -2.944248     -1.414665     -0.479383
  H      -2.909508     -1.955967      0.473729
  C      -2.622022     -0.013252     -0.413554
  C      -2.798227      0.776565      0.848844
  H      -1.965483      0.536161      1.542368
  H      -3.721223      0.464365      1.361679
  C      -2.821006      2.277686      0.572050
  H      -2.738537      2.844789      1.511479
  H      -3.778011      2.561494      0.100748
  C      -1.682033      2.650453     -0.365687
  H      -0.721210      2.345024      0.095878
  C      -1.605141      4.126758     -0.735194
  C      -1.229911      5.050571      0.425603
  H      -1.992211      4.985629      1.221759
  H      -0.285515      4.699307      0.880972
  C      -1.078051      6.509060     -0.007082
  H      -0.811436      7.157584      0.842649
  H      -2.015513      6.895276     -0.441330
  H      -0.291579      6.618703     -0.772468
  H      -2.574640      4.430009     -1.169211
  H      -0.861831      4.224456     -1.544461
  O      -1.811162      1.938438     -1.611051
  C      -2.169905      0.630648     -1.654103
  O      -2.121236      0.050656     -2.722942
  C      -4.832585     -1.697165     -0.988597
  C      -5.490343     -1.382776      0.320310
  O      -5.525429     -2.445162      1.152530
  C      -6.077373     -2.214652      2.446245
  H      -6.074881     -3.185340      2.958158
  H      -5.470050     -1.488134      3.009168
  H      -7.103002     -1.822469      2.372297
  O      -5.903695     -0.289953      0.645780
  C      -4.873721     -3.148920     -1.419053
  H      -4.491321     -3.822749     -0.640664
  H      -5.912860     -3.452148     -1.640601
  H      -4.282997     -3.290532     -2.336890
  C      -5.174727     -0.705569     -2.075846
  H      -5.146716      0.325396     -1.699693
  H      -6.199200     -0.896417     -2.442981
  H      -4.476496     -0.793702     -2.918998
  H      -2.470033     -1.946066     -1.309997
41
Coordinates from ORCA-job orca E -847.147862096214
  C      -2.944455     -1.414295     -0.481182
  H      -2.910016     -1.955954      0.471701
  C      -2.621990     -0.013185     -0.415194
  C      -2.800364      0.776977      0.846678
  H      -1.968987      0.536763      1.541895
  H      -3.724485      0.465046      1.357666
  C      -2.822428      2.277941      0.569203
  H      -2.742832      2.845415      1.508655
  H      -3.778004      2.561514      0.094880
  C      -1.680505      2.650344     -0.365076
  H      -0.721154      2.345467      0.099887
  C      -1.602688      4.126437     -0.735238
  C      -1.231602      5.051022      0.426286
  H      -1.996597      4.986375      1.219877
  H      -0.288693      4.700214      0.885079
  C      -1.078570      6.509289     -0.006723
  H      -0.814953      7.158360      0.843530
  H      -2.014632      6.895070     -0.444359
  H      -0.289540      6.618644     -0.769514
  H      -2.570771      4.429222     -1.172724
  H      -0.856644      4.223813     -1.542026
  O      -1.805088      1.937452     -1.610453
  C      -2.164522      0.629929     -1.654314
  O      -2.110912      0.049207     -2.722521
  C      -4.833409     -1.696655     -0.988180
  C      -5.487946     -1.382341      0.322218
  O      -5.525375     -2.446044      1.152699
  C      -6.075695     -2.216139      2.447202
  H      -6.075578     -3.187687      2.957492
  H      -5.465870     -1.492307      3.010885
  H      -7.100256     -1.820903      2.374722
  O      -5.899191     -0.289194      0.649314
  C      -4.874799     -3.148272     -1.418707
  H      -4.490997     -3.822175     -0.641061
  H      -5.914196     -3.451826     -1.638640
  H      -4.285591     -3.289492     -2.337571
  C      -5.178304     -0.705080     -2.074536
  H      -5.150047      0.325798     -1.698255
  H      -6.203492     -0.896445     -2.439510
  H      -4.481996     -0.792782     -2.919182
  H      -2.471896     -1.946133     -1.312445
41
Coordinates from ORCA-job orca E -847.147864549894
  C      -2.943868     -1.414726     -0.480149
  H      -2.909315     -1.956572      0.472662
  C      -2.621030     -0.013588     -0.414016
  C      -2.797126      0.776176      0.848404
  H      -1.964034      0.536284      1.541692
  H      -3.719933      0.463643      1.361346
  C      -2.820424      2.277192      0.571288
  H      -2.739101      2.844498      1.510695
  H      -3.777135      2.560443      0.099058
  C      -1.680671      2.650319     -0.365354
  H      -0.720170      2.345786      0.097452
  C      -1.604342      4.126522     -0.735387
  C      -1.231175      5.051032      0.425534
  H      -1.994443      4.985879      1.220745
  H      -0.287130      4.700545      0.882230
  C      -1.079712      6.509455     -0.007499
  H      -0.814561      7.158465      0.842322
  H      -2.016879      6.894916     -0.443050
  H      -0.292364      6.619313     -0.771954
  H      -2.573509      4.428959     -1.170708
  H      -0.860084      4.224413     -1.543760
  O      -1.807658      1.937652     -1.610619
  C      -2.167055      0.630126     -1.654067
  O      -2.116319      0.049791     -2.722632
  C      -4.832630     -1.696644     -0.988105
  C      -5.488629     -1.382048      0.321602
  O      -5.527679     -2.445802      1.151917
  C      -6.078658     -2.215524      2.446079
  H      -6.079885     -3.187146      2.956224
  H      -5.468470     -1.492407      3.010288
  H      -7.102761     -1.819221      2.372953
  O      -5.898749     -0.288485      0.648687
  C      -4.874488     -3.148237     -1.418888
  H      -4.491647     -3.822508     -0.641086
  H      -5.913835     -3.451259     -1.639703
  H      -4.284636     -3.289558     -2.337333
  C      -5.176182     -0.704912     -2.074875
  H      -5.147912      0.325970     -1.698547
  H      -6.201016     -0.895959     -2.440939
  H      -4.479007     -0.792877     -2.918856
  H      -2.470848     -1.946515     -1.311192
41
Coordinates from ORCA-job orca E -847.141008692740
  C      -2.888148     -1.406432     -0.466484
  H      -2.847375     -1.946394      0.487173
  C      -2.575385     -0.002823     -0.403518
  C      -2.754249      0.787817      0.857968
  H      -1.917758      0.555197      1.549687
  H      -3.673555      0.469424      1.373637
  C      -2.789166      2.288189      0.578335
  H      -2.709754      2.857697      1.516577
  H      -3.749067      2.563644      0.107893
  C      -1.654364      2.668034     -0.361654
  H      -0.690538      2.371308      0.099392
  C      -1.589693      4.144161     -0.734396
  C      -1.220519      5.073384      0.424055
  H      -1.981421      5.004019      1.221190
  H      -0.272829      4.730573      0.879108
  C      -1.080735      6.532171     -0.011837
  H      -0.818304      7.184573      0.836242
  H      -2.021751      6.910043     -0.445822
  H      -0.296005      6.646469     -0.778351
  H      -2.562103      4.438774     -1.167933
  H      -0.848070      4.246101     -1.544706
  O      -1.779105      1.952307     -1.605396
  C      -2.129057      0.642082     -1.645750
  O      -2.076622      0.060287     -2.713442
  C      -4.877818     -1.718201     -0.996836
  C      -5.533003     -1.406152      0.313890
  O      -5.562312     -2.468769      1.146120
  C      -6.111898     -2.240297      2.441197
  H      -6.104818     -3.211055      2.953010
  H      -5.505650     -1.511758      3.002717
  H      -7.139068     -1.851598      2.369826
  O      -5.950331     -0.315024      0.640077
  C      -4.910100     -3.170837     -1.425034
  H      -4.520487     -3.840981     -0.646986
  H      -5.947759     -3.481827     -1.642860
  H      -4.321398     -3.309425     -2.344638
  C      -5.231194     -0.730840     -2.084489
  H      -5.209558      0.300893     -1.709994
  H      -6.255503     -0.929996     -2.447791
  H      -4.535383     -0.815159     -2.929975
  H      -2.413220     -1.936190     -1.297741
41
Coordinates from ORCA-job orca E -847.141941093151
  C      -2.869335     -1.436187     -0.461728
  H      -2.861025     -1.980925      0.489382
  C      -2.561494     -0.042831     -0.398000
  C      -2.758745      0.749135      0.860587
  H      -1.924857      0.528436      1.558668
  H      -3.678720      0.420639      1.370182
  C      -2.808070      2.248496      0.576775
  H      -2.736190      2.821453      1.513528
  H      -3.769611      2.513220      0.103518
  C      -1.675795      2.636726     -0.363075
  H      -0.709581      2.347519      0.097664
  C      -1.622556      4.113144     -0.736261
  C      -1.259316      5.045377      0.421626
  H      -2.019031      4.970696      1.219397
  H      -0.308806      4.709654      0.875989
  C      -1.130511      6.504948     -0.014843
  H      -0.872110      7.159487      0.832804
  H      -2.074583      6.875821     -0.448131
  H      -0.347291      6.624678     -0.782054
  H      -2.597465      4.400345     -1.169065
  H      -0.882411      4.220386     -1.547217
  O      -1.796457      1.920052     -1.606890
  C      -2.134524      0.606980     -1.646157
  O      -2.094816      0.028867     -2.715756
  C      -4.865141     -1.689027     -1.000327
  C      -5.482839     -1.357797      0.320419
  O      -5.551952     -2.425595      1.144181
  C      -6.079435     -2.183576      2.445650
  H      -6.110221     -3.157645      2.950244
  H      -5.436853     -1.486457      3.006765
  H      -7.089217     -1.749768      2.386939
  O      -5.851447     -0.252039      0.657394
  C      -4.926369     -3.135597     -1.436941
  H      -4.557000     -3.819364     -0.660865
  H      -5.970535     -3.420250     -1.661497
  H      -4.336713     -3.282706     -2.354736
  C      -5.156200     -0.673218     -2.076543
  H      -5.092126      0.351369     -1.686821
  H      -6.183829     -0.820728     -2.455676
  H      -4.453562     -0.778301     -2.914952
  H      -2.418331     -1.972028     -1.301714
41
Coordinates from ORCA-job orca E -847.142211494620
  C      -2.891154     -1.424817     -0.444654
  H      -2.909696     -1.968465      0.505991
  C      -2.588075     -0.038338     -0.387318
  C      -2.776813      0.761750      0.869078
  H      -1.942170      0.541377      1.566144
  H      -3.696584      0.442522      1.381933
  C      -2.818751      2.259143      0.576523
  H      -2.747788      2.836883      1.510359
  H      -3.777026      2.526065      0.097912
  C      -1.679110      2.635945     -0.358951
  H      -0.717451      2.344178      0.109499
  C      -1.615128      4.109886     -0.740192
  C      -1.253090      5.046506      0.414502
  H      -2.017581      4.980420      1.208438
  H      -0.307000      4.708058      0.875973
  C      -1.113816      6.502892     -0.029283
  H      -0.856475      7.160697      0.816164
  H      -2.053422      6.876538     -0.469819
  H      -0.325741      6.614072     -0.792811
  H      -2.585879      4.400261     -1.180125
  H      -0.869781      4.208343     -1.547527
  O      -1.794722      1.912651     -1.599765
  C      -2.146824      0.603473     -1.636869
  O      -2.084964      0.016389     -2.700073
  C      -4.880511     -1.684784     -1.003344
  C      -5.495950     -1.369994      0.317539
  O      -5.543368     -2.442602      1.137343
  C      -6.061190     -2.213162      2.444858
  H      -6.074983     -3.189810      2.945162
  H      -5.422131     -1.510789      3.003409
  H      -7.076878     -1.791789      2.398016
  O      -5.866752     -0.267986      0.666598
  C      -4.910756     -3.126517     -1.449112
  H      -4.540713     -3.809242     -0.672493
  H      -5.947739     -3.426707     -1.688628
  H      -4.307831     -3.258287     -2.360504
  C      -5.161741     -0.660571     -2.070576
  H      -5.109866      0.359658     -1.669095
  H      -6.183868     -0.810379     -2.465014
  H      -4.448485     -0.752198     -2.900788
  H      -2.453268     -1.967880     -1.286038
41
Coordinates from ORCA-job orca E -847.142209673753
  C      -2.902507     -1.415189     -0.432009
  H      -2.943298     -1.960982      0.515802
  C      -2.593114     -0.035736     -0.376547
  C      -2.763905      0.768431      0.881152
  H      -1.922127      0.547480      1.569080
  H      -3.679276      0.454388      1.404279
  C      -2.805424      2.265087      0.585867
  H      -2.727777      2.844513      1.518163
  H      -3.766454      2.532731      0.113221
  C      -1.671036      2.639483     -0.356521
  H      -0.706828      2.351288      0.108727
  C      -1.610943      4.111811     -0.744712
  C      -1.244197      5.053934      0.404004
  H      -2.004463      4.990242      1.202169
  H      -0.295269      4.718724      0.862010
  C      -1.109182      6.508571     -0.046788
  H      -0.848294      7.170374      0.794448
  H      -2.051584      6.879096     -0.484003
  H      -0.325268      6.617479     -0.814909
  H      -2.584343      4.399052     -1.180886
  H      -0.869867      4.207722     -1.556278
  O      -1.789407      1.909967     -1.593496
  C      -2.136044      0.599514     -1.625901
  O      -2.100603      0.018065     -2.693061
  C      -4.888128     -1.681222     -1.001037
  C      -5.498939     -1.379708      0.321583
  O      -5.548668     -2.460584      1.131639
  C      -6.080187     -2.245576      2.435995
  H      -6.095032     -3.226963      2.926951
  H      -5.449675     -1.546146      3.007802
  H      -7.097088     -1.827844      2.383224
  O      -5.892363     -0.285632      0.673123
  C      -4.894369     -3.119479     -1.453762
  H      -4.521225     -3.800951     -0.677698
  H      -5.925492     -3.433535     -1.702318
  H      -4.284094     -3.238890     -2.361875
  C      -5.171280     -0.653332     -2.061903
  H      -5.132223      0.364268     -1.652962
  H      -6.189821     -0.809475     -2.464141
  H      -4.453390     -0.732807     -2.888888
  H      -2.481883     -1.964777     -1.277084
41
Coordinates from ORCA-job orca E -847.142296344655
  C      -2.901302     -1.419344     -0.440249
  H      -2.939735     -1.966619      0.507000
  C      -2.590043     -0.038537     -0.381608
  C      -2.772471      0.764542      0.874597
  H      -1.935558      0.544608      1.568724
  H      -3.692014      0.448077      1.390730
  C      -2.813302      2.261487      0.579666
  H      -2.743237      2.840640      1.512779
  H      -3.770924      2.528432      0.099754
  C      -1.672356      2.637231     -0.354158
  H      -0.711366      2.348493      0.117434
  C      -1.609769      4.109954     -0.740389
  C      -1.251497      5.050869      0.412002
  H      -2.017550      4.986239      1.204549
  H      -0.305884      4.715240      0.876527
  C      -1.113339      6.506006     -0.036234
  H      -0.858555      7.166906      0.807571
  H      -2.052592      6.876959     -0.479825
  H      -0.323924      6.615781     -0.798569
  H      -2.580058      4.397539     -1.183258
  H      -0.862850      4.206847     -1.546432
  O      -1.782918      1.909329     -1.592714
  C      -2.133836      0.600135     -1.629172
  O      -2.078769      0.015307     -2.693742
  C      -4.888210     -1.683462     -1.005667
  C      -5.498308     -1.373956      0.316667
  O      -5.546434     -2.449819      1.133627
  C      -6.060386     -2.222944      2.442961
  H      -6.077033     -3.201306      2.939914
  H      -5.417536     -1.525160      3.002963
  H      -7.074500     -1.797443      2.399855
  O      -5.867760     -0.272785      0.671528
  C      -4.903585     -3.124310     -1.453378
  H      -4.531224     -3.804915     -0.676198
  H      -5.936786     -3.434529     -1.697412
  H      -4.297193     -3.250071     -2.363274
  C      -5.175000     -0.660558     -2.071373
  H      -5.133528      0.359311     -1.667734
  H      -6.194976     -0.817623     -2.469147
  H      -4.460188     -0.745192     -2.900833
  H      -2.478573     -1.967968     -1.285020
41
Coordinates from ORCA-job orca E -847.142294810041
  C      -2.895797     -1.420471     -0.441475
  H      -2.930831     -1.969882      0.504784
  C      -2.583838     -0.039063     -0.381133
  C      -2.758792      0.761278      0.877652
  H      -1.915430      0.542697      1.564470
  H      -3.673160      0.441354      1.400630
  C      -2.805348      2.258578      0.585439
  H      -2.729469      2.836368      1.518949
  H      -3.767208      2.524102      0.113255
  C      -1.672399      2.638214     -0.356537
  H      -0.707184      2.350115      0.106784
  C      -1.615370      4.111795     -0.740303
  C      -1.249704      5.050980      0.411201
  H      -2.009442      4.983411      1.209562
  H      -0.299922      4.716020      0.867628
  C      -1.117518      6.507269     -0.035094
  H      -0.857221      7.166856      0.808053
  H      -2.060850      6.877554     -0.470517
  H      -0.334296      6.619947     -0.803374
  H      -2.589593      4.398616     -1.174940
  H      -0.874936      4.211588     -1.551949
  O      -1.792110      1.912755     -1.595696
  C      -2.145178      0.604240     -1.632400
  O      -2.092395      0.019313     -2.697052
  C      -4.883448     -1.684780     -1.004183
  C      -5.495150     -1.371332      0.317008
  O      -5.553417     -2.447028      1.133647
  C      -6.075326     -2.217866      2.439401
  H      -6.100108     -3.196216      2.936044
  H      -5.433013     -1.523283      3.003984
  H      -7.087046     -1.787479      2.389375
  O      -5.868826     -0.270109      0.667036
  C      -4.902343     -3.126792     -1.449539
  H      -4.531282     -3.807041     -0.671345
  H      -5.936063     -3.435461     -1.692880
  H      -4.296598     -3.255380     -2.359504
  C      -5.169683     -0.664096     -2.072799
  H      -5.128437      0.356727     -1.671267
  H      -6.189096     -0.821869     -2.471511
  H      -4.453899     -0.750627     -2.901512
  H      -2.473344     -1.967615     -1.287432
41
Coordinates from ORCA-job orca E -847.142301825617
  C      -2.896323     -1.422899     -0.442644
  H      -2.934106     -1.973544      0.502764
  C      -2.581854     -0.042496     -0.380802
  C      -2.755611      0.757092      0.878675
  H      -1.911230      0.538857      1.564341
  H      -3.669126      0.436380      1.402499
  C      -2.803797      2.254436      0.587198
  H      -2.728291      2.831842      1.520972
  H      -3.766133      2.519078      0.115500
  C      -1.671611      2.635955     -0.354929
  H      -0.705832      2.349733      0.108358
  C      -1.617342      4.109601     -0.738835
  C      -1.253467      5.049573      0.412606
  H      -2.013081      4.980600      1.210964
  H      -0.303050      4.716460      0.869064
  C      -1.124064      6.506081     -0.033788
  H      -0.864988      7.166219      0.809306
  H      -2.068112      6.874547     -0.469200
  H      -0.341087      6.620192     -0.802108
  H      -2.592092      4.394547     -1.173502
  H      -0.877078      4.210713     -1.550474
  O      -1.789706      1.910063     -1.594030
  C      -2.139998      0.600890     -1.631064
  O      -2.092974      0.018329     -2.697260
  C      -4.884102     -1.683573     -1.006598
  C      -5.495358     -1.366926      0.313775
  O      -5.554214     -2.441044      1.132540
  C      -6.070508     -2.207816      2.439782
  H      -6.097033     -3.185247      2.938145
  H      -5.423628     -1.514675      3.000917
  H      -7.080829     -1.773814      2.392742
  O      -5.860111     -0.263020      0.664788
  C      -4.905419     -3.126067     -1.449914
  H      -4.536379     -3.806049     -0.670496
  H      -5.939505     -3.433167     -1.693686
  H      -4.299313     -3.257065     -2.359296
  C      -5.167821     -0.663934     -2.076812
  H      -5.125503      0.357322     -1.676560
  H      -6.187067     -0.820729     -2.476401
  H      -4.451493     -0.752637     -2.904765
  H      -2.475833     -1.970416     -1.289312
41
Coordinates from ORCA-job orca E -847.142310418242
  C      -2.895034     -1.425332     -0.448410
  H      -2.933143     -1.978252      0.495626
  C      -2.578417     -0.045890     -0.384101
  C      -2.751201      0.751849      0.876655
  H      -1.905556      0.534107      1.560899
  H      -3.663675      0.429503      1.401253
  C      -2.801807      2.249314      0.586612
  H      -2.728470      2.825923      1.521051
  H      -3.764104      2.512509      0.114058
  C      -1.668965      2.633834     -0.353495
  H      -0.703316      2.350064      0.111543
  C      -1.617784      4.107708     -0.736953
  C      -1.258849      5.048364      0.415480
  H      -2.019900      4.977046      1.212262
  H      -0.308445      4.717769      0.873793
  C      -1.132606      6.505348     -0.030253
  H      -0.877045      7.165970      0.813537
  H      -2.076803      6.871308     -0.467443
  H      -0.348422      6.621852     -0.796983
  H      -2.592375      4.390164     -1.173587
  H      -0.876081      4.210996     -1.547009
  O      -1.782339      1.907881     -1.593087
  C      -2.131728      0.598613     -1.632280
  O      -2.081310      0.017200     -2.698932
  C      -4.884527     -1.682450     -1.007932
  C      -5.490943     -1.360654      0.313252
  O      -5.554194     -2.433494      1.133500
  C      -6.067715     -2.196042      2.441043
  H      -6.099028     -3.172777      2.940502
  H      -5.416397     -1.505898      3.000758
  H      -7.075688     -1.756527      2.394747
  O      -5.850723     -0.254679      0.662880
  C      -4.909906     -3.125976     -1.447277
  H      -4.540644     -3.804799     -0.666940
  H      -5.945163     -3.431602     -1.687947
  H      -4.306258     -3.260642     -2.357761
  C      -5.169086     -0.665155     -2.080091
  H      -5.124440      0.357002     -1.682503
  H      -6.189436     -0.821552     -2.477111
  H      -4.454909     -0.756976     -2.909413
  H      -2.478640     -1.972239     -1.297485
41
Coordinates from ORCA-job orca E -847.142317104603
  C      -2.891741     -1.430768     -0.454657
  H      -2.929842     -1.987432      0.487206
  C      -2.570964     -0.052576     -0.386154
  C      -2.735793      0.740963      0.878224
  H      -1.883569      0.524590      1.554724
  H      -3.642747      0.414430      1.409549
  C      -2.793661      2.238836      0.592093
  H      -2.718038      2.813473      1.527569
  H      -3.759363      2.499098      0.124934
  C      -1.666633      2.630070     -0.352231
  H      -0.697710      2.350445      0.108468
  C      -1.624265      4.104724     -0.733792
  C      -1.265821      5.045574      0.418641
  H      -2.023481      4.969158      1.218182
  H      -0.311990      4.719264      0.872887
  C      -1.148839      6.503829     -0.025451
  H      -0.893456      7.164556      0.818313
  H      -2.096593      6.865517     -0.458473
  H      -0.368226      6.625503     -0.795023
  H      -2.601891      4.382874     -1.166381
  H      -0.886111      4.212896     -1.546452
  O      -1.780936      1.905359     -1.592561
  C      -2.128605      0.595806     -1.633981
  O      -2.080901      0.017217     -2.702277
  C      -4.883049     -1.680903     -1.010881
  C      -5.487049     -1.349443      0.309006
  O      -5.557776     -2.418635      1.133517
  C      -6.069038     -2.172400      2.440287
  H      -6.108145     -3.147074      2.943222
  H      -5.411989     -1.485663      2.997505
  H      -7.073408     -1.724844      2.392726
  O      -5.838512     -0.239526      0.654447
  C      -4.915987     -3.126331     -1.443411
  H      -4.549669     -3.803560     -0.660292
  H      -5.952843     -3.428036     -1.682052
  H      -4.313770     -3.268180     -2.353776
  C      -5.163675     -0.667537     -2.087951
  H      -5.115398      0.356260     -1.695065
  H      -6.184375     -0.822180     -2.484760
  H      -4.449635     -0.765701     -2.916697
  H      -2.479579     -1.976259     -1.306722
41
Coordinates from ORCA-job orca E -847.142326230412
  C      -2.887812     -1.437782     -0.462826
  H      -2.925818     -1.998590      0.476593
  C      -2.561955     -0.061184     -0.389343
  C      -2.718054      0.727303      0.879198
  H      -1.858565      0.512520      1.546973
  H      -3.618673      0.395774      1.417968
  C      -2.784434      2.225647      0.597867
  H      -2.706725      2.797902      1.534635
  H      -3.753855      2.482302      0.136515
  C      -1.663712      2.625003     -0.350553
  H      -0.691277      2.350564      0.105819
  C      -1.631831      4.100526     -0.729820
  C      -1.275215      5.041767      0.422861
  H      -2.029426      4.959122      1.225044
  H      -0.317623      4.720915      0.873068
  C      -1.169353      6.501475     -0.019220
  H      -0.915099      7.162453      0.824691
  H      -2.121052      6.857714     -0.448082
  H      -0.392441      6.629495     -0.791507
  H      -2.612708      4.373260     -1.158474
  H      -0.897263      4.214626     -1.544919
  O      -1.777866      1.901716     -1.591831
  C      -2.123059      0.591666     -1.636171
  O      -2.076743      0.016321     -2.706260
  C      -4.881529     -1.678517     -1.014552
  C      -5.481611     -1.335225      0.304056
  O      -5.560602     -2.399676      1.134032
  C      -6.068921     -2.142728      2.439855
  H      -6.116679     -3.114656      2.947343
  H      -5.405313     -1.459535      2.993667
  H      -7.069167     -1.686182      2.390765
  O      -5.823548     -0.220705      0.644069
  C      -4.924172     -3.126142     -1.438697
  H      -4.561246     -3.801386     -0.652280
  H      -5.963171     -3.422698     -1.674421
  H      -4.324091     -3.276988     -2.349046
  C      -5.157255     -0.669711     -2.097240
  H      -5.103429      0.355968     -1.710102
  H      -6.178845     -0.821369     -2.492935
  H      -4.444118     -0.776073     -2.925755
  H      -2.480815     -1.981502     -1.318523
41
Coordinates from ORCA-job orca E -847.142339622948
  C      -2.883312     -1.446177     -0.472379
  H      -2.921408     -2.011587      0.464283
  C      -2.551366     -0.071512     -0.393163
  C      -2.697496      0.711096      0.880088
  H      -1.829754      0.498253      1.537765
  H      -3.590655      0.373686      1.427359
  C      -2.773824      2.209934      0.604476
  H      -2.693773      2.779392      1.542757
  H      -3.747498      2.462276      0.149830
  C      -1.660437      2.618829     -0.348507
  H      -0.684014      2.350550      0.102962
  C      -1.640866      4.095292     -0.725028
  C      -1.286553      5.036997      0.427973
  H      -2.036709      4.947033      1.233174
  H      -0.324630      4.722647      0.873511
  C      -1.193781      6.498314     -0.011701
  H      -0.940973      7.159603      0.832403
  H      -2.150023      6.848056     -0.435775
  H      -0.421211      6.633795     -0.787070
  H      -2.625465      4.361588     -1.149169
  H      -0.910487      4.216342     -1.542889
  O      -1.774193      1.897225     -1.590910
  C      -2.116200      0.586502     -1.638684
  O      -2.071067      0.014909     -2.710802
  C      -4.879780     -1.675498     -1.018993
  C      -5.475032     -1.318270      0.298030
  O      -5.563297     -2.376850      1.134655
  C      -6.067876     -2.107144      2.439315
  H      -6.125379     -3.075594      2.952420
  H      -5.396718     -1.427840      2.988823
  H      -7.063325     -1.640419      2.388405
  O      -5.805855     -0.198460      0.631465
  C      -4.934011     -3.125590     -1.433174
  H      -4.575083     -3.798396     -0.642831
  H      -5.975538     -3.415923     -1.665431
  H      -4.336554     -3.287186     -2.343428
  C      -5.149617     -0.672104     -2.108224
  H      -5.088862      0.355715     -1.727957
  H      -6.172383     -0.819893     -2.502372
  H      -4.437800     -0.788360     -2.936542
  H      -2.482265     -1.987841     -1.332206
41
Coordinates from ORCA-job orca E -847.142356108153
  C      -2.878118     -1.455772     -0.483091
  H      -2.916408     -2.026189      0.450526
  C      -2.539165     -0.083370     -0.397532
  C      -2.674155      0.692631      0.880856
  H      -1.797260      0.482184      1.527098
  H      -3.558714      0.348472      1.437596
  C      -2.761835      2.191939      0.611791
  H      -2.679162      2.758259      1.551755
  H      -3.740267      2.439217      0.164739
  C      -1.656849      2.611681     -0.346244
  H      -0.675999      2.350525      0.099738
  C      -1.651327      4.089087     -0.719602
  C      -1.299789      5.031346      0.433783
  H      -2.045367      4.933162      1.242283
  H      -0.333092      4.724445      0.874156
  C      -1.221780      6.494345     -0.003154
  H      -0.970732      7.156018      0.841178
  H      -2.183017      6.836657     -0.421957
  H      -0.454095      6.638195     -0.781864
  H      -2.640050      4.347949     -1.138718
  H      -0.925710      4.218016     -1.540496
  O      -1.770027      1.891971     -1.589913
  C      -2.108183      0.580423     -1.641534
  O      -2.064137      0.012991     -2.715867
  C      -4.877648     -1.671785     -1.023901
  C      -5.467222     -1.298870      0.291249
  O      -5.566114     -2.350687      1.135288
  C      -6.066456     -2.066612      2.438487
  H      -6.135061     -3.030973      2.957897
  H      -5.386839     -1.391886      2.983242
  H      -7.056318     -1.588387      2.385325
  O      -5.785269     -0.173229      0.617261
  C      -4.945319     -3.124457     -1.426810
  H      -4.590961     -3.794499     -0.632057
  H      -5.989730     -3.407448     -1.655107
  H      -4.351035     -3.298346     -2.336901
  C      -5.140731     -0.674495     -2.120408
  H      -5.071676      0.355609     -1.747943
  H      -6.164954     -0.817478     -2.512584
  H      -4.430713     -0.802138     -2.948605
  H      -2.483785     -1.995111     -1.347500
41
Coordinates from ORCA-job orca E -847.142378707897
  C      -2.872623     -1.466083     -0.494364
  H      -2.911312     -2.041636      0.436082
  C      -2.526019     -0.096200     -0.402202
  C      -2.649227      0.672861      0.881411
  H      -1.762722      0.465307      1.515396
  H      -3.524372      0.321403      1.448153
  C      -2.749173      2.172531      0.619304
  H      -2.663882      2.735608      1.560996
  H      -3.732555      2.414098      0.180192
  C      -1.653111      2.603832     -0.343830
  H      -0.667707      2.350441      0.096534
  C      -1.662603      4.082091     -0.713821
  C      -1.314347      5.024995      0.440017
  H      -2.055101      4.918060      1.251842
  H      -0.342721      4.726197      0.875091
  C      -1.252101      6.489627      0.006041
  H      -1.003164      7.151738      0.850661
  H      -2.218506      6.823865     -0.407343
  H      -0.489573      6.642399     -0.776040
  H      -2.655562      4.332867     -1.127809
  H      -0.941977      4.219388     -1.537751
  O      -1.765329      1.886056     -1.588822
  C      -2.099288      0.573616     -1.644516
  O      -2.056031      0.010488     -2.721100
  C      -4.875321     -1.667488     -1.029055
  C      -5.458619     -1.277936      0.283995
  O      -5.568707     -2.322343      1.135914
  C      -6.064398     -2.023036      2.437441
  H      -6.144717     -2.982851      2.963558
  H      -5.375900     -1.353272      2.977169
  H      -7.048194     -1.532723      2.381759
  O      -5.762925     -0.146280      0.602067
  C      -4.957617     -3.122652     -1.419981
  H      -4.608207     -3.789756     -0.620572
  H      -6.005100     -3.397516     -1.644086
  H      -4.366902     -3.309742     -2.329808
  C      -5.131087     -0.676657     -2.133161
  H      -5.052866      0.355698     -1.768968
  H      -6.156909     -0.814156     -2.523162
  H      -4.423206     -0.816496     -2.961232
  H      -2.485390     -2.002953     -1.363541
41
Coordinates from ORCA-job orca E -847.142398426437
  C      -2.866822     -1.477058     -0.505995
  H      -2.906256     -2.057890      0.421125
  C      -2.511801     -0.110014     -0.406974
  C      -2.622530      0.651784      0.881941
  H      -1.725971      0.447635      1.502800
  H      -3.487391      0.292438      1.459213
  C      -2.735658      2.151706      0.627235
  H      -2.647667      2.711423      1.570700
  H      -3.724215      2.386918      0.196518
  C      -1.649179      2.595321     -0.341166
  H      -0.659062      2.350466      0.093378
  C      -1.674816      4.074276     -0.707700
  C      -1.330155      5.018068      0.446471
  H      -2.065689      4.902006      1.261791
  H      -0.353387      4.728099      0.875988
  C      -1.284717      6.484175      0.015423
  H      -1.038052      7.146913      0.860219
  H      -2.256514      6.809639     -0.392276
  H      -0.527783      6.646228     -0.770216
  H      -2.672193      4.316211     -1.116285
  H      -0.959606      4.220386     -1.534829
  O      -1.760079      1.879457     -1.587508
  C      -2.089429      0.566056     -1.647467
  O      -2.046804      0.007394     -2.726349
  C      -4.872744     -1.662474     -1.034347
  C      -5.449195     -1.255589      0.276386
  O      -5.571386     -2.292120      1.136339
  C      -6.062120     -1.976959      2.435965
  H      -6.155033     -2.931849      2.968936
  H      -5.364283     -1.312835      2.970669
  H      -7.039235     -1.473779      2.377443
  O      -5.738624     -0.117810      0.586250
  C      -4.970768     -3.119910     -1.412822
  H      -4.626687     -3.784002     -0.608604
  H      -6.021455     -3.385860     -1.632618
  H      -4.383990     -3.320884     -2.322267
  C      -5.120676     -0.678324     -2.146206
  H      -5.032534      0.356157     -1.790567
  H      -6.148187     -0.809676     -2.533928
  H      -4.415237     -0.830958     -2.974113
  H      -2.487139     -2.011372     -1.380094
41
Coordinates from ORCA-job orca E -847.142426520302
  C      -2.860340     -1.489266     -0.518934
  H      -2.900785     -2.075851      0.404497
  C      -2.495831     -0.125511     -0.412420
  C      -2.592819      0.628216      0.882155
  H      -1.685330      0.428201      1.488352
  H      -3.445942      0.259839      1.470873
  C      -2.720785      2.128259      0.635822
  H      -2.629934      2.684245      1.581238
  H      -3.714939      2.356173      0.214337
  C      -1.645033      2.585656     -0.338158
  H      -0.649854      2.350456      0.090068
  C      -1.688712      4.065201     -0.700713
  C      -1.348190      5.009926      0.453893
  H      -2.077886      4.883784      1.272961
  H      -0.365892      4.729846      0.877333
  C      -1.321377      6.477470      0.026195
  H      -1.077304      7.140883      0.871218
  H      -2.298988      6.793124     -0.375260
  H      -0.570712      6.649766     -0.763278
  H      -2.690863      4.297184     -1.103337
  H      -0.979598      4.221116     -1.531295
  O      -1.754183      1.871955     -1.586056
  C      -2.078245      0.557488     -1.650826
  O      -2.036277      0.003812     -2.732243
  C      -4.869699     -1.656696     -1.040184
  C      -5.438217     -1.230377      0.267765
  O      -5.573967     -2.257735      1.136762
  C      -6.058908     -1.924731      2.434077
  H      -6.165861     -2.873773      2.974814
  H      -5.350713     -1.267043      2.963123
  H      -7.028329     -1.407270      2.372174
  O      -5.710802     -0.085979      0.568241
  C      -4.985456     -3.116375     -1.404590
  H      -4.647317     -3.776957     -0.594971
  H      -6.039641     -3.372208     -1.619591
  H      -4.403305     -3.332918     -2.313472
  C      -5.109089     -0.680261     -2.160726
  H      -5.009773      0.356434     -1.814772
  H      -6.138472     -0.804680     -2.545812
  H      -4.406640     -0.847259     -2.988411
  H      -2.489061     -2.020754     -1.398387
41
Coordinates from ORCA-job orca E -847.142459341096
  C      -2.853535     -1.502504     -0.532921
  H      -2.895260     -2.095156      0.386555
  C      -2.478617     -0.142467     -0.418434
  C      -2.561199      0.602592      0.881945
  H      -1.642401      0.407310      1.472495
  H      -3.401497      0.224260      1.482493
  C      -2.705098      2.102615      0.644787
  H      -2.611400      2.654586      1.592307
  H      -3.704997      2.322533      0.232959
  C      -1.640788      2.574844     -0.334722
  H      -0.640448      2.350204      0.087048
  C      -1.703883      4.054775     -0.692927
  C      -1.368346      5.000513      0.462268
  H      -2.091968      4.863628      1.285004
  H      -0.380432      4.731202      0.879601
  C      -1.361400      6.469344      0.038207
  H      -1.120485      7.133508      0.883552
  H      -2.344943      6.774320     -0.356954
  H      -0.617302      6.652545     -0.755024
  H      -2.710887      4.275869     -1.089520
  H      -1.001159      4.221215     -1.526890
  O      -1.747580      1.863514     -1.584355
  C      -2.065899      0.547941     -1.654438
  O      -2.024292     -0.000383     -2.738526
  C      -4.866405     -1.650131     -1.046555
  C      -5.426083     -1.202722      0.258106
  O      -5.575551     -2.219528      1.137300
  C      -6.053760     -1.866966      2.431912
  H      -6.174852     -2.809146      2.981603
  H      -5.334810     -1.215565      2.954236
  H      -7.015060     -1.335025      2.366222
  O      -5.680963     -0.051547      0.547890
  C      -5.001475     -3.111853     -1.395547
  H      -4.669852     -3.768443     -0.580004
  H      -6.059305     -3.356533     -1.605535
  H      -4.424439     -3.345285     -2.303540
  C      -5.096656     -0.682305     -2.176493
  H      -4.985146      0.356570     -1.841146
  H      -6.128024     -0.799113     -2.558699
  H      -4.397683     -0.864909     -3.003827
  H      -2.491193     -2.030916     -1.417975
41
Coordinates from ORCA-job orca E -847.142492899206
  C      -2.847024     -1.515580     -0.546432
  H      -2.890085     -2.114012      0.369210
  C      -2.461740     -0.159336     -0.424269
  C      -2.530805      0.577395      0.881426
  H      -1.601422      0.387152      1.456906
  H      -3.358361      0.189104      1.493083
  C      -2.690278      2.077231      0.653230
  H      -2.594138      2.625375      1.602759
  H      -3.695479      2.289103      0.250417
  C      -1.636923      2.563873     -0.331111
  H      -0.631880      2.349779      0.084869
  C      -1.718971      4.043894     -0.685208
  C      -1.388837      4.990833      0.470517
  H      -2.106881      4.843909      1.296407
  H      -0.395869      4.732086      0.882526
  C      -1.400766      6.460555      0.049643
  H      -1.163307      7.125646      0.895243
  H      -2.389659      6.755083     -0.340045
  H      -0.662718      6.653925     -0.746822
  H      -2.730415      4.254120     -1.076367
  H      -1.022296      4.220443     -1.522158
  O      -1.740701      1.854778     -1.582442
  C      -2.053417      0.538167     -1.657788
  O      -2.011537     -0.005076     -2.744349
  C      -4.863149     -1.643108     -1.052629
  C      -5.414003     -1.175465      0.248697
  O      -5.575767     -2.181618      1.137970
  C      -6.047344     -1.810174      2.429711
  H      -6.180954     -2.745310      2.988460
  H      -5.318682     -1.164065      2.945146
  H      -7.001142     -1.265388      2.360103
  O      -5.652281     -0.018168      0.527845
  C      -5.017418     -3.106318     -1.386891
  H      -4.692562     -3.759134     -0.565618
  H      -6.078673     -3.339606     -1.592506
  H      -4.445279     -3.356116     -2.293652
  C      -5.084242     -0.683445     -2.191375
  H      -4.960530      0.357181     -1.866086
  H      -6.117496     -0.792327     -2.570867
  H      -4.388849     -0.881136     -3.018280
  H      -2.493189     -2.040862     -1.436812
41
Coordinates from ORCA-job orca E -847.142553374436
  C      -2.836727     -1.537467     -0.562761
  H      -2.881437     -2.142182      0.348609
  C      -2.435419     -0.186882     -0.430528
  C      -2.483939      0.538324      0.882272
  H      -1.538601      0.356965      1.434254
  H      -3.290182      0.134346      1.511951
  C      -2.667695      2.037709      0.667321
  H      -2.565612      2.580967      1.619135
  H      -3.681650      2.235863      0.280345
  C      -1.632802      2.545624     -0.325894
  H      -0.620417      2.348245      0.080349
  C      -1.744526      4.024977     -0.674966
  C      -1.421313      4.975307      0.479779
  H      -2.129843      4.814981      1.311386
  H      -0.420574      4.733223      0.883076
  C      -1.461733      6.445262      0.061392
  H      -1.228500      7.113089      0.906013
  H      -2.458718      6.723489     -0.319562
  H      -0.733785      6.652224     -0.740927
  H      -2.762976      4.217740     -1.056847
  H      -1.058418      4.215779     -1.517478
  O      -1.732856      1.839118     -1.579077
  C      -2.036837      0.520718     -1.661194
  O      -1.993175     -0.016129     -2.750690
  C      -4.856954     -1.628720     -1.060369
  C      -5.396877     -1.134662      0.236124
  O      -5.574111     -2.125873      1.138894
  C      -6.038798     -1.729610      2.425803
  H      -6.186831     -2.654830      2.997262
  H      -5.299702     -1.088156      2.932161
  H      -6.983863     -1.170750      2.349183
  O      -5.613723      0.030197      0.500578
  C      -5.042676     -3.091936     -1.377993
  H      -4.731240     -3.742082     -0.549513
  H      -6.108939     -3.304269     -1.580549
  H      -4.476285     -3.364689     -2.281767
  C      -5.058688     -0.676279     -2.208703
  H      -4.913146      0.364782     -1.894415
  H      -6.094514     -0.767561     -2.585823
  H      -4.368346     -0.895268     -3.034658
  H      -2.492642     -2.058190     -1.459714
41
Coordinates from ORCA-job orca E -847.142602352138
  C      -2.827953     -1.558280     -0.579450
  H      -2.876753     -2.169529      0.327314
  C      -2.409369     -0.214214     -0.437218
  C      -2.440243      0.500398      0.881589
  H      -1.481280      0.328160      1.412740
  H      -3.226766      0.081611      1.526235
  C      -2.646790      1.998710      0.678770
  H      -2.541560      2.537539      1.632828
  H      -3.667830      2.183194      0.304303
  C      -1.627298      2.526816     -0.319869
  H      -0.609383      2.346678      0.080472
  C      -1.767475      4.004751     -0.664956
  C      -1.456259      4.958740      0.489937
  H      -2.158651      4.785319      1.324130
  H      -0.449850      4.733595      0.888958
  C      -1.523514      6.428336      0.073581
  H      -1.298321      7.099083      0.918072
  H      -2.526634      6.689918     -0.303043
  H      -0.802440      6.648582     -0.731408
  H      -2.791038      4.179586     -1.041759
  H      -1.088751      4.209458     -1.510166
  O      -1.719093      1.822000     -1.574841
  C      -2.014636      0.502117     -1.664023
  O      -1.967619     -0.028572     -2.756257
  C      -4.851711     -1.613088     -1.067978
  C      -5.378017     -1.093274      0.224151
  O      -5.569622     -2.069624      1.140007
  C      -6.024804     -1.649235      2.422670
  H      -6.186511     -2.564416      3.006442
  H      -5.274394     -1.013271      2.919174
  H      -6.960830     -1.076135      2.340627
  O      -5.572512      0.078575      0.474675
  C      -5.068449     -3.075528     -1.368925
  H      -4.769878     -3.722644     -0.533394
  H      -6.139177     -3.267480     -1.568369
  H      -4.508536     -3.370541     -2.269732
  C      -5.036934     -0.668858     -2.225824
  H      -4.870342      0.372376     -1.923039
  H      -6.075377     -0.743561     -2.599493
  H      -4.353185     -0.908854     -3.051459
  H      -2.495284     -2.075047     -1.483012
41
Coordinates from ORCA-job orca E -847.142643793576
  C      -2.818491     -1.585334     -0.603857
  H      -2.874766     -2.206871      0.295366
  C      -2.373343     -0.251937     -0.446830
  C      -2.378929      0.447527      0.879867
  H      -1.401759      0.288325      1.381176
  H      -3.137104      0.007753      1.544313
  C      -2.616094      1.943962      0.694897
  H      -2.507175      2.475974      1.652468
  H      -3.645763      2.110092      0.336793
  C      -1.617319      2.500108     -0.309595
  H      -0.592831      2.345746      0.084594
  C      -1.798091      3.974822     -0.649933
  C      -1.507514      4.934211      0.505731
  H      -2.203423      4.742760      1.341407
  H      -0.494859      4.733343      0.901954
  C      -1.611482      6.402341      0.091526
  H      -1.400221      7.077328      0.936248
  H      -2.621672      6.640089     -0.282021
  H      -0.898151      6.640838     -0.715161
  H      -2.827525      4.123178     -1.022031
  H      -1.128434      4.199301     -1.497348
  O      -1.694282      1.797301     -1.567168
  C      -1.979744      0.476056     -1.667196
  O      -1.926912     -0.045866     -2.763206
  C      -4.846120     -1.590424     -1.079203
  C      -5.352404     -1.034379      0.205895
  O      -5.558422     -1.988211      1.142103
  C      -6.000014     -1.533513      2.417818
  H      -6.175141     -2.433451      3.021062
  H      -5.236459     -0.900684      2.897949
  H      -6.926118     -0.945705      2.327755
  O      -5.520285      0.145983      0.434611
  C      -5.104583     -3.051106     -1.354894
  H      -4.824475     -3.691954     -0.508232
  H      -6.180335     -3.215923     -1.551649
  H      -4.552959     -3.377398     -2.249984
  C      -5.011234     -0.660636     -2.251771
  H      -4.817024      0.380870     -1.967188
  H      -6.052851     -0.714471     -2.620248
  H      -4.337700     -0.930655     -3.076525
  H      -2.503061     -2.096001     -1.517035
41
Coordinates from ORCA-job orca E -847.142661096598
  C      -2.817556     -1.597279     -0.616453
  H      -2.878300     -2.224268      0.278614
  C      -2.358645     -0.269756     -0.451217
  C      -2.353318      0.422269      0.879115
  H      -1.368440      0.268100      1.366739
  H      -3.098300     -0.027907      1.551911
  C      -2.601475      1.918580      0.703508
  H      -2.489903      2.446369      1.663162
  H      -3.634260      2.078899      0.352615
  C      -1.610802      2.486803     -0.302282
  H      -0.584184      2.345560      0.091212
  C      -1.810764      3.959354     -0.641547
  C      -1.534277      4.921595      0.515161
  H      -2.230657      4.722560      1.348659
  H      -0.520696      4.731817      0.914515
  C      -1.653033      6.388588      0.100759
  H      -1.451392      7.065773      0.946080
  H      -2.664719      6.615464     -0.275509
  H      -0.940114      6.634786     -0.703971
  H      -2.841701      4.094286     -1.014564
  H      -1.143139      4.193364     -1.487974
  O      -1.677648      1.784441     -1.561004
  C      -1.961817      0.463519     -1.667489
  O      -1.905234     -0.053894     -2.765340
  C      -4.846343     -1.579859     -1.086538
  C      -5.344094     -1.006371      0.194132
  O      -5.543440     -1.946959      1.145012
  C      -5.978092     -1.474251      2.416577
  H      -6.145461     -2.365379      3.034901
  H      -5.214075     -0.830688      2.881415
  H      -6.907164     -0.891631      2.323515
  O      -5.510837      0.176963      0.407680
  C      -5.123001     -3.039861     -1.348836
  H      -4.854376     -3.675755     -0.494772
  H      -6.200051     -3.192661     -1.548295
  H      -4.571951     -3.381987     -2.238332
  C      -5.002184     -0.658716     -2.267196
  H      -4.795101      0.383106     -1.992957
  H      -6.045114     -0.703044     -2.633287
  H      -4.333948     -0.944530     -3.090944
  H      -2.509465     -2.104014     -1.534319
41
Coordinates from ORCA-job orca E -847.142666310501
  C      -2.818875     -1.597889     -0.622950
  H      -2.879909     -2.228083      0.269776
  C      -2.358734     -0.271392     -0.454484
  C      -2.353320      0.418135      0.877096
  H      -1.367909      0.263545      1.363468
  H      -3.097702     -0.034321      1.549142
  C      -2.600696      1.914953      0.704493
  H      -2.489586      2.440181      1.665579
  H      -3.632766      2.078086      0.352676
  C      -1.609196      2.485147     -0.299425
  H      -0.582815      2.345511      0.095153
  C      -1.811233      3.957797     -0.637194
  C      -1.539479      4.918593      0.521958
  H      -2.238783      4.717735      1.352569
  H      -0.527270      4.728755      0.924758
  C      -1.657836      6.386153      0.109574
  H      -1.459439      7.062040      0.956703
  H      -2.668433      6.613030     -0.269598
  H      -0.942431      6.634207     -0.692378
  H      -2.841522      4.091354     -1.012459
  H      -1.142059      4.194641     -1.481614
  O      -1.673337      1.784172     -1.559175
  C      -1.961091      0.464447     -1.669150
  O      -1.906590     -0.050155     -2.768410
  C      -4.848234     -1.582516     -1.090629
  C      -5.343480     -1.000767      0.187077
  O      -5.534620     -1.934312      1.146754
  C      -5.964765     -1.452308      2.416342
  H      -6.123108     -2.338583      3.043957
  H      -5.201971     -0.799635      2.870457
  H      -6.897914     -0.876187      2.323371
  O      -5.514871      0.183434      0.391601
  C      -5.126106     -3.044086     -1.343305
  H      -4.859988     -3.674364     -0.484315
  H      -6.202864     -3.197220     -1.544006
  H      -4.573900     -3.392782     -2.229571
  C      -5.005395     -0.669073     -2.277121
  H      -4.797540      0.374454     -2.010059
  H      -6.048624     -0.715372     -2.642078
  H      -4.338390     -0.961638     -3.099507
  H      -2.512287     -2.102296     -1.542617
41
Coordinates from ORCA-job orca E -847.142665044680
  C      -2.819608     -1.599833     -0.626501
  H      -2.880921     -2.231402      0.265209
  C      -2.359080     -0.273761     -0.456043
  C      -2.358855      0.415542      0.875650
  H      -1.375355      0.260105      1.365703
  H      -3.105272     -0.038113      1.544609
  C      -2.603517      1.912815      0.703186
  H      -2.493830      2.436963      1.665009
  H      -3.634173      2.078717      0.348365
  C      -1.608094      2.482609     -0.297104
  H      -0.583094      2.344078      0.101381
  C      -1.810085      3.955153     -0.635817
  C      -1.545951      4.915915      0.525204
  H      -2.251625      4.715782      1.350580
  H      -0.536949      4.725145      0.935590
  C      -1.660092      6.383564      0.111968
  H      -1.467224      7.059256      0.960534
  H      -2.667761      6.611357     -0.274393
  H      -0.938712      6.631050     -0.684792
  H      -2.838471      4.087481     -1.016650
  H      -1.136619      4.193179     -1.476482
  O      -1.666668      1.781486     -1.556935
  C      -1.959684      0.463225     -1.669526
  O      -1.906909     -0.049527     -2.769692
  C      -4.849335     -1.581859     -1.092486
  C      -5.343137     -0.997755      0.184682
  O      -5.521856     -1.927767      1.150341
  C      -5.950448     -1.442260      2.419168
  H      -6.092064     -2.325905      3.054416
  H      -5.194262     -0.775039      2.862931
  H      -6.892364     -0.880263      2.328057
  O      -5.522978      0.186077      0.384002
  C      -5.130007     -3.043358     -1.343056
  H      -4.870277     -3.671914     -0.480910
  H      -6.206097     -3.193672     -1.549528
  H      -4.573923     -3.395767     -2.225417
  C      -5.005037     -0.669714     -2.280077
  H      -4.793323      0.373549     -2.015223
  H      -6.048854     -0.712769     -2.643767
  H      -4.340240     -0.966778     -3.102659
  H      -2.512318     -2.102203     -1.547070
41
Coordinates from ORCA-job orca E -847.142672903144
  C      -2.818231     -1.599797     -0.631582
  H      -2.878036     -2.233418      0.258764
  C      -2.358723     -0.273652     -0.459834
  C      -2.356370      0.413331      0.873052
  H      -1.371967      0.258030      1.361302
  H      -3.101612     -0.041717      1.542235
  C      -2.602806      1.910250      0.703086
  H      -2.493827      2.432767      1.665862
  H      -3.633433      2.076441      0.348238
  C      -1.608165      2.482517     -0.296697
  H      -0.582776      2.344021      0.100749
  C      -1.811206      3.955561     -0.632694
  C      -1.546812      4.914427      0.529880
  H      -2.251968      4.712466      1.355260
  H      -0.537515      4.723356      0.939396
  C      -1.661901      6.382724      0.119374
  H      -1.468831      7.056941      0.969066
  H      -2.669928      6.610730     -0.265906
  H      -0.941157      6.632074     -0.677381
  H      -2.839906      4.087966     -1.012628
  H      -1.138552      4.195579     -1.473450
  O      -1.667228      1.783482     -1.557681
  C      -1.961713      0.465788     -1.672644
  O      -1.912142     -0.044444     -2.774139
  C      -4.848834     -1.584938     -1.093847
  C      -5.340700     -0.994290      0.181075
  O      -5.521571     -1.919995      1.150693
  C      -5.948874     -1.428206      2.417507
  H      -6.090736     -2.308765      3.056980
  H      -5.191869     -0.759469      2.857627
  H      -6.890482     -0.865923      2.324619
  O      -5.517558      0.190711      0.375631
  C      -5.129671     -3.047638     -1.336719
  H      -4.869733     -3.671905     -0.471536
  H      -6.205847     -3.198820     -1.542075
  H      -4.574425     -3.404597     -2.217822
  C      -5.007145     -0.678866     -2.285796
  H      -4.796008      0.365795     -2.026258
  H      -6.051295     -0.724826     -2.648145
  H      -4.343056     -0.979631     -3.107604
  H      -2.512462     -2.100669     -1.553500
41
Coordinates from ORCA-job orca E -847.142669517597
  C      -2.817815     -1.599207     -0.632700
  H      -2.876293     -2.232886      0.257700
  C      -2.359700     -0.272526     -0.461088
  C      -2.356919      0.413977      0.872098
  H      -1.372736      0.258106      1.360575
  H      -3.102335     -0.040989      1.541194
  C      -2.603280      1.910885      0.702595
  H      -2.494432      2.433257      1.665487
  H      -3.633848      2.077029      0.347669
  C      -1.608431      2.483294     -0.296920
  H      -0.583091      2.344017      0.100413
  C      -1.810647      3.956615     -0.632195
  C      -1.545467      4.914884      0.530657
  H      -2.250641      4.713128      1.356076
  H      -0.536232      4.723042      0.939957
  C      -1.659652      6.383390      0.120635
  H      -1.466108      7.057205      0.970539
  H      -2.667559      6.612152     -0.264516
  H      -0.938799      6.632561     -0.676075
  H      -2.839331      4.089752     -1.011937
  H      -1.138011      4.196560     -1.472986
  O      -1.667774      1.784820     -1.558178
  C      -1.963460      0.467412     -1.673758
  O      -1.914879     -0.042193     -2.775591
  C      -4.848746     -1.586337     -1.093579
  C      -5.341110     -0.995129      0.180941
  O      -5.521828     -1.920311      1.151086
  C      -5.950326     -1.427982      2.417275
  H      -6.089696     -2.308069      3.057942
  H      -5.195277     -0.756437      2.856421
  H      -6.893594     -0.868559      2.323717
  O      -5.518400      0.189914      0.374763
  C      -5.128175     -3.049479     -1.335224
  H      -4.868223     -3.672700     -0.469311
  H      -6.204140     -3.201524     -1.541144
  H      -4.572277     -3.406901     -2.215725
  C      -5.008473     -0.681270     -2.286128
  H      -4.798106      0.363756     -2.027484
  H      -6.052819     -0.728420     -2.647776
  H      -4.344553     -0.981847     -3.108142
  H      -2.511887     -2.099598     -1.554824
41
Coordinates from ORCA-job orca E -847.137858370656
  C      -2.751739     -1.598364     -0.616775
  H      -2.862811     -2.239827      0.239288
  C      -2.307553     -0.278696     -0.441842
  C      -2.325173      0.405827      0.885737
  H      -1.345613      0.261750      1.387291
  H      -3.083852     -0.056296      1.543923
  C      -2.583988      1.899022      0.706134
  H      -2.492381      2.426234      1.668348
  H      -3.612987      2.051557      0.337938
  C      -1.590099      2.477575     -0.292790
  H      -0.564398      2.353363      0.108892
  C      -1.808663      3.946554     -0.637284
  C      -1.558562      4.914722      0.520849
  H      -2.264007      4.709426      1.345170
  H      -0.548375      4.737198      0.934513
  C      -1.688797      6.379493      0.101918
  H      -1.505960      7.060540      0.948527
  H      -2.698170      6.594093     -0.287808
  H      -0.968326      6.632557     -0.693920
  H      -2.837699      4.065314     -1.021113
  H      -1.136158      4.189565     -1.477306
  O      -1.640295      1.773113     -1.552944
  C      -1.921642      0.451564     -1.658548
  O      -1.879128     -0.076178     -2.754379
  C      -4.886812     -1.574930     -1.099685
  C      -5.368483     -0.994832      0.183760
  O      -5.550071     -1.929308      1.143533
  C      -5.954627     -1.439927      2.417987
  H      -6.099946     -2.322097      3.054499
  H      -5.180394     -0.783837      2.849686
  H      -6.889667     -0.863862      2.340984
  O      -5.523416      0.188849      0.399894
  C      -5.161916     -3.025855     -1.352354
  H      -4.892683     -3.642323     -0.483539
  H      -6.235671     -3.187335     -1.562849
  H      -4.590513     -3.362493     -2.231846
  C      -5.026391     -0.654775     -2.277914
  H      -4.807058      0.384435     -2.003063
  H      -6.065627     -0.684018     -2.656655
  H      -4.340123     -0.958933     -3.085426
  H      -2.505297     -2.095477     -1.538370
41
Coordinates from ORCA-job orca E -847.138919208350
  C      -2.755065     -1.600023     -0.613982
  H      -2.872438     -2.242256      0.262859
  C      -2.321829     -0.282799     -0.445929
  C      -2.335842      0.408898      0.884067
  H      -1.355214      0.266678      1.382439
  H      -3.086189     -0.048922      1.545908
  C      -2.594401      1.902964      0.703566
  H      -2.497299      2.431883      1.663982
  H      -3.623651      2.058418      0.340018
  C      -1.600912      2.478202     -0.296063
  H      -0.575045      2.347505      0.102480
  C      -1.812747      3.948955     -0.636708
  C      -1.554898      4.912836      0.523144
  H      -2.259211      4.708964      1.348749
  H      -0.544643      4.729258      0.933727
  C      -1.678829      6.379186      0.108190
  H      -1.490308      7.057070      0.955974
  H      -2.688070      6.599852     -0.278199
  H      -0.959243      6.630625     -0.688956
  H      -2.841992      4.073835     -1.017674
  H      -1.141005      4.190501     -1.477758
  O      -1.655699      1.776008     -1.556801
  C      -1.941215      0.456981     -1.666944
  O      -1.889319     -0.058969     -2.765374
  C      -4.889332     -1.576068     -1.100424
  C      -5.348965     -0.990636      0.184815
  O      -5.541372     -1.924299      1.145960
  C      -5.952308     -1.437068      2.419848
  H      -6.102710     -2.320572      3.053372
  H      -5.181120     -0.783526      2.858360
  H      -6.885818     -0.859661      2.339286
  O      -5.518582      0.194484      0.389892
  C      -5.153146     -3.036565     -1.347879
  H      -4.884188     -3.654621     -0.480723
  H      -6.226737     -3.202496     -1.555795
  H      -4.587912     -3.380184     -2.228387
  C      -5.016421     -0.656537     -2.282512
  H      -4.791857      0.382186     -2.009275
  H      -6.054948     -0.680949     -2.663141
  H      -4.338538     -0.962252     -3.091946
  H      -2.506051     -2.103497     -1.549708
41
Coordinates from ORCA-job orca E -847.139057442457
  C      -2.771333     -1.598483     -0.602053
  H      -2.899459     -2.234058      0.282740
  C      -2.334941     -0.287115     -0.437956
  C      -2.341017      0.411979      0.891628
  H      -1.358539      0.269177      1.385483
  H      -3.086341     -0.040902      1.559610
  C      -2.597831      1.905934      0.708121
  H      -2.496631      2.437401      1.666705
  H      -3.627658      2.063182      0.347583
  C      -1.603742      2.477060     -0.292233
  H      -0.578356      2.345710      0.107249
  C      -1.813076      3.947165     -0.637354
  C      -1.554201      4.914103      0.519679
  H      -2.259028      4.713735      1.345687
  H      -0.544354      4.730307      0.931105
  C      -1.675874      6.379360      0.100325
  H      -1.486596      7.059466      0.946147
  H      -2.684676      6.600347     -0.286962
  H      -0.955724      6.627388     -0.697375
  H      -2.841951      4.072550     -1.019123
  H      -1.140615      4.185199     -1.478838
  O      -1.656010      1.770124     -1.550097
  C      -1.936350      0.450257     -1.659401
  O      -1.894764     -0.058458     -2.760005
  C      -4.901612     -1.571386     -1.105509
  C      -5.361108     -0.991137      0.177766
  O      -5.531877     -1.926584      1.142492
  C      -5.937900     -1.446935      2.420933
  H      -6.068874     -2.333632      3.054271
  H      -5.174757     -0.782016      2.855286
  H      -6.881330     -0.884566      2.349533
  O      -5.507962      0.196038      0.392173
  C      -5.152307     -3.035282     -1.357764
  H      -4.889603     -3.657915     -0.492288
  H      -6.224347     -3.204537     -1.572879
  H      -4.584714     -3.379136     -2.236402
  C      -5.012008     -0.649652     -2.286649
  H      -4.788994      0.387864     -2.008554
  H      -6.047410     -0.671788     -2.676725
  H      -4.332925     -0.952464     -3.094873
  H      -2.518275     -2.104912     -1.539018
41
Coordinates from ORCA-job orca E -847.139142993521
  C      -2.773097     -1.599124     -0.600233
  H      -2.902804     -2.230733      0.284102
  C      -2.337353     -0.289530     -0.437122
  C      -2.341807      0.412108      0.891670
  H      -1.357708      0.271133      1.382961
  H      -3.085389     -0.041506      1.562705
  C      -2.600568      1.905172      0.707159
  H      -2.499510      2.437488      1.665421
  H      -3.630781      2.061101      0.346774
  C      -1.605578      2.476008     -0.292228
  H      -0.580571      2.344016      0.108196
  C      -1.813675      3.945963     -0.638633
  C      -1.555065      4.913512      0.517940
  H      -2.260570      4.714099      1.343608
  H      -0.545599      4.729403      0.930182
  C      -1.675621      6.378571      0.097539
  H      -1.486530      7.059121      0.943064
  H      -2.684046      6.599890     -0.290581
  H      -0.954787      6.625677     -0.699831
  H      -2.842206      4.071813     -1.021271
  H      -1.140400      4.183028     -1.479751
  O      -1.657537      1.768192     -1.549454
  C      -1.943906      0.449582     -1.660140
  O      -1.884621     -0.063663     -2.757523
  C      -4.903191     -1.568806     -1.104289
  C      -5.354623     -0.991530      0.181315
  O      -5.532374     -1.929240      1.142750
  C      -5.937707     -1.450187      2.421102
  H      -6.074547     -2.337514      3.052331
  H      -5.171762     -0.790005      2.858438
  H      -6.878211     -0.882676      2.349298
  O      -5.506412      0.194977      0.397032
  C      -5.149506     -3.032051     -1.359888
  H      -4.886677     -3.657779     -0.496725
  H      -6.221769     -3.202216     -1.574915
  H      -4.583563     -3.374170     -2.240186
  C      -5.009618     -0.644849     -2.282796
  H      -4.788280      0.391818     -2.000692
  H      -6.044372     -0.666385     -2.675628
  H      -4.329825     -0.944098     -3.092369
  H      -2.522901     -2.103222     -1.536870
41
Coordinates from ORCA-job orca E -847.139149051105
  C      -2.773435     -1.601045     -0.600018
  H      -2.906518     -2.231058      0.282635
  C      -2.332416     -0.293447     -0.435113
  C      -2.336522      0.408473      0.893004
  H      -1.351866      0.267746      1.383433
  H      -3.080408     -0.045944      1.564503
  C      -2.596594      1.901057      0.708522
  H      -2.496360      2.433409      1.666949
  H      -3.627081      2.055491      0.348265
  C      -1.602250      2.473458     -0.290741
  H      -0.577356      2.345159      0.111165
  C      -1.814273      3.942127     -0.639917
  C      -1.560162      4.912259      0.515496
  H      -2.266075      4.711879      1.340596
  H      -0.550636      4.731935      0.929283
  C      -1.684795      6.376308      0.092724
  H      -1.498855      7.058725      0.937450
  H      -2.693448      6.593893     -0.296946
  H      -0.963775      6.624463     -0.704152
  H      -2.842671      4.064312     -1.024137
  H      -1.140533      4.179856     -1.480471
  O      -1.650377      1.763396     -1.546890
  C      -1.931737      0.443582     -1.656792
  O      -1.879501     -0.069540     -2.754748
  C      -4.903559     -1.563674     -1.103476
  C      -5.348686     -0.988865      0.184827
  O      -5.535979     -1.928947      1.142149
  C      -5.938172     -1.449993      2.421132
  H      -6.083601     -2.337752      3.049893
  H      -5.166523     -0.797769      2.860895
  H      -6.873511     -0.873801      2.350183
  O      -5.503396      0.196937      0.402664
  C      -5.151242     -3.024776     -1.362851
  H      -4.889402     -3.653674     -0.501628
  H      -6.223976     -3.193120     -1.578005
  H      -4.586518     -3.365228     -2.244596
  C      -5.008063     -0.636988     -2.279154
  H      -4.786560      0.398806     -1.993747
  H      -6.042581     -0.656526     -2.673182
  H      -4.328291     -0.934441     -3.089841
  H      -2.527366     -2.103292     -1.536906
41
Coordinates from ORCA-job orca E -847.139155984752
  C      -2.776445     -1.601178     -0.597169
  H      -2.912450     -2.230544      0.285639
  C      -2.332506     -0.294253     -0.432214
  C      -2.335247      0.408385      0.895226
  H      -1.349891      0.268119      1.384399
  H      -3.078190     -0.045716      1.567699
  C      -2.595661      1.900720      0.709914
  H      -2.495597      2.433572      1.668078
  H      -3.626229      2.054529      0.349646
  C      -1.601212      2.472649     -0.289633
  H      -0.576503      2.345580      0.113093
  C      -1.814020      3.940692     -0.640753
  C      -1.561586      4.912286      0.513803
  H      -2.267993      4.712237      1.338562
  H      -0.552250      4.733191      0.928582
  C      -1.687020      6.375779      0.089348
  H      -1.502215      7.059245      0.933470
  H      -2.695552      6.592182     -0.301286
  H      -0.965606      6.623621     -0.707273
  H      -2.842188      4.061696     -1.025943
  H      -1.139735      4.177932     -1.481001
  O      -1.648169      1.761145     -1.545080
  C      -1.931516      0.441776     -1.654287
  O      -1.874361     -0.073817     -2.750944
  C      -4.905643     -1.561596     -1.104357
  C      -5.352822     -0.988836      0.184046
  O      -5.537195     -1.930152      1.140837
  C      -5.935357     -1.452895      2.421721
  H      -6.078606     -2.341443      3.049897
  H      -5.162547     -0.801106      2.859935
  H      -6.871001     -0.876802      2.354617
  O      -5.500792      0.197159      0.405774
  C      -5.152840     -3.021893     -1.366510
  H      -4.893071     -3.652192     -0.505650
  H      -6.225089     -3.190073     -1.584363
  H      -4.586197     -3.360926     -2.247590
  C      -5.007357     -0.633085     -2.278702
  H      -4.787634      0.402496     -1.990928
  H      -6.040586     -0.652653     -2.676104
  H      -4.325065     -0.928733     -3.087879
  H      -2.531123     -2.103708     -1.534161
41
Coordinates from ORCA-job orca E -847.139167303795
  C      -2.777974     -1.601915     -0.595644
  H      -2.916534     -2.230855      0.287320
  C      -2.331125     -0.296036     -0.430394
  C      -2.332487      0.406839      0.896795
  H      -1.346319      0.267200      1.384521
  H      -3.074345     -0.047320      1.570230
  C      -2.593663      1.899045      0.711219
  H      -2.493442      2.432098      1.669241
  H      -3.624532      2.052133      0.351550
  C      -1.599872      2.471271     -0.288861
  H      -0.575099      2.345968      0.114202
  C      -1.814541      3.938699     -0.641387
  C      -1.564135      4.911556      0.512565
  H      -2.270784      4.711197      1.337033
  H      -0.554826      4.734113      0.928117
  C      -1.691201      6.374558      0.086916
  H      -1.507747      7.058897      0.930625
  H      -2.699788      6.589381     -0.304443
  H      -0.969651      6.622722     -0.709478
  H      -2.842654      4.057970     -1.027247
  H      -1.140079      4.176185     -1.481419
  O      -1.645509      1.758606     -1.543785
  C      -1.929333      0.439480     -1.652612
  O      -1.871353     -0.076690     -2.748983
  C      -4.906646     -1.559008     -1.104766
  C      -5.353177     -0.987146      0.184142
  O      -5.538897     -1.929421      1.139865
  C      -5.934046     -1.452986      2.421979
  H      -6.078333     -2.341993      3.049270
  H      -5.159078     -0.803562      2.859846
  H      -6.868457     -0.874643      2.357249
  O      -5.497577      0.198951      0.407956
  C      -5.154393     -3.018753     -1.368691
  H      -4.896518     -3.650151     -0.508065
  H      -6.226327     -3.186407     -1.588524
  H      -4.586472     -3.357177     -2.249192
  C      -5.006075     -0.629100     -2.278201
  H      -4.787342      0.406247     -1.988767
  H      -6.038297     -0.648406     -2.678223
  H      -4.322086     -0.923698     -3.086269
  H      -2.534358     -2.104460     -1.533230
41
Coordinates from ORCA-job orca E -847.139170463096
  C      -2.779481     -1.603349     -0.594257
  H      -2.921192     -2.232072      0.288544
  C      -2.328269     -0.299150     -0.428349
  C      -2.327087      0.403585      0.898779
  H      -1.339488      0.265132      1.383936
  H      -3.067021     -0.050988      1.573914
  C      -2.589849      1.895621      0.713184
  H      -2.489326      2.428786      1.671096
  H      -3.621284      2.047402      0.354633
  C      -1.597402      2.468813     -0.287696
  H      -0.572404      2.346625      0.115684
  C      -1.815686      3.935277     -0.642072
  C      -1.568671      4.910052      0.511008
  H      -2.275511      4.708832      1.335088
  H      -0.559278      4.735550      0.927612
  C      -1.698957      6.372269      0.083656
  H      -1.517742      7.057963      0.926749
  H      -2.707787      6.584255     -0.308621
  H      -0.977447      6.621308     -0.712506
  H      -2.843836      4.051419     -1.028761
  H      -1.141245      4.173590     -1.481884
  O      -1.640707      1.754594     -1.541967
  C      -1.925389      0.435864     -1.650601
  O      -1.867203     -0.080610     -2.746869
  C      -4.907618     -1.554760     -1.105103
  C      -5.352517     -0.983591      0.184622
  O      -5.541849     -1.927058      1.138589
  C      -5.932934     -1.451406      2.422220
  H      -6.079786     -2.340912      3.048204
  H      -5.154459     -0.806027      2.859856
  H      -6.865028     -0.869042      2.360368
  O      -5.492016      0.202651      0.410955
  C      -5.157235     -3.013696     -1.371237
  H      -4.902402     -3.646457     -0.510709
  H      -6.228735     -3.180032     -1.594064
  H      -4.587301     -3.351666     -2.250641
  C      -5.003873     -0.623050     -2.277425
  H      -4.786455      0.411981     -1.985825
  H      -6.034594     -0.642148     -2.681255
  H      -4.317134     -0.916371     -3.083617
  H      -2.538873     -2.105798     -1.532778
41
Coordinates from ORCA-job orca E -847.139170747907
  C      -2.779516     -1.604254     -0.594644
  H      -2.921780     -2.233297      0.287870
  C      -2.326527     -0.300841     -0.428332
  C      -2.323682      0.401340      0.899069
  H      -1.335220      0.263577      1.382647
  H      -3.062360     -0.053769      1.575204
  C      -2.587548      1.893323      0.713972
  H      -2.486735      2.426305      1.671961
  H      -3.619357      2.044355      0.356213
  C      -1.596045      2.467489     -0.287251
  H      -0.570818      2.346947      0.116015
  C      -1.816495      3.933561     -0.642029
  C      -1.571441      4.908980      0.510933
  H      -2.278526      4.707073      1.334632
  H      -0.562076      4.735888      0.928209
  C      -1.703324      6.370913      0.083114
  H      -1.523454      7.057048      0.926137
  H      -2.712195      6.581546     -0.309792
  H      -0.981662      6.620656     -0.712685
  H      -2.844682      4.047998     -1.029126
  H      -1.142109      4.172750     -1.481637
  O      -1.638152      1.752890     -1.541409
  C      -1.923638      0.434425     -1.650456
  O      -1.866278     -0.081544     -2.747012
  C      -4.907679     -1.552879     -1.105111
  C      -5.351456     -0.981128      0.184787
  O      -5.542937     -1.924532      1.138392
  C      -5.932868     -1.448499      2.422236
  H      -6.080991     -2.337888      3.048079
  H      -5.153148     -0.804516      2.859713
  H      -6.864015     -0.864572      2.360829
  O      -5.488933      0.205292      0.411376
  C      -5.158863     -3.011586     -1.371369
  H      -4.905610     -3.644442     -0.510454
  H      -6.230202     -3.176928     -1.595545
  H      -4.587968     -3.350077     -2.249965
  C      -5.002780     -0.621021     -2.277480
  H      -4.785983      0.414024     -1.985485
  H      -6.032850     -0.640510     -2.682905
  H      -4.314624     -0.914099     -3.082589
  H      -2.540540     -2.106609     -1.533650
41
Coordinates from ORCA-job orca E -847.139172861980
  C      -2.778927     -1.605676     -0.596317
  H      -2.920831     -2.235538      0.285623
  C      -2.324048     -0.303171     -0.429373
  C      -2.318581      0.397853      0.898655
  H      -1.328854      0.260956      1.379852
  H      -3.055288     -0.058325      1.576272
  C      -2.584181      1.889769      0.714786
  H      -2.482851      2.422257      1.673005
  H      -3.616563      2.039732      0.358263
  C      -1.594137      2.465720     -0.286782
  H      -0.568517      2.347423      0.116124
  C      -1.817794      3.931362     -0.641542
  C      -1.575511      4.907241      0.511624
  H      -2.283028      4.704133      1.334657
  H      -0.566238      4.735907      0.929862
  C      -1.709507      6.368935      0.083657
  H      -1.531563      7.055379      0.926842
  H      -2.718382      6.577852     -0.310152
  H      -0.987547      6.619905     -0.711484
  H      -2.846075      4.043414     -1.029091
  H      -1.143592      4.172210     -1.480827
  O      -1.634614      1.750999     -1.540986
  C      -1.921635      0.432943     -1.651140
  O      -1.865909     -0.081861     -2.748314
  C      -4.907425     -1.550761     -1.105012
  C      -5.349556     -0.977307      0.184768
  O      -5.543576     -1.919815      1.138689
  C      -5.933084     -1.442350      2.422144
  H      -6.082418     -2.331120      3.048580
  H      -5.152626     -0.798999      2.859227
  H      -6.863522     -0.857338      2.360117
  O      -5.484665      0.209501      0.410658
  C      -5.161231     -3.009289     -1.370347
  H      -4.910134     -3.641701     -0.508492
  H      -6.232482     -3.172842     -1.596048
  H      -4.589365     -3.349400     -2.247704
  C      -5.001340     -0.619593     -2.278111
  H      -4.785356      0.415669     -1.986320
  H      -6.030678     -0.640135     -2.685258
  H      -4.311375     -0.912713     -3.081712
  H      -2.542065     -2.107839     -1.535933
41
Coordinates from ORCA-job orca E -847.139170943934
  C      -2.778437     -1.606175     -0.597594
  H      -2.919559     -2.236517      0.284088
  C      -2.323328     -0.303818     -0.430345
  C      -2.316899      0.396580      0.898021
  H      -1.326753      0.259794      1.378371
  H      -3.052833     -0.060169      1.576117
  C      -2.583143      1.888461      0.714938
  H      -2.481646      2.420611      1.673332
  H      -3.615710      2.038093      0.358828
  C      -1.593562      2.465231     -0.286594
  H      -0.567820      2.347578      0.116196
  C      -1.818248      3.930799     -0.641044
  C      -1.576836      4.906583      0.512375
  H      -2.284550      4.702991      1.335120
  H      -0.567630      4.735671      0.930946
  C      -1.711423      6.368290      0.084627
  H      -1.534158      7.054671      0.928009
  H      -2.720252      6.576761     -0.309534
  H      -0.989283      6.619786     -0.710188
  H      -2.846564      4.042146     -1.028706
  H      -1.144129      4.172355     -1.480197
  O      -1.633438      1.750740     -1.540949
  C      -1.921256      0.432880     -1.651837
  O      -1.866223     -0.081265     -2.749336
  C      -4.907225     -1.550468     -1.104990
  C      -5.348806     -0.975912      0.184475
  O      -5.542983     -1.917585      1.139128
  C      -5.933062     -1.439049      2.422017
  H      -6.082111     -2.327301      3.049250
  H      -5.153149     -0.794800      2.858719
  H      -6.863833     -0.854656      2.359061
  O      -5.483534      0.211118      0.409441
  C      -5.162054     -3.009049     -1.369250
  H      -4.911636     -3.640959     -0.506834
  H      -6.233390     -3.171764     -1.595153
  H      -4.590243     -3.350320     -2.246193
  C      -5.001034     -0.620162     -2.278784
  H      -4.785411      0.415336     -1.987583
  H      -6.030255     -0.641450     -2.686178
  H      -4.310617     -0.913493     -3.081929
  H      -2.542044     -2.108175     -1.537381
41
Coordinates from ORCA-job orca E -847.136677270573
  C      -2.721953     -1.594877     -0.568176
  H      -2.911508     -2.217399      0.283728
  C      -2.279610     -0.304405     -0.399966
  C      -2.294545      0.392358      0.918203
  H      -1.310166      0.266287      1.413490
  H      -3.045385     -0.076487      1.579725
  C      -2.567184      1.882095      0.724372
  H      -2.482915      2.418350      1.682311
  H      -3.595242      2.024061      0.352553
  C      -1.577753      2.460000     -0.279299
  H      -0.551350      2.354659      0.125402
  C      -1.814709      3.921226     -0.643925
  C      -1.582811      4.906926      0.503098
  H      -2.289568      4.702832      1.326541
  H      -0.572538      4.747542      0.923807
  C      -1.729563      6.364568      0.065287
  H      -1.559021      7.058204      0.904177
  H      -2.739805      6.561678     -0.331266
  H      -1.008819      6.616878     -0.730538
  H      -2.843608      4.021090     -1.033338
  H      -1.141857      4.162883     -1.484067
  O      -1.613902      1.737773     -1.532273
  C      -1.891128      0.415908     -1.628446
  O      -1.851626     -0.123917     -2.717601
  C      -4.950817     -1.535970     -1.114722
  C      -5.355133     -0.971281      0.175429
  O      -5.543092     -1.922137      1.123009
  C      -5.925734     -1.459708      2.414692
  H      -6.069888     -2.356131      3.031517
  H      -5.145414     -0.819921      2.856119
  H      -6.857837     -0.876062      2.364503
  O      -5.479054      0.214118      0.410885
  C      -5.188562     -2.977293     -1.386323
  H      -4.920789     -3.601401     -0.522322
  H      -6.257323     -3.157264     -1.612009
  H      -4.604976     -3.294054     -2.265550
  C      -5.038229     -0.606246     -2.280612
  H      -4.817824      0.427504     -1.986735
  H      -6.062684     -0.618578     -2.700515
  H      -4.321324     -0.915949     -3.063596
  H      -2.539824     -2.094470     -1.505108
41
Coordinates from ORCA-job orca E -847.137995655446
  C      -2.727139     -1.602346     -0.570204
  H      -2.921829     -2.231433      0.301116
  C      -2.291363     -0.309287     -0.408588
  C      -2.301299      0.397094      0.914535
  H      -1.315284      0.274520      1.406103
  H      -3.043053     -0.064389      1.582796
  C      -2.577178      1.885833      0.718337
  H      -2.489413      2.424868      1.673976
  H      -3.606692      2.027073      0.349777
  C      -1.586256      2.461804     -0.283072
  H      -0.560384      2.350346      0.120717
  C      -1.816758      3.924914     -0.643558
  C      -1.581113      4.905749      0.506777
  H      -2.289080      4.701932      1.329209
  H      -0.571780      4.740641      0.927374
  C      -1.721428      6.365351      0.073710
  H      -1.548396      7.055369      0.914984
  H      -2.730575      6.568060     -0.322626
  H      -0.999200      6.617266     -0.720888
  H      -2.844991      4.030344     -1.032992
  H      -1.142463      4.166286     -1.482620
  O      -1.623642      1.743387     -1.537094
  C      -1.904837      0.424756     -1.640605
  O      -1.848202     -0.098499     -2.733512
  C      -4.956131     -1.542519     -1.116126
  C      -5.358697     -0.974123      0.180711
  O      -5.546241     -1.921330      1.133903
  C      -5.923219     -1.449763      2.422972
  H      -6.068727     -2.341532      3.046082
  H      -5.138803     -0.809657      2.857668
  H      -6.853478     -0.863134      2.371846
  O      -5.478951      0.213362      0.417529
  C      -5.184352     -2.998149     -1.387517
  H      -4.920970     -3.625804     -0.525533
  H      -6.251866     -3.182339     -1.616240
  H      -4.602438     -3.320965     -2.265343
  C      -5.023799     -0.606385     -2.284537
  H      -4.802493      0.426320     -1.986571
  H      -6.044361     -0.614720     -2.713066
  H      -4.313222     -0.909031     -3.067538
  H      -2.544967     -2.106479     -1.519431
41
Coordinates from ORCA-job orca E -847.138090485424
  C      -2.731062     -1.606989     -0.572149
  H      -2.929033     -2.234577      0.302103
  C      -2.294793     -0.315957     -0.411005
  C      -2.299376      0.394533      0.914280
  H      -1.311774      0.271441      1.401863
  H      -3.037614     -0.063567      1.587857
  C      -2.576979      1.882848      0.718515
  H      -2.486078      2.422551      1.673551
  H      -3.607871      2.023535      0.354028
  C      -1.587478      2.460322     -0.282268
  H      -0.561682      2.349882      0.121948
  C      -1.819369      3.923212     -0.643489
  C      -1.585249      4.904963      0.506413
  H      -2.293471      4.701020      1.328582
  H      -0.576012      4.740994      0.927658
  C      -1.726591      6.364208      0.072517
  H      -1.554732      7.054804      0.913563
  H      -2.735667      6.565807     -0.324550
  H      -1.004082      6.616376     -0.721742
  H      -2.847548      4.027384     -1.033390
  H      -1.145040      4.165035     -1.482404
  O      -1.620935      1.740146     -1.534796
  C      -1.890969      0.419600     -1.640481
  O      -1.850498     -0.092115     -2.737927
  C      -4.960156     -1.539567     -1.116770
  C      -5.359792     -0.971501      0.181985
  O      -5.549176     -1.919087      1.134660
  C      -5.921047     -1.445712      2.424101
  H      -6.069614     -2.336663      3.047713
  H      -5.132393     -0.809394      2.856866
  H      -6.848503     -0.854476      2.375210
  O      -5.474571      0.216471      0.420965
  C      -5.185638     -2.999416     -1.387159
  H      -4.927566     -3.629357     -0.525387
  H      -6.252953     -3.182492     -1.618425
  H      -4.604759     -3.327076     -2.263578
  C      -5.014013     -0.600468     -2.283765
  H      -4.790608      0.430326     -1.981204
  H      -6.033020     -0.604202     -2.716983
  H      -4.307417     -0.900109     -3.070164
  H      -2.549942     -2.109343     -1.524283
41
Coordinates from ORCA-job orca E -847.138154603505
  C      -2.734439     -1.609045     -0.572422
  H      -2.933115     -2.234121      0.302406
  C      -2.301302     -0.318703     -0.412686
  C      -2.301515      0.395301      0.912851
  H      -1.311403      0.273560      1.395382
  H      -3.035573     -0.061508      1.592191
  C      -2.581600      1.882651      0.716534
  H      -2.489440      2.423267      1.671091
  H      -3.613340      2.021913      0.353922
  C      -1.591120      2.460086     -0.282669
  H      -0.565957      2.347874      0.122843
  C      -1.820374      3.923271     -0.644477
  C      -1.586252      4.904855      0.505566
  H      -2.295918      4.702228      1.326823
  H      -0.577855      4.739327      0.928206
  C      -1.724667      6.364255      0.071261
  H      -1.552920      7.054683      0.912477
  H      -2.732865      6.567401     -0.327254
  H      -1.000631      6.615183     -0.722000
  H      -2.847940      4.028954     -1.035652
  H      -1.144653      4.164064     -1.482578
  O      -1.623983      1.739268     -1.534384
  C      -1.902144      0.420517     -1.643265
  O      -1.836011     -0.094755     -2.737054
  C      -4.963623     -1.538087     -1.116225
  C      -5.361787     -0.972201      0.183330
  O      -5.551333     -1.921258      1.134481
  C      -5.918893     -1.448533      2.425192
  H      -6.068762     -2.339809      3.048088
  H      -5.127215     -0.815192      2.856858
  H      -6.844615     -0.854344      2.379517
  O      -5.473613      0.215766      0.424452
  C      -5.184966     -2.999470     -1.386677
  H      -4.930579     -3.630794     -0.524897
  H      -6.251878     -3.182737     -1.620596
  H      -4.603724     -3.329188     -2.261921
  C      -5.006748     -0.596331     -2.280402
  H      -4.785897      0.433107     -1.971905
  H      -6.023402     -0.598908     -2.720301
  H      -4.298900     -0.890498     -3.067959
  H      -2.554118     -2.108661     -1.525688
41
Coordinates from ORCA-job orca E -847.138178425890
  C      -2.734546     -1.609292     -0.572359
  H      -2.934670     -2.233917      0.301268
  C      -2.298416     -0.319908     -0.411191
  C      -2.297612      0.392414      0.913716
  H      -1.306929      0.269765      1.395065
  H      -3.031653     -0.065454      1.592883
  C      -2.577683      1.879935      0.718776
  H      -2.485101      2.419718      1.673824
  H      -3.609755      2.019050      0.357177
  C      -1.588710      2.458506     -0.281618
  H      -0.563228      2.348968      0.123827
  C      -1.821220      3.920721     -0.644633
  C      -1.589198      4.903571      0.504727
  H      -2.298301      4.699831      1.326216
  H      -0.580361      4.740644      0.927344
  C      -1.731074      6.362355      0.069463
  H      -1.560818      7.053737      0.910194
  H      -2.739803      6.562890     -0.329043
  H      -1.007740      6.614446     -0.724072
  H      -2.849064      4.023853     -1.035792
  H      -1.146052      4.162318     -1.482940
  O      -1.620543      1.736767     -1.532971
  C      -1.896546      0.417362     -1.640884
  O      -1.834789     -0.099358     -2.734804
  C      -4.963532     -1.535108     -1.116542
  C      -5.360757     -0.969277      0.182458
  O      -5.552104     -1.918494      1.133018
  C      -5.918370     -1.446270      2.424472
  H      -6.069920     -2.337832      3.046537
  H      -5.125269     -0.815050      2.856586
  H      -6.842851     -0.850082      2.379730
  O      -5.471039      0.218698      0.423756
  C      -5.186841     -2.994399     -1.387288
  H      -4.933423     -3.625573     -0.525155
  H      -6.253984     -3.176311     -1.621648
  H      -4.605257     -3.324058     -2.262455
  C      -5.006553     -0.593969     -2.280228
  H      -4.785869      0.435479     -1.971532
  H      -6.022885     -0.596199     -2.720986
  H      -4.297621     -0.889004     -3.067002
  H      -2.554983     -2.108082     -1.525433
41
Coordinates from ORCA-job orca E -847.138186134243
  C      -2.735649     -1.610852     -0.572480
  H      -2.938384     -2.234644      0.300637
  C      -2.296041     -0.322859     -0.410099
  C      -2.292576      0.388582      0.914584
  H      -1.300463      0.265639      1.393029
  H      -3.024842     -0.070056      1.595307
  C      -2.573681      1.876055      0.721119
  H      -2.479957      2.415154      1.676472
  H      -3.606549      2.014421      0.361582
  C      -1.586739      2.456130     -0.280561
  H      -0.560879      2.349559      0.124705
  C      -1.823031      3.917338     -0.644823
  C      -1.593694      4.901596      0.503883
  H      -2.302388      4.696585      1.325413
  H      -0.584500      4.741553      0.926752
  C      -1.739283      6.359718      0.067608
  H      -1.570935      7.052102      0.907899
  H      -2.748473      6.557378     -0.331166
  H      -1.016497      6.613155     -0.725998
  H      -2.851115      4.017515     -1.036113
  H      -1.148391      4.160022     -1.483236
  O      -1.617142      1.733327     -1.531397
  C      -1.891870      0.413723     -1.639131
  O      -1.830572     -0.103634     -2.732959
  C      -4.964350     -1.531172     -1.117052
  C      -5.359785     -0.965241      0.181927
  O      -5.553712     -1.914487      1.131937
  C      -5.916900     -1.441972      2.424204
  H      -6.071197     -2.333449      3.045704
  H      -5.120921     -0.814173      2.856002
  H      -6.839126     -0.842201      2.380998
  O      -5.466730      0.222927      0.423987
  C      -5.189254     -2.989274     -1.388150
  H      -4.938228     -3.620795     -0.525604
  H      -6.256449     -3.169662     -1.623945
  H      -4.607196     -3.319790     -2.262710
  C      -5.003854     -0.589849     -2.280051
  H      -4.783844      0.439353     -1.970012
  H      -6.018908     -0.591237     -2.723974
  H      -4.293395     -0.884732     -3.065644
  H      -2.557571     -2.108365     -1.526185
41
Coordinates from ORCA-job orca E -847.138190224260
  C      -2.737170     -1.613153     -0.572771
  H      -2.943474     -2.236031      0.299998
  C      -2.292773     -0.327027     -0.409066
  C      -2.285587      0.383498      0.915674
  H      -1.291452      0.260945      1.390117
  H      -3.014888     -0.076230      1.598885
  C      -2.568639      1.870813      0.723838
  H      -2.473537      2.409256      1.679422
  H      -3.602555      2.007813      0.366857
  C      -1.584299      2.452878     -0.279354
  H      -0.557923      2.350058      0.125537
  C      -1.825530      3.912940     -0.644869
  C      -1.599938      4.898744      0.503272
  H      -2.308336      4.691943      1.324594
  H      -0.590422      4.742266      0.926713
  C      -1.750072      6.356098      0.065970
  H      -1.584382      7.049572      0.905891
  H      -2.759717      6.550202     -0.333401
  H      -1.027749      6.611386     -0.727465
  H      -2.853859      4.009311     -1.036463
  H      -1.151476      4.157337     -1.483251
  O      -1.612773      1.728940     -1.529682
  C      -1.886804      0.409379     -1.637577
  O      -1.824701     -0.108236     -2.731333
  C      -4.965480     -1.526247     -1.117839
  C      -5.358389     -0.959597      0.181262
  O      -5.555660     -1.908476      1.130991
  C      -5.914611     -1.434959      2.424073
  H      -6.072398     -2.326021      3.045289
  H      -5.114818     -0.811422      2.855018
  H      -6.833877     -0.830549      2.382658
  O      -5.460621      0.228920      0.424083
  C      -5.192656     -2.983497     -1.389151
  H      -4.944780     -3.615388     -0.525976
  H      -6.259785     -3.162042     -1.626961
  H      -4.609851     -3.315395     -2.262694
  C      -5.000343     -0.584703     -2.280481
  H      -4.781457      0.444343     -1.969101
  H      -6.013506     -0.585457     -2.728869
  H      -4.287394     -0.879451     -3.063920
  H      -2.561389     -2.109369     -1.527457
41
Coordinates from ORCA-job orca E -847.138194452670
  C      -2.738469     -1.615243     -0.573279
  H      -2.947906     -2.237601      0.299209
  C      -2.289404     -0.330946     -0.408455
  C      -2.278617      0.378696      0.916628
  H      -1.282526      0.257276      1.387279
  H      -3.004671     -0.082330      1.602377
  C      -2.564081      1.865766      0.726078
  H      -2.468026      2.403764      1.681806
  H      -3.598901      2.001085      0.371094
  C      -1.582031      2.449819     -0.278206
  H      -0.555173      2.350422      0.126258
  C      -1.827886      3.908953     -0.644538
  C      -1.606117      4.896005      0.503304
  H      -2.314694      4.687616      1.324058
  H      -0.596556      4.742552      0.927756
  C      -1.759874      6.352720      0.065141
  H      -1.596911      7.047062      0.904882
  H      -2.769671      6.543826     -0.335289
  H      -1.037501      6.609628     -0.727725
  H      -2.856342      4.001747     -1.036620
  H      -1.154247      4.155219     -1.482702
  O      -1.608482      1.725101     -1.528234
  C      -1.882668      0.405773     -1.636644
  O      -1.819724     -0.111534     -2.730493
  C      -4.966439     -1.521991     -1.118689
  C      -5.356877     -0.954072      0.180528
  O      -5.557025     -1.902223      1.130415
  C      -5.912141     -1.427245      2.423978
  H      -6.072787     -2.317655      3.045396
  H      -5.109050     -0.807126      2.853747
  H      -6.828876     -0.818929      2.383890
  O      -5.454667      0.234832      0.423647
  C      -5.196170     -2.978900     -1.389798
  H      -4.951038     -3.610870     -0.525896
  H      -6.263176     -3.155736     -1.629433
  H      -4.612556     -3.312311     -2.262221
  C      -4.997656     -0.580600     -2.281647
  H      -4.780069      0.448563     -1.969714
  H      -6.009012     -0.581609     -2.734077
  H      -4.281880     -0.875451     -3.062480
  H      -2.565173     -2.110664     -1.528874
41
Coordinates from ORCA-job orca E -847.138196431151
  C      -2.739224     -1.616630     -0.573972
  H      -2.950487     -2.239052      0.298204
  C      -2.286715     -0.333718     -0.408393
  C      -2.273220      0.375201      0.917196
  H      -1.275692      0.255189      1.385120
  H      -2.996603     -0.087044      1.604900
  C      -2.560890      1.862042      0.727417
  H      -2.464534      2.399864      1.683209
  H      -3.596236      1.995830      0.373433
  C      -1.580243      2.447675     -0.277262
  H      -0.553083      2.350719      0.126972
  C      -1.829427      3.906214     -0.643977
  C      -1.610889      4.893989      0.503870
  H      -2.320114      4.684503      1.323775
  H      -0.601572      4.742493      0.929628
  C      -1.766760      6.350299      0.065124
  H      -1.606186      7.045150      0.904904
  H      -2.776374      6.539443     -0.336688
  H      -1.043807      6.608337     -0.726848
  H      -2.857848      3.996366     -1.036751
  H      -1.155847      4.154061     -1.481733
  O      -1.604810      1.722598     -1.527198
  C      -1.879910      0.403575     -1.636377
  O      -1.816716     -0.113029     -2.730483
  C      -4.967019     -1.519248     -1.119374
  C      -5.355627     -0.949910      0.179856
  O      -5.557482     -1.897203      1.130258
  C      -5.910063     -1.420762      2.423949
  H      -6.072218     -2.310501      3.045938
  H      -5.104979     -0.802413      2.852548
  H      -6.825336     -0.810212      2.384515
  O      -5.450354      0.239323      0.422689
  C      -5.199152     -2.976172     -1.389930
  H      -4.955848     -3.607995     -0.525396
  H      -6.266066     -3.151542     -1.630794
  H      -4.614903     -3.310915     -2.261424
  C      -4.996323     -0.578397     -2.283106
  H      -4.779846      0.451066     -1.971412
  H      -6.006438     -0.580453     -2.738137
  H      -4.278149     -0.873505     -3.061634
  H      -2.568080     -2.111848     -1.530156
41
Coordinates from ORCA-job orca E -847.138197689489
  C      -2.739308     -1.617131     -0.574660
  H      -2.950776     -2.240017      0.297221
  C      -2.285431     -0.334837     -0.408765
  C      -2.270624      0.373607      0.917215
  H      -1.272436      0.254537      1.383927
  H      -2.992610     -0.089427      1.605828
  C      -2.559558      1.860314      0.727806
  H      -2.463381      2.398087      1.683646
  H      -3.595028      1.993287      0.373919
  C      -1.579332      2.446844     -0.276697
  H      -0.552091      2.350937      0.127549
  C      -1.829963      3.905181     -0.643395
  C      -1.613035      4.893144      0.504595
  H      -2.322775      4.683174      1.323929
  H      -0.603952      4.742397      0.931177
  C      -1.769642      6.349318      0.065683
  H      -1.610363      7.044306      0.905599
  H      -2.779043      6.537669     -0.337040
  H      -1.046179      6.607904     -0.725641
  H      -2.858314      3.994143     -1.036612
  H      -1.156326      4.153868     -1.480860
  O      -1.602682      1.721759     -1.526687
  C      -1.878913      0.402995     -1.636599
  O      -1.816169     -0.112898     -2.731004
  C      -4.967128     -1.518415     -1.119724
  C      -5.354942     -0.947977      0.179353
  O      -5.557143     -1.894567      1.130369
  C      -5.909011     -1.417067      2.423862
  H      -6.071141     -2.306307      3.046572
  H      -5.103568     -0.798606      2.851624
  H      -6.824133     -0.806288      2.384358
  O      -5.448626      0.241460      0.421502
  C      -5.200820     -2.975463     -1.389527
  H      -4.958275     -3.606991     -0.524569
  H      -6.267748     -3.149840     -1.630820
  H      -4.616327     -3.311170     -2.260498
  C      -4.996117     -0.578300     -2.284263
  H      -4.780075      0.451454     -1.973220
  H      -6.005843     -0.581434     -2.740018
  H      -4.276832     -0.873753     -3.061641
  H      -2.569408     -2.112509     -1.531037
41
Coordinates from ORCA-job orca E -847.136691165361
  C      -2.683148     -1.614277     -0.546184
  H      -2.940518     -2.225571      0.292913
  C      -2.243795     -0.342059     -0.381979
  C      -2.248853      0.364879      0.933598
  H      -1.255034      0.258469      1.412885
  H      -2.984400     -0.110959      1.607006
  C      -2.544519      1.850619      0.735969
  H      -2.462945      2.390839      1.691901
  H      -3.574556      1.978811      0.368893
  C      -1.569332      2.438836     -0.273095
  H      -0.539993      2.354992      0.128679
  C      -1.833772      3.892864     -0.647495
  C      -1.622130      4.889359      0.494151
  H      -2.327649      4.677926      1.316767
  H      -0.610488      4.749894      0.918665
  C      -1.792737      6.341627      0.047276
  H      -1.637083      7.042863      0.882710
  H      -2.804956      6.518832     -0.353596
  H      -1.073838      6.601958     -0.747650
  H      -2.864045      3.970569     -1.038231
  H      -1.164747      4.142594     -1.488361
  O      -1.593052      1.705882     -1.520972
  C      -1.857727      0.382665     -1.617562
  O      -1.804649     -0.150824     -2.705642
  C      -5.010995     -1.499108     -1.127825
  C      -5.362807     -0.939293      0.167392
  O      -5.559038     -1.897342      1.107619
  C      -5.902738     -1.440006      2.411275
  H      -6.060556     -2.339277      3.020784
  H      -5.096312     -0.827861      2.845116
  H      -6.818633     -0.829401      2.386967
  O      -5.443353      0.246720      0.420526
  C      -5.221735     -2.919850     -1.390263
  H      -4.974510     -3.546478     -0.528047
  H      -6.288376     -3.086412     -1.638472
  H      -4.632799     -3.249846     -2.260760
  C      -5.014442     -0.569745     -2.280523
  H      -4.772794      0.454995     -1.959545
  H      -6.016531     -0.552314     -2.753338
  H      -4.280399     -0.883133     -3.042324
  H      -2.565089     -2.099050     -1.496768
41
Coordinates from ORCA-job orca E -847.138734593298
  C      -2.687977     -1.620958     -0.551546
  H      -2.949705     -2.241982      0.306954
  C      -2.251766     -0.344513     -0.389581
  C      -2.252683      0.369421      0.931573
  H      -1.258318      0.264384      1.408789
  H      -2.980841     -0.098958      1.609826
  C      -2.550926      1.853506      0.732298
  H      -2.466714      2.395592      1.686547
  H      -3.583647      1.980266      0.368053
  C      -1.572734      2.441284     -0.273772
  H      -0.544039      2.353364      0.128478
  C      -1.832791      3.896681     -0.645151
  C      -1.620203      4.889551      0.499392
  H      -2.327338      4.677678      1.320458
  H      -0.609546      4.746464      0.924876
  C      -1.786705      6.343312      0.056099
  H      -1.630593      7.041914      0.893598
  H      -2.797879      6.523961     -0.345696
  H      -1.066067      6.604025     -0.737102
  H      -2.862260      3.977983     -1.037093
  H      -1.161928      4.146755     -1.484432
  O      -1.595245      1.712499     -1.522993
  C      -1.858819      0.390937     -1.626123
  O      -1.802523     -0.128619     -2.718683
  C      -5.016333     -1.506460     -1.131277
  C      -5.366054     -0.940752      0.173281
  O      -5.561672     -1.892418      1.123250
  C      -5.900089     -1.421855      2.422687
  H      -6.058603     -2.314391      3.041629
  H      -5.090176     -0.807503      2.847782
  H      -6.814415     -0.808977      2.395136
  O      -5.444727      0.248554      0.425884
  C      -5.220346     -2.954969     -1.398038
  H      -4.970558     -3.583598     -0.533469
  H      -6.285326     -3.138486     -1.647949
  H      -4.629289     -3.284889     -2.267720
  C      -5.011235     -0.564755     -2.289078
  H      -4.777368      0.458821     -1.969183
  H      -6.010432     -0.546913     -2.767384
  H      -4.278449     -0.871119     -3.050695
  H      -2.568749     -2.111447     -1.517165
41
Coordinates from ORCA-job orca E -847.138884627593
  C      -2.691317     -1.623019     -0.553006
  H      -2.952046     -2.242787      0.308035
  C      -2.256328     -0.346450     -0.391835
  C      -2.253183      0.370510      0.930881
  H      -1.257318      0.265527      1.404546
  H      -2.977678     -0.095392      1.614362
  C      -2.553702      1.853552      0.730718
  H      -2.467899      2.396939      1.684204
  H      -3.587573      1.978379      0.368965
  C      -1.574363      2.441846     -0.273436
  H      -0.546448      2.352442      0.130386
  C      -1.832379      3.897793     -0.644764
  C      -1.620609      4.890242      0.500336
  H      -2.329148      4.678850      1.320314
  H      -0.610723      4.746142      0.927284
  C      -1.785176      6.344260      0.057190
  H      -1.629771      7.042510      0.895120
  H      -2.795581      6.525871     -0.346092
  H      -1.063111      6.604571     -0.734841
  H      -2.861162      3.980222     -1.038230
  H      -1.160049      4.147550     -1.482965
  O      -1.594729      1.712978     -1.522124
  C      -1.859241      0.392149     -1.627936
  O      -1.795483     -0.125564     -2.720123
  C      -5.019828     -1.507300     -1.131873
  C      -5.367803     -0.941422      0.174725
  O      -5.562949     -1.892088      1.125777
  C      -5.897749     -1.418374      2.424570
  H      -6.056829     -2.309372      3.045638
  H      -5.085520     -0.804849      2.846601
  H      -6.810844     -0.803637      2.397952
  O      -5.444398      0.248359      0.427336
  C      -5.222327     -2.964780     -1.400830
  H      -4.973558     -3.593097     -0.535274
  H      -6.285264     -3.155117     -1.651078
  H      -4.629826     -3.293499     -2.269490
  C      -5.009083     -0.561404     -2.289381
  H      -4.781025      0.462453     -1.967416
  H      -6.006677     -0.544530     -2.771204
  H      -4.275275     -0.864037     -3.050984
  H      -2.571099     -2.113036     -1.519598
41
Coordinates from ORCA-job orca E -847.138903584977
  C      -2.693566     -1.624790     -0.553129
  H      -2.954352     -2.242536      0.308880
  C      -2.256766     -0.349336     -0.391749
  C      -2.249681      0.368251      0.931428
  H      -1.252261      0.262252      1.401479
  H      -2.971579     -0.096914      1.618505
  C      -2.551677      1.850973      0.732143
  H      -2.463812      2.394616      1.685441
  H      -3.586674      1.974495      0.373597
  C      -1.573813      2.440704     -0.272309
  H      -0.545980      2.352856      0.132042
  C      -1.833780      3.896042     -0.644627
  C      -1.623791      4.889495      0.499915
  H      -2.332160      4.677501      1.319894
  H      -0.613756      4.747241      0.927142
  C      -1.790600      6.342985      0.055880
  H      -1.636538      7.041968      0.893445
  H      -2.801211      6.522716     -0.347737
  H      -1.068774      6.604012     -0.736137
  H      -2.862579      3.976779     -1.038445
  H      -1.161548      4.146263     -1.482770
  O      -1.591920      1.710653     -1.520142
  C      -1.853172      0.389368     -1.626511
  O      -1.792516     -0.126960     -2.719281
  C      -5.021691     -1.504530     -1.132622
  C      -5.367814     -0.938944      0.174414
  O      -5.564560     -1.889464      1.124997
  C      -5.895559     -1.414872      2.424398
  H      -6.056730     -2.305403      3.045631
  H      -5.080322     -0.804334      2.845019
  H      -6.806474     -0.796847      2.399732
  O      -5.441065      0.250960      0.427279
  C      -5.226395     -2.964113     -1.402928
  H      -4.980417     -3.592163     -0.536409
  H      -6.288657     -3.155857     -1.653693
  H      -4.632700     -3.292543     -2.270702
  C      -5.005350     -0.557922     -2.289454
  H      -4.779335      0.465895     -1.965954
  H      -6.001831     -0.540475     -2.773919
  H      -4.271141     -0.860357     -3.050649
  H      -2.572522     -2.114272     -1.519634
41
Coordinates from ORCA-job orca E -847.138917119731
  C      -2.696309     -1.625871     -0.553080
  H      -2.956476     -2.241569      0.309998
  C      -2.258217     -0.351356     -0.391552
  C      -2.246811      0.366483      0.931648
  H      -1.247314      0.259915      1.397171
  H      -2.965284     -0.098503      1.622723
  C      -2.550417      1.848807      0.733184
  H      -2.461155      2.392661      1.686357
  H      -3.586374      1.970746      0.377053
  C      -1.573132      2.439552     -0.271102
  H      -0.545730      2.353092      0.134687
  C      -1.834425      3.894166     -0.644916
  C      -1.627192      4.888641      0.499213
  H      -2.336285      4.676239      1.318471
  H      -0.617488      4.748035      0.927767
  C      -1.795460      6.341601      0.053997
  H      -1.643463      7.041341      0.891304
  H      -2.805812      6.519643     -0.351022
  H      -1.072993      6.603131     -0.737270
  H      -2.862833      3.973361     -1.040103
  H      -1.161378      4.144613     -1.482335
  O      -1.588697      1.708383     -1.518240
  C      -1.852761      0.387904     -1.625746
  O      -1.781781     -0.130962     -2.716629
  C      -5.024082     -1.501621     -1.133145
  C      -5.368403     -0.936995      0.174250
  O      -5.566405     -1.887839      1.123943
  C      -5.892670     -1.413298      2.424597
  H      -6.055598     -2.303772      3.045467
  H      -5.074066     -0.806168      2.843655
  H      -6.801319     -0.791858      2.402943
  O      -5.438356      0.252949      0.427822
  C      -5.230802     -2.961640     -1.405115
  H      -4.987691     -3.589456     -0.537679
  H      -6.292601     -3.154386     -1.656482
  H      -4.635549     -3.289219     -2.272028
  C      -5.002292     -0.554565     -2.288841
  H      -4.781001      0.469564     -1.963094
  H      -5.996869     -0.538512     -2.777711
  H      -4.265393     -0.855221     -3.048224
  H      -2.574185     -2.114622     -1.519474
41
Coordinates from ORCA-job orca E -847.138920935596
  C      -2.697025     -1.627022     -0.552569
  H      -2.957882     -2.241995      0.310805
  C      -2.256437     -0.353290     -0.390550
  C      -2.243102      0.363791      0.932562
  H      -1.242663      0.256990      1.396130
  H      -2.960189     -0.101768      1.624652
  C      -2.547162      1.846239      0.735188
  H      -2.456947      2.389721      1.688462
  H      -3.583643      1.967802      0.380472
  C      -1.571549      2.437856     -0.270305
  H      -0.543846      2.353666      0.135172
  C      -1.835823      3.891643     -0.645048
  C      -1.630527      4.887226      0.498476
  H      -2.339150      4.673881      1.317891
  H      -0.620525      4.748893      0.927060
  C      -1.801725      6.339585      0.052400
  H      -1.651114      7.040127      0.889287
  H      -2.812443      6.515345     -0.352694
  H      -1.079814      6.602101     -0.739044
  H      -2.864425      3.968512     -1.040162
  H      -1.163339      4.142908     -1.482670
  O      -1.586044      1.705917     -1.517126
  C      -1.849159      0.385322     -1.624287
  O      -1.779558     -0.133546     -2.715379
  C      -5.024329     -1.498680     -1.133626
  C      -5.367597     -0.934145      0.173855
  O      -5.567609     -1.885117      1.122965
  C      -5.891517     -1.410792      2.424342
  H      -6.056295     -2.301330      3.044610
  H      -5.070877     -0.806238      2.843138
  H      -6.798491     -0.786876      2.403976
  O      -5.435130      0.255835      0.428142
  C      -5.233735     -2.956929     -1.406236
  H      -4.992536     -3.585243     -0.538619
  H      -6.295887     -3.147624     -1.658174
  H      -4.638106     -3.284985     -2.272732
  C      -4.999895     -0.551966     -2.289052
  H      -4.778680      0.472050     -1.962821
  H      -5.993515     -0.535493     -2.779932
  H      -4.261923     -0.853312     -3.047105
  H      -2.574854     -2.115667     -1.518992
41
Coordinates from ORCA-job orca E -847.138930050378
  C      -2.698241     -1.629195     -0.551782
  H      -2.960146     -2.243162      0.312122
  C      -2.253451     -0.356760     -0.389060
  C      -2.236733      0.359271      0.934051
  H      -1.234581      0.252773      1.394138
  H      -2.951090     -0.107348      1.628190
  C      -2.541974      1.841775      0.738211
  H      -2.450383      2.384736      1.691608
  H      -3.579270      1.962492      0.385570
  C      -1.568907      2.434860     -0.269026
  H      -0.540696      2.354398      0.135881
  C      -1.838138      3.887367     -0.645201
  C      -1.636348      4.884757      0.497413
  H      -2.344483      4.669904      1.316852
  H      -0.626004      4.750093      0.926375
  C      -1.812119      6.336119      0.049866
  H      -1.664040      7.037968      0.886113
  H      -2.823277      6.508186     -0.355715
  H      -1.090824      6.600199     -0.741616
  H      -2.866982      3.960316     -1.040382
  H      -1.166484      4.140131     -1.483035
  O      -1.581543      1.701748     -1.515360
  C      -1.844423      0.381216     -1.622329
  O      -1.775025     -0.137746     -2.713527
  C      -5.024770     -1.493823     -1.134343
  C      -5.366158     -0.929285      0.173501
  O      -5.569647     -1.880331      1.121780
  C      -5.889577     -1.406012      2.424165
  H      -6.057451     -2.296488      3.043667
  H      -5.065536     -0.805661      2.842331
  H      -6.793726     -0.777965      2.405737
  O      -5.429490      0.260746      0.429062
  C      -5.238514     -2.949861     -1.408279
  H      -5.000291     -3.579384     -0.540672
  H      -6.301115     -3.137197     -1.661302
  H      -4.642393     -3.278897     -2.274091
  C      -4.996079     -0.546920     -2.289270
  H      -4.775637      0.476958     -1.962048
  H      -5.987725     -0.530244     -2.784132
  H      -4.255494     -0.848666     -3.044627
  H      -2.576304     -2.117674     -1.518378
41
Coordinates from ORCA-job orca E -847.138934673091
  C      -2.699007     -1.630713     -0.551251
  H      -2.961521     -2.244198      0.312892
  C      -2.251369     -0.359195     -0.388170
  C      -2.232292      0.356364      0.935030
  H      -1.228949      0.250565      1.392740
  H      -2.944629     -0.111000      1.630737
  C      -2.538648      1.838782      0.739925
  H      -2.446309      2.381543      1.693349
  H      -3.576415      1.958782      0.388451
  C      -1.567090      2.432804     -0.268249
  H      -0.538538      2.354769      0.136209
  C      -1.839552      3.884509     -0.645304
  C      -1.640373      4.882998      0.496817
  H      -2.348471      4.667146      1.316010
  H      -0.629962      4.750662      0.926349
  C      -1.818913      6.333731      0.048322
  H      -1.672785      7.036376      0.884244
  H      -2.830193      6.503435     -0.357947
  H      -1.097715      6.598861     -0.742902
  H      -2.868483      3.954824     -1.040726
  H      -1.168301      4.138385     -1.483122
  O      -1.578427      1.698948     -1.514240
  C      -1.841764      0.378541     -1.621282
  O      -1.772295     -0.140350     -2.712549
  C      -5.025024     -1.490581     -1.134729
  C      -5.365165     -0.925954      0.173428
  O      -5.570941     -1.877004      1.121224
  C      -5.888397     -1.402554      2.424160
  H      -6.058057     -2.292938      3.043305
  H      -5.062314     -0.804654      2.841822
  H      -6.790863     -0.772061      2.406889
  O      -5.425663      0.264082      0.429804
  C      -5.241535     -2.945763     -1.409662
  H      -5.005090     -3.576349     -0.542306
  H      -6.304343     -3.130856     -1.663525
  H      -4.645258     -3.275606     -2.275076
  C      -4.993784     -0.543139     -2.289285
  H      -4.774204      0.480665     -1.961288
  H      -5.983926     -0.526724     -2.787081
  H      -4.250941     -0.844614     -3.042569
  H      -2.577567     -2.119126     -1.517984
41
Coordinates from ORCA-job orca E -847.138937967172
  C      -2.699862     -1.632668     -0.550505
  H      -2.963054     -2.245840      0.313710
  C      -2.248512     -0.362440     -0.387058
  C      -2.226286      0.352701      0.936303
  H      -1.221389      0.248236      1.390902
  H      -2.935848     -0.115656      1.634182
  C      -2.534386      1.834911      0.741902
  H      -2.441221      2.377505      1.695327
  H      -3.572698      1.953880      0.391758
  C      -1.564639      2.430174     -0.267273
  H      -0.535654      2.355258      0.136593
  C      -1.841192      3.880889     -0.645470
  C      -1.645721      4.880763      0.496075
  H      -2.354172      4.663756      1.314638
  H      -0.635441      4.751297      0.926796
  C      -1.827420      6.330679      0.046236
  H      -1.684170      7.034340      0.881797
  H      -2.838612      6.497435     -0.361468
  H      -1.105898      6.597066     -0.744270
  H      -2.870124      3.947755     -1.041480
  H      -1.170270      4.136268     -1.483102
  O      -1.574130      1.695312     -1.512755
  C      -1.838713      0.375158     -1.620094
  O      -1.769416     -0.143460     -2.711504
  C      -5.025221     -1.486294     -1.135073
  C      -5.363830     -0.921618      0.173547
  O      -5.572528     -1.872794      1.120612
  C      -5.887184     -1.398311      2.424196
  H      -6.058751     -2.288642      3.042901
  H      -5.058861     -0.803113      2.841304
  H      -6.787811     -0.765161      2.408321
  O      -5.420754      0.268363      0.431013
  C      -5.245280     -2.940838     -1.411386
  H      -5.010953     -3.573073     -0.544631
  H      -6.308302     -3.122827     -1.666471
  H      -4.649074     -3.271840     -2.276437
  C      -4.991098     -0.537886     -2.289071
  H      -4.773081      0.485842     -1.959873
  H      -5.979130     -0.522365     -2.790888
  H      -4.244774     -0.838354     -3.039393
  H      -2.579611     -2.121020     -1.517450
41
Coordinates from ORCA-job orca E -847.138935615288
  C      -2.700064     -1.633154     -0.550234
  H      -2.963275     -2.246466      0.313861
  C      -2.247600     -0.363371     -0.386803
  C      -2.224159      0.351732      0.936627
  H      -1.218716      0.247880      1.390133
  H      -2.932695     -0.116956      1.635333
  C      -2.533021      1.833815      0.742372
  H      -2.439660      2.376415      1.695787
  H      -3.571505      1.952363      0.392619
  C      -1.563749      2.429508     -0.266982
  H      -0.534635      2.355551      0.136734
  C      -1.841499      3.879935     -0.645515
  C      -1.647360      4.880175      0.495932
  H      -2.356232      4.662919      1.314068
  H      -0.637283      4.751408      0.927353
  C      -1.829650      6.329881      0.045636
  H      -1.687534      7.033820      0.881161
  H      -2.840621      6.495871     -0.362920
  H      -1.107674      6.596572     -0.744353
  H      -2.870361      3.945716     -1.041886
  H      -1.170558      4.135832     -1.482971
  O      -1.572534      1.694305     -1.512275
  C      -1.838116      0.374340     -1.619899
  O      -1.769305     -0.144028     -2.711432
  C      -5.025242     -1.485055     -1.135089
  C      -5.363495     -0.920396      0.173674
  O      -5.572926     -1.871662      1.120496
  C      -5.887137     -1.397207      2.424190
  H      -6.058745     -2.287547      3.042870
  H      -5.058595     -0.802209      2.841132
  H      -6.787637     -0.763861      2.408621
  O      -5.419484      0.269542      0.431427
  C      -5.246306     -2.939691     -1.411767
  H      -5.012528     -3.572509     -0.545308
  H      -6.309358     -3.120608     -1.667348
  H      -4.650304     -3.271086     -2.276815
  C      -4.990588     -0.536399     -2.288978
  H      -4.773749      0.487426     -1.959330
  H      -5.977833     -0.521920     -2.792298
  H      -4.242638     -0.835942     -3.038102
  H      -2.580700     -2.121548     -1.517258
41
Coordinates from ORCA-job orca E -847.138935076368
  C      -2.700069     -1.633172     -0.550090
  H      -2.963050     -2.246830      0.313799
  C      -2.247176     -0.363623     -0.386766
  C      -2.222847      0.351457      0.936720
  H      -1.217084      0.247890      1.389545
  H      -2.930779     -0.117388      1.635941
  C      -2.532181      1.833461      0.742587
  H      -2.438675      2.376065      1.696007
  H      -3.570780      1.951791      0.393130
  C      -1.563138      2.429422     -0.266806
  H      -0.533984      2.355933      0.136884
  C      -1.841413      3.879715     -0.645505
  C      -1.647908      4.880112      0.495917
  H      -2.357121      4.662876      1.313768
  H      -0.638003      4.751543      0.927809
  C      -1.830243      6.329731      0.045353
  H      -1.688764      7.033802      0.880876
  H      -2.841013      6.495447     -0.363807
  H      -1.107877      6.596477     -0.744260
  H      -2.870232      3.944984     -1.042092
  H      -1.170449      4.135860     -1.482871
  O      -1.571459      1.694018     -1.511978
  C      -1.838159      0.374294     -1.619934
  O      -1.770209     -0.143786     -2.711630
  C      -5.025203     -1.484645     -1.135009
  C      -5.363463     -0.920054      0.173801
  O      -5.573031     -1.871420      1.120494
  C      -5.887650     -1.397054      2.424122
  H      -6.058658     -2.287443      3.042900
  H      -5.059621     -0.801363      2.841077
  H      -6.788642     -0.764398      2.408472
  O      -5.419322      0.269850      0.431626
  C      -5.246609     -2.939502     -1.411750
  H      -5.013035     -3.572602     -0.545470
  H      -6.309658     -3.119808     -1.667678
  H      -4.650863     -3.271027     -2.276937
  C      -4.990690     -0.536070     -2.288969
  H      -4.775359      0.488002     -1.959082
  H      -5.977434     -0.523047     -2.793262
  H      -4.241444     -0.834505     -3.037272
  H      -2.581775     -2.121603     -1.517203
41
Coordinates from ORCA-job orca E -847.137098989451
  C      -2.644691     -1.622512     -0.528294
  H      -2.942628     -2.218549      0.310195
  C      -2.224437     -0.370929     -0.382033
  C      -2.217200      0.345449      0.936091
  H      -1.214206      0.248556      1.396594
  H      -2.933362     -0.131638      1.623757
  C      -2.529491      1.827879      0.745125
  H      -2.444084      2.367993      1.700756
  H      -3.562212      1.949404      0.390679
  C      -1.561345      2.422847     -0.267794
  H      -0.531143      2.352592      0.133809
  C      -1.844713      3.871884     -0.647559
  C      -1.652417      4.874076      0.492495
  H      -2.359617      4.655513      1.311739
  H      -0.641405      4.749073      0.922863
  C      -1.839959      6.322660      0.040708
  H      -1.699278      7.028044      0.875260
  H      -2.851912      6.484831     -0.366966
  H      -1.119712      6.590803     -0.750371
  H      -2.874384      3.933565     -1.042525
  H      -1.175913      4.129217     -1.486296
  O      -1.567936      1.682431     -1.514151
  C      -1.826810      0.358780     -1.619025
  O      -1.762760     -0.168490     -2.707484
  C      -5.071305     -1.470851     -1.146430
  C      -5.375792     -0.911428      0.153046
  O      -5.573416     -1.867748      1.095496
  C      -5.882454     -1.411289      2.408090
  H      -6.043397     -2.311047      3.016169
  H      -5.059171     -0.814981      2.830588
  H      -6.788529     -0.785543      2.405758
  O      -5.419200      0.278214      0.408830
  C      -5.259256     -2.891394     -1.402080
  H      -5.018670     -3.514363     -0.531318
  H      -6.320549     -3.074693     -1.663193
  H      -4.650845     -3.212160     -2.258950
  C      -5.002017     -0.546323     -2.276476
  H      -4.772645      0.471724     -1.943573
  H      -5.989107     -0.528289     -2.779964
  H      -4.242598     -0.857008     -3.008738
  H      -2.564507     -2.102908     -1.482367
41
Coordinates from ORCA-job orca E -847.140110425291
  C      -2.650207     -1.637802     -0.532916
  H      -2.954853     -2.246523      0.320069
  C      -2.223816     -0.371309     -0.380018
  C      -2.212876      0.348814      0.941403
  H      -1.209830      0.253344      1.401242
  H      -2.925962     -0.124479      1.632053
  C      -2.527707      1.829359      0.745219
  H      -2.441266      2.372361      1.698806
  H      -3.564687      1.947015      0.390863
  C      -1.559601      2.426599     -0.265204
  H      -0.529354      2.356255      0.135833
  C      -1.843456      3.875057     -0.645791
  C      -1.651715      4.877253      0.494292
  H      -2.358703      4.658199      1.313548
  H      -0.640605      4.752934      0.924579
  C      -1.840381      6.325651      0.042439
  H      -1.700189      7.031120      0.876987
  H      -2.852485      6.487037     -0.365155
  H      -1.120398      6.594339     -0.748684
  H      -2.873143      3.936240     -1.040779
  H      -1.174744      4.132760     -1.484531
  O      -1.567742      1.689787     -1.511091
  C      -1.824612      0.368010     -1.617954
  O      -1.761726     -0.149822     -2.709323
  C      -5.077113     -1.476587     -1.147482
  C      -5.379013     -0.914856      0.164944
  O      -5.579697     -1.867305      1.113755
  C      -5.881786     -1.397227      2.421666
  H      -6.047350     -2.289678      3.038946
  H      -5.051326     -0.802514      2.834941
  H      -6.783334     -0.764843      2.415942
  O      -5.419069      0.276061      0.427519
  C      -5.263494     -2.924177     -1.414193
  H      -5.021827     -3.550422     -0.545789
  H      -6.323280     -3.120650     -1.678137
  H      -4.653703     -3.246210     -2.273695
  C      -5.000398     -0.534069     -2.290928
  H      -4.768516      0.484719     -1.955655
  H      -5.982946     -0.503920     -2.804915
  H      -4.240694     -0.844564     -3.024495
  H      -2.571466     -2.122569     -1.505848
41
Coordinates from ORCA-job orca E -847.140311706231
  C      -2.652707     -1.641831     -0.533297
  H      -2.956590     -2.250911      0.320869
  C      -2.224077     -0.371597     -0.377288
  C      -2.210623      0.350098      0.944444
  H      -1.207078      0.255019      1.403044
  H      -2.921939     -0.121211      1.638223
  C      -2.527289      1.829481      0.744680
  H      -2.440115      2.374765      1.697057
  H      -3.565157      1.943925      0.391308
  C      -1.559447      2.427348     -0.264695
  H      -0.529536      2.357110      0.137375
  C      -1.842805      3.875974     -0.645774
  C      -1.651827      4.878662      0.494123
  H      -2.359106      4.659625      1.313150
  H      -0.640876      4.754732      0.924885
  C      -1.840738      6.326944      0.041912
  H      -1.701105      7.032663      0.876353
  H      -2.852730      6.487917     -0.366121
  H      -1.120532      6.595684     -0.748990
  H      -2.872191      3.937119     -1.041462
  H      -1.173544      4.133394     -1.484101
  O      -1.567520      1.690140     -1.509516
  C      -1.824444      0.369004     -1.615913
  O      -1.758402     -0.148972     -2.706770
  C      -5.079585     -1.476999     -1.147014
  C      -5.380068     -0.915693      0.168188
  O      -5.582236     -1.868418      1.116619
  C      -5.880425     -1.395542      2.423985
  H      -6.048518     -2.286443      3.042907
  H      -5.046259     -0.803762      2.834238
  H      -6.779200     -0.759337      2.419265
  O      -5.418770      0.274747      0.432855
  C      -5.266406     -2.933818     -1.418286
  H      -5.025588     -3.560264     -0.549264
  H      -6.323879     -3.136014     -1.683352
  H      -4.656804     -3.256013     -2.277706
  C      -5.001217     -0.528030     -2.294832
  H      -4.769939      0.490371     -1.957814
  H      -5.979940     -0.493001     -2.814421
  H      -4.242288     -0.838489     -3.028752
  H      -2.573570     -2.124990     -1.507649
41
Coordinates from ORCA-job orca E -847.140339930884
  C      -2.653615     -1.642835     -0.532253
  H      -2.956674     -2.250897      0.322527
  C      -2.223087     -0.372734     -0.374730
  C      -2.208019      0.349303      0.946665
  H      -1.203972      0.254120      1.404134
  H      -2.918109     -0.121248      1.642391
  C      -2.525950      1.828313      0.745725
  H      -2.437884      2.374687      1.697498
  H      -3.564376      1.940827      0.393760
  C      -1.559334      2.426642     -0.264260
  H      -0.529423      2.357670      0.138122
  C      -1.843783      3.874902     -0.646008
  C      -1.653263      4.878439      0.493212
  H      -2.360069      4.659289      1.312623
  H      -0.642052      4.755618      0.923686
  C      -1.843546      6.326286      0.040215
  H      -1.704216      7.032611      0.874188
  H      -2.855818      6.486160     -0.367555
  H      -1.123844      6.595177     -0.751100
  H      -2.873296      3.935093     -1.041541
  H      -1.174831      4.132209     -1.484619
  O      -1.566696      1.688474     -1.508297
  C      -1.821717      0.367037     -1.613527
  O      -1.756333     -0.151666     -2.704123
  C      -5.079977     -1.475047     -1.147205
  C      -5.379924     -0.914345      0.168255
  O      -5.583613     -1.867810      1.115596
  C      -5.879027     -1.395275      2.423807
  H      -6.049025     -2.286228      3.042150
  H      -5.042386     -0.806466      2.833321
  H      -6.775806     -0.756296      2.421018
  O      -5.417114      0.275736      0.433618
  C      -5.268848     -2.933487     -1.420617
  H      -5.030076     -3.559639     -0.550762
  H      -6.325602     -3.136636     -1.686704
  H      -4.659205     -3.255941     -2.279751
  C      -5.000991     -0.524442     -2.295499
  H      -4.770289      0.493576     -1.956987
  H      -5.977632     -0.487391     -2.818513
  H      -4.242410     -0.835361     -3.029473
  H      -2.573242     -2.125033     -1.506526
41
Coordinates from ORCA-job orca E -847.140362485326
  C      -2.654946     -1.643250     -0.530751
  H      -2.956209     -2.249915      0.325297
  C      -2.222447     -0.373893     -0.371740
  C      -2.205287      0.348433      0.949063
  H      -1.200321      0.253537      1.404629
  H      -2.913268     -0.121580      1.647425
  C      -2.524935      1.827002      0.747043
  H      -2.436404      2.374503      1.698184
  H      -3.563912      1.937085      0.396150
  C      -1.559051      2.425647     -0.263338
  H      -0.529389      2.358266      0.140070
  C      -1.844681      3.873330     -0.646289
  C      -1.655291      4.878019      0.492061
  H      -2.362007      4.658937      1.311563
  H      -0.644019      4.756523      0.922766
  C      -1.846840      6.325263      0.037717
  H      -1.708290      7.032462      0.871074
  H      -2.859201      6.483813     -0.370347
  H      -1.127269      6.594110     -0.753734
  H      -2.874137      3.932337     -1.042186
  H      -1.175645      4.130353     -1.484924
  O      -1.564775      1.686413     -1.506618
  C      -1.819593      0.364944     -1.610830
  O      -1.749593     -0.155887     -2.700198
  C      -5.080572     -1.472718     -1.147851
  C      -5.379988     -0.912937      0.167832
  O      -5.585135     -1.867351      1.113897
  C      -5.876482     -1.395736      2.423514
  H      -6.048579     -2.286979      3.040847
  H      -5.036671     -0.810776      2.832059
  H      -6.770801     -0.753355      2.423655
  O      -5.415282      0.276799      0.434133
  C      -5.272188     -2.931298     -1.423603
  H      -5.036245     -3.557101     -0.552714
  H      -6.328470     -3.134594     -1.690973
  H      -4.662302     -3.253915     -2.282382
  C      -5.001540     -0.520933     -2.295635
  H      -4.772606      0.496774     -1.955108
  H      -5.975776     -0.482832     -2.822957
  H      -4.242596     -0.831569     -3.029481
  H      -2.572328     -2.124541     -1.504863
41
Coordinates from ORCA-job orca E -847.140362805905
  C      -2.655932     -1.644352     -0.529002
  H      -2.956173     -2.249595      0.328362
  C      -2.220440     -0.376281     -0.369237
  C      -2.201185      0.346107      0.951153
  H      -1.195228      0.251590      1.404686
  H      -2.907156     -0.123971      1.651583
  C      -2.522324      1.824513      0.749227
  H      -2.433021      2.372480      1.700018
  H      -3.561913      1.932957      0.399776
  C      -1.558124      2.423899     -0.262355
  H      -0.528321      2.358895      0.141070
  C      -1.846533      3.870717     -0.646447
  C      -1.658530      4.876749      0.490915
  H      -2.364511      4.657103      1.310902
  H      -0.646855      4.757487      0.921307
  C      -1.852904      6.323230      0.035339
  H      -1.715340      7.031435      0.868008
  H      -2.865703      6.479545     -0.372493
  H      -1.134126      6.592682     -0.756622
  H      -2.876221      3.927571     -1.042058
  H      -1.178192      4.128101     -1.485529
  O      -1.562297      1.683607     -1.505006
  C      -1.814878      0.361632     -1.608208
  O      -1.744894     -0.159664     -2.697349
  C      -5.080516     -1.469514     -1.148983
  C      -5.379215     -0.910266      0.166985
  O      -5.586495     -1.865081      1.112149
  C      -5.874143     -1.393985      2.422844
  H      -6.048653     -2.285328      3.039335
  H      -5.031376     -0.812779      2.830694
  H      -6.765986     -0.748197      2.425181
  O      -5.411865      0.279297      0.434257
  C      -5.276046     -2.926730     -1.426294
  H      -5.043406     -3.552926     -0.554798
  H      -6.332496     -3.127767     -1.694946
  H      -4.665970     -3.250222     -2.284590
  C      -5.000465     -0.517367     -2.295611
  H      -4.772377      0.500080     -1.953692
  H      -5.972915     -0.478683     -2.826298
  H      -4.240939     -0.828051     -3.028906
  H      -2.571404     -2.125526     -1.502907
41
Coordinates from ORCA-job orca E -847.140368836011
  C      -2.656971     -1.645196     -0.527676
  H      -2.956079     -2.249542      0.330859
  C      -2.219242     -0.378017     -0.367938
  C      -2.198226      0.344465      0.952211
  H      -1.191234      0.250799      1.403702
  H      -2.902245     -0.126108      1.654268
  C      -2.520466      1.822721      0.750680
  H      -2.431016      2.370737      1.701398
  H      -3.560347      1.930288      0.401734
  C      -1.556959      2.422566     -0.261402
  H      -0.527140      2.359263      0.142223
  C      -1.847434      3.868706     -0.646532
  C      -1.661248      4.875731      0.490251
  H      -2.367124      4.655525      1.310175
  H      -0.649513      4.758257      0.920997
  C      -1.857695      6.321642      0.033721
  H      -1.721545      7.030569      0.866009
  H      -2.870578      6.476130     -0.374600
  H      -1.139029      6.591722     -0.758127
  H      -2.877098      3.923811     -1.042449
  H      -1.179230      4.126534     -1.485588
  O      -1.559685      1.681575     -1.503709
  C      -1.812327      0.359535     -1.606752
  O      -1.739171     -0.162533     -2.695290
  C      -5.080723     -1.467348     -1.150047
  C      -5.378601     -0.908441      0.166400
  O      -5.587295     -1.863307      1.111144
  C      -5.872085     -1.392466      2.422545
  H      -6.048104     -2.283843      3.038557
  H      -5.027268     -0.813774      2.829759
  H      -6.762252     -0.744386      2.426427
  O      -5.409195      0.281079      0.434477
  C      -5.279355     -2.923074     -1.428194
  H      -5.049152     -3.550172     -0.556700
  H      -6.336212     -3.121340     -1.697714
  H      -4.669145     -3.247477     -2.286094
  C      -4.999852     -0.514969     -2.295530
  H      -4.772970      0.502514     -1.952925
  H      -5.971193     -0.477097     -2.828446
  H      -4.239062     -0.824868     -3.028013
  H      -2.571002     -2.126822     -1.501353
41
Coordinates from ORCA-job orca E -847.140374156277
  C      -2.657815     -1.646340     -0.526361
  H      -2.956237     -2.250172      0.332930
  C      -2.217771     -0.379881     -0.367072
  C      -2.195109      0.342645      0.953049
  H      -1.187105      0.249949      1.402538
  H      -2.897381     -0.128703      1.656320
  C      -2.518239      1.820818      0.752230
  H      -2.428503      2.368570      1.703045
  H      -3.558357      1.928109      0.403869
  C      -1.555686      2.421267     -0.260492
  H      -0.525646      2.359694      0.142775
  C      -1.848532      3.866714     -0.646529
  C      -1.663988      4.874722      0.489669
  H      -2.369608      4.653938      1.309654
  H      -0.652116      4.759054      0.920581
  C      -1.862600      6.320059      0.032236
  H      -1.727760      7.029701      0.864128
  H      -2.875627      6.472697     -0.376424
  H      -1.144175      6.590792     -0.759610
  H      -2.878303      3.919887     -1.042403
  H      -1.180805      4.125196     -1.485770
  O      -1.557330      1.679590     -1.502479
  C      -1.809661      0.357432     -1.605565
  O      -1.735527     -0.164659     -2.693987
  C      -5.080746     -1.465153     -1.150968
  C      -5.377613     -0.906511      0.166063
  O      -5.587820     -1.861305      1.110450
  C      -5.870657     -1.390565      2.422244
  H      -6.047937     -2.281917      3.037926
  H      -5.024394     -0.813736      2.829117
  H      -6.759548     -0.740742      2.427032
  O      -5.406228      0.282973      0.434925
  C      -5.282458     -2.919693     -1.429752
  H      -5.054387     -3.548322     -0.558803
  H      -6.339836     -3.114479     -1.700063
  H      -4.672247     -3.245236     -2.287282
  C      -4.998470     -0.512366     -2.295531
  H      -4.772532      0.505245     -1.952707
  H      -5.969086     -0.475743     -2.829906
  H      -4.236140     -0.821355     -3.026878
  H      -2.571088     -2.128782     -1.499739
41
Coordinates from ORCA-job orca E -847.140379018527
  C      -2.658590     -1.647415     -0.524929
  H      -2.956362     -2.251023      0.334825
  C      -2.216469     -0.381460     -0.366339
  C      -2.192097      0.341161      0.953805
  H      -1.183070      0.249488      1.401237
  H      -2.892655     -0.130945      1.658252
  C      -2.516022      1.819213      0.753545
  H      -2.425877      2.366706      1.704472
  H      -3.556350      1.926447      0.405807
  C      -1.554377      2.420166     -0.259781
  H      -0.524074      2.360164      0.142995
  C      -1.849370      3.864964     -0.646651
  C      -1.666568      4.873794      0.489112
  H      -2.372177      4.652451      1.308954
  H      -0.654687      4.759709      0.920423
  C      -1.866993      6.318628      0.030883
  H      -1.733583      7.028867      0.862496
  H      -2.880021      6.469613     -0.378380
  H      -1.148550      6.589990     -0.760732
  H      -2.879188      3.916305     -1.042627
  H      -1.181978      4.124154     -1.485933
  O      -1.555246      1.677747     -1.501407
  C      -1.807813      0.355615     -1.604626
  O      -1.733085     -0.166487     -2.692998
  C      -5.080756     -1.463053     -1.151567
  C      -5.376515     -0.904765      0.166039
  O      -5.588092     -1.859617      1.109960
  C      -5.869683     -1.389071      2.422037
  H      -6.047723     -2.280466      3.037441
  H      -5.022525     -0.813420      2.828729
  H      -6.757775     -0.738158      2.427486
  O      -5.403381      0.284631      0.435660
  C      -5.285365     -2.916952     -1.431172
  H      -5.059196     -3.547417     -0.561065
  H      -6.343189     -3.108207     -1.702312
  H      -4.675280     -3.243583     -2.288427
  C      -4.996910     -0.509618     -2.295559
  H      -4.772391      0.508241     -1.952605
  H      -5.966851     -0.474804     -2.831246
  H      -4.232628     -0.817363     -3.025435
  H      -2.571608     -2.130841     -1.497908
41
Coordinates from ORCA-job orca E -847.140380519386
  C      -2.659073     -1.648130     -0.523509
  H      -2.956430     -2.251787      0.336347
  C      -2.215543     -0.382486     -0.365490
  C      -2.189718      0.340265      0.954633
  H      -1.179942      0.249212      1.400503
  H      -2.889045     -0.132216      1.660029
  C      -2.514185      1.818205      0.754551
  H      -2.423478      2.365667      1.705457
  H      -3.554734      1.925392      0.407532
  C      -1.553387      2.419409     -0.259411
  H      -0.522820      2.360563      0.142839
  C      -1.849904      3.863718     -0.646948
  C      -1.668397      4.873199      0.488466
  H      -2.374079      4.651532      1.308155
  H      -0.656550      4.760224      0.920158
  C      -1.870019      6.317653      0.029567
  H      -1.737708      7.028362      0.860956
  H      -2.883002      6.467456     -0.380245
  H      -1.151476      6.589403     -0.761826
  H      -2.879751      3.913675     -1.043024
  H      -1.182744      4.123378     -1.486265
  O      -1.553940      1.676287     -1.500650
  C      -1.806944      0.354261     -1.603801
  O      -1.732632     -0.167890     -2.692204
  C      -5.080643     -1.461276     -1.151713
  C      -5.375619     -0.903546      0.166324
  O      -5.588224     -1.858779      1.109585
  C      -5.869365     -1.388741      2.421928
  H      -6.047782     -2.280338      3.036930
  H      -5.021854     -0.813711      2.828765
  H      -6.757103     -0.737342      2.427862
  O      -5.401281      0.285687      0.436709
  C      -5.287450     -2.914981     -1.432501
  H      -5.062794     -3.547059     -0.563186
  H      -6.345497     -3.103550     -1.704522
  H      -4.677529     -3.242169     -2.289677
  C      -4.995452     -0.507133     -2.295421
  H      -4.772692      0.510961     -1.952094
  H      -5.964696     -0.474071     -2.832385
  H      -4.229265     -0.813636     -3.023813
  H      -2.572324     -2.132278     -1.496152
41
Coordinates from ORCA-job orca E -847.140385311874
  C      -2.659290     -1.648517     -0.521976
  H      -2.956330     -2.252391      0.337785
  C      -2.214981     -0.383036     -0.364448
  C      -2.187838      0.339886      0.955578
  H      -1.177509      0.249129      1.400241
  H      -2.886262     -0.132650      1.661828
  C      -2.512709      1.817720      0.755416
  H      -2.421275      2.365363      1.706170
  H      -3.553536      1.924757      0.409251
  C      -1.552751      2.418970     -0.259283
  H      -0.521932      2.360937      0.142431
  C      -1.850257      3.862919     -0.647389
  C      -1.669455      4.872955      0.487652
  H      -2.375172      4.651240      1.307286
  H      -0.657623      4.760658      0.919568
  C      -1.871749      6.317124      0.028141
  H      -1.740143      7.028225      0.859306
  H      -2.884678      6.466161     -0.382078
  H      -1.153104      6.589005     -0.763118
  H      -2.880158      3.911943     -1.043444
  H      -1.183327      4.122765     -1.486832
  O      -1.553348      1.675213     -1.500146
  C      -1.807065      0.353370     -1.603062
  O      -1.733824     -0.168883     -2.691529
  C      -5.080370     -1.459842     -1.151522
  C      -5.374943     -0.902907      0.166838
  O      -5.588261     -1.858816      1.109272
  C      -5.869663     -1.389600      2.421873
  H      -6.048007     -2.281574      3.036353
  H      -5.022335     -0.814614      2.829135
  H      -6.757527     -0.738367      2.428132
  O      -5.399864      0.286105      0.438095
  C      -5.288844     -2.913471     -1.433911
  H      -5.065516     -3.546970     -0.565304
  H      -6.346950     -3.099991     -1.706952
  H      -4.679064     -3.240667     -2.291187
  C      -4.994116     -0.505005     -2.295027
  H      -4.773798      0.513350     -1.950965
  H      -5.962495     -0.473892     -2.833566
  H      -4.225819     -0.810053     -3.021770
  H      -2.573183     -2.133158     -1.494381
41
Coordinates from ORCA-job orca E -847.140384675262
  C      -2.659279     -1.648601     -0.520346
  H      -2.956081     -2.252724      0.339280
  C      -2.214778     -0.383160     -0.363271
  C      -2.186446      0.340008      0.956564
  H      -1.175765      0.249238      1.400405
  H      -2.884302     -0.132260      1.663562
  C      -2.511586      1.817751      0.756127
  H      -2.419340      2.365756      1.706607
  H      -3.552739      1.924526      0.410880
  C      -1.552439      2.418839     -0.259391
  H      -0.521386      2.361301      0.141804
  C      -1.850501      3.862552     -0.647929
  C      -1.669788      4.873057      0.486707
  H      -2.375496      4.651609      1.306418
  H      -0.657951      4.761021      0.918670
  C      -1.872202      6.317014      0.026599
  H      -1.740807      7.028455      0.857500
  H      -2.885097      6.465739     -0.383814
  H      -1.153499      6.588679     -0.764675
  H      -2.880505      3.911050     -1.043787
  H      -1.183855      4.122302     -1.487627
  O      -1.553407      1.674535     -1.499935
  C      -1.808036      0.352905     -1.602438
  O      -1.736335     -0.169519     -2.690968
  C      -5.079954     -1.458802     -1.151110
  C      -5.374556     -0.902907      0.167526
  O      -5.588337     -1.859733      1.109003
  C      -5.870516     -1.391642      2.421865
  H      -6.048567     -2.284158      3.035640
  H      -5.023734     -0.816386      2.829852
  H      -6.758812     -0.740983      2.428326
  O      -5.399159      0.285838      0.439828
  C      -5.289548     -2.912247     -1.435374
  H      -5.067421     -3.546907     -0.567320
  H      -6.347576     -3.097342     -1.709561
  H      -4.679800     -3.238920     -2.292862
  C      -4.992965     -0.503328     -2.294327
  H      -4.775824      0.515329     -1.949171
  H      -5.960232     -0.474378     -2.834921
  H      -4.222260     -0.806618     -3.019220
  H      -2.574190     -2.133498     -1.492655
41
Coordinates from ORCA-job orca E -847.140383855757
  C      -2.659170     -1.648540     -0.518695
  H      -2.955807     -2.252732      0.340937
  C      -2.214788     -0.383067     -0.362082
  C      -2.185311      0.340390      0.957496
  H      -1.174436      0.249329      1.400827
  H      -2.882891     -0.131380      1.665112
  C      -2.510534      1.818094      0.756771
  H      -2.417409      2.366530      1.706918
  H      -3.552037      1.924562      0.412486
  C      -1.552227      2.418889     -0.259688
  H      -0.520948      2.361628      0.140962
  C      -1.850628      3.862441     -0.648573
  C      -1.669649      4.873357      0.485639
  H      -2.375269      4.652284      1.305533
  H      -0.657756      4.761391      0.917503
  C      -1.872016      6.317147      0.024990
  H      -1.740549      7.028897      0.855616
  H      -2.884929      6.465760     -0.385425
  H      -1.153346      6.588485     -0.766429
  H      -2.880773      3.910674     -1.044114
  H      -1.184299      4.121964     -1.488598
  O      -1.553810      1.674141     -1.499969
  C      -1.809388      0.352706     -1.601938
  O      -1.739333     -0.169923     -2.690506
  C      -5.079485     -1.458049     -1.150630
  C      -5.374468     -0.903353      0.168298
  O      -5.588660     -1.861203      1.108741
  C      -5.871802     -1.394445      2.421883
  H      -6.049613     -2.287615      3.034777
  H      -5.025650     -0.818952      2.830818
  H      -6.760571     -0.744422      2.428488
  O      -5.398947      0.285104      0.441825
  C      -5.289802     -2.911068     -1.436818
  H      -5.068847     -3.546654     -0.569147
  H      -6.347685     -3.095196     -1.712215
  H      -4.679904     -3.236922     -2.294505
  C      -4.991986     -0.501955     -2.293301
  H      -4.778572      0.517031     -1.946791
  H      -5.957822     -0.475300     -2.836540
  H      -4.218548     -0.803138     -3.016147
  H      -2.575407     -2.133502     -1.491052
41
Coordinates from ORCA-job orca E -847.140385173199
  C      -2.659098     -1.648371     -0.517806
  H      -2.955672     -2.252342      0.342033
  C      -2.215032     -0.382799     -0.361525
  C      -2.184956      0.340850      0.957883
  H      -1.174091      0.249445      1.401152
  H      -2.882612     -0.130487      1.665735
  C      -2.510076      1.818563      0.757027
  H      -2.416486      2.367257      1.706964
  H      -3.551771      1.924858      0.413219
  C      -1.552189      2.419105     -0.259979
  H      -0.520780      2.361782      0.140338
  C      -1.850615      3.862636     -0.648956
  C      -1.669022      4.873741      0.484980
  H      -2.374374      4.652975      1.305189
  H      -0.656990      4.761682      0.916492
  C      -1.871295      6.317472      0.024104
  H      -1.739374      7.029376      0.854527
  H      -2.884336      6.466191     -0.385949
  H      -1.152879      6.588499     -0.767646
  H      -2.880916      3.910937     -1.044084
  H      -1.184611      4.121903     -1.489315
  O      -1.554341      1.674226     -1.500179
  C      -1.810435      0.352868     -1.601812
  O      -1.741281     -0.169875     -2.690384
  C      -5.079260     -1.457974     -1.150358
  C      -5.374744     -0.904063      0.168780
  O      -5.589183     -1.862518      1.108596
  C      -5.872936     -1.396623      2.421895
  H      -6.050828     -2.290214      3.034155
  H      -5.027099     -0.821191      2.831561
  H      -6.761881     -0.746833      2.428522
  O      -5.399294      0.284221      0.443142
  C      -5.289489     -2.910597     -1.437522
  H      -5.069098     -3.546474     -0.569922
  H      -6.347224     -3.094693     -1.713617
  H      -4.679252     -3.235800     -2.295226
  C      -4.991666     -0.501485     -2.292464
  H      -4.780903      0.517752     -1.945034
  H      -5.956349     -0.476366     -2.837840
  H      -4.216261     -0.801027     -3.013912
  H      -2.576372     -2.133217     -1.490304
41
Coordinates from ORCA-job orca E -847.140386370748
  C      -2.659179     -1.648158     -0.517290
  H      -2.955711     -2.251607      0.342963
  C      -2.215390     -0.382475     -0.361380
  C      -2.184935      0.341326      0.957919
  H      -1.174130      0.249629      1.401272
  H      -2.882796     -0.129647      1.665826
  C      -2.509840      1.819072      0.757023
  H      -2.415997      2.367897      1.706846
  H      -3.551622      1.925356      0.413418
  C      -1.552153      2.419378     -0.260329
  H      -0.520658      2.361821      0.139725
  C      -1.850447      3.862958     -0.649252
  C      -1.668087      4.874107      0.484520
  H      -2.372948      4.653446      1.305182
  H      -0.655802      4.762013      0.915419
  C      -1.870568      6.317821      0.023691
  H      -1.737987      7.029772      0.853969
  H      -2.883892      6.466612     -0.385640
  H      -1.152689      6.588723     -0.768592
  H      -2.880916      3.911491     -1.043898
  H      -1.184777      4.121998     -1.489953
  O      -1.554854      1.674481     -1.500520
  C      -1.811168      0.353125     -1.601908
  O      -1.742365     -0.169720     -2.690441
  C      -5.079275     -1.458184     -1.150218
  C      -5.375262     -0.904851      0.169127
  O      -5.590028     -1.863683      1.108485
  C      -5.874061     -1.398407      2.421915
  H      -6.052377     -2.292285      3.033637
  H      -5.028218     -0.823415      2.832185
  H      -6.762857     -0.748416      2.428572
  O      -5.399822      0.283313      0.444149
  C      -5.288940     -2.910497     -1.437781
  H      -5.068798     -3.546381     -0.570122
  H      -6.346512     -3.095041     -1.714323
  H      -4.678172     -3.235242     -2.295298
  C      -4.991662     -0.501338     -2.291719
  H      -4.783177      0.518155     -1.943638
  H      -5.955180     -0.477593     -2.839234
  H      -4.214422     -0.799291     -3.011909
  H      -2.577397     -2.132875     -1.489938
41
Coordinates from ORCA-job orca E -847.138562943291
  C      -2.603601     -1.638969     -0.494768
  H      -2.935481     -2.224336      0.340653
  C      -2.192022     -0.390444     -0.356132
  C      -2.178818      0.335005      0.957495
  H      -1.170781      0.250458      1.408637
  H      -2.884967     -0.144210      1.653770
  C      -2.506575      1.813110      0.759495
  H      -2.420872      2.359427      1.711572
  H      -3.542350      1.922476      0.410556
  C      -1.550304      2.412658     -0.261367
  H      -0.517593      2.358730      0.136073
  C      -1.854220      3.854835     -0.651186
  C      -1.672790      4.867794      0.481122
  H      -2.375164      4.645665      1.303526
  H      -0.659212      4.759516      0.909975
  C      -1.881047      6.310346      0.019192
  H      -1.749053      7.023619      0.848431
  H      -2.895741      6.455340     -0.388130
  H      -1.165761      6.582789     -0.774913
  H      -2.885694      3.899530     -1.043679
  H      -1.191208      4.115191     -1.493586
  O      -1.552084      1.662791     -1.502370
  C      -1.800255      0.337565     -1.600103
  O      -1.737625     -0.193121     -2.684453
  C      -5.124453     -1.443414     -1.162920
  C      -5.387371     -0.895167      0.148263
  O      -5.590500     -1.858717      1.083719
  C      -5.868905     -1.411474      2.405859
  H      -6.037612     -2.314772      3.006617
  H      -5.027736     -0.836033      2.821760
  H      -6.762604     -0.768323      2.425915
  O      -5.399048      0.292227      0.421435
  C      -5.301296     -2.861709     -1.428387
  H      -5.073992     -3.487209     -0.556052
  H      -6.356880     -3.049523     -1.710349
  H      -4.677464     -3.175633     -2.277050
  C      -5.002322     -0.511483     -2.280624
  H      -4.778776      0.501453     -1.930005
  H      -5.967178     -0.483821     -2.825615
  H      -4.215831     -0.823101     -2.983954
  H      -2.559883     -2.115678     -1.455961
41
Coordinates from ORCA-job orca E -847.141581579299
  C      -2.609506     -1.654611     -0.499700
  H      -2.946296     -2.252048      0.349570
  C      -2.191782     -0.389418     -0.354694
  C      -2.175320      0.339613      0.962328
  H      -1.167282      0.256659      1.413084
  H      -2.878489     -0.136053      1.661539
  C      -2.505866      1.815697      0.759103
  H      -2.419595      2.364795      1.709226
  H      -3.545884      1.921043      0.409892
  C      -1.548890      2.417239     -0.259001
  H      -0.516284      2.362598      0.138245
  C      -1.852316      3.859144     -0.649303
  C      -1.671085      4.871678      0.483368
  H      -2.373633      4.649312      1.305516
  H      -0.657614      4.763268      0.912408
  C      -1.879278      6.314319      0.021750
  H      -1.747483      7.027327      0.851238
  H      -2.893879      6.459398     -0.385744
  H      -1.163822      6.587012     -0.772103
  H      -2.883670      3.904073     -1.042081
  H      -1.189012      4.119696     -1.491458
  O      -1.552082      1.671158     -1.499813
  C      -1.799015      0.347582     -1.599899
  O      -1.735070     -0.175332     -2.687815
  C      -5.130819     -1.450275     -1.163472
  C      -5.391496     -0.899803      0.159631
  O      -5.597012     -1.859481      1.101248
  C      -5.868196     -1.398495      2.418666
  H      -6.041179     -2.294415      3.028915
  H      -5.019849     -0.824605      2.825013
  H      -6.757258     -0.748706      2.435243
  O      -5.400012      0.288805      0.438800
  C      -5.305840     -2.895969     -1.439831
  H      -5.076895     -3.524609     -0.569808
  H      -6.359695     -3.097445     -1.724430
  H      -4.680558     -3.211260     -2.290966
  C      -5.002441     -0.500491     -2.294489
  H      -4.777064      0.513852     -1.941687
  H      -5.962244     -0.461225     -2.849541
  H      -4.215286     -0.811442     -2.999268
  H      -2.566072     -2.135191     -1.477222
41
Coordinates from ORCA-job orca E -847.141803502304
  C      -2.611844     -1.658487     -0.500108
  H      -2.946231     -2.256429      0.350778
  C      -2.192017     -0.389078     -0.352061
  C      -2.173558      0.341178      0.965392
  H      -1.165186      0.258584      1.415233
  H      -2.875023     -0.132686      1.667503
  C      -2.506032      1.816132      0.758715
  H      -2.418958      2.367466      1.707622
  H      -3.546935      1.918264      0.410659
  C      -1.549485      2.418225     -0.258614
  H      -0.517086      2.363295      0.139245
  C      -1.852089      3.860465     -0.649079
  C      -1.670526      4.873296      0.483395
  H      -2.373104      4.651315      1.305634
  H      -0.657075      4.764668      0.912422
  C      -1.878287      6.315962      0.021598
  H      -1.746189      7.029085      0.850951
  H      -2.892876      6.461294     -0.385828
  H      -1.162818      6.588289     -0.772370
  H      -2.883341      3.905824     -1.041978
  H      -1.188601      4.120562     -1.491166
  O      -1.553154      1.671922     -1.498455
  C      -1.798883      0.348751     -1.597685
  O      -1.734566     -0.173859     -2.685838
  C      -5.133153     -1.451135     -1.162954
  C      -5.392900     -0.900938      0.162606
  O      -5.599960     -1.860713      1.103823
  C      -5.867026     -1.396793      2.420683
  H      -6.042931     -2.290993      3.032701
  H      -5.014704     -0.826322      2.823804
  H      -6.752845     -0.742754      2.438201
  O      -5.400466      0.287203      0.443379
  C      -5.308330     -2.906286     -1.443743
  H      -5.079888     -3.534935     -0.573079
  H      -6.359641     -3.113869     -1.729391
  H      -4.683002     -3.221745     -2.294590
  C      -5.003937     -0.495126     -2.298658
  H      -4.779215      0.519016     -1.944680
  H      -5.959432     -0.451177     -2.859325
  H      -4.217677     -0.806080     -3.003797
  H      -2.566098     -2.138001     -1.478489
41
Coordinates from ORCA-job orca E -847.141842221847
  C      -2.612742     -1.658798     -0.499320
  H      -2.944202     -2.256048      0.352848
  C      -2.192184     -0.388969     -0.349972
  C      -2.172709      0.341598      0.967155
  H      -1.163962      0.259055      1.416166
  H      -2.872911     -0.131534      1.671155
  C      -2.506359      1.816136      0.759020
  H      -2.418807      2.368698      1.707273
  H      -3.547619      1.916321      0.411786
  C      -1.550226      2.418233     -0.258416
  H      -0.518000      2.363496      0.140033
  C      -1.852521      3.860466     -0.649164
  C      -1.670542      4.873586      0.482969
  H      -2.372956      4.651926      1.305447
  H      -0.657000      4.764912      0.911773
  C      -1.878179      6.316163      0.020851
  H      -1.745764      7.029464      0.849993
  H      -2.892844      6.461561     -0.386368
  H      -1.162847      6.588182     -0.773349
  H      -2.883812      3.905979     -1.041982
  H      -1.189004      4.120062     -1.491382
  O      -1.553697      1.671395     -1.497700
  C      -1.798718      0.348200     -1.595854
  O      -1.733124     -0.175575     -2.683474
  C      -5.133749     -1.450632     -1.163061
  C      -5.393461     -0.900784      0.162619
  O      -5.601459     -1.861059      1.103031
  C      -5.865630     -1.397251      2.420647
  H      -6.043280     -2.291318      3.032367
  H      -5.010835     -0.829658      2.822629
  H      -6.749380     -0.740536      2.440042
  O      -5.400454      0.287069      0.443538
  C      -5.309881     -2.907843     -1.445647
  H      -5.082687     -3.535719     -0.574030
  H      -6.360251     -3.117492     -1.732055
  H      -4.684245     -3.223271     -2.296112
  C      -5.005394     -0.493219     -2.299760
  H      -4.781998      0.520860     -1.944893
  H      -5.958508     -0.448131     -2.864013
  H      -4.219305     -0.804170     -3.005023
  H      -2.563821     -2.137965     -1.477307
41
Coordinates from ORCA-job orca E -847.141878901055
  C      -2.613875     -1.659097     -0.497522
  H      -2.940583     -2.255010      0.357051
  C      -2.191774     -0.389738     -0.346829
  C      -2.170728      0.341106      0.969690
  H      -1.161243      0.258683      1.417153
  H      -2.868852     -0.131407      1.676307
  C      -2.506018      1.815282      0.760432
  H      -2.417734      2.369149      1.707913
  H      -3.547844      1.912976      0.414547
  C      -1.550950      2.417537     -0.257796
  H      -0.518837      2.363832      0.141217
  C      -1.853930      3.859407     -0.649200
  C      -1.671365      4.873347      0.482064
  H      -2.372849      4.651863      1.305384
  H      -0.657340      4.765465      0.909927
  C      -1.880186      6.315514      0.019228
  H      -1.747217      7.029399      0.847775
  H      -2.895357      6.460174     -0.386991
  H      -1.165832      6.587372     -0.775908
  H      -2.885498      3.904424     -1.041375
  H      -1.190980      4.118437     -1.492046
  O      -1.553685      1.669861     -1.496422
  C      -1.796961      0.346325     -1.592992
  O      -1.729476     -0.179015     -2.679833
  C      -5.134013     -1.448988     -1.163948
  C      -5.393815     -0.899607      0.161675
  O      -5.603666     -1.860448      1.100983
  C      -5.863115     -1.397196      2.419953
  H      -6.043861     -2.291221      3.030808
  H      -5.004413     -0.834549      2.820592
  H      -6.743440     -0.736057      2.442305
  O      -5.399202      0.287942      0.442881
  C      -5.312866     -2.906596     -1.448569
  H      -5.088447     -3.533561     -0.575550
  H      -6.362579     -3.116961     -1.736255
  H      -4.686632     -3.222324     -2.298342
  C      -5.007041     -0.490861     -2.300707
  H      -4.785852      0.523212     -1.944545
  H      -5.957023     -0.445279     -2.870051
  H      -4.220633     -0.801610     -3.005815
  H      -2.559358     -2.138393     -1.474728
41
Coordinates from ORCA-job orca E -847.141890705696
  C      -2.614747     -1.659535     -0.495868
  H      -2.937271     -2.254435      0.360959
  C      -2.191249     -0.390882     -0.344850
  C      -2.168894      0.340200      0.971195
  H      -1.158602      0.258253      1.417036
  H      -2.865120     -0.132374      1.679701
  C      -2.505396      1.814179      0.761880
  H      -2.416725      2.368547      1.709024
  H      -3.547603      1.910441      0.416805
  C      -1.551164      2.416659     -0.257065
  H      -0.519083      2.364070      0.142205
  C      -1.855312      3.858095     -0.649098
  C      -1.672810      4.872766      0.481491
  H      -2.373677      4.651284      1.305340
  H      -0.658466      4.765779      0.908823
  C      -1.882810      6.314539      0.017967
  H      -1.749764      7.028969      0.846034
  H      -2.898321      6.458350     -0.387706
  H      -1.169110      6.586388     -0.777762
  H      -2.887081      3.902315     -1.040853
  H      -1.192836      4.116971     -1.492371
  O      -1.553043      1.668446     -1.495372
  C      -1.795234      0.344600     -1.591123
  O      -1.724993     -0.181845     -2.677257
  C      -5.133961     -1.447532     -1.165180
  C      -5.393664     -0.898361      0.160507
  O      -5.605045     -1.859259      1.099329
  C      -5.860725     -1.396283      2.419225
  H      -6.043798     -2.290215      3.029497
  H      -4.999122     -0.837344      2.818858
  H      -6.738468     -0.731826      2.443640
  O      -5.397336      0.289096      0.442048
  C      -5.315776     -2.903914     -1.450748
  H      -5.093934     -3.530743     -0.576961
  H      -6.365577     -3.112886     -1.739352
  H      -4.689108     -3.220334     -2.299928
  C      -5.008061     -0.489507     -2.301173
  H      -4.789018      0.524789     -1.944357
  H      -5.956052     -0.444965     -2.874024
  H      -4.220672     -0.799454     -3.005742
  H      -2.555442     -2.139652     -1.472316
41
Coordinates from ORCA-job orca E -847.141900026965
  C      -2.615369     -1.660606     -0.494284
  H      -2.934834     -2.254923      0.364225
  C      -2.190173     -0.392648     -0.343653
  C      -2.166600      0.338634      0.972152
  H      -1.155512      0.257275      1.416389
  H      -2.861313     -0.134443      1.681821
  C      -2.503817      1.812592      0.763547
  H      -2.414658      2.366829      1.710682
  H      -3.546315      1.908478      0.419249
  C      -1.550676      2.415488     -0.256299
  H      -0.518386      2.364323      0.142565
  C      -1.856791      3.856344     -0.648973
  C      -1.674867      4.871835      0.480974
  H      -2.374967      4.649934      1.305363
  H      -0.660134      4.766318      0.907747
  C      -1.886920      6.313105      0.016799
  H      -1.754243      7.028160      0.844390
  H      -2.902852      6.455447     -0.388330
  H      -1.174043      6.585388     -0.779514
  H      -2.888820      3.899178     -1.040184
  H      -1.195058      4.115544     -1.492730
  O      -1.551839      1.666748     -1.494364
  C      -1.792613      0.342514     -1.589759
  O      -1.720878     -0.184258     -2.675588
  C      -5.133572     -1.445688     -1.166461
  C      -5.392748     -0.896639      0.159535
  O      -5.605797     -1.857292      1.098143
  C      -5.858908     -1.394332      2.418511
  H      -6.043847     -2.288113      3.028436
  H      -4.995330     -0.838041      2.817620
  H      -6.734769     -0.727445      2.444036
  O      -5.394432      0.290791      0.441606
  C      -5.318762     -2.900375     -1.452448
  H      -5.099339     -3.528112     -0.578705
  H      -6.369139     -3.106149     -1.741740
  H      -4.691994     -3.217995     -2.301166
  C      -5.007803     -0.487783     -2.301385
  H      -4.790571      0.526851     -1.944389
  H      -5.954736     -0.445072     -2.876271
  H      -4.218978     -0.796534     -3.005035
  H      -2.552668     -2.141940     -1.470049
41
Coordinates from ORCA-job orca E -847.141901848882
  C      -2.615745     -1.661644     -0.493050
  H      -2.933201     -2.255948      0.366348
  C      -2.189447     -0.393984     -0.343209
  C      -2.164908      0.337520      0.972518
  H      -1.153142      0.256803      1.415382
  H      -2.858550     -0.136129      1.682816
  C      -2.502407      1.811456      0.764607
  H      -2.412899      2.365322      1.711897
  H      -3.545025      1.907653      0.420702
  C      -1.549882      2.414581     -0.255764
  H      -0.517370      2.364436      0.142607
  C      -1.857541      3.854963     -0.648989
  C      -1.676748      4.871005      0.480656
  H      -2.376663      4.648619      1.305068
  H      -0.661929      4.766704      0.907520
  C      -1.890316      6.311897      0.016001
  H      -1.758525      7.027364      0.843378
  H      -2.906348      6.452994     -0.389311
  H      -1.177630      6.584698     -0.780308
  H      -2.889630      3.896547     -1.040157
  H      -1.196108      4.114671     -1.492825
  O      -1.550685      1.665416     -1.493654
  C      -1.791210      0.341067     -1.589134
  O      -1.717612     -0.185990     -2.674661
  C      -5.133184     -1.444169     -1.167265
  C      -5.391571     -0.895293      0.159162
  O      -5.605799     -1.855752      1.097623
  C      -5.857796     -1.392818      2.418127
  H      -6.043615     -2.286542      3.027877
  H      -4.993411     -0.837694      2.817136
  H      -6.732824     -0.724845      2.444052
  O      -5.391758      0.292105      0.441788
  C      -5.321103     -2.897727     -1.453458
  H      -5.103322     -3.526901     -0.580352
  H      -6.372124     -3.100111     -1.743120
  H      -4.694584     -3.216542     -2.301980
  C      -5.007101     -0.486087     -2.301468
  H      -4.791659      0.528976     -1.944649
  H      -5.953721     -0.445778     -2.877104
  H      -4.216627     -0.793288     -3.004062
  H      -2.551349     -2.144167     -1.468285
41
Coordinates from ORCA-job orca E -847.141907659619
  C      -2.615886     -1.662878     -0.491614
  H      -2.932125     -2.257497      0.368106
  C      -2.188528     -0.395379     -0.342606
  C      -2.163029      0.336344      0.973116
  H      -1.150686      0.256106      1.414760
  H      -2.855900     -0.137738      1.683842
  C      -2.500621      1.810288      0.765746
  H      -2.410447      2.363817      1.713164
  H      -3.543400      1.907039      0.422524
  C      -1.548991      2.413613     -0.255371
  H      -0.516125      2.364570      0.142171
  C      -1.858325      3.853485     -0.649193
  C      -1.678708      4.870175      0.480080
  H      -2.378394      4.647294      1.304544
  H      -0.663782      4.767200      0.907013
  C      -1.893919      6.310646      0.014872
  H      -1.763082      7.026574      0.841998
  H      -2.910064      6.450384     -0.390632
  H      -1.181453      6.583995     -0.781448
  H      -2.890505      3.893646     -1.040244
  H      -1.197309      4.113747     -1.493182
  O      -1.549705      1.663828     -1.492954
  C      -1.789588      0.339349     -1.588355
  O      -1.715936     -0.187689     -2.673878
  C      -5.132543     -1.442208     -1.167709
  C      -5.389987     -0.893776      0.159232
  O      -5.605490     -1.854330      1.097239
  C      -5.857202     -1.391701      2.417826
  H      -6.043692     -2.285511      3.027248
  H      -4.992511     -0.837292      2.817173
  H      -6.731765     -0.723113      2.443896
  O      -5.388742      0.293486      0.442633
  C      -5.323266     -2.895136     -1.454598
  H      -5.107063     -3.526219     -0.582504
  H      -6.374879     -3.093872     -1.744751
  H      -4.697244     -3.215068     -2.303118
  C      -5.005642     -0.483533     -2.301408
  H      -4.792254      0.531948     -1.944595
  H      -5.952099     -0.445789     -2.877450
  H      -4.213342     -0.789002     -3.002696
  H      -2.550845     -2.146416     -1.466418
41
Coordinates from ORCA-job orca E -847.141910308899
  C      -2.615836     -1.663522     -0.490299
  H      -2.931227     -2.258668      0.369371
  C      -2.188405     -0.395857     -0.341979
  C      -2.162228      0.336133      0.973690
  H      -1.149502      0.256231      1.414510
  H      -2.854604     -0.138048      1.684806
  C      -2.499837      1.810014      0.766294
  H      -2.409185      2.363490      1.713715
  H      -3.542711      1.907086      0.423478
  C      -1.548569      2.413216     -0.255216
  H      -0.515493      2.364608      0.141815
  C      -1.858490      3.852822     -0.649533
  C      -1.679695      4.869918      0.479525
  H      -2.379664      4.647038      1.303748
  H      -0.664911      4.767438      0.906922
  C      -1.895215      6.310165      0.013773
  H      -1.765144      7.026393      0.840761
  H      -2.911183      6.449352     -0.392360
  H      -1.182409      6.583571     -0.782222
  H      -2.890616      3.892292     -1.040807
  H      -1.197459      4.113255     -1.493449
  O      -1.549507      1.662947     -1.492528
  C      -1.789846      0.338591     -1.587835
  O      -1.715668     -0.188735     -2.673215
  C      -5.131989     -1.440959     -1.167646
  C      -5.388792     -0.893222      0.159722
  O      -5.604881     -1.854262      1.097094
  C      -5.857054     -1.392329      2.417810
  H      -6.043474     -2.286465      3.026785
  H      -4.992669     -0.837832      2.817691
  H      -6.731809     -0.723984      2.443998
  O      -5.386925      0.293844      0.443903
  C      -5.324491     -2.893802     -1.455619
  H      -5.109283     -3.526490     -0.584460
  H      -6.376412     -3.090051     -1.746260
  H      -4.698987     -3.214175     -2.304377
  C      -5.004666     -0.481581     -2.301208
  H      -4.793915      0.534353     -1.944194
  H      -5.950896     -0.446544     -2.877708
  H      -4.210520     -0.785174     -3.001200
  H      -2.550905     -2.147665     -1.464836
41
Coordinates from ORCA-job orca E -847.141912807890
  C      -2.615552     -1.664049     -0.488673
  H      -2.930492     -2.259681      0.370784
  C      -2.188317     -0.396176     -0.340901
  C      -2.161476      0.336131      0.974624
  H      -1.148527      0.256284      1.414921
  H      -2.853589     -0.137814      1.686136
  C      -2.499098      1.809963      0.766880
  H      -2.407759      2.363683      1.714114
  H      -3.542164      1.907067      0.424729
  C      -1.548423      2.412916     -0.255278
  H      -0.515108      2.364678      0.141176
  C      -1.858758      3.852296     -0.650071
  C      -1.680351      4.869808      0.478678
  H      -2.380509      4.647112      1.302783
  H      -0.665662      4.767592      0.906367
  C      -1.895908      6.309879      0.012382
  H      -1.766281      7.026400      0.839191
  H      -2.911732      6.448762     -0.394210
  H      -1.182836      6.583144     -0.783422
  H      -2.890897      3.891239     -1.041369
  H      -1.197823      4.112692     -1.494077
  O      -1.549801      1.662081     -1.492251
  C      -1.790250      0.337794     -1.587085
  O      -1.717181     -0.189702     -2.672511
  C      -5.131194     -1.439641     -1.167313
  C      -5.387645     -0.892889      0.160434
  O      -5.604234     -1.854738      1.096893
  C      -5.857248     -1.393837      2.417821
  H      -6.043467     -2.288465      3.026133
  H      -4.993376     -0.839099      2.818458
  H      -6.732393     -0.725989      2.444147
  O      -5.385412      0.293901      0.445585
  C      -5.325337     -2.892459     -1.456978
  H      -5.111203     -3.526647     -0.586660
  H      -6.377398     -3.086624     -1.748361
  H      -4.700340     -3.212803     -2.306122
  C      -5.003528     -0.479497     -2.300762
  H      -4.796068      0.536877     -1.943119
  H      -5.949157     -0.447195     -2.878316
  H      -4.207349     -0.781112     -2.999226
  H      -2.551224     -2.148493     -1.463071
41
Coordinates from ORCA-job orca E -847.141914196981
  C      -2.615162     -1.664222     -0.486837
  H      -2.929617     -2.260186      0.372530
  C      -2.188738     -0.396010     -0.339601
  C      -2.161273      0.336720      0.975642
  H      -1.148214      0.256803      1.415654
  H      -2.853230     -0.136706      1.687644
  C      -2.498949      1.810467      0.767245
  H      -2.407051      2.364698      1.714143
  H      -3.542211      1.907259      0.425628
  C      -1.548651      2.412931     -0.255484
  H      -0.515198      2.364677      0.140618
  C      -1.858833      3.852228     -0.650675
  C      -1.680241      4.870056      0.477741
  H      -2.380616      4.647878      1.301796
  H      -0.665656      4.767626      0.905631
  C      -1.895206      6.310040      0.010909
  H      -1.765596      7.026787      0.837521
  H      -2.910868      6.449102     -0.396028
  H      -1.181820      6.582828     -0.784781
  H      -2.890992      3.891127     -1.041921
  H      -1.197951      4.112279     -1.494833
  O      -1.550646      1.661633     -1.492169
  C      -1.791843      0.337516     -1.586392
  O      -1.719697     -0.190383     -2.671734
  C      -5.130347     -1.438805     -1.166836
  C      -5.386855     -0.893267      0.161254
  O      -5.603570     -1.856149      1.096698
  C      -5.857604     -1.396523      2.417904
  H      -6.043347     -2.291784      3.025427
  H      -4.994438     -0.841311      2.819380
  H      -6.733380     -0.729499      2.444422
  O      -5.384698      0.293214      0.447520
  C      -5.325682     -2.891460     -1.458526
  H      -5.112572     -3.526867     -0.588864
  H      -6.377731     -3.084167     -1.750806
  H      -4.701043     -3.211246     -2.308136
  C      -5.002802     -0.477982     -2.300114
  H      -4.799638      0.538939     -1.941583
  H      -5.947302     -0.448865     -2.879623
  H      -4.204134     -0.777220     -2.996719
  H      -2.551668     -2.148768     -1.461184
41
Coordinates from ORCA-job orca E -847.141914812404
  C      -2.614805     -1.664242     -0.484942
  H      -2.928939     -2.260136      0.374578
  C      -2.189327     -0.395694     -0.338266
  C      -2.161283      0.337501      0.976627
  H      -1.148242      0.257328      1.416621
  H      -2.853273     -0.135255      1.689048
  C      -2.498968      1.811191      0.767576
  H      -2.406572      2.366033      1.714063
  H      -3.542439      1.907500      0.426466
  C      -1.549082      2.413117     -0.255810
  H      -0.515519      2.364685      0.139985
  C      -1.858922      3.852421     -0.651288
  C      -1.679632      4.870506      0.476775
  H      -2.380045      4.648969      1.300975
  H      -0.665062      4.767643      0.904603
  C      -1.893867      6.310462      0.009515
  H      -1.763876      7.027382      0.835912
  H      -2.909471      6.449921     -0.397436
  H      -1.180362      6.582654     -0.786272
  H      -2.891175      3.891557     -1.042267
  H      -1.198202      4.111964     -1.495733
  O      -1.551797      1.661445     -1.492258
  C      -1.793629      0.337432     -1.585755
  O      -1.723069     -0.190771     -2.671082
  C      -5.129541     -1.438359     -1.166443
  C      -5.386473     -0.894051      0.161944
  O      -5.603158     -1.857940      1.096442
  C      -5.858049     -1.399627      2.417968
  H      -6.043439     -2.295546      3.024636
  H      -4.995466     -0.844133      2.820274
  H      -6.734348     -0.733294      2.444732
  O      -5.384579      0.292144      0.449338
  C      -5.325666     -2.890595     -1.460081
  H      -5.113559     -3.526884     -0.590821
  H      -6.377614     -3.082384     -1.753329
  H      -4.701100     -3.209553     -2.310048
  C      -5.002332     -0.476986     -2.299307
  H      -4.803894      0.540517     -1.939768
  H      -5.945162     -0.451117     -2.881645
  H      -4.200827     -0.773631     -2.993758
  H      -2.552304     -2.148785     -1.459311
41
Coordinates from ORCA-job orca E -847.141915623183
  C      -2.614711     -1.664043     -0.483510
  H      -2.928602     -2.259469      0.376438
  C      -2.190067     -0.395211     -0.337387
  C      -2.161597      0.338356      0.977216
  H      -1.148613      0.257962      1.417300
  H      -2.853696     -0.133877      1.689907
  C      -2.499251      1.812001      0.767758
  H      -2.406669      2.367277      1.713956
  H      -3.542837      1.907921      0.426832
  C      -1.549553      2.413474     -0.256058
  H      -0.515938      2.364704      0.139573
  C      -1.858943      3.852838     -0.651652
  C      -1.678585      4.871091      0.476082
  H      -2.378806      4.650206      1.300622
  H      -0.663915      4.767714      0.903542
  C      -1.892126      6.311050      0.008538
  H      -1.761353      7.028100      0.834701
  H      -2.907814      6.451031     -0.398016
  H      -1.178790      6.582593     -0.787620
  H      -2.891358      3.892414     -1.042166
  H      -1.198494      4.111827     -1.496481
  O      -1.552891      1.661655     -1.492417
  C      -1.795415      0.337730     -1.585424
  O      -1.725953     -0.190701     -2.670712
  C      -5.129129     -1.438495     -1.166294
  C      -5.386645     -0.895131      0.162339
  O      -5.603161     -1.859742      1.096177
  C      -5.858475     -1.402437      2.417964
  H      -6.043739     -2.298854      3.023926
  H      -4.996161     -0.846966      2.820873
  H      -6.735019     -0.736431      2.444971
  O      -5.385131      0.290869      0.450630
  C      -5.325315     -2.890243     -1.461138
  H      -5.113840     -3.526948     -0.592024
  H      -6.377120     -3.081851     -1.755115
  H      -4.700459     -3.208438     -2.311187
  C      -5.002343     -0.476721     -2.298569
  H      -4.808041      0.541313     -1.938266
  H      -5.943353     -0.453676     -2.883984
  H      -4.198080     -0.770911     -2.990942
  H      -2.553081     -2.148593     -1.457921
41
Coordinates from ORCA-job orca E -847.141914888520
  C      -2.614979     -1.663789     -0.482535
  H      -2.928741     -2.258459      0.378008
  C      -2.190757     -0.394785     -0.336963
  C      -2.161959      0.339036      0.977475
  H      -1.149020      0.258468      1.417628
  H      -2.854194     -0.132888      1.690261
  C      -2.499489      1.812690      0.767887
  H      -2.406878      2.368163      1.713951
  H      -3.543112      1.908503      0.426978
  C      -1.549885      2.413866     -0.256219
  H      -0.516221      2.364794      0.139254
  C      -1.858950      3.853293     -0.651837
  C      -1.677335      4.871663      0.475590
  H      -2.377018      4.651207      1.300699
  H      -0.662385      4.767947      0.902306
  C      -1.890673      6.311629      0.007980
  H      -1.758928      7.028760      0.833917
  H      -2.906642      6.451962     -0.397751
  H      -1.177883      6.582739     -0.788812
  H      -2.891605      3.893300     -1.041662
  H      -1.198945      4.111819     -1.497155
  O      -1.553718      1.661973     -1.492538
  C      -1.796683      0.338084     -1.585287
  O      -1.728042     -0.190425     -2.670583
  C      -5.129165     -1.438901     -1.166389
  C      -5.387184     -0.896167      0.162471
  O      -5.603610     -1.861191      1.095912
  C      -5.858889     -1.404563      2.417919
  H      -6.044407     -2.301290      3.023354
  H      -4.996461     -0.849551      2.821219
  H      -6.735277     -0.738372      2.445195
  O      -5.385917      0.289715      0.451400
  C      -5.324867     -2.890275     -1.461746
  H      -5.113686     -3.527132     -0.592675
  H      -6.376511     -3.082164     -1.756215
  H      -4.699441     -3.207928     -2.311596
  C      -5.002557     -0.476778     -2.298003
  H      -4.811627      0.541730     -1.937224
  H      -5.941710     -0.456133     -2.886478
  H      -4.195645     -0.768716     -2.988337
  H      -2.554070     -2.148445     -1.456937
41
Coordinates from ORCA-job orca E -847.140811288008
  C      -2.559672     -1.664036     -0.456377
  H      -2.918366     -2.242823      0.374802
  C      -2.152215     -0.403059     -0.315574
  C      -2.143990      0.331873      0.988800
  H      -1.134530      0.263703      1.439227
  H      -2.849128     -0.151660      1.687230
  C      -2.486928      1.804394      0.776585
  H      -2.406291      2.359932      1.723783
  H      -3.524880      1.897879      0.427367
  C      -1.543328      2.405497     -0.254501
  H      -0.507407      2.366139      0.136278
  C      -1.864952      3.840753     -0.655486
  C      -1.686000      4.865761      0.466373
  H      -2.380378      4.643911      1.295608
  H      -0.668384      4.771662      0.889087
  C      -1.912219      6.301937     -0.007030
  H      -1.782208      7.023921      0.814970
  H      -2.931036      6.432742     -0.408925
  H      -1.204989      6.574672     -0.808242
  H      -2.899632      3.871181     -1.040933
  H      -1.210627      4.100281     -1.504932
  O      -1.547258      1.644760     -1.489593
  C      -1.777766      0.315848     -1.571961
  O      -1.715678     -0.227810     -2.651321
  C      -5.172469     -1.418152     -1.177970
  C      -5.397783     -0.886300      0.149300
  O      -5.606096     -1.861036      1.073955
  C      -5.852835     -1.424737      2.405249
  H      -6.032482     -2.331311      2.997897
  H      -4.990697     -0.874144      2.813142
  H      -6.730735     -0.761188      2.448486
  O      -5.382528      0.297336      0.443482
  C      -5.342112     -2.834059     -1.458679
  H      -5.126619     -3.467340     -0.589130
  H      -6.392379     -3.022647     -1.760215
  H      -4.705961     -3.136362     -2.301981
  C      -5.020908     -0.469408     -2.293884
  H      -4.806371      0.543727     -1.932160
  H      -5.947364     -0.429105     -2.901934
  H      -4.196140     -0.785346     -2.954562
  H      -2.543730     -2.133997     -1.423769
41
Coordinates from ORCA-job orca E -847.142911680277
  C      -2.565810     -1.672628     -0.461552
  H      -2.924128     -2.260827      0.386066
  C      -2.157511     -0.402434     -0.321025
  C      -2.145738      0.336586      0.988565
  H      -1.136410      0.268934      1.438719
  H      -2.845150     -0.141021      1.690381
  C      -2.491641      1.807487      0.772415
  H      -2.409788      2.365111      1.717862
  H      -3.533188      1.898480      0.423481
  C      -1.544693      2.409950     -0.253963
  H      -0.509293      2.366649      0.137378
  C      -1.862167      3.846405     -0.652745
  C      -1.681886      4.868318      0.471653
  H      -2.377720      4.646349      1.299586
  H      -0.665018      4.770730      0.895228
  C      -1.903972      6.306023      0.001164
  H      -1.773171      7.025806      0.824934
  H      -2.921921      6.440230     -0.401655
  H      -1.195086      6.578763     -0.798547
  H      -2.896287      3.880249     -1.039258
  H      -1.206207      4.106152     -1.500859
  O      -1.549835      1.654995     -1.489798
  C      -1.779380      0.327946     -1.576817
  O      -1.718290     -0.202981     -2.661090
  C      -5.179670     -1.426986     -1.179369
  C      -5.403665     -0.889915      0.155291
  O      -5.610436     -1.858233      1.088591
  C      -5.851025     -1.407775      2.415382
  H      -6.031460     -2.307212      3.018312
  H      -4.984728     -0.855483      2.813794
  H      -6.726625     -0.740905      2.454616
  O      -5.386521      0.295024      0.450829
  C      -5.342704     -2.871284     -1.467439
  H      -5.124384     -3.504249     -0.597876
  H      -6.390294     -3.077258     -1.771927
  H      -4.703090     -3.176707     -2.311900
  C      -5.022111     -0.466700     -2.302747
  H      -4.816725      0.548298     -1.939224
  H      -5.944253     -0.429128     -2.916401
  H      -4.196712     -0.773470     -2.966148
  H      -2.546376     -2.149899     -1.441448
41
Coordinates from ORCA-job orca E -847.143096873166
  C      -2.569425     -1.673339     -0.462588
  H      -2.920735     -2.261928      0.388718
  C      -2.162250     -0.401001     -0.322706
  C      -2.147858      0.339932      0.988532
  H      -1.138060      0.271971      1.437255
  H      -2.844329     -0.135148      1.694638
  C      -2.495514      1.809836      0.769694
  H      -2.412841      2.369386      1.714123
  H      -3.537715      1.898493      0.421647
  C      -1.546540      2.412325     -0.254140
  H      -0.512012      2.366398      0.139284
  C      -1.859971      3.850145     -0.652056
  C      -1.678746      4.870916      0.473340
  H      -2.376094      4.649956      1.300273
  H      -0.662636      4.770657      0.898083
  C      -1.896901      6.309532      0.003765
  H      -1.765448      7.028382      0.828258
  H      -2.914030      6.446431     -0.400211
  H      -1.186391      6.581238     -0.794858
  H      -2.893450      3.886807     -1.039931
  H      -1.202287      4.109029     -1.499063
  O      -1.551428      1.658299     -1.489558
  C      -1.782973      0.332173     -1.577793
  O      -1.716299     -0.197882     -2.661864
  C      -5.183792     -1.430454     -1.179497
  C      -5.407057     -0.892569      0.156340
  O      -5.612739     -1.860027      1.090562
  C      -5.849686     -1.406680      2.416715
  H      -6.030725     -2.304599      3.021772
  H      -4.980951     -0.855566      2.811690
  H      -6.723608     -0.737760      2.456756
  O      -5.390575      0.292344      0.451725
  C      -5.343583     -2.884908     -1.470110
  H      -5.124578     -3.515883     -0.598849
  H      -6.388003     -3.099635     -1.775649
  H      -4.702754     -3.190896     -2.313290
  C      -5.025078     -0.467078     -2.305172
  H      -4.829377      0.548917     -1.939466
  H      -5.945368     -0.435276     -2.921553
  H      -4.198828     -0.766554     -2.970203
  H      -2.544438     -2.152593     -1.442151
41
Coordinates from ORCA-job orca E -847.143143590870
  C      -2.571694     -1.673741     -0.461466
  H      -2.916681     -2.261607      0.392515
  C      -2.163548     -0.401513     -0.321980
  C      -2.146627      0.340054      0.989731
  H      -1.136120      0.270989      1.436606
  H      -2.840868     -0.133808      1.699129
  C      -2.495396      1.809633      0.770296
  H      -2.410960      2.370350      1.714041
  H      -3.538302      1.896640      0.424550
  C      -1.547333      2.412518     -0.253817
  H      -0.513041      2.366877      0.140337
  C      -1.860582      3.850398     -0.651862
  C      -1.678699      4.871450      0.473166
  H      -2.375681      4.650810      1.300510
  H      -0.662398      4.771131      0.897448
  C      -1.896834      6.309996      0.003374
  H      -1.764817      7.029011      0.827625
  H      -2.914151      6.447013     -0.400100
  H      -1.186686      6.581378     -0.795683
  H      -2.894175      3.887236     -1.039444
  H      -1.203063      4.108850     -1.499131
  O      -1.551428      1.657911     -1.488467
  C      -1.779765      0.331402     -1.575955
  O      -1.717745     -0.197973     -2.660642
  C      -5.185406     -1.429544     -1.180312
  C      -5.408174     -0.891893      0.155608
  O      -5.615037     -1.859484      1.089188
  C      -5.848317     -1.405993      2.415970
  H      -6.031671     -2.303544      3.020895
  H      -4.976606     -0.858428      2.809432
  H      -6.719530     -0.733727      2.458028
  O      -5.390874      0.292810      0.450976
  C      -5.345980     -2.887225     -1.472617
  H      -5.128710     -3.516667     -0.599711
  H      -6.388841     -3.105041     -1.779580
  H      -4.703995     -3.193838     -2.314416
  C      -5.025319     -0.465723     -2.306380
  H      -4.836912      0.550876     -1.938674
  H      -5.944381     -0.438723     -2.924988
  H      -4.198293     -0.760694     -2.972039
  H      -2.540431     -2.154774     -1.439698
41
Coordinates from ORCA-job orca E -847.143183351434
  C      -2.574527     -1.672589     -0.460075
  H      -2.909084     -2.260074      0.397752
  C      -2.167744     -0.400097     -0.321360
  C      -2.147959      0.341942      0.990243
  H      -1.136179      0.272008      1.434193
  H      -2.838881     -0.131037      1.703692
  C      -2.497641      1.811119      0.770159
  H      -2.412566      2.373018      1.713265
  H      -3.540870      1.896316      0.425222
  C      -1.548391      2.413517     -0.253074
  H      -0.515059      2.367153      0.143669
  C      -1.859403      3.851632     -0.651836
  C      -1.677439      4.872723      0.473084
  H      -2.375441      4.653077      1.299847
  H      -0.661643      4.771340      0.898331
  C      -1.893501      6.311390      0.002749
  H      -1.761350      7.030435      0.826947
  H      -2.910312      6.449525     -0.401625
  H      -1.182342      6.581752     -0.795756
  H      -2.892501      3.889761     -1.040677
  H      -1.200456      4.108883     -1.498372
  O      -1.550854      1.658513     -1.487254
  C      -1.783271      0.332889     -1.574863
  O      -1.710311     -0.199837     -2.657392
  C      -5.187735     -1.430018     -1.181302
  C      -5.410253     -0.893208      0.154582
  O      -5.617225     -1.861374      1.087311
  C      -5.845773     -1.408737      2.415337
  H      -6.030795     -2.306373      3.019622
  H      -4.970845     -0.864947      2.806958
  H      -6.714297     -0.733261      2.460663
  O      -5.392939      0.291370      0.449924
  C      -5.348662     -2.888936     -1.475025
  H      -5.132966     -3.516338     -0.600236
  H      -6.390236     -3.109909     -1.783245
  H      -4.705088     -3.195301     -2.315468
  C      -5.028758     -0.466296     -2.307402
  H      -4.853062      0.551836     -1.937812
  H      -5.946049     -0.448866     -2.929387
  H      -4.198613     -0.753618     -2.972545
  H      -2.534049     -2.155995     -1.436385
41
Coordinates from ORCA-job orca E -847.143210197147
  C      -2.575111     -1.673812     -0.457938
  H      -2.904897     -2.260853      0.401913
  C      -2.167068     -0.401804     -0.319466
  C      -2.145397      0.339978      0.991699
  H      -1.132617      0.269520      1.433480
  H      -2.834568     -0.133301      1.706689
  C      -2.495222      1.809363      0.772803
  H      -2.408818      2.371211      1.715771
  H      -3.538957      1.894319      0.429524
  C      -1.547798      2.412073     -0.252116
  H      -0.514246      2.367635      0.144262
  C      -1.861220      3.849328     -0.651858
  C      -1.679622      4.871581      0.472041
  H      -2.376389      4.651523      1.299732
  H      -0.663213      4.772094      0.896269
  C      -1.898414      6.309532      0.000792
  H      -1.766416      7.029433      0.824273
  H      -2.915894      6.445801     -0.402522
  H      -1.188579      6.580338     -0.798740
  H      -2.894710      3.885771     -1.039827
  H      -1.203321      4.106678     -1.499177
  O      -1.549375      1.656114     -1.485855
  C      -1.779718      0.330109     -1.572564
  O      -1.709676     -0.202650     -2.655361
  C      -5.186988     -1.427093     -1.182571
  C      -5.409108     -0.890909      0.153423
  O      -5.618489     -1.859245      1.085374
  C      -5.844206     -1.407312      2.414197
  H      -6.031998     -2.304962      3.017584
  H      -4.966829     -0.867316      2.805608
  H      -6.710122     -0.728611      2.461117
  O      -5.389603      0.293521      0.449451
  C      -5.351761     -2.883556     -1.477041
  H      -5.138836     -3.511275     -0.601838
  H      -6.393795     -3.101773     -1.786302
  H      -4.707577     -3.190611     -2.316791
  C      -5.028009     -0.463934     -2.308084
  H      -4.857359      0.555034     -1.938458
  H      -5.943919     -0.450862     -2.932393
  H      -4.195681     -0.749069     -2.971419
  H      -2.529543     -2.158615     -1.433221
41
Coordinates from ORCA-job orca E -847.143223471771
  C      -2.574725     -1.675804     -0.455953
  H      -2.900942     -2.262926      0.405361
  C      -2.166172     -0.403802     -0.317755
  C      -2.142993      0.337758      0.992920
  H      -1.129188      0.267540      1.432601
  H      -2.830733     -0.136251      1.708733
  C      -2.492598      1.807411      0.775411
  H      -2.405212      2.368742      1.718506
  H      -3.536636      1.892925      0.433134
  C      -1.546754      2.410280     -0.251103
  H      -0.512766      2.367674      0.144270
  C      -1.862923      3.846639     -0.651810
  C      -1.682343      4.870061      0.471195
  H      -2.378155      4.649409      1.299529
  H      -0.665468      4.772680      0.894790
  C      -1.903973      6.307269     -0.001007
  H      -1.772661      7.028035      0.821827
  H      -2.921967      6.441438     -0.403717
  H      -1.195170      6.578700     -0.801236
  H      -2.896736      3.881063     -1.039089
  H      -1.206015      4.104444     -1.499756
  O      -1.548021      1.653543     -1.484612
  C      -1.778462      0.327500     -1.571020
  O      -1.708427     -0.205442     -2.653762
  C      -5.185298     -1.424233     -1.183610
  C      -5.406826     -0.888429      0.152722
  O      -5.618769     -1.856636      1.084222
  C      -5.842832     -1.405027      2.413420
  H      -6.033025     -2.302603      3.016155
  H      -4.963842     -0.867864      2.805099
  H      -6.706794     -0.723886      2.460958
  O      -5.384821      0.295878      0.449636
  C      -5.354418     -2.877737     -1.478621
  H      -5.143940     -3.507136     -0.604064
  H      -6.397490     -3.091377     -1.788398
  H      -4.710334     -3.185739     -2.318234
  C      -5.027414     -0.461166     -2.308719
  H      -4.860705      0.558859     -1.940265
  H      -5.941640     -0.452199     -2.935533
  H      -4.192016     -0.744692     -2.969039
  H      -2.525867     -2.161511     -1.430726
41
Coordinates from ORCA-job orca E -847.143228598986
  C      -2.573964     -1.677680     -0.454575
  H      -2.898327     -2.265066      0.407400
  C      -2.165577     -0.405400     -0.316724
  C      -2.141376      0.336234      0.993734
  H      -1.126938      0.266491      1.432091
  H      -2.828307     -0.138176      1.709992
  C      -2.490829      1.805998      0.776923
  H      -2.402647      2.366916      1.720151
  H      -3.535047      1.892138      0.435337
  C      -1.546052      2.408952     -0.250576
  H      -0.511588      2.367385      0.143607
  C      -1.864056      3.844805     -0.651717
  C      -1.684252      4.868875      0.470845
  H      -2.379460      4.647674      1.299527
  H      -0.667082      4.772909      0.894055
  C      -1.907838      6.305630     -0.001833
  H      -1.777149      7.026886      0.820675
  H      -2.926139      6.438345     -0.404249
  H      -1.199651      6.577638     -0.802418
  H      -2.898091      3.877835     -1.038487
  H      -1.207864      4.103136     -1.500060
  O      -1.547681      1.651737     -1.483905
  C      -1.778729      0.325756     -1.570318
  O      -1.708990     -0.207048     -2.653138
  C      -5.183643     -1.422241     -1.184089
  C      -5.404572     -0.886408      0.152493
  O      -5.618357     -1.854367      1.083823
  C      -5.842017     -1.402645      2.412991
  H      -6.033621     -2.300061      3.015525
  H      -4.962392     -0.866797      2.805041
  H      -6.705026     -0.720283      2.460387
  O      -5.380739      0.297790      0.449922
  C      -5.355897     -2.874617     -1.479601
  H      -5.146967     -3.505812     -0.605968
  H      -6.399720     -3.084684     -1.789559
  H      -4.712375     -3.183684     -2.319341
  C      -5.026878     -0.458913     -2.309264
  H      -4.862798      0.561922     -1.941953
  H      -5.939609     -0.452931     -2.938124
  H      -4.188840     -0.741117     -2.966946
  H      -2.523983     -2.163734     -1.429215
41
Coordinates from ORCA-job orca E -847.143234560551
  C      -2.572752     -1.679900     -0.452838
  H      -2.895272     -2.267720      0.409627
  C      -2.165263     -0.407083     -0.315640
  C      -2.139891      0.334847      0.994689
  H      -1.124872      0.265606      1.431782
  H      -2.826124     -0.139756      1.711441
  C      -2.489207      1.804671      0.778340
  H      -2.399870      2.365201      1.721688
  H      -3.533674      1.891532      0.437731
  C      -1.545623      2.407616     -0.250222
  H      -0.510517      2.366862      0.142304
  C      -1.865286      3.843062     -0.651624
  C      -1.685997      4.867670      0.470563
  H      -2.380582      4.645954      1.299623
  H      -0.668514      4.772922      0.893305
  C      -1.911368      6.304045     -0.002437
  H      -1.781187      7.025693      0.819809
  H      -2.929967      6.435468     -0.404525
  H      -1.203789      6.576622     -0.803366
  H      -2.899604      3.874789     -1.037728
  H      -1.209936      4.101941     -1.500450
  O      -1.548232      1.649930     -1.483317
  C      -1.780257      0.324096     -1.569758
  O      -1.711641     -0.208406     -2.652788
  C      -5.181426     -1.420145     -1.184419
  C      -5.401662     -0.884145      0.152360
  O      -5.617340     -1.851877      1.083489
  C      -5.841227     -1.400002      2.412496
  H      -6.034073     -2.297259      3.014887
  H      -4.961334     -0.865033      2.805154
  H      -6.703587     -0.716775      2.459422
  O      -5.376022      0.299914      0.450196
  C      -5.357154     -2.872146     -1.480670
  H      -5.149917     -3.505560     -0.608243
  H      -6.401727     -3.078170     -1.790791
  H      -4.714654     -3.182695     -2.320711
  C      -5.026110     -0.456508     -2.309947
  H      -4.865718      0.565283     -1.943749
  H      -5.936785     -0.454548     -2.941555
  H      -4.184532     -0.736424     -2.964245
  H      -2.522376     -2.166185     -1.427423
41
Coordinates from ORCA-job orca E -847.143234265291
  C      -2.571802     -1.680992     -0.451587
  H      -2.893268     -2.269197      0.411005
  C      -2.165661     -0.407647     -0.315056
  C      -2.139633      0.334569      0.995244
  H      -1.124442      0.265439      1.431889
  H      -2.825693     -0.139891      1.712242
  C      -2.488941      1.804366      0.778897
  H      -2.398789      2.364800      1.722246
  H      -3.533592      1.891489      0.438985
  C      -1.546007      2.407198     -0.250233
  H      -0.510503      2.366461      0.141222
  C      -1.865992      3.842625     -0.651546
  C      -1.686416      4.867325      0.470517
  H      -2.380856      4.645724      1.299725
  H      -0.668851      4.772569      0.893062
  C      -1.911788      6.303664     -0.002600
  H      -1.781525      7.025392      0.819561
  H      -2.930416      6.435051     -0.404625
  H      -1.204274      6.576154     -0.803618
  H      -2.900490      3.874085     -1.037182
  H      -1.211096      4.101637     -1.500684
  O      -1.549680      1.649344     -1.483211
  C      -1.782493      0.323675     -1.569606
  O      -1.715361     -0.208616     -2.652842
  C      -5.179924     -1.419368     -1.184470
  C      -5.399900     -0.883273      0.152324
  O      -5.616140     -1.851010      1.083342
  C      -5.840779     -1.399136      2.412204
  H      -6.033697     -2.296401      3.014561
  H      -4.961266     -0.863885      2.805323
  H      -6.703356     -0.716141      2.458712
  O      -5.373749      0.300706      0.450256
  C      -5.357409     -2.871660     -1.481279
  H      -5.151082     -3.506304     -0.609532
  H      -6.402334     -3.075501     -1.791509
  H      -4.715769     -3.183075     -2.321662
  C      -5.025590     -0.455746     -2.310408
  H      -4.868650      0.566701     -1.944548
  H      -5.934665     -0.457194     -2.944163
  H      -4.181289     -0.733234     -2.962314
  H      -2.521905     -2.167314     -1.426184
41
Coordinates from ORCA-job orca E -847.143236697933
  C      -2.571092     -1.681356     -0.450460
  H      -2.891789     -2.269879      0.412153
  C      -2.166589     -0.407457     -0.314691
  C      -2.140136      0.335040      0.995597
  H      -1.125016      0.265632      1.432300
  H      -2.826376     -0.139028      1.712703
  C      -2.489424      1.804808      0.779005
  H      -2.398598      2.365389      1.722228
  H      -3.534256      1.891890      0.439692
  C      -1.546886      2.407368     -0.250561
  H      -0.511134      2.366170      0.140199
  C      -1.866365      3.842992     -0.651602
  C      -1.685993      4.867457      0.470530
  H      -2.380557      4.646296      1.299751
  H      -0.668473      4.771935      0.893023
  C      -1.910341      6.303991     -0.002477
  H      -1.779622      7.025561      0.819748
  H      -2.928852      6.436119     -0.404557
  H      -1.202595      6.576055     -0.803432
  H      -2.900970      3.874888     -1.036926
  H      -1.211636      4.101842     -1.500913
  O      -1.551716      1.649501     -1.483500
  C      -1.785181      0.324005     -1.569671
  O      -1.719791     -0.208239     -2.653075
  C      -5.178882     -1.419438     -1.184421
  C      -5.398903     -0.883380      0.152301
  O      -5.614796     -1.851292      1.083258
  C      -5.840436     -1.399545      2.411992
  H      -6.032685     -2.296941      3.014370
  H      -4.961670     -0.863314      2.805442
  H      -6.703766     -0.717462      2.458150
  O      -5.373111      0.300574      0.450202
  C      -5.357207     -2.872116     -1.481648
  H      -5.151420     -3.507307     -0.610182
  H      -6.402289     -3.074770     -1.791998
  H      -4.716297     -3.183950     -2.322410
  C      -5.025092     -0.456088     -2.310725
  H      -4.872102      0.566926     -1.944717
  H      -5.932607     -0.461032     -2.946617
  H      -4.178226     -0.730763     -2.960525
  H      -2.522194     -2.167692     -1.425076
41
Coordinates from ORCA-job orca E -847.143236514164
  C      -2.570859     -1.681103     -0.449582
  H      -2.890904     -2.269788      0.413123
  C      -2.167750     -0.406756     -0.314485
  C      -2.141066      0.335907      0.995775
  H      -1.126135      0.265965      1.432791
  H      -2.827660     -0.137697      1.712879
  C      -2.490220      1.805679      0.778929
  H      -2.398972      2.366533      1.721961
  H      -3.535191      1.892566      0.439996
  C      -1.547837      2.407880     -0.250939
  H      -0.512001      2.366017      0.139557
  C      -1.866424      3.843765     -0.651713
  C      -1.685039      4.867923      0.470527
  H      -2.379790      4.647323      1.299744
  H      -0.667607      4.771365      0.892990
  C      -1.908018      6.304733     -0.002291
  H      -1.776634      7.026066      0.820036
  H      -2.926396      6.437888     -0.404372
  H      -1.199997      6.576232     -0.803195
  H      -2.901084      3.876444     -1.036833
  H      -1.211687      4.102237     -1.501140
  O      -1.553633      1.650111     -1.483920
  C      -1.787550      0.324760     -1.569791
  O      -1.723498     -0.207591     -2.653272
  C      -5.178492     -1.420120     -1.184433
  C      -5.398737     -0.884220      0.152212
  O      -5.613700     -1.852377      1.083169
  C      -5.840103     -1.400829      2.411854
  H      -6.031367     -2.298411      3.014271
  H      -4.962071     -0.863479      2.805402
  H      -6.704292     -0.719822      2.457877
  O      -5.373839      0.299751      0.450076
  C      -5.356892     -2.872937     -1.481859
  H      -5.151330     -3.508062     -0.610309
  H      -6.401985     -3.075307     -1.792346
  H      -4.716366     -3.184733     -2.322909
  C      -5.024751     -0.457091     -2.310907
  H      -4.875729      0.566395     -1.944525
  H      -5.930834     -0.465213     -2.948812
  H      -4.175649     -0.729092     -2.958906
  H      -2.522980     -2.167520     -1.424172
41
Coordinates from ORCA-job orca E -847.143239257444
  C      -2.571125     -1.680466     -0.449113
  H      -2.890722     -2.269134      0.413754
  C      -2.168777     -0.405871     -0.314419
  C      -2.142051      0.336820      0.995813
  H      -1.127319      0.266357      1.433200
  H      -2.829024     -0.136436      1.712806
  C      -2.490977      1.806630      0.778825
  H      -2.399630      2.367718      1.721695
  H      -3.535993      1.893356      0.439957
  C      -1.548549      2.408526     -0.251174
  H      -0.512748      2.366024      0.139357
  C      -1.866290      3.844636     -0.651736
  C      -1.683809      4.868568      0.470518
  H      -2.378561      4.648504      1.299874
  H      -0.666374      4.771133      0.892769
  C      -1.905701      6.305585     -0.002157
  H      -1.773502      7.026752      0.820183
  H      -2.924070      6.439635     -0.403963
  H      -1.197658      6.576527     -0.803229
  H      -2.901028      3.878118     -1.036576
  H      -1.211604      4.102666     -1.501335
  O      -1.554946      1.650902     -1.484245
  C      -1.789029      0.325619     -1.569872
  O      -1.725573     -0.206882     -2.653350
  C      -5.178757     -1.421140     -1.184551
  C      -5.399241     -0.885420      0.152070
  O      -5.613139     -1.853770      1.083102
  C      -5.839882     -1.402380      2.411794
  H      -6.030320     -2.300109      3.014248
  H      -4.962311     -0.864231      2.805266
  H      -6.704689     -0.722160      2.457842
  O      -5.375341      0.298593      0.449933
  C      -5.356604     -2.873876     -1.481952
  H      -5.150916     -3.508591     -0.610146
  H      -6.401599     -3.076708     -1.792544
  H      -4.716058     -3.185291     -2.323124
  C      -5.024715     -0.458285     -2.310982
  H      -4.878810      0.565558     -1.944319
  H      -5.929647     -0.468689     -2.950519
  H      -4.173951     -0.728387     -2.957578
  H      -2.524032     -2.167010     -1.423660
41
Coordinates from ORCA-job orca E -847.143239548595
  C      -2.571696     -1.679851     -0.448798
  H      -2.890855     -2.268369      0.414344
  C      -2.169544     -0.405178     -0.314348
  C      -2.142761      0.337491      0.995858
  H      -1.128138      0.266672      1.433454
  H      -2.829983     -0.135565      1.712744
  C      -2.491433      1.807357      0.778835
  H      -2.400071      2.368605      1.721590
  H      -3.536454      1.894079      0.439933
  C      -1.548958      2.409013     -0.251300
  H      -0.513184      2.366046      0.139265
  C      -1.866146      3.845268     -0.651735
  C      -1.682839      4.869087      0.470491
  H      -2.377502      4.649374      1.300022
  H      -0.665355      4.771095      0.892497
  C      -1.904090      6.306243     -0.002065
  H      -1.771215      7.027304      0.820263
  H      -2.922518      6.440899     -0.403519
  H      -1.196158      6.576816     -0.803359
  H      -2.900963      3.879322     -1.036320
  H      -1.211534      4.102950     -1.501495
  O      -1.555760      1.651479     -1.484437
  C      -1.789825      0.326199     -1.569866
  O      -1.726490     -0.206452     -2.653296
  C      -5.179322     -1.421998     -1.184775
  C      -5.399845     -0.886401      0.151881
  O      -5.612911     -1.854860      1.083016
  C      -5.839554     -1.403578      2.411760
  H      -6.029531     -2.301400      3.014227
  H      -4.962090     -0.865120      2.805052
  H      -6.704606     -0.723685      2.457982
  O      -5.376611      0.297644      0.449782
  C      -5.356580     -2.874558     -1.482064
  H      -5.150687     -3.508898     -0.610041
  H      -6.401465     -3.077970     -1.792737
  H      -4.715818     -3.185588     -2.323224
  C      -5.024806     -0.459174     -2.311071
  H      -4.881691      0.565050     -1.944381
  H      -5.928505     -0.471585     -2.952338
  H      -4.172380     -0.727813     -2.956093
  H      -2.525198     -2.166558     -1.423277
41
Coordinates from ORCA-job orca E -847.143240436283
  C      -2.572541     -1.679230     -0.448573
  H      -2.891241     -2.267512      0.414922
  C      -2.170171     -0.404593     -0.314244
  C      -2.143287      0.338048      0.995951
  H      -1.128688      0.267076      1.433596
  H      -2.830633     -0.134897      1.712786
  C      -2.491706      1.807966      0.778922
  H      -2.400391      2.369308      1.721614
  H      -3.536683      1.894842      0.439885
  C      -1.549131      2.409424     -0.251274
  H      -0.513374      2.366104      0.139297
  C      -1.865948      3.845767     -0.651635
  C      -1.681829      4.869572      0.470478
  H      -2.376149      4.650064      1.300352
  H      -0.664173      4.771318      0.892002
  C      -1.902934      6.306782     -0.001979
  H      -1.769372      7.027813      0.820265
  H      -2.921556      6.441749     -0.402840
  H      -1.195381      6.577135     -0.803679
  H      -2.900887      3.880248     -1.035844
  H      -1.211537      4.103144     -1.501646
  O      -1.556232      1.651955     -1.484451
  C      -1.790254      0.326648     -1.569763
  O      -1.726711     -0.206109     -2.653135
  C      -5.180154     -1.422797     -1.185090
  C      -5.400522     -0.887239      0.151634
  O      -5.612966     -1.855732      1.082889
  C      -5.839182     -1.404488      2.411711
  H      -6.029025     -2.302334      3.014181
  H      -4.961543     -0.866131      2.804758
  H      -6.704162     -0.724527      2.458208
  O      -5.377651      0.296823      0.449576
  C      -5.356701     -2.875251     -1.482244
  H      -5.150480     -3.509305     -0.610087
  H      -6.401439     -3.079390     -1.792972
  H      -4.715585     -3.185899     -2.323295
  C      -5.025174     -0.459928     -2.311247
  H      -4.884950      0.564738     -1.944730
  H      -5.927392     -0.474471     -2.954542
  H      -4.170807     -0.727180     -2.954316
  H      -2.526528     -2.166121     -1.422981
41
Coordinates from ORCA-job orca E -847.142697710633
  C      -2.516053     -1.679401     -0.420657
  H      -2.881026     -2.250062      0.416099
  C      -2.131023     -0.411731     -0.289246
  C      -2.124064      0.332997      1.010392
  H      -1.112650      0.275250      1.457568
  H      -2.822348     -0.151856      1.713963
  C      -2.477995      1.801831      0.789373
  H      -2.397975      2.363946      1.732700
  H      -3.517054      1.886496      0.442161
  C      -1.542061      2.402851     -0.248192
  H      -0.503944      2.369582      0.137238
  C      -1.871801      3.834732     -0.654335
  C      -1.690080      4.865661      0.461670
  H      -2.378704      4.645071      1.296023
  H      -0.669632      4.777337      0.878768
  C      -1.924463      6.298774     -0.017038
  H      -1.792434      7.025015      0.800886
  H      -2.946057      6.423908     -0.413656
  H      -1.222858      6.570453     -0.823540
  H      -2.908863      3.859341     -1.033711
  H      -1.223472      4.092783     -1.508826
  O      -1.549730      1.636134     -1.479463
  C      -1.771093      0.306034     -1.553622
  O      -1.713915     -0.241718     -2.630936
  C      -5.220672     -1.404384     -1.200696
  C      -5.406085     -0.879623      0.139783
  O      -5.614298     -1.855422      1.064429
  C      -5.831716     -1.421575      2.401292
  H      -6.019113     -2.327627      2.992304
  H      -4.953221     -0.889557      2.798653
  H      -6.696050     -0.741757      2.461897
  O      -5.366962      0.301630      0.442128
  C      -5.388251     -2.834425     -1.492352
  H      -5.167295     -3.444197     -0.605321
  H      -6.429517     -3.055409     -1.803687
  H      -4.732451     -3.130517     -2.329120
  C      -5.040309     -0.449692     -2.309973
  H      -4.875565      0.569087     -1.939653
  H      -5.930650     -0.440727     -2.970458
  H      -4.169738     -0.740376     -2.923687
  H      -2.523883     -2.155468     -1.396702
41
Coordinates from ORCA-job orca E -847.143920003529
  C      -2.524425     -1.685810     -0.421629
  H      -2.885379     -2.265362      0.431597
  C      -2.136772     -0.409528     -0.293135
  C      -2.125279      0.339516      1.011175
  H      -1.113927      0.282255      1.458028
  H      -2.818865     -0.138685      1.718484
  C      -2.482565      1.806122      0.785568
  H      -2.401723      2.370790      1.726900
  H      -3.525579      1.887254      0.438515
  C      -1.543006      2.407763     -0.247765
  H      -0.505358      2.370465      0.138205
  C      -1.868212      3.840768     -0.652444
  C      -1.684631      4.869326      0.465368
  H      -2.374770      4.649524      1.298621
  H      -0.664926      4.777384      0.883347
  C      -1.914243      6.303731     -0.011521
  H      -1.781097      7.028343      0.807623
  H      -2.934923      6.432393     -0.409188
  H      -1.210857      6.574517     -0.816737
  H      -2.904774      3.868854     -1.032781
  H      -1.218317      4.098284     -1.505893
  O      -1.552259      1.646099     -1.479497
  C      -1.773314      0.317708     -1.557316
  O      -1.718856     -0.218527     -2.639184
  C      -5.229478     -1.413871     -1.201241
  C      -5.414161     -0.886074      0.143564
  O      -5.619000     -1.858103      1.073366
  C      -5.829792     -1.413846      2.406973
  H      -6.016488     -2.314597      3.006028
  H      -4.947350     -0.880305      2.795530
  H      -6.692459     -0.731689      2.465737
  O      -5.372561      0.295998      0.448309
  C      -5.387252     -2.862709     -1.498252
  H      -5.164567     -3.482257     -0.619646
  H      -6.426698     -3.090947     -1.810071
  H      -4.734908     -3.158988     -2.336555
  C      -5.043289     -0.449778     -2.316718
  H      -4.887553      0.571195     -1.945398
  H      -5.928362     -0.444856     -2.982914
  H      -4.171980     -0.732112     -2.932221
  H      -2.525115     -2.166856     -1.400373
41
Coordinates from ORCA-job orca E -847.144088838138
  C      -2.529458     -1.686074     -0.420088
  H      -2.880315     -2.266834      0.437793
  C      -2.142465     -0.407457     -0.293507
  C      -2.127760      0.344040      1.012310
  H      -1.115898      0.286545      1.457604
  H      -2.818442     -0.130742      1.724262
  C      -2.486879      1.809500      0.783395
  H      -2.405267      2.376670      1.723350
  H      -3.530649      1.887816      0.437258
  C      -1.545100      2.410427     -0.247762
  H      -0.508353      2.370331      0.140378
  C      -1.865688      3.844727     -0.652352
  C      -1.680709      4.872664      0.465897
  H      -2.372559      4.654684      1.298213
  H      -0.661829      4.777755      0.885207
  C      -1.905583      6.307847     -0.010954
  H      -1.771535      7.031936      0.808518
  H      -2.925327      6.439489     -0.410035
  H      -1.200302      6.576785     -0.815128
  H      -2.901613      3.875820     -1.034088
  H      -1.213964      4.100660     -1.504854
  O      -1.554314      1.649151     -1.478764
  C      -1.778804      0.321805     -1.557217
  O      -1.717562     -0.214459     -2.638436
  C      -5.234427     -1.417207     -1.201057
  C      -5.418974     -0.890060      0.144261
  O      -5.622152     -1.862791      1.073432
  C      -5.828607     -1.417824      2.407267
  H      -6.015508     -2.317963      3.007238
  H      -4.943535     -0.886049      2.792551
  H      -6.689516     -0.733751      2.468334
  O      -5.377777      0.291806      0.450667
  C      -5.385925     -2.872451     -1.499866
  H      -5.163227     -3.497858     -0.625398
  H      -6.424579     -3.102613     -1.811568
  H      -4.735338     -3.168484     -2.339070
  C      -5.047394     -0.450015     -2.318567
  H      -4.901814      0.571778     -1.945643
  H      -5.929956     -0.451558     -2.987818
  H      -4.175229     -0.724688     -2.935558
  H      -2.520736     -2.169970     -1.397747
41
Coordinates from ORCA-job orca E -847.144158661737
  C      -2.533133     -1.687309     -0.416009
  H      -2.872852     -2.267981      0.445945
  C      -2.144589     -0.408493     -0.291059
  C      -2.126106      0.344579      1.015279
  H      -1.113277      0.285737      1.457995
  H      -2.813830     -0.127669      1.731980
  C      -2.486646      1.809596      0.784989
  H      -2.402246      2.378901      1.723618
  H      -3.531495      1.885572      0.442441
  C      -1.546493      2.410394     -0.247288
  H      -0.509922      2.370831      0.141436
  C      -1.866852      3.844605     -0.652782
  C      -1.680723      4.873521      0.464366
  H      -2.372096      4.656602      1.297374
  H      -0.661602      4.778536      0.883072
  C      -1.905247      6.308383     -0.013595
  H      -1.770363      7.033149      0.805139
  H      -2.925180      6.440149     -0.412164
  H      -1.200338      6.576263     -0.818451
  H      -2.902996      3.875771     -1.033945
  H      -1.215514      4.099487     -1.505892
  O      -1.555025      1.647656     -1.476830
  C      -1.775338      0.319774     -1.553599
  O      -1.721893     -0.215670     -2.635646
  C      -5.236346     -1.414816     -1.201786
  C      -5.420802     -0.889363      0.143597
  O      -5.626038     -1.863537      1.070644
  C      -5.827406     -1.420081      2.405801
  H      -6.017843     -2.320307      3.004565
  H      -4.938219     -0.893988      2.789532
  H      -6.684241     -0.731304      2.470354
  O      -5.378331      0.291898      0.452088
  C      -5.386269     -2.872147     -1.502957
  H      -5.166339     -3.503708     -0.632233
  H      -6.425361     -3.099460     -1.815115
  H      -4.737378     -3.168586     -2.343137
  C      -5.048156     -0.446333     -2.319589
  H      -4.911776      0.575818     -1.944468
  H      -5.928785     -0.453875     -2.991515
  H      -4.175505     -0.714946     -2.937808
  H      -2.512517     -2.174258     -1.391889
41
Coordinates from ORCA-job orca E -847.144208766489
  C      -2.535189     -1.687102     -0.411873
  H      -2.862508     -2.268027      0.453867
  C      -2.148735     -0.407896     -0.288741
  C      -2.127442      0.346221      1.016943
  H      -1.113191      0.286775      1.456441
  H      -2.811823     -0.124838      1.737860
  C      -2.488592      1.810967      0.785863
  H      -2.403004      2.381717      1.723606
  H      -3.533832      1.885435      0.444658
  C      -1.547910      2.410629     -0.246578
  H      -0.512013      2.370686      0.144086
  C      -1.866444      3.844762     -0.653521
  C      -1.679940      4.874354      0.462869
  H      -2.372098      4.658876      1.295611
  H      -0.661196      4.778577      0.882318
  C      -1.902559      6.309049     -0.016433
  H      -1.767417      7.034329      0.801795
  H      -2.922081      6.441634     -0.415786
  H      -1.196811      6.575476     -0.821042
  H      -2.902276      3.876825     -1.035540
  H      -1.214059      4.098061     -1.506316
  O      -1.555532      1.646800     -1.475330
  C      -1.781169      0.319864     -1.551529
  O      -1.715695     -0.219771     -2.631073
  C      -5.236899     -1.413397     -1.202384
  C      -5.421997     -0.890066      0.143040
  O      -5.628575     -1.865944      1.068031
  C      -5.825815     -1.425139      2.404824
  H      -6.018834     -2.326113      3.001634
  H      -4.933524     -0.903873      2.787948
  H      -6.679510     -0.732856      2.473020
  O      -5.379681      0.290747      0.453191
  C      -5.386016     -2.869757     -1.505815
  H      -5.168157     -3.505711     -0.637811
  H      -6.426020     -3.093920     -1.817996
  H      -4.738465     -3.165405     -2.347351
  C      -5.051857     -0.444403     -2.319585
  H      -4.927658      0.578651     -1.942911
  H      -5.930952     -0.460962     -2.993778
  H      -4.176762     -0.705082     -2.937872
  H      -2.502834     -2.176781     -1.385881
41
Coordinates from ORCA-job orca E -847.144235430430
  C      -2.533818     -1.689343     -0.408861
  H      -2.857475     -2.270094      0.457981
  C      -2.147209     -0.410504     -0.286136
  C      -2.124707      0.343520      1.018636
  H      -1.109465      0.283887      1.456097
  H      -2.807640     -0.128206      1.740571
  C      -2.485668      1.808580      0.788980
  H      -2.398524      2.379028      1.726680
  H      -3.531381      1.883412      0.449556
  C      -1.547345      2.408348     -0.245774
  H      -0.510943      2.370679      0.143772
  C      -1.869016      3.841373     -0.653863
  C      -1.682976      4.872412      0.461255
  H      -2.373638      4.656462      1.295112
  H      -0.663506      4.778957      0.879467
  C      -1.908925      6.306212     -0.019181
  H      -1.774047      7.032548      0.798155
  H      -2.929226      6.436497     -0.417294
  H      -1.204755      6.573169     -0.824994
  H      -2.905377      3.871229     -1.034630
  H      -1.218097      4.094883     -1.507717
  O      -1.554679      1.643312     -1.474067
  C      -1.778542      0.315998     -1.549127
  O      -1.715792     -0.224062     -2.628744
  C      -5.233684     -1.408960     -1.203322
  C      -5.419084     -0.886558      0.142333
  O      -5.629068     -1.862804      1.066256
  C      -5.825132     -1.423319      2.403694
  H      -6.021361     -2.324558      2.999030
  H      -4.931208     -0.905743      2.787978
  H      -6.676467     -0.728209      2.472751
  O      -5.374900      0.293937      0.453383
  C      -5.387747     -2.862493     -1.508239
  H      -5.172601     -3.499627     -0.640450
  H      -6.428816     -3.082040     -1.820871
  H      -4.740956     -3.158816     -2.350220
  C      -5.050602     -0.440192     -2.319525
  H      -4.929686      0.583312     -1.942980
  H      -5.929284     -0.459699     -2.994335
  H      -4.174164     -0.699141     -2.936733
  H      -2.497558     -2.179997     -1.382168
41
Coordinates from ORCA-job orca E -847.144247943857
  C      -2.531090     -1.692972     -0.405817
  H      -2.852133     -2.273859      0.461891
  C      -2.145137     -0.413950     -0.283540
  C      -2.121398      0.340133      1.020278
  H      -1.105022      0.280998      1.455458
  H      -2.802793     -0.132667      1.742941
  C      -2.482133      1.805433      0.792195
  H      -2.393446      2.375211      1.730046
  H      -3.528278      1.881139      0.454314
  C      -1.546312      2.405375     -0.244944
  H      -0.509120      2.370126      0.142644
  C      -1.871871      3.837187     -0.654046
  C      -1.686974      4.869651      0.459957
  H      -2.376042      4.652672      1.294856
  H      -0.666738      4.779115      0.876954
  C      -1.917165      6.302468     -0.021422
  H      -1.783042      7.029841      0.795121
  H      -2.938314      6.429831     -0.418298
  H      -1.214736      6.570508     -0.828390
  H      -2.908777      3.864271     -1.033509
  H      -1.222594      4.091462     -1.508928
  O      -1.554010      1.639257     -1.472887
  C      -1.777094      0.311739     -1.547199
  O      -1.716090     -0.228503     -2.626871
  C      -5.228857     -1.403907     -1.204287
  C      -5.414520     -0.881962      0.141736
  O      -5.628378     -1.858063      1.064932
  C      -5.824232     -1.419208      2.402540
  H      -6.023680     -2.320441      2.996809
  H      -4.929209     -0.904708      2.788375
  H      -6.673562     -0.721616      2.471432
  O      -5.367776      0.298249      0.453532
  C      -5.390040     -2.854906     -1.510594
  H      -5.177891     -3.492473     -0.642417
  H      -6.432142     -3.069308     -1.823752
  H      -4.744216     -3.152818     -2.352836
  C      -5.048942     -0.434955     -2.319944
  H      -4.931060      0.589367     -1.944598
  H      -5.927003     -0.457847     -2.995411
  H      -4.170479     -0.692109     -2.935217
  H      -2.492772     -2.184371     -1.378646
41
Coordinates from ORCA-job orca E -847.144248167553
  C      -2.529080     -1.695609     -0.404095
  H      -2.848684     -2.276838      0.464059
  C      -2.144305     -0.416039     -0.282263
  C      -2.119658      0.338341      1.021244
  H      -1.102665      0.279779      1.455124
  H      -2.800121     -0.134933      1.744428
  C      -2.480522      1.803631      0.793728
  H      -2.390831      2.373079      1.731659
  H      -3.526940      1.879785      0.456775
  C      -1.546079      2.403687     -0.244607
  H      -0.508289      2.369435      0.141408
  C      -1.873582      3.835003     -0.653968
  C      -1.689127      4.868045      0.459597
  H      -2.377372      4.650503      1.295014
  H      -0.668496      4.778854      0.875913
  C      -1.921343      6.300442     -0.022068
  H      -1.787567      7.028222      0.794169
  H      -2.942904      6.426441     -0.418325
  H      -1.219759      6.569091     -0.829573
  H      -2.910815      3.860704     -1.032597
  H      -1.225297      4.089843     -1.509427
  O      -1.554606      1.637108     -1.472345
  C      -1.777694      0.309572     -1.546461
  O      -1.717719     -0.230525     -2.626244
  C      -5.225610     -1.401229     -1.204796
  C      -5.411356     -0.879186      0.141365
  O      -5.627181     -1.854957      1.064390
  C      -5.823531     -1.415987      2.401826
  H      -6.024462     -2.317047      2.995867
  H      -4.928285     -0.902539      2.788551
  H      -6.672138     -0.717445      2.470087
  O      -5.363162      0.300914      0.453361
  C      -5.391142     -2.851705     -1.511666
  H      -5.180748     -3.489437     -0.643190
  H      -6.433652     -3.063315     -1.825258
  H      -4.745918     -3.151114     -2.353861
  C      -5.048057     -0.431932     -2.320730
  H      -4.932489      0.593060     -1.946484
  H      -5.925441     -0.457601     -2.996822
  H      -4.168016     -0.687340     -2.934590
  H      -2.490426     -2.187375     -1.376735
41
Coordinates from ORCA-job orca E -847.144252834568
  C      -2.527256     -1.697862     -0.402757
  H      -2.845581     -2.279598      0.465685
  C      -2.144315     -0.417512     -0.281540
  C      -2.118733      0.337226      1.021961
  H      -1.101358      0.279102      1.454949
  H      -2.798570     -0.136166      1.745620
  C      -2.479874      1.802419      0.794611
  H      -2.389210      2.371671      1.732582
  H      -3.526554      1.878794      0.458522
  C      -1.546455      2.402555     -0.244514
  H      -0.508093      2.368581      0.139943
  C      -1.874936      3.833740     -0.653690
  C      -1.690344      4.866940      0.459721
  H      -2.378092      4.649165      1.295483
  H      -0.669457      4.778234      0.875520
  C      -1.923401      6.299185     -0.021970
  H      -1.789629      7.027110      0.794143
  H      -2.945174      6.424656     -0.417837
  H      -1.222267      6.568081     -0.829782
  H      -2.912458      3.858755     -1.031548
  H      -1.227451      4.089017     -1.509629
  O      -1.556300      1.635824     -1.472137
  C      -1.779824      0.308377     -1.546262
  O      -1.721010     -0.231420     -2.626228
  C      -5.222850     -1.399573     -1.205164
  C      -5.408677     -0.877148      0.140957
  O      -5.625339     -1.852517      1.064133
  C      -5.822792     -1.413047      2.401195
  H      -6.024084     -2.313878      2.995473
  H      -4.927962     -0.899301      2.788499
  H      -6.671560     -0.714602      2.468488
  O      -5.359818      0.302962      0.452796
  C      -5.391424     -2.850361     -1.512140
  H      -5.182428     -3.488199     -0.643411
  H      -6.434048     -3.060053     -1.826327
  H      -4.746489     -3.151287     -2.354034
  C      -5.047556     -0.430064     -2.321836
  H      -4.934724      0.595612     -1.948631
  H      -5.924045     -0.458999     -2.998769
  H      -4.165801     -0.683158     -2.934285
  H      -2.489129     -2.189869     -1.375327
41
Coordinates from ORCA-job orca E -847.144257380204
  C      -2.526584     -1.698572     -0.402328
  H      -2.844209     -2.280655      0.466176
  C      -2.144995     -0.417741     -0.281540
  C      -2.118937      0.337101      1.022116
  H      -1.101554      0.278894      1.454989
  H      -2.798754     -0.136109      1.745912
  C      -2.480198      1.802263      0.794710
  H      -2.389023      2.371502      1.732666
  H      -3.527020      1.878597      0.459084
  C      -1.547136      2.402383     -0.244677
  H      -0.508513      2.368031      0.139037
  C      -1.875383      3.833765     -0.653444
  C      -1.690170      4.866725      0.460089
  H      -2.377800      4.649039      1.295970
  H      -0.669216      4.777623      0.875639
  C      -1.922874      6.299123     -0.021333
  H      -1.788772      7.026880      0.794869
  H      -2.944670      6.424951     -0.417034
  H      -1.221781      6.567948     -0.829208
  H      -2.913041      3.859040     -1.030918
  H      -1.228179      4.089100     -1.509576
  O      -1.558014      1.635800     -1.472336
  C      -1.781971      0.308465     -1.546496
  O      -1.724057     -0.231147     -2.626604
  C      -5.221916     -1.399526     -1.205333
  C      -5.407791     -0.876659      0.140592
  O      -5.623901     -1.851751      1.064178
  C      -5.822313     -1.411751      2.400923
  H      -6.022874     -2.312448      2.995656
  H      -4.928193     -0.896806      2.788260
  H      -6.671864     -0.714188      2.467525
  O      -5.359401      0.303585      0.451982
  C      -5.390821     -2.850786     -1.511939
  H      -5.182340     -3.488602     -0.643084
  H      -6.433309     -3.060138     -1.826640
  H      -4.745663     -3.152339     -2.353434
  C      -5.047610     -0.430261     -2.322647
  H      -4.936686      0.595789     -1.949882
  H      -5.923461     -0.461366     -3.000231
  H      -4.164834     -0.681757     -2.934303
  H      -2.489244     -2.190611     -1.374923
41
Coordinates from ORCA-job orca E -847.144257582022
  C      -2.526275     -1.698867     -0.402063
  H      -2.843017     -2.281319      0.466503
  C      -2.146177     -0.417568     -0.281778
  C      -2.119645      0.337232      1.022090
  H      -1.102381      0.278574      1.455091
  H      -2.799701     -0.135657      1.745885
  C      -2.480868      1.802438      0.794712
  H      -2.389104      2.371702      1.732626
  H      -3.527859      1.878694      0.459625
  C      -1.548164      2.402454     -0.244975
  H      -0.509303      2.367408      0.138049
  C      -1.875750      3.834163     -0.653105
  C      -1.689503      4.866640      0.460692
  H      -2.377096      4.649200      1.296669
  H      -0.668515      4.776684      0.875976
  C      -1.921302      6.299343     -0.020263
  H      -1.786584      7.026764      0.796134
  H      -2.943074      6.425984     -0.415771
  H      -1.220155      6.567932     -0.828167
  H      -2.913548      3.860110     -1.030160
  H      -1.228765      4.089424     -1.509423
  O      -1.560346      1.636199     -1.472789
  C      -1.784765      0.309002     -1.546951
  O      -1.728059     -0.230446     -2.627229
  C      -5.221474     -1.400012     -1.205585
  C      -5.407386     -0.876471      0.139993
  O      -5.622062     -1.851217      1.064299
  C      -5.821558     -1.410450      2.400640
  H      -6.020636     -2.310992      2.996102
  H      -4.928476     -0.893523      2.787702
  H      -6.672405     -0.714390      2.466484
  O      -5.360169      0.304028      0.450607
  C      -5.389593     -2.851764     -1.511416
  H      -5.181603     -3.489398     -0.642321
  H      -6.431773     -3.061315     -1.826937
  H      -4.743732     -3.153714     -2.352240
  C      -5.047916     -0.431416     -2.323685
  H      -4.939491      0.595057     -1.951336
  H      -5.922906     -0.465178     -3.002216
  H      -4.163892     -0.681068     -2.934297
  H      -2.490042     -2.190876     -1.374713
41
Coordinates from ORCA-job orca E -847.143764821739
  C      -2.473196     -1.697236     -0.361822
  H      -2.841313     -2.274971      0.469394
  C      -2.103475     -0.425282     -0.234254
  C      -2.091044      0.337917      1.059288
  H      -1.076245      0.292108      1.499824
  H      -2.780377     -0.133136      1.779899
  C      -2.461045      1.797550      0.814659
  H      -2.379322      2.376435      1.747715
  H      -3.507214      1.861258      0.473510
  C      -1.535358      2.393028     -0.235695
  H      -0.494653      2.373041      0.143709
  C      -1.878234      3.816590     -0.660128
  C      -1.697413      4.864543      0.440231
  H      -2.379606      4.650819      1.281616
  H      -0.673915      4.789439      0.852561
  C      -1.944802      6.289118     -0.057420
  H      -1.813780      7.027865      0.749495
  H      -2.969355      6.401142     -0.450422
  H      -1.249432      6.554465     -0.871417
  H      -2.917778      3.827993     -1.033375
  H      -1.237091      4.067497     -1.522158
  O      -1.547743      1.612579     -1.457028
  C      -1.760226      0.281722     -1.512800
  O      -1.714522     -0.277684     -2.584759
  C      -5.260621     -1.373327     -1.221062
  C      -5.416715     -0.874912      0.133378
  O      -5.628306     -1.866586      1.040261
  C      -5.815422     -1.447551      2.385329
  H      -6.013695     -2.357097      2.967444
  H      -4.915974     -0.941057      2.772909
  H      -6.662466     -0.748600      2.469746
  O      -5.351672      0.297749      0.476055
  C      -5.415402     -2.807843     -1.537661
  H      -5.197483     -3.445656     -0.666392
  H      -6.453808     -3.030273     -1.857094
  H      -4.753764     -3.081615     -2.378154
  C      -5.077612     -0.392260     -2.320339
  H      -4.964395      0.627868     -1.935383
  H      -5.943593     -0.407631     -3.011404
  H      -4.168848     -0.653957     -2.907939
  H      -2.488157     -2.170662     -1.347857
41
Coordinates from ORCA-job orca E -847.144624684757
  C      -2.481957     -1.704398     -0.361804
  H      -2.844446     -2.284961      0.490484
  C      -2.109198     -0.423584     -0.244098
  C      -2.093407      0.342283      1.051270
  H      -1.078494      0.296911      1.490921
  H      -2.777969     -0.127534      1.772961
  C      -2.466061      1.801931      0.806597
  H      -2.384941      2.380896      1.739313
  H      -3.512171      1.864939      0.464855
  C      -1.537254      2.399298     -0.238363
  H      -0.497402      2.373886      0.142445
  C      -1.874910      3.825441     -0.657561
  C      -1.692525      4.868166      0.447325
  H      -2.376600      4.653107      1.286775
  H      -0.669939      4.788247      0.860738
  C      -1.934787      6.295350     -0.044829
  H      -1.802938      7.030300      0.765270
  H      -2.958243      6.412008     -0.439027
  H      -1.237249      6.561895     -0.856526
  H      -2.913725      3.841607     -1.032281
  H      -1.231624      4.077739     -1.517528
  O      -1.549281      1.623793     -1.461071
  C      -1.762921      0.294231     -1.521796
  O      -1.717316     -0.252945     -2.598659
  C      -5.269299     -1.384581     -1.222844
  C      -5.423392     -0.878157      0.131934
  O      -5.632925     -1.863360      1.047845
  C      -5.812141     -1.437482      2.391905
  H      -6.010592     -2.343725      2.978918
  H      -4.910192     -0.932118      2.773404
  H      -6.656573     -0.735755      2.476906
  O      -5.356350      0.297139      0.462095
  C      -5.416930     -2.831848     -1.538968
  H      -5.199569     -3.468259     -0.671259
  H      -6.453280     -3.060112     -1.860644
  H      -4.757072     -3.111068     -2.377390
  C      -5.078436     -0.404420     -2.326805
  H      -4.972339      0.618350     -1.943069
  H      -5.937078     -0.426947     -3.025256
  H      -4.174548     -0.656941     -2.909071
  H      -2.488996     -2.185930     -1.340652
41
Coordinates from ORCA-job orca E -847.144807128534
  C      -2.487636     -1.705274     -0.360812
  H      -2.837741     -2.283229      0.500179
  C      -2.115615     -0.421600     -0.248603
  C      -2.096799      0.345332      1.047982
  H      -1.081060      0.300149      1.485612
  H      -2.777710     -0.124914      1.772255
  C      -2.470794      1.804912      0.803896
  H      -2.389074      2.384128      1.736495
  H      -3.516966      1.867571      0.462650
  C      -1.540130      2.402396     -0.238714
  H      -0.500916      2.373657      0.143724
  C      -1.873455      3.830135     -0.656128
  C      -1.688792      4.870979      0.450137
  H      -2.374023      4.656915      1.288898
  H      -0.666713      4.787567      0.864070
  C      -1.926555      6.299450     -0.040365
  H      -1.793213      7.033005      0.770740
  H      -2.949360      6.419556     -0.435185
  H      -1.227623      6.564962     -0.851193
  H      -2.911949      3.849782     -1.031551
  H      -1.228880      4.081683     -1.515361
  O      -1.551571      1.627929     -1.461449
  C      -1.768700      0.299116     -1.524314
  O      -1.717180     -0.246749     -2.601167
  C      -5.274844     -1.389026     -1.223603
  C      -5.427353     -0.880359      0.131300
  O      -5.634614     -1.864014      1.049007
  C      -5.809317     -1.436805      2.393081
  H      -6.007666     -2.342342      2.981154
  H      -4.905790     -0.932540      2.772236
  H      -6.652559     -0.733791      2.479851
  O      -5.361345      0.295853      0.455866
  C      -5.417046     -2.841391     -1.539020
  H      -5.199451     -3.477731     -0.671690
  H      -6.452257     -3.072155     -1.861862
  H      -4.758334     -3.123657     -2.376808
  C      -5.080995     -0.410324     -2.329978
  H      -4.982878      0.613487     -1.946825
  H      -5.935906     -0.440451     -3.032733
  H      -4.177332     -0.655302     -2.913037
  H      -2.484927     -2.193518     -1.336274
41
Coordinates from ORCA-job orca E -847.144887301434
  C      -2.492596     -1.706624     -0.358178
  H      -2.826427     -2.280555      0.511335
  C      -2.120376     -0.422032     -0.250714
  C      -2.097608      0.344977      1.047096
  H      -1.080529      0.298872      1.481524
  H      -2.774556     -0.126256      1.774595
  C      -2.472119      1.804843      0.805115
  H      -2.387747      2.383992      1.737655
  H      -3.518946      1.867889      0.466689
  C      -1.542272      2.402628     -0.237855
  H      -0.503266      2.373687      0.145283
  C      -1.874863      3.830525     -0.655187
  C      -1.688520      4.871353      0.450758
  H      -2.373278      4.657995      1.290105
  H      -0.666191      4.787081      0.863895
  C      -1.925417      6.299978     -0.039693
  H      -1.790900      7.033492      0.771258
  H      -2.948401      6.420948     -0.433808
  H      -1.226807      6.564796     -0.851030
  H      -2.913596      3.851018     -1.029970
  H      -1.230615      4.081373     -1.514879
  O      -1.552048      1.627537     -1.459871
  C      -1.766168      0.298250     -1.523186
  O      -1.721311     -0.245909     -2.601176
  C      -5.278262     -1.387804     -1.224994
  C      -5.429112     -0.878737      0.130292
  O      -5.635837     -1.861890      1.047694
  C      -5.805812     -1.434724      2.392287
  H      -6.005923     -2.339818      2.980438
  H      -4.899717     -0.933752      2.769883
  H      -6.646487     -0.728884      2.481490
  O      -5.363391      0.297827      0.451852
  C      -5.418089     -2.842250     -1.540576
  H      -5.202264     -3.479762     -0.673568
  H      -6.452927     -3.071994     -1.865238
  H      -4.760375     -3.127600     -2.377969
  C      -5.081971     -0.410860     -2.332464
  H      -4.993670      0.613920     -1.949811
  H      -5.932968     -0.449932     -3.039950
  H      -4.177124     -0.648062     -2.916730
  H      -2.476584     -2.202144     -1.329941
41
Coordinates from ORCA-job orca E -847.144924405699
  C      -2.494016     -1.707038     -0.355517
  H      -2.813188     -2.278458      0.519809
  C      -2.125504     -0.421722     -0.251328
  C      -2.100523      0.345378      1.046645
  H      -1.081915      0.299353      1.477698
  H      -2.773860     -0.127043      1.777010
  C      -2.475089      1.805294      0.806242
  H      -2.388745      2.384346      1.738720
  H      -3.522396      1.868996      0.469513
  C      -1.545277      2.402369     -0.237400
  H      -0.506312      2.372191      0.145920
  C      -1.876122      3.830575     -0.654636
  C      -1.687460      4.870996      0.451253
  H      -2.371880      4.658533      1.291119
  H      -0.664933      4.785172      0.863591
  C      -1.922684      6.300010     -0.038877
  H      -1.786471      7.033242      0.772051
  H      -2.945808      6.422531     -0.432169
  H      -1.224329      6.563886     -0.850742
  H      -2.915079      3.852716     -1.028775
  H      -1.231968      4.080428     -1.514693
  O      -1.556359      1.627433     -1.459466
  C      -1.777796      0.299365     -1.523802
  O      -1.718331     -0.248533     -2.599483
  C      -5.278321     -1.387170     -1.226308
  C      -5.428662     -0.878018      0.128941
  O      -5.634585     -1.860984      1.046002
  C      -5.802623     -1.433799      2.390853
  H      -6.003434     -2.338602      2.979240
  H      -4.895340     -0.934267      2.767654
  H      -6.642124     -0.726708      2.481145
  O      -5.364328      0.298888      0.449658
  C      -5.417862     -2.841034     -1.541164
  H      -5.203745     -3.479024     -0.673891
  H      -6.452908     -3.069050     -1.866867
  H      -4.760458     -3.128013     -2.378381
  C      -5.083638     -0.412041     -2.334647
  H      -5.003910      0.613986     -1.953697
  H      -5.932422     -0.459533     -3.044717
  H      -4.176869     -0.643799     -2.919427
  H      -2.467794     -2.207461     -1.324618
41
Coordinates from ORCA-job orca E -847.144951996471
  C      -2.491872     -1.709437     -0.353835
  H      -2.810016     -2.281312      0.521149
  C      -2.123503     -0.424564     -0.248729
  C      -2.098186      0.342348      1.048809
  H      -1.079183      0.295803      1.479018
  H      -2.771454     -0.130031      1.779365
  C      -2.472049      1.802508      0.809167
  H      -2.383928      2.381368      1.741548
  H      -3.519882      1.866952      0.474299
  C      -1.544664      2.399663     -0.236870
  H      -0.505042      2.371753      0.144763
  C      -1.878804      3.826838     -0.655004
  C      -1.690685      4.868608      0.449746
  H      -2.373498      4.655461      1.290741
  H      -0.667411      4.785215      0.860733
  C      -1.929511      6.296730     -0.041271
  H      -1.793541      7.030943      0.768815
  H      -2.953473      6.416861     -0.433114
  H      -1.232927      6.561305     -0.854426
  H      -2.918300      3.846690     -1.027750
  H      -1.236259      4.077158     -1.516126
  O      -1.556310      1.623809     -1.458568
  C      -1.774465      0.295197     -1.521618
  O      -1.721219     -0.252350     -2.597939
  C      -5.274647     -1.382685     -1.226959
  C      -5.425367     -0.874345      0.128315
  O      -5.633396     -1.857566      1.044719
  C      -5.801984     -1.430736      2.389671
  H      -6.004466     -2.335464      2.977608
  H      -4.894156     -0.932691      2.767152
  H      -6.640463     -0.722436      2.479619
  O      -5.359759      0.302226      0.450987
  C      -5.418898     -2.834530     -1.542681
  H      -5.207432     -3.473724     -0.675627
  H      -6.454635     -3.058854     -1.869099
  H      -4.761400     -3.121859     -2.379820
  C      -5.081329     -0.407043     -2.334517
  H      -5.001987      0.619154     -1.954002
  H      -5.930184     -0.454717     -3.044486
  H      -4.173790     -0.639401     -2.918183
  H      -2.464997     -2.209453     -1.323139
41
Coordinates from ORCA-job orca E -847.144971673956
  C      -2.488049     -1.714151     -0.350645
  H      -2.802449     -2.287219      0.524753
  C      -2.121986     -0.428875     -0.245008
  C      -2.095719      0.338280      1.051715
  H      -1.075898      0.291301      1.480142
  H      -2.768298     -0.133887      1.783069
  C      -2.468830      1.798654      0.813008
  H      -2.377602      2.377320      1.745148
  H      -3.517545      1.864201      0.481173
  C      -1.545003      2.395662     -0.236486
  H      -0.504224      2.370076      0.142044
  C      -1.883180      3.821731     -0.655258
  C      -1.695077      4.864927      0.448204
  H      -2.375535      4.650858      1.290863
  H      -0.670699      4.784340      0.857016
  C      -1.938399      6.292056     -0.043517
  H      -1.802224      7.027311      0.765594
  H      -2.963567      6.409443     -0.433037
  H      -1.244369      6.557543     -0.858561
  H      -2.923518      3.838967     -1.025728
  H      -1.243036      4.072738     -1.517958
  O      -1.558885      1.618811     -1.457757
  C      -1.774750      0.289872     -1.519220
  O      -1.725979     -0.257900     -2.595753
  C      -5.268147     -1.376498     -1.228140
  C      -5.419574     -0.868553      0.126908
  O      -5.630442     -1.851658      1.043058
  C      -5.799994     -1.424720      2.387886
  H      -6.004759     -2.329151      2.975493
  H      -4.891551     -0.928468      2.766244
  H      -6.637166     -0.714806      2.476926
  O      -5.352431      0.307732      0.451436
  C      -5.420157     -2.826064     -1.544843
  H      -5.213574     -3.467050     -0.677963
  H      -6.456784     -3.044367     -1.872832
  H      -4.762527     -3.114918     -2.381478
  C      -5.077843     -0.400292     -2.335404
  H      -5.000290      0.626520     -1.956251
  H      -5.926528     -0.449823     -3.045346
  H      -4.168838     -0.632608     -2.917081
  H      -2.459644     -2.213945     -1.319952
41
Coordinates from ORCA-job orca E -847.144979852653
  C      -2.485237     -1.717893     -0.348299
  H      -2.795964     -2.292250      0.527752
  C      -2.122277     -0.431549     -0.243017
  C      -2.094948      0.336078      1.053223
  H      -1.074594      0.288922      1.480415
  H      -2.766913     -0.135769      1.785322
  C      -2.467887      1.796509      0.814969
  H      -2.374411      2.375089      1.746929
  H      -3.517215      1.862583      0.485242
  C      -1.546308      2.393360     -0.236554
  H      -0.504627      2.368359      0.139483
  C      -1.886248      3.819122     -0.655059
  C      -1.697310      4.862733      0.447890
  H      -2.376314      4.648258      1.291599
  H      -0.672242      4.783116      0.855163
  C      -1.942566      6.289556     -0.043765
  H      -1.805734      7.025105      0.764968
  H      -2.968436      6.406003     -0.431714
  H      -1.250030      6.555451     -0.859947
  H      -2.927201      3.835378     -1.023801
  H      -1.247725      4.070532     -1.518845
  O      -1.562630      1.616210     -1.457654
  C      -1.777971      0.287219     -1.518321
  O      -1.730725     -0.260739     -2.594830
  C      -5.263472     -1.373252     -1.228970
  C      -5.415484     -0.864746      0.125688
  O      -5.627556     -1.847358      1.042315
  C      -5.797971     -1.419734      2.386779
  H      -6.003688     -2.323835      2.974569
  H      -4.889528     -0.923846      2.765599
  H      -6.634786     -0.709281      2.474830
  O      -5.347963      0.311582      0.450171
  C      -5.420514     -2.822207     -1.546004
  H      -5.217721     -3.464171     -0.679010
  H      -6.457457     -3.036526     -1.875603
  H      -4.762652     -3.112951     -2.381835
  C      -5.075540     -0.397043     -2.336844
  H      -4.999681      0.630322     -1.958866
  H      -5.924004     -0.448735     -3.046754
  H      -4.165515     -0.628573     -2.917200
  H      -2.456026     -2.217637     -1.317553
41
Coordinates from ORCA-job orca E -847.144979852849
  C      -2.482608     -1.721256     -0.346382
  H      -2.789290     -2.297273      0.530280
  C      -2.123862     -0.433397     -0.242029
  C      -2.095279      0.334732      1.053978
  H      -1.074588      0.287430      1.480284
  H      -2.766756     -0.136726      1.786737
  C      -2.468406      1.795159      0.816063
  H      -2.372943      2.373641      1.747894
  H      -3.518266      1.861360      0.488152
  C      -1.548659      2.391875     -0.236942
  H      -0.506081      2.366368      0.136565
  C      -1.889092      3.817837     -0.654441
  C      -1.698295      4.861145      0.448465
  H      -2.376141      4.646631      1.293086
  H      -0.672651      4.781234      0.854225
  C      -1.943923      6.288117     -0.042543
  H      -1.805717      7.023467      0.766135
  H      -2.970333      6.404868     -0.428953
  H      -1.252527      6.554025     -0.859688
  H      -2.930676      3.834156     -1.021392
  H      -1.252048      4.069513     -1.519248
  O      -1.568028      1.614907     -1.458078
  C      -1.783359      0.285950     -1.518292
  O      -1.736924     -0.262057     -2.594765
  C      -5.259367     -1.371646     -1.229744
  C      -5.412098     -0.861710      0.124287
  O      -5.624013     -1.843444      1.042065
  C      -5.795579     -1.414416      2.385867
  H      -6.001055     -2.318047      2.974466
  H      -4.887798     -0.917438      2.764829
  H      -6.632979     -0.704466      2.472584
  O      -5.345302      0.314961      0.447354
  C      -5.419986     -2.820873     -1.546412
  H      -5.220900     -3.463148     -0.678854
  H      -6.456818     -3.032119     -1.878155
  H      -4.761477     -3.114067     -2.380875
  C      -5.073644     -0.396115     -2.339006
  H      -4.999439      0.631822     -1.962221
  H      -5.921964     -0.450411     -3.048733
  H      -4.162795     -0.626370     -2.918409
  H      -2.453406     -2.220830     -1.315693
41
Coordinates from ORCA-job orca E -847.144984942965
  C      -2.481606     -1.722225     -0.346068
  H      -2.786167     -2.299335      0.530707
  C      -2.125590     -0.433465     -0.242427
  C      -2.096415      0.334733      1.053734
  H      -1.075760      0.287273      1.480013
  H      -2.767881     -0.136605      1.786585
  C      -2.469813      1.795177      0.816050
  H      -2.373684      2.373544      1.747902
  H      -3.519861      1.861184      0.488730
  C      -1.550637      2.391873     -0.237323
  H      -0.507656      2.365287      0.135006
  C      -1.890254      3.818326     -0.653782
  C      -1.697600      4.860940      0.449437
  H      -2.375089      4.646770      1.294429
  H      -0.671756      4.779800      0.854454
  C      -1.942074      6.288374     -0.040799
  H      -1.802582      7.023230      0.768106
  H      -2.968613      6.406357     -0.426501
  H      -1.250923      6.553921     -0.858264
  H      -2.932156      3.835600     -1.019787
  H      -1.253820      4.069923     -1.519062
  O      -1.571925      1.615423     -1.458723
  C      -1.787299      0.286490     -1.518980
  O      -1.741188     -0.261405     -2.595505
  C      -5.258113     -1.372366     -1.230125
  C      -5.411343     -0.861059      0.123385
  O      -5.621758     -1.842048      1.042310
  C      -5.794226     -1.411725      2.385550
  H      -5.998210     -2.315023      2.975182
  H      -4.887463     -0.912640      2.764185
  H      -6.632939     -0.703192      2.471338
  O      -5.346041      0.316057      0.444763
  C      -5.418767     -2.822232     -1.545821
  H      -5.221300     -3.463923     -0.677487
  H      -6.455139     -3.033066     -1.879154
  H      -4.759316     -3.116807     -2.379036
  C      -5.073262     -0.397824     -2.340597
  H      -4.999723      0.630419     -1.964432
  H      -5.921661     -0.453604     -3.050070
  H      -4.162216     -0.627275     -2.919890
  H      -2.453242     -2.221490     -1.315571
41
Coordinates from ORCA-job orca E -847.144985355306
  C      -2.481124     -1.722400     -0.346519
  H      -2.783838     -2.300532      0.530198
  C      -2.127434     -0.432978     -0.243459
  C      -2.097856      0.334950      1.053075
  H      -1.077360      0.287221      1.479600
  H      -2.769483     -0.136481      1.785749
  C      -2.471526      1.795465      0.815827
  H      -2.375076      2.373625      1.747783
  H      -3.521682      1.861224      0.488806
  C      -1.552719      2.392259     -0.237717
  H      -0.509431      2.364318      0.133687
  C      -1.891102      3.819358     -0.652897
  C      -1.696258      4.861021      0.450815
  H      -2.373488      4.647288      1.296131
  H      -0.670260      4.778225      0.855102
  C      -1.939097      6.289081     -0.038409
  H      -1.798108      7.023257      0.770857
  H      -2.965707      6.408713     -0.423415
  H      -1.248074      6.554171     -0.856133
  H      -2.933308      3.838015     -1.017983
  H      -1.255175      4.070801     -1.518598
  O      -1.575912      1.616601     -1.459574
  C      -1.791046      0.287661     -1.520060
  O      -1.745499     -0.259959     -2.596753
  C      -5.257818     -1.373990     -1.230561
  C      -5.411516     -0.860936      0.122283
  O      -5.619512     -1.840956      1.042722
  C      -5.792954     -1.408906      2.385269
  H      -5.994525     -2.311754      2.976421
  H      -4.887561     -0.906756      2.763114
  H      -6.633574     -0.702494      2.470017
  O      -5.348408      0.316804      0.441567
  C      -5.416911     -2.824613     -1.544519
  H      -5.220720     -3.465033     -0.674969
  H      -6.452508     -3.036184     -1.879761
  H      -4.755885     -3.120373     -2.376066
  C      -5.073505     -0.400898     -2.342421
  H      -5.000430      0.627683     -1.967015
  H      -5.922084     -0.458071     -3.051574
  H      -4.162443     -0.629834     -2.921831
  H      -2.454152     -2.221203     -1.316328
41
Coordinates from ORCA-job orca E -847.144988666053
  C      -2.481044     -1.722246     -0.347397
  H      -2.782193     -2.301171      0.529259
  C      -2.128811     -0.432486     -0.244584
  C      -2.098973      0.334938      1.052370
  H      -1.078589      0.286928      1.479080
  H      -2.770691     -0.136794      1.784796
  C      -2.472864      1.795544      0.815748
  H      -2.376190      2.373450      1.747833
  H      -3.523113      1.861171      0.489003
  C      -1.554496      2.392556     -0.238042
  H      -0.510946      2.363461      0.132564
  C      -1.891921      3.820225     -0.651955
  C      -1.694918      4.860939      0.452258
  H      -2.371672      4.647451      1.298021
  H      -0.668678      4.776690      0.855628
  C      -1.936532      6.289601     -0.035824
  H      -1.794021      7.023082      0.773806
  H      -2.963325      6.410687     -0.419888
  H      -1.245884      6.554428     -0.853950
  H      -2.934464      3.840163     -1.016029
  H      -1.256596      4.071578     -1.518125
  O      -1.579417      1.617750     -1.460408
  C      -1.793963      0.288753     -1.521128
  O      -1.749211     -0.258548     -2.598040
  C      -5.258060     -1.375659     -1.231143
  C      -5.412138     -0.860713      0.120955
  O      -5.617531     -1.839599      1.043104
  C      -5.791777     -1.405553      2.384907
  H      -5.990690     -2.307818      2.977848
  H      -4.887715     -0.900137      2.761575
  H      -6.634352     -0.701344      2.468606
  O      -5.351291      0.317707      0.438150
  C      -5.414839     -2.826941     -1.542931
  H      -5.219857     -3.465723     -0.671913
  H      -6.449461     -3.039912     -1.880316
  H      -4.751749     -3.123587     -2.372537
  C      -5.074124     -0.404156     -2.344335
  H      -5.001453      0.624837     -1.969941
  H      -5.922879     -0.462582     -3.053210
  H      -4.163101     -0.633040     -2.923828
  H      -2.455540     -2.220540     -1.317529
41
Coordinates from ORCA-job orca E -847.144989187660
  C      -2.481165     -1.722265     -0.348646
  H      -2.780494     -2.301900      0.528074
  C      -2.129808     -0.432355     -0.245777
  C      -2.099579      0.334333      1.051667
  H      -1.079154      0.286076      1.478229
  H      -2.771107     -0.137956      1.783957
  C      -2.473731      1.795058      0.816021
  H      -2.376587      2.372605      1.748263
  H      -3.524171      1.860743      0.489853
  C      -1.556213      2.392497     -0.238309
  H      -0.512301      2.362445      0.131225
  C      -1.893132      3.820688     -0.650716
  C      -1.693809      4.860378      0.454045
  H      -2.369664      4.646822      1.300512
  H      -0.667138      4.774913      0.856056
  C      -1.934814      6.289636     -0.032592
  H      -1.790563      7.022351      0.777420
  H      -2.962019      6.411959     -0.415165
  H      -1.245036      6.554481     -0.851445
  H      -2.936124      3.841776     -1.013425
  H      -1.258720      4.072156     -1.517517
  O      -1.583120      1.618689     -1.461278
  C      -1.796673      0.289571     -1.522269
  O      -1.752982     -0.257294     -2.599479
  C      -5.258463     -1.377160     -1.232087
  C      -5.412813     -0.859720      0.119008
  O      -5.615333     -1.837003      1.043449
  C      -5.790237     -1.400263      2.384299
  H      -5.986080     -2.301661      2.979579
  H      -4.887542     -0.891118      2.759210
  H      -6.634933     -0.698452      2.466734
  O      -5.354415      0.319548      0.433665
  C      -5.412430     -2.829151     -1.540895
  H      -5.219245     -3.465717     -0.667875
  H      -6.445727     -3.044031     -1.881188
  H      -4.746436     -3.126829     -2.367844
  C      -5.075067     -0.407692     -2.346962
  H      -5.002998      0.621974     -1.974303
  H      -5.923952     -0.467749     -3.055607
  H      -4.164044     -0.637002     -2.926307
  H      -2.457254     -2.219993     -1.319120
41
Coordinates from ORCA-job orca E -847.144996215333
  C      -2.481521     -1.722699     -0.350054
  H      -2.779039     -2.302873      0.526880
  C      -2.130193     -0.432860     -0.246777
  C      -2.099229      0.332976      1.051127
  H      -1.078486      0.284656      1.476946
  H      -2.770046     -0.140097      1.783601
  C      -2.473810      1.793786      0.816755
  H      -2.375847      2.370887      1.749176
  H      -3.524560      1.859683      0.491586
  C      -1.557593      2.391903     -0.238407
  H      -0.513214      2.361331      0.129784
  C      -1.894766      3.820476     -0.649212
  C      -1.693226      4.859253      0.456017
  H      -2.367649      4.645194      1.303503
  H      -0.665884      4.773176      0.856169
  C      -1.934701      6.288975     -0.029023
  H      -1.788628      7.020997      0.781292
  H      -2.962613      6.411968     -0.409477
  H      -1.246437      6.554229     -0.849017
  H      -2.938340      3.842261     -1.010175
  H      -1.261669      4.072336     -1.516863
  O      -1.586477      1.619087     -1.461972
  C      -1.798747      0.289791     -1.523259
  O      -1.755996     -0.256597     -2.600771
  C      -5.258919     -1.378109     -1.233380
  C      -5.413342     -0.857697      0.116518
  O      -5.613213     -1.832965      1.043672
  C      -5.788368     -1.392957      2.383425
  H      -5.981259     -2.293207      2.981391
  H      -4.886798     -0.880218      2.756120
  H      -6.634945     -0.693264      2.464503
  O      -5.357077      0.322488      0.428323
  C      -5.410024     -2.830889     -1.538745
  H      -5.219292     -3.464909     -0.663371
  H      -6.441697     -3.047918     -1.882616
  H      -4.740466     -3.129733     -2.362442
  C      -5.076346     -0.410908     -2.350215
  H      -5.005214      0.619652     -1.979903
  H      -5.925216     -0.473012     -3.058753
  H      -4.165168     -0.640957     -2.929057
  H      -2.459054     -2.219842     -1.320838
41
Coordinates from ORCA-job orca E -847.144996113405
  C      -2.481972     -1.724282     -0.353202
  H      -2.775221     -2.305679      0.524346
  C      -2.130966     -0.434467     -0.249029
  C      -2.097817      0.329448      1.049890
  H      -1.076029      0.281442      1.473282
  H      -2.766286     -0.145681      1.783247
  C      -2.474002      1.790296      0.818674
  H      -2.373748      2.366271      1.751544
  H      -3.525607      1.856474      0.496242
  C      -1.561256      2.390287     -0.238560
  H      -0.515604      2.358652      0.125949
  C      -1.899460      3.819781     -0.645181
  C      -1.691839      4.856319      0.461041
  H      -2.362156      4.640996      1.311458
  H      -0.662580      4.768796      0.855914
  C      -1.934769      6.287167     -0.019892
  H      -1.783480      7.017488      0.791010
  H      -2.964705      6.411864     -0.394289
  H      -1.250895      6.553396     -0.843238
  H      -2.944707      3.843073     -1.001171
  H      -1.270241      4.072739     -1.515322
  O      -1.594959      1.619905     -1.463523
  C      -1.804181      0.290165     -1.525659
  O      -1.763485     -0.254953     -2.603885
  C      -5.259401     -1.380385     -1.236702
  C      -5.413946     -0.852352      0.110148
  O      -5.607876     -1.822330      1.044174
  C      -5.783783     -1.373780      2.380987
  H      -5.969462     -2.270926      2.985844
  H      -4.885105     -0.852051      2.748117
  H      -6.635007     -0.679324      2.458400
  O      -5.362546      0.330090      0.414487
  C      -5.404330     -2.835263     -1.533624
  H      -5.219986     -3.463047     -0.652490
  H      -6.431998     -3.057194     -1.886238
  H      -4.726217     -3.137350     -2.349220
  C      -5.079592     -0.418879     -2.358766
  H      -5.011162      0.614002     -1.994529
  H      -5.928344     -0.486748     -3.066978
  H      -4.167838     -0.650390     -2.936166
  H      -2.462514     -2.220181     -1.324630
41
Coordinates from ORCA-job orca E -847.144991255686
  C      -2.482118     -1.724145     -0.352141
  H      -2.777560     -2.304848      0.525188
  C      -2.129834     -0.434607     -0.247857
  C      -2.096898      0.329952      1.050650
  H      -1.075135      0.282103      1.474125
  H      -2.765504     -0.144641      1.784190
  C      -2.472764      1.790754      0.818529
  H      -2.373001      2.367048      1.751263
  H      -3.524160      1.856898      0.495506
  C      -1.559135      2.390353     -0.238135
  H      -0.513888      2.359811      0.127593
  C      -1.897948      3.819251     -0.646449
  C      -1.693127      4.856945      0.459206
  H      -2.364536      4.641645      1.308767
  H      -0.664376      4.770894      0.855732
  C      -1.936878      6.287094     -0.023389
  H      -1.787808      7.018296      0.787124
  H      -2.966311      6.410252     -0.399659
  H      -1.251903      6.553406     -0.845794
  H      -2.942656      3.841225     -1.004105
  H      -1.267596      4.072127     -1.515798
  O      -1.590620      1.618926     -1.462481
  C      -1.800953      0.289329     -1.524394
  O      -1.759085     -0.256215     -2.602334
  C      -5.259322     -1.378710     -1.235748
  C      -5.413507     -0.853222      0.112165
  O      -5.610338     -1.824935      1.043806
  C      -5.785373     -1.379336      2.381731
  H      -5.974210     -2.277510      2.984091
  H      -4.885196     -0.861520      2.750711
  H      -6.634386     -0.682346      2.460618
  O      -5.359557      0.328380      0.419123
  C      -5.406903     -2.832900     -1.535629
  H      -5.220817     -3.462853     -0.656400
  H      -6.435891     -3.052914     -1.885536
  H      -4.731530     -3.134036     -2.353804
  C      -5.078802     -0.415247     -2.356157
  H      -5.009653      0.616948     -1.990133
  H      -5.927444     -0.481417     -3.064605
  H      -4.167109     -0.646378     -2.933783
  H      -2.461239     -2.220468     -1.323326
41
Coordinates from ORCA-job orca E -847.144994881404
  C      -2.482763     -1.724215     -0.350053
  H      -2.783330     -2.303474      0.526602
  C      -2.126946     -0.435568     -0.245335
  C      -2.093850      0.330130      1.052380
  H      -1.071953      0.282485      1.475600
  H      -2.762451     -0.143392      1.786564
  C      -2.469076      1.790879      0.818673
  H      -2.370103      2.367693      1.751199
  H      -3.520122      1.856997      0.494722
  C      -1.553889      2.389851     -0.236948
  H      -0.509491      2.362093      0.131349
  C      -1.894647      3.817252     -0.649089
  C      -1.697185      4.857668      0.455347
  H      -2.371254      4.641998      1.302706
  H      -0.669709      4.775571      0.855993
  C      -1.943476      6.286085     -0.031127
  H      -1.800319      7.019373      0.778559
  H      -2.971649      6.405088     -0.412145
  H      -1.255788      6.553045     -0.851049
  H      -2.937995      3.835699     -1.010893
  H      -1.261561      4.070312     -1.516397
  O      -1.580388      1.616135     -1.459945
  C      -1.793188      0.286893     -1.521519
  O      -1.748800     -0.259486     -2.598906
  C      -5.259347     -1.374132     -1.233780
  C      -5.412490     -0.853965      0.116376
  O      -5.615647     -1.829233      1.042929
  C      -5.788142     -1.389769      2.383202
  H      -5.984129     -2.289905      2.980326
  H      -4.884312     -0.880911      2.755760
  H      -6.631918     -0.686843      2.465519
  O      -5.352699      0.325791      0.428935
  C      -5.412692     -2.826764     -1.539829
  H      -5.223664     -3.461255     -0.664453
  H      -6.444254     -3.042470     -1.884725
  H      -4.742623     -3.126092     -2.362944
  C      -5.076963     -0.406690     -2.350730
  H      -5.006043      0.624058     -1.981006
  H      -5.925357     -0.469095     -3.059711
  H      -4.165429     -0.637284     -2.928816
  H      -2.459428     -2.221162     -1.320880
41
Coordinates from ORCA-job orca E -847.144993946403
  C      -2.482674     -1.724772     -0.351383
  H      -2.780792     -2.304810      0.525555
  C      -2.127937     -0.435872     -0.246608
  C      -2.094011      0.329011      1.051596
  H      -1.071803      0.281378      1.474040
  H      -2.761833     -0.145324      1.786000
  C      -2.469897      1.789792      0.819228
  H      -2.369972      2.366127      1.751937
  H      -3.521314      1.855920      0.496389
  C      -1.556145      2.389468     -0.237264
  H      -0.511157      2.360777      0.129314
  C      -1.896788      3.817479     -0.647289
  C      -1.696023      4.856581      0.457787
  H      -2.368412      4.640609      1.306402
  H      -0.667745      4.773158      0.856101
  C      -1.942097      6.285732     -0.026607
  H      -1.796267      7.018032      0.783501
  H      -2.971073      6.406155     -0.404999
  H      -1.256135      6.552871     -0.847920
  H      -2.940911      3.837110     -1.006781
  H      -1.265401      4.070883     -1.515735
  O      -1.585204      1.616958     -1.460976
  C      -1.796727      0.287536     -1.522912
  O      -1.753592     -0.258262     -2.600649
  C      -5.259364     -1.375797     -1.235216
  C      -5.412771     -0.852083      0.113509
  O      -5.612729     -1.824953      1.043289
  C      -5.786050     -1.381525      2.382151
  H      -5.978293     -2.280300      2.982538
  H      -4.883920     -0.867944      2.752298
  H      -6.632411     -0.681489      2.462558
  O      -5.355758      0.328796      0.422454
  C      -5.409760     -2.829434     -1.537356
  H      -5.223524     -3.461070     -0.659362
  H      -6.439554     -3.047307     -1.886156
  H      -4.735925     -3.130361     -2.356853
  C      -5.078305     -0.411040     -2.354602
  H      -5.008666      0.620733     -1.987491
  H      -5.926730     -0.476207     -3.063330
  H      -4.166546     -0.641991     -2.932194
  H      -2.460853     -2.221175     -1.322504
41
Coordinates from ORCA-job orca E -847.144997205717
  C      -2.482775     -1.725413     -0.352103
  H      -2.780101     -2.305834      0.524846
  C      -2.128034     -0.436544     -0.247123
  C      -2.093028      0.327807      1.051364
  H      -1.070392      0.280248      1.472778
  H      -2.759911     -0.147069      1.786300
  C      -2.469469      1.788608      0.819964
  H      -2.368749      2.364580      1.752811
  H      -3.521179      1.854679      0.498064
  C      -1.556790      2.388885     -0.237120
  H      -0.511456      2.360198      0.128468
  C      -1.898036      3.817024     -0.646194
  C      -1.696286      4.855661      0.459133
  H      -2.367858      4.639309      1.308295
  H      -0.667625      4.772129      0.856435
  C      -1.942867      6.284999     -0.024431
  H      -1.796241      7.016971      0.785830
  H      -2.972220      6.405557     -0.401746
  H      -1.257729      6.552484     -0.846321
  H      -2.942518      3.836665     -1.004642
  H      -1.267543      4.070884     -1.515159
  O      -1.586833      1.616890     -1.461140
  C      -1.797915      0.287417     -1.523419
  O      -1.755314     -0.257994     -2.601367
  C      -5.259361     -1.376033     -1.236103
  C      -5.412665     -0.850282      0.111832
  O      -5.611320     -1.821742      1.043368
  C      -5.784674     -1.376100      2.381489
  H      -5.975259     -2.274042      2.983649
  H      -4.883170     -0.860414      2.750216
  H      -6.632073     -0.677216      2.460999
  O      -5.356632      0.331179      0.418730
  C      -5.408652     -2.830211     -1.536135
  H      -5.224543     -3.460330     -0.656629
  H      -6.437403     -3.048828     -1.887521
  H      -4.732546     -3.132321     -2.353351
  C      -5.079138     -0.412848     -2.356970
  H      -5.010316      0.619530     -1.991396
  H      -5.927505     -0.479798     -3.065594
  H      -4.167172     -0.643890     -2.934204
  H      -2.461774     -2.221402     -1.323443
41
Coordinates from ORCA-job orca E -847.144485662006
  C      -2.435863     -1.728423     -0.305006
  H      -2.771093     -2.316568      0.552394
  C      -2.089933     -0.446252     -0.193763
  C      -2.065480      0.329578      1.092517
  H      -1.044639      0.295482      1.519805
  H      -2.739730     -0.141272      1.826334
  C      -2.450450      1.785049      0.840922
  H      -2.357929      2.372318      1.767680
  H      -3.501551      1.839177      0.513484
  C      -1.546186      2.379005     -0.227547
  H      -0.498792      2.365312      0.133330
  C      -1.902287      3.798527     -0.654309
  C      -1.704330      4.853984      0.435906
  H      -2.369715      4.643139      1.291363
  H      -0.672933      4.785074      0.829199
  C      -1.966150      6.274543     -0.065835
  H      -1.822039      7.018834      0.733753
  H      -2.998470      6.380744     -0.439642
  H      -1.287519      6.537013     -0.894783
  H      -2.948737      3.803931     -1.007802
  H      -1.278415      4.046243     -1.529873
  O      -1.578646      1.591405     -1.442815
  C      -1.778945      0.259039     -1.484447
  O      -1.746405     -0.305438     -2.553988
  C      -5.297555     -1.344122     -1.260288
  C      -5.418764     -0.849458      0.103366
  O      -5.613870     -1.839722      1.015779
  C      -5.774518     -1.420460      2.364227
  H      -5.963928     -2.329731      2.949865
  H      -4.867460     -0.915998      2.735617
  H      -6.618265     -0.719547      2.464820
  O      -5.343950      0.322863      0.443215
  C      -5.435614     -2.781076     -1.566565
  H      -5.241097     -3.405642     -0.677389
  H      -6.460505     -3.013066     -1.920930
  H      -4.743917     -3.057703     -2.382676
  C      -5.107114     -0.365973     -2.356889
  H      -5.030800      0.659761     -1.973965
  H      -5.946258     -0.410366     -3.078688
  H      -4.172362     -0.614533     -2.909262
  H      -2.462856     -2.202281     -1.294654
41
Coordinates from ORCA-job orca E -847.145194626344
  C      -2.443072     -1.733188     -0.304019
  H      -2.769115     -2.315254      0.562185
  C      -2.095667     -0.443852     -0.203098
  C      -2.065870      0.333749      1.085601
  H      -1.044169      0.299339      1.510202
  H      -2.734991     -0.136214      1.821596
  C      -2.453000      1.789128      0.836902
  H      -2.357664      2.375402      1.763709
  H      -3.505057      1.843350      0.513104
  C      -1.548381      2.384552     -0.229713
  H      -0.500628      2.365487      0.129406
  C      -1.900427      3.806866     -0.649935
  C      -1.697941      4.856834      0.444542
  H      -2.362808      4.644191      1.299875
  H      -0.666299      4.783202      0.836049
  C      -1.956272      6.280157     -0.050608
  H      -1.809192      7.020440      0.751983
  H      -2.988610      6.390865     -0.422737
  H      -1.277822      6.544269     -0.879111
  H      -2.947180      3.817013     -1.002046
  H      -1.276821      4.056293     -1.525114
  O      -1.583640      1.601581     -1.446916
  C      -1.785542      0.270201     -1.493408
  O      -1.756377     -0.284182     -2.567252
  C      -5.305603     -1.358032     -1.260423
  C      -5.425183     -0.851406      0.099370
  O      -5.617738     -1.833520      1.021706
  C      -5.772032     -1.403694      2.367329
  H      -5.961492     -2.308007      2.960254
  H      -4.862962     -0.898693      2.731767
  H      -6.613690     -0.700292      2.465549
  O      -5.348385      0.324459      0.425239
  C      -5.435134     -2.808883     -1.566682
  H      -5.240263     -3.432722     -0.685233
  H      -6.457735     -3.047832     -1.922568
  H      -4.745845     -3.090354     -2.381096
  C      -5.110947     -0.382218     -2.365662
  H      -5.043279      0.645966     -1.988189
  H      -5.943608     -0.436873     -3.092655
  H      -4.181585     -0.618889     -2.914988
  H      -2.463046     -2.215848     -1.282452
41
Coordinates from ORCA-job orca E -847.145352506138
  C      -2.447323     -1.733600     -0.302494
  H      -2.761615     -2.310719      0.570989
  C      -2.101292     -0.441613     -0.208361
  C      -2.066523      0.335945      1.082247
  H      -1.043338      0.301038      1.503052
  H      -2.730870     -0.135059      1.821601
  C      -2.455338      1.791372      0.836575
  H      -2.356960      2.376962      1.763573
  H      -3.508335      1.845707      0.516272
  C      -1.551104      2.387582     -0.229646
  H      -0.503130      2.365211      0.128660
  C      -1.900218      3.811565     -0.646754
  C      -1.693759      4.859136      0.449221
  H      -2.358059      4.646707      1.305031
  H      -0.661801      4.782281      0.839232
  C      -1.949173      6.283904     -0.043130
  H      -1.799357      7.022443      0.760544
  H      -2.981664      6.397776     -0.413845
  H      -1.271043      6.547747     -0.871972
  H      -2.947381      3.824864     -0.997494
  H      -1.277162      4.061037     -1.522323
  O      -1.587919      1.606328     -1.447505
  C      -1.793032      0.275539     -1.496713
  O      -1.761406     -0.276930     -2.571080
  C      -5.310170     -1.364846     -1.260443
  C      -5.428652     -0.851943      0.096214
  O      -5.619955     -1.830348      1.022356
  C      -5.769588     -1.395810      2.366808
  H      -5.960085     -2.297681      2.963062
  H      -4.858319     -0.892063      2.727578
  H      -6.609181     -0.689873      2.464877
  O      -5.352624      0.325779      0.414021
  C      -5.434487     -2.821470     -1.566227
  H      -5.239324     -3.447335     -0.686994
  H      -6.456109     -3.062150     -1.922879
  H      -4.747244     -3.106345     -2.380421
  C      -5.115158     -0.392632     -2.371867
  H      -5.057266      0.637523     -1.998375
  H      -5.944563     -0.458534     -3.101613
  H      -4.186433     -0.618697     -2.923347
  H      -2.458108     -2.225407     -1.275970
41
Coordinates from ORCA-job orca E -847.145411680126
  C      -2.449284     -1.734954     -0.299854
  H      -2.752848     -2.308097      0.579833
  C      -2.103531     -0.442526     -0.210047
  C      -2.064215      0.334176      1.081867
  H      -1.039361      0.298301      1.498508
  H      -2.724210     -0.138284      1.824441
  C      -2.454097      1.789854      0.839261
  H      -2.352373      2.374974      1.766306
  H      -3.508100      1.844418      0.522767
  C      -1.552216      2.387042     -0.228441
  H      -0.503902      2.365181      0.128962
  C      -1.902514      3.810837     -0.644992
  C      -1.694679      4.858436      0.450666
  H      -2.357608      4.645836      1.307513
  H      -0.662094      4.781845      0.839069
  C      -1.951207      6.283143     -0.041264
  H      -1.800317      7.021727      0.762176
  H      -2.984308      6.396798     -0.410361
  H      -1.274427      6.547120     -0.871167
  H      -2.950228      3.823791     -0.994155
  H      -1.280862      4.060523     -1.521515
  O      -1.588650      1.605583     -1.446085
  C      -1.791218      0.274385     -1.496031
  O      -1.766314     -0.276688     -2.571307
  C      -5.310741     -1.364207     -1.261176
  C      -5.428895     -0.848535      0.093778
  O      -5.621341     -1.825182      1.021050
  C      -5.766814     -1.388564      2.365245
  H      -5.960032     -2.288867      2.963001
  H      -4.852728     -0.888213      2.723876
  H      -6.603272     -0.678987      2.464127
  O      -5.352790      0.329921      0.408035
  C      -5.435309     -2.821685     -1.567560
  H      -5.242441     -3.450658     -0.689619
  H      -6.457245     -3.059113     -1.925481
  H      -4.749501     -3.109435     -2.381855
  C      -5.116561     -0.395101     -2.375769
  H      -5.067913      0.636538     -2.004903
  H      -5.943549     -0.470958     -3.107630
  H      -4.186737     -0.612631     -2.929048
  H      -2.450636     -2.234351     -1.269763
41
Coordinates from ORCA-job orca E -847.145444211254
  C      -2.449226     -1.736302     -0.296777
  H      -2.740253     -2.306442      0.589017
  C      -2.106932     -0.443266     -0.210722
  C      -2.063808      0.332867      1.081720
  H      -1.036826      0.297041      1.493297
  H      -2.718588     -0.141438      1.827982
  C      -2.454758      1.788567      0.841591
  H      -2.350335      2.373497      1.768529
  H      -3.509533      1.843312      0.527771
  C      -1.554321      2.385982     -0.227409
  H      -0.505772      2.363840      0.129417
  C      -1.904721      3.809702     -0.643699
  C      -1.695527      4.857094      0.451870
  H      -2.357670      4.644576      1.309363
  H      -0.662570      4.780152      0.839231
  C      -1.952149      6.281938     -0.039645
  H      -1.800169      7.020399      0.763710
  H      -2.985618      6.395988     -0.407621
  H      -1.276171      6.545773     -0.870253
  H      -2.952781      3.822982     -0.991867
  H      -1.283774      4.059260     -1.520766
  O      -1.591899      1.604702     -1.445150
  C      -1.800544      0.274461     -1.496187
  O      -1.763791     -0.279365     -2.569950
  C      -5.308883     -1.363046     -1.262475
  C      -5.427577     -0.845440      0.091300
  O      -5.620887     -1.820838      1.019334
  C      -5.763266     -1.382702      2.363387
  H      -5.958600     -2.281765      2.962355
  H      -4.846943     -0.885106      2.720327
  H      -6.597183     -0.670234      2.462973
  O      -5.352430      0.333621      0.403480
  C      -5.435861     -2.819350     -1.568504
  H      -5.246324     -3.450698     -0.690965
  H      -6.458627     -3.052073     -1.927641
  H      -4.751005     -3.109890     -2.382757
  C      -5.118450     -0.397149     -2.379603
  H      -5.080296      0.636175     -2.011951
  H      -5.943397     -0.484331     -3.112908
  H      -4.186543     -0.606481     -2.933944
  H      -2.441062     -2.242622     -1.263401
41
Coordinates from ORCA-job orca E -847.145467588277
  C      -2.447285     -1.739412     -0.294904
  H      -2.737197     -2.310062      0.590986
  C      -2.104642     -0.446775     -0.207942
  C      -2.061119      0.329532      1.083925
  H      -1.033635      0.293755      1.494412
  H      -2.715228     -0.144843      1.830775
  C      -2.452039      1.785227      0.843820
  H      -2.346845      2.370439      1.770456
  H      -3.507036      1.839943      0.530835
  C      -1.553490      2.382849     -0.226810
  H      -0.504654      2.363407      0.129286
  C      -1.907305      3.805315     -0.644530
  C      -1.699980      4.854400      0.449812
  H      -2.361227      4.641282      1.307843
  H      -0.666665      4.780246      0.836773
  C      -1.960109      6.278131     -0.043124
  H      -1.809373      7.017813      0.759344
  H      -2.994033      6.389434     -0.410665
  H      -1.285184      6.542605     -0.874388
  H      -2.955550      3.815867     -0.992202
  H      -1.287320      4.055310     -1.522140
  O      -1.590232      1.600272     -1.443888
  C      -1.795507      0.269541     -1.493609
  O      -1.764084     -0.284109     -2.567749
  C      -5.304876     -1.357029     -1.263142
  C      -5.424277     -0.841217      0.091431
  O      -5.619858     -1.817452      1.018188
  C      -5.762095     -1.380660      2.362720
  H      -5.959176     -2.280076      2.960597
  H      -4.844954     -0.885142      2.720453
  H      -6.594731     -0.666802      2.462860
  O      -5.347952      0.337275      0.405933
  C      -5.437561     -2.811178     -1.570363
  H      -5.251754     -3.443794     -0.692894
  H      -6.461076     -3.039124     -1.930784
  H      -4.752556     -3.102761     -2.384261
  C      -5.115469     -0.389949     -2.378598
  H      -5.077996      0.643226     -2.010392
  H      -5.940197     -0.477133     -3.112138
  H      -4.182741     -0.599403     -2.931796
  H      -2.438060     -2.245557     -1.261670
41
Coordinates from ORCA-job orca E -847.145481777661
  C      -2.444120     -1.744231     -0.292205
  H      -2.731899     -2.316072      0.593671
  C      -2.102532     -0.451393     -0.204385
  C      -2.058538      0.325712      1.086457
  H      -1.030368      0.290510      1.495439
  H      -2.711625     -0.148500      1.834270
  C      -2.449701      1.781186      0.845937
  H      -2.343618      2.366884      1.772107
  H      -3.504967      1.835661      0.533845
  C      -1.553210      2.378791     -0.226517
  H      -0.503918      2.362010      0.128304
  C      -1.910656      3.799979     -0.645637
  C      -1.705388      4.850819      0.447463
  H      -2.365674      4.636956      1.306033
  H      -0.671691      4.779708      0.833992
  C      -1.969371      6.273350     -0.046904
  H      -1.820068      7.014294      0.754674
  H      -3.003768      6.381618     -0.414005
  H      -1.295572      6.538629     -0.878827
  H      -2.959102      3.807596     -0.992721
  H      -1.291736      4.050543     -1.523824
  O      -1.589833      1.594822     -1.442827
  C      -1.793468      0.263899     -1.491064
  O      -1.763999     -0.290283     -2.565054
  C      -5.298891     -1.349495     -1.263803
  C      -5.419421     -0.835739      0.091684
  O      -5.617443     -1.812916      1.017095
  C      -5.760224     -1.377680      2.362073
  H      -5.958805     -2.277656      2.958605
  H      -4.842662     -0.883833      2.721000
  H      -6.591975     -0.662869      2.462549
  O      -5.342039      0.342134      0.408748
  C      -5.439395     -2.801648     -1.572587
  H      -5.259160     -3.435703     -0.695103
  H      -6.463557     -3.023368     -1.935282
  H      -4.753964     -3.095172     -2.385551
  C      -5.111189     -0.380391     -2.377383
  H      -5.074040      0.652521     -2.008479
  H      -5.935785     -0.467192     -3.110993
  H      -4.177669     -0.590310     -2.929154
  H      -2.434031     -2.249783     -1.259183
41
Coordinates from ORCA-job orca E -847.145480810521
  C      -2.441615     -1.748228     -0.289952
  H      -2.726723     -2.321132      0.596125
  C      -2.102009     -0.454720     -0.202162
  C      -2.057268      0.323219      1.087975
  H      -1.028573      0.288514      1.495745
  H      -2.709451     -0.150709      1.836717
  C      -2.448820      1.778493      0.847219
  H      -2.341643      2.364488      1.773059
  H      -3.504427      1.832728      0.536274
  C      -1.553968      2.375983     -0.226629
  H      -0.504159      2.360465      0.126676
  C      -1.913496      3.796538     -0.646202
  C      -1.708689      4.848239      0.446167
  H      -2.367983      4.633931      1.305381
  H      -0.674572      4.778729      0.831868
  C      -1.974997      6.270152     -0.048729
  H      -1.826079      7.011713      0.752352
  H      -3.009825      6.376792     -0.415089
  H      -1.302208      6.535939     -0.881308
  H      -2.962264      3.802586     -0.992337
  H      -1.295675      4.047454     -1.525070
  O      -1.591394      1.591232     -1.442443
  C      -1.794721      0.260297     -1.489784
  O      -1.765490     -0.294384     -2.563514
  C      -5.294246     -1.344486     -1.264129
  C      -5.415701     -0.831615      0.091685
  O      -5.614823     -1.809161      1.016549
  C      -5.758540     -1.374552      2.361600
  H      -5.957447     -2.274858      2.957523
  H      -4.841247     -0.880831      2.721349
  H      -6.590384     -0.659825      2.461848
  O      -5.338183      0.346029      0.409717
  C      -5.440119     -2.795973     -1.574104
  H      -5.264592     -3.431028     -0.696521
  H      -6.464324     -3.013261     -1.939319
  H      -4.754027     -3.091518     -2.385811
  C      -5.107710     -0.374094     -2.376980
  H      -5.070318      0.658615     -2.007651
  H      -5.932434     -0.460551     -3.110364
  H      -4.174059     -0.584347     -2.928294
  H      -2.430870     -2.253472     -1.256979
41
Coordinates from ORCA-job orca E -847.145487637304
  C      -2.439682     -1.751214     -0.288305
  H      -2.722075     -2.325212      0.597933
  C      -2.102674     -0.456841     -0.201062
  C      -2.057114      0.321725      1.088710
  H      -1.028138      0.287238      1.495760
  H      -2.708796     -0.151867      1.838088
  C      -2.449013      1.776913      0.847996
  H      -2.340584      2.362950      1.773668
  H      -3.505013      1.830984      0.538415
  C      -1.555560      2.374295     -0.226981
  H      -0.505181      2.359002      0.124631
  C      -1.915949      3.794729     -0.646315
  C      -1.710207      4.846651      0.445644
  H      -2.368559      4.632357      1.305576
  H      -0.675661      4.777455      0.830251
  C      -1.977343      6.268390     -0.049271
  H      -1.827885      7.010136      0.751531
  H      -3.012537      6.374652     -0.414700
  H      -1.305398      6.534220     -0.882516
  H      -2.965137      3.800342     -0.991180
  H      -1.299277      4.045749     -1.525973
  O      -1.594517      1.589262     -1.442561
  C      -1.797879      0.258347     -1.489424
  O      -1.768782     -0.296601     -2.562983
  C      -5.290894     -1.341647     -1.264203
  C      -5.413154     -0.828866      0.091553
  O      -5.612012     -1.806429      1.016469
  C      -5.757280     -1.371785      2.361316
  H      -5.955205     -2.272322      2.957219
  H      -4.841057     -0.876534      2.721656
  H      -6.590339     -0.658358      2.460849
  O      -5.336477      0.348851      0.409471
  C      -5.439659     -2.793200     -1.575002
  H      -5.267956     -3.428773     -0.697138
  H      -6.463378     -3.007770     -1.943022
  H      -4.752424     -3.090439     -2.385115
  C      -5.104955     -0.370712     -2.377071
  H      -5.066270      0.661784     -2.007370
  H      -5.930354     -0.456320     -3.109715
  H      -4.171869     -0.581641     -2.928909
  H      -2.428824     -2.256108     -1.255458
41
Coordinates from ORCA-job orca E -847.145492046680
  C      -2.438441     -1.752860     -0.287513
  H      -2.718511     -2.327834      0.598808
  C      -2.104017     -0.457710     -0.200990
  C      -2.057778      0.321076      1.088762
  H      -1.028774      0.286399      1.495637
  H      -2.709432     -0.152248      1.838342
  C      -2.449778      1.776334      0.848408
  H      -2.340077      2.362197      1.774057
  H      -3.506157      1.830458      0.540201
  C      -1.557491      2.373613     -0.227479
  H      -0.506587      2.357796      0.122523
  C      -1.917818      3.794286     -0.646065
  C      -1.710169      4.845921      0.445796
  H      -2.367637      4.631892      1.306470
  H      -0.675208      4.776082      0.829167
  C      -1.977049      6.267882     -0.048624
  H      -1.826326      7.009435      0.752119
  H      -3.012572      6.374754     -0.412941
  H      -1.305848      6.533458     -0.882550
  H      -2.967472      3.800335     -0.989504
  H      -1.302257      4.045229     -1.526518
  O      -1.598415      1.588751     -1.443102
  C      -1.801646      0.257829     -1.489788
  O      -1.773075     -0.297155     -2.563316
  C      -5.289025     -1.340842     -1.264215
  C      -5.411932     -0.827471      0.091183
  O      -5.609414     -1.804741      1.016669
  C      -5.756557     -1.369432      2.361084
  H      -5.952543     -2.270026      2.957541
  H      -4.841921     -0.871469      2.721677
  H      -6.591578     -0.658132      2.459559
  O      -5.336855      0.350555      0.408237
  C      -5.438181     -2.792762     -1.575062
  H      -5.269197     -3.428208     -0.696616
  H      -6.461036     -3.006426     -1.945869
  H      -4.749290     -3.091123     -2.383337
  C      -5.103281     -0.370251     -2.377678
  H      -5.062565      0.662127     -2.007885
  H      -5.929884     -0.454710     -3.109088
  H      -4.171272     -0.582261     -2.930773
  H      -2.428001     -2.257356     -1.254870
41
Coordinates from ORCA-job orca E -847.145493078932
  C      -2.437505     -1.753755     -0.287301
  H      -2.715105     -2.329711      0.599129
  C      -2.105883     -0.457852     -0.201595
  C      -2.059024      0.320833      1.088363
  H      -1.030105      0.285699      1.495320
  H      -2.710890     -0.152344      1.837877
  C      -2.450989      1.776260      0.848648
  H      -2.339878      2.361827      1.774325
  H      -3.507771      1.830621      0.541913
  C      -1.559906      2.373421     -0.228188
  H      -0.508438      2.356515      0.120091
  C      -1.919578      3.794599     -0.645545
  C      -1.709183      4.845451      0.446519
  H      -2.365719      4.631792      1.307995
  H      -0.673778      4.774209      0.828425
  C      -1.975048      6.267959     -0.046874
  H      -1.822405      7.008961      0.754015
  H      -3.010921      6.376223     -0.409780
  H      -1.304635      6.533130     -0.881564
  H      -2.969774      3.801782     -0.987318
  H      -1.305178      4.045407     -1.526848
  O      -1.603426      1.589097     -1.444075
  C      -1.806100      0.258111     -1.490681
  O      -1.778518     -0.296794     -2.564273
  C      -5.287911     -1.341304     -1.264338
  C      -5.411536     -0.826672      0.090421
  O      -5.606558     -1.803292      1.017076
  C      -5.755992     -1.366616      2.360790
  H      -5.948966     -2.267063      2.958447
  H      -4.843522     -0.864613      2.721231
  H      -6.593792     -0.658371      2.457775
  O      -5.338941      0.351906      0.405929
  C      -5.435581     -2.793731     -1.574397
  H      -5.269119     -3.428413     -0.694919
  H      -6.457100     -3.007783     -1.948583
  H      -4.744119     -3.092877     -2.380185
  C      -5.102413     -0.371785     -2.378853
  H      -5.058966      0.660598     -2.009333
  H      -5.930883     -0.454835     -3.108353
  H      -4.171994     -0.585393     -2.933892
  H      -2.427923     -2.257808     -1.254934
41
Coordinates from ORCA-job orca E -847.145499263861
  C      -2.437340     -1.753855     -0.287693
  H      -2.713547     -2.330307      0.598837
  C      -2.107019     -0.457643     -0.202358
  C      -2.059806      0.320696      1.087895
  H      -1.030978      0.285080      1.495005
  H      -2.711905     -0.152558      1.837187
  C      -2.451624      1.776299      0.848788
  H      -2.339641      2.361619      1.774519
  H      -3.508636      1.830994      0.542903
  C      -1.561305      2.373458     -0.228664
  H      -0.509505      2.355685      0.118583
  C      -1.920401      3.795054     -0.645042
  C      -1.708146      4.845248      0.447310
  H      -2.364000      4.631671      1.309328
  H      -0.672427      4.773055      0.828184
  C      -1.973461      6.268194     -0.045120
  H      -1.819487      7.008690      0.755985
  H      -3.009616      6.377415     -0.406941
  H      -1.303681      6.533276     -0.880344
  H      -2.970928      3.803159     -0.985758
  H      -1.306693      4.045802     -1.526844
  O      -1.606705      1.589695     -1.444861
  C      -1.808600      0.258603     -1.491479
  O      -1.781790     -0.296174     -2.565174
  C      -5.287901     -1.342169     -1.264602
  C      -5.411974     -0.826285      0.089597
  O      -5.604963     -1.802245      1.017371
  C      -5.755733     -1.364282      2.360523
  H      -5.946419     -2.264467      2.959311
  H      -4.844699     -0.859339      2.720472
  H      -6.595466     -0.658179      2.456501
  O      -5.341272      0.352758      0.403794
  C      -5.433314     -2.794957     -1.573391
  H      -5.268425     -3.428637     -0.692869
  H      -6.453620     -3.010245     -1.950201
  H      -4.739445     -3.094326     -2.377051
  C      -5.102615     -0.373807     -2.380040
  H      -5.056922      0.658692     -2.011065
  H      -5.932769     -0.455706     -3.107833
  H      -4.173583     -0.588962     -2.936769
  H      -2.428708     -2.257608     -1.255532
41
Coordinates from ORCA-job orca E -847.145499556627
  C      -2.436950     -1.754391     -0.288433
  H      -2.710432     -2.331534      0.598480
  C      -2.108510     -0.457757     -0.203467
  C      -2.060622      0.319858      1.087302
  H      -1.031734      0.283650      1.494168
  H      -2.712578     -0.153889      1.836451
  C      -2.452448      1.775700      0.849497
  H      -2.338819      2.360602      1.775283
  H      -3.509915      1.830958      0.545246
  C      -1.563867      2.373109     -0.229294
  H      -0.511401      2.354072      0.115902
  C      -1.922469      3.795336     -0.643823
  C      -1.706621      4.844472      0.448846
  H      -2.360760      4.630926      1.312171
  H      -0.670139      4.770848      0.827352
  C      -1.971503      6.268096     -0.041848
  H      -1.814743      7.007793      0.759455
  H      -3.008413      6.378819     -0.401051
  H      -1.303454      6.533049     -0.878496
  H      -2.973746      3.804837     -0.982185
  H      -1.310460      4.046060     -1.526805
  O      -1.612698      1.590440     -1.446063
  C      -1.812651      0.259073     -1.492672
  O      -1.787107     -0.295434     -2.566572
  C      -5.287547     -1.343334     -1.265499
  C      -5.412510     -0.824907      0.087627
  O      -5.602211     -1.799362      1.017684
  C      -5.754989     -1.358588      2.359688
  H      -5.941895     -2.257990      2.960838
  H      -4.846211     -0.848718      2.718373
  H      -6.597796     -0.655886      2.453767
  O      -5.345087      0.355014      0.399287
  C      -5.428991     -2.796740     -1.571511
  H      -5.267599     -3.428344     -0.688843
  H      -6.446900     -3.014299     -1.953532
  H      -4.730326     -3.096665     -2.370868
  C      -5.103422     -0.377071     -2.382682
  H      -5.054148      0.655801     -2.015129
  H      -5.936682     -0.457411     -3.107233
  H      -4.176924     -0.594995     -2.942461
  H      -2.429792     -2.257808     -1.256491
41
Coordinates from ORCA-job orca E -847.145499711262
  C      -2.436979     -1.754793     -0.288874
  H      -2.709508     -2.331969      0.598321
  C      -2.108540     -0.458175     -0.203806
  C      -2.060243      0.319112      1.087138
  H      -1.031127      0.282989      1.493460
  H      -2.711639     -0.155111      1.836487
  C      -2.452411      1.774935      0.849927
  H      -2.338209      2.359757      1.775692
  H      -3.510051      1.830309      0.546290
  C      -1.564727      2.372627     -0.229506
  H      -0.511965      2.353265      0.114784
  C      -1.923495      3.795067     -0.643122
  C      -1.706278      4.843766      0.449717
  H      -2.359428      4.629914      1.313722
  H      -0.669363      4.769895      0.826993
  C      -1.971610      6.267622     -0.040058
  H      -1.813664      7.006972      0.761334
  H      -3.008983      6.378672     -0.397814
  H      -1.304641      6.532822     -0.877491
  H      -2.975125      3.804929     -0.980361
  H      -1.312355      4.045967     -1.526659
  O      -1.614971      1.590457     -1.446526
  C      -1.813652      0.258889     -1.493083
  O      -1.788347     -0.295548     -2.567027
  C      -5.287458     -1.343557     -1.266211
  C      -5.412837     -0.823669      0.086350
  O      -5.601441     -1.797171      1.017673
  C      -5.754459     -1.354829      2.359135
  H      -5.940129     -2.253666      2.961516
  H      -4.846214     -0.843369      2.716898
  H      -6.598089     -0.653023      2.452498
  O      -5.346593      0.356684      0.396651
  C      -5.426909     -2.797353     -1.570460
  H      -5.267559     -3.427651     -0.686519
  H      -6.443471     -3.016272     -1.955304
  H      -4.725573     -3.097634     -2.367380
  C      -5.104424     -0.378297     -2.384343
  H      -5.053783      0.654862     -2.017805
  H      -5.939180     -0.458271     -3.107272
  H      -4.179141     -0.597558     -2.945571
  H      -2.430499     -2.258203     -1.256933
41
Coordinates from ORCA-job orca E -847.144899517673
  C      -2.393502     -1.763068     -0.235080
  H      -2.695071     -2.347589      0.643208
  C      -2.072413     -0.469568     -0.154309
  C      -2.034799      0.320682      1.122341
  H      -1.008065      0.297934      1.535885
  H      -2.696857     -0.148321      1.868224
  C      -2.435276      1.771117      0.865922
  H      -2.330653      2.366394      1.786264
  H      -3.492086      1.814739      0.555455
  C      -1.554575      2.362727     -0.222277
  H      -0.500521      2.357696      0.118867
  C      -1.926916      3.776705     -0.653222
  C      -1.715042      4.841499      0.425234
  H      -2.363476      4.633301      1.294203
  H      -0.676235      4.781430      0.800012
  C      -1.994213      6.256702     -0.082200
  H      -1.839932      7.007843      0.709035
  H      -3.033732      6.354199     -0.437942
  H      -1.332312      6.516712     -0.925313
  H      -2.979756      3.773160     -0.987081
  H      -1.320874      4.021336     -1.542066
  O      -1.605566      1.565046     -1.429776
  C      -1.793841      0.231026     -1.456214
  O      -1.775918     -0.340791     -2.522214
  C      -5.323595     -1.295990     -1.286368
  C      -5.438384     -0.799996      0.077766
  O      -5.611453     -1.807531      0.974874
  C      -5.740748     -1.415967      2.335817
  H      -5.916721     -2.337528      2.907281
  H      -4.825968     -0.918866      2.697331
  H      -6.582179     -0.717012      2.470475
  O      -5.352853      0.367126      0.436312
  C      -5.451110     -2.740038     -1.587771
  H      -5.281825     -3.352371     -0.689220
  H      -6.462295     -2.974196     -1.978150
  H      -4.737523     -3.031459     -2.378354
  C      -5.124357     -0.325713     -2.387892
  H      -5.067672      0.704371     -2.013520
  H      -5.947163     -0.389815     -3.126375
  H      -4.177628     -0.567541     -2.919926
  H      -2.441960     -2.244996     -1.216779
41
Coordinates from ORCA-job orca E -847.145567247853
  C      -2.392684     -1.769578     -0.241852
  H      -2.678584     -2.351027      0.638593
  C      -2.076610     -0.470430     -0.164237
  C      -2.031785      0.319334      1.117466
  H      -1.003166      0.296857      1.525760
  H      -2.685897     -0.150432      1.867203
  C      -2.435830      1.769853      0.866364
  H      -2.324898      2.363550      1.786675
  H      -3.494618      1.813880      0.564004
  C      -1.559786      2.364033     -0.224133
  H      -0.503791      2.354258      0.110499
  C      -1.931005      3.780887     -0.646075
  C      -1.710553      4.839639      0.436391
  H      -2.354060      4.628117      1.308148
  H      -0.669641      4.775803      0.804396
  C      -1.990312      6.257740     -0.062045
  H      -1.830018      7.004454      0.732013
  H      -3.031704      6.358750     -0.410961
  H      -1.333042      6.520929     -0.907741
  H      -2.985669      3.781476     -0.973802
  H      -1.329429      4.028409     -1.537097
  O      -1.618602      1.571736     -1.434373
  C      -1.807791      0.238524     -1.466037
  O      -1.795262     -0.324775     -2.535713
  C      -5.326545     -1.316440     -1.288722
  C      -5.423343     -0.809685      0.073285
  O      -5.611478     -1.795178      0.993952
  C      -5.745208     -1.371131      2.343698
  H      -5.934522     -2.276745      2.934694
  H      -4.827523     -0.875327      2.699066
  H      -6.579548     -0.661167      2.456315
  O      -5.349219      0.364892      0.403337
  C      -5.442575     -2.769878     -1.594556
  H      -5.264591     -3.389084     -0.707222
  H      -6.453649     -3.012038     -1.979536
  H      -4.733483     -3.053500     -2.391459
  C      -5.131844     -0.343999     -2.396223
  H      -5.081086      0.687273     -2.023622
  H      -5.953388     -0.414892     -3.134266
  H      -4.192761     -0.572761     -2.932509
  H      -2.429570     -2.258936     -1.217217
41
Coordinates from ORCA-job orca E -847.145723771778
  C      -2.400545     -1.770305     -0.238200
  H      -2.670880     -2.348693      0.647886
  C      -2.085124     -0.469250     -0.164767
  C      -2.029454      0.320328      1.119253
  H      -0.997719      0.296439      1.519086
  H      -2.674352     -0.149840      1.875932
  C      -2.435096      1.771149      0.872153
  H      -2.316446      2.364458      1.791792
  H      -3.495973      1.816411      0.578072
  C      -1.563876      2.365418     -0.222219
  H      -0.506247      2.352696      0.107041
  C      -1.934360      3.783638     -0.640223
  C      -1.705533      4.840618      0.442177
  H      -2.344163      4.629151      1.317506
  H      -0.662542      4.774510      0.803775
  C      -1.985775      6.259773     -0.052784
  H      -1.819313      7.005225      0.741164
  H      -3.029088      6.363049     -0.395189
  H      -1.333210      6.522815     -0.902155
  H      -2.990843      3.786871     -0.961949
  H      -1.337339      4.030976     -1.534353
  O      -1.628685      1.574509     -1.432804
  C      -1.818783      0.241584     -1.465978
  O      -1.811751     -0.318929     -2.536712
  C      -5.332648     -1.326852     -1.294102
  C      -5.430710     -0.812827      0.063404
  O      -5.610696     -1.788900      0.995512
  C      -5.738823     -1.351038      2.340657
  H      -5.922935     -2.250831      2.941822
  H      -4.820983     -0.849124      2.686678
  H      -6.574617     -0.642408      2.449787
  O      -5.340769      0.364197      0.378459
  C      -5.441289     -2.785127     -1.598782
  H      -5.264871     -3.408087     -0.713807
  H      -6.450598     -3.030893     -1.985299
  H      -4.730744     -3.067536     -2.394303
  C      -5.139260     -0.356157     -2.407213
  H      -5.100156      0.676569     -2.037961
  H      -5.956865     -0.438562     -3.148207
  H      -4.200314     -0.572021     -2.944624
  H      -2.421696     -2.269613     -1.208066
41
Coordinates from ORCA-job orca E -847.145796479206
  C      -2.398957     -1.772923     -0.236704
  H      -2.658296     -2.349375      0.654631
  C      -2.086380     -0.471474     -0.165654
  C      -2.026285      0.316927      1.119208
  H      -0.992434      0.292897      1.513575
  H      -2.665278     -0.155822      1.880018
  C      -2.434093      1.767723      0.875621
  H      -2.311243      2.360631      1.795140
  H      -3.496129      1.812754      0.586261
  C      -1.566895      2.363444     -0.221213
  H      -0.508282      2.350574      0.104953
  C      -1.939178      3.781816     -0.636983
  C      -1.706458      4.838274      0.445087
  H      -2.341441      4.626023      1.322888
  H      -0.661966      4.772432      0.802392
  C      -1.989325      6.257595     -0.047929
  H      -1.819694      7.002726      0.745674
  H      -3.034158      6.360718     -0.385775
  H      -1.340533      6.521296     -0.899988
  H      -2.996877      3.785034     -0.954768
  H      -1.345544      4.029761     -1.533212
  O      -1.634665      1.573465     -1.432117
  C      -1.825365      0.240561     -1.466243
  O      -1.816633     -0.320225     -2.536865
  C      -5.329355     -1.326617     -1.296131
  C      -5.423011     -0.808718      0.059168
  O      -5.607985     -1.780194      0.993803
  C      -5.736178     -1.335897      2.336620
  H      -5.925602     -2.232184      2.941569
  H      -4.816330     -0.836797      2.681956
  H      -6.568910     -0.622764      2.441601
  O      -5.339477      0.370994      0.366982
  C      -5.440492     -2.785221     -1.597817
  H      -5.266783     -3.409829     -0.712514
  H      -6.450840     -3.028455     -1.983340
  H      -4.731180     -3.070837     -2.393098
  C      -5.141159     -0.359864     -2.413791
  H      -5.108633      0.674150     -2.048058
  H      -5.959432     -0.451525     -3.153347
  H      -4.202176     -0.569139     -2.955367
  H      -2.411417     -2.278541     -1.203773
41
Coordinates from ORCA-job orca E -847.145836572081
  C      -2.397129     -1.778528     -0.231568
  H      -2.648403     -2.352304      0.664406
  C      -2.084608     -0.477581     -0.162554
  C      -2.020239      0.310275      1.121951
  H      -0.984046      0.286063      1.510475
  H      -2.653306     -0.164668      1.886866
  C      -2.429885      1.760950      0.881355
  H      -2.302776      2.353954      1.800315
  H      -3.493088      1.805461      0.596701
  C      -1.568150      2.357978     -0.219241
  H      -0.508572      2.348501      0.103978
  C      -1.946059      3.774753     -0.635161
  C      -1.712478      4.833090      0.444890
  H      -2.343076      4.619540      1.325554
  H      -0.666276      4.771203      0.797902
  C      -2.002284      6.250939     -0.048376
  H      -1.831515      6.997517      0.743639
  H      -3.048985      6.350284     -0.381585
  H      -1.358255      6.515857     -0.903673
  H      -3.004922      3.774533     -0.949098
  H      -1.356373      4.023436     -1.533789
  O      -1.636604      1.566880     -1.429450
  C      -1.822467      0.233216     -1.462593
  O      -1.819440     -0.327917     -2.533252
  C      -5.322271     -1.317735     -1.299288
  C      -5.416996     -0.797712      0.054954
  O      -5.603621     -1.767736      0.989431
  C      -5.730005     -1.322117      2.332206
  H      -5.921872     -2.217300      2.938190
  H      -4.808428     -0.825545      2.676751
  H      -6.560529     -0.606330      2.437308
  O      -5.335296      0.383016      0.361366
  C      -5.442108     -2.774577     -1.599341
  H      -5.276317     -3.400750     -0.713364
  H      -6.453768     -3.009997     -1.986871
  H      -4.733108     -3.066263     -2.392775
  C      -5.139041     -0.354610     -2.419601
  H      -5.113409      0.680679     -2.056804
  H      -5.957324     -0.455253     -3.158296
  H      -4.198966     -0.558323     -2.963031
  H      -2.403078     -2.289488     -1.196069
41
Coordinates from ORCA-job orca E -847.145849618471
  C      -2.394886     -1.784752     -0.225174
  H      -2.639720     -2.356376      0.674139
  C      -2.084156     -0.483558     -0.158230
  C      -2.015997      0.304888      1.125072
  H      -0.977413      0.281665      1.507712
  H      -2.643220     -0.171538      1.893929
  C      -2.427484      1.755108      0.886226
  H      -2.297070      2.348564      1.804406
  H      -3.491638      1.798890      0.604939
  C      -1.570002      2.352453     -0.217700
  H      -0.509557      2.345415      0.102804
  C      -1.952188      3.767885     -0.634051
  C      -1.717870      4.827836      0.444259
  H      -2.344725      4.613196      1.327333
  H      -0.670241      4.769328      0.793606
  C      -2.013631      6.244387     -0.049229
  H      -1.841869      6.992223      0.741392
  H      -3.061905      6.340470     -0.378423
  H      -1.373727      6.510315     -0.907309
  H      -3.011956      3.764987     -0.944890
  H      -1.365575      4.016943     -1.534575
  O      -1.640495      1.560347     -1.427248
  C      -1.828380      0.226967     -1.459266
  O      -1.816123     -0.337186     -2.528471
  C      -5.313894     -1.308518     -1.302858
  C      -5.412655     -0.786557      0.050665
  O      -5.597049     -1.756370      0.985152
  C      -5.722383     -1.311235      2.328509
  H      -5.912676     -2.206664      2.934657
  H      -4.800844     -0.813988      2.671954
  H      -6.553306     -0.596179      2.434863
  O      -5.331127      0.394406      0.357625
  C      -5.443337     -2.763582     -1.601171
  H      -5.286189     -3.389934     -0.713915
  H      -6.455864     -2.990744     -1.991914
  H      -4.734182     -3.062108     -2.392093
  C      -5.136395     -0.348183     -2.425191
  H      -5.116790      0.688436     -2.065378
  H      -5.954744     -0.456814     -3.162774
  H      -4.195367     -0.547910     -2.969137
  H      -2.398441     -2.299124     -1.187785
41
Coordinates from ORCA-job orca E -847.145856379431
  C      -2.393996     -1.788232     -0.222346
  H      -2.640483     -2.359664      0.676409
  C      -2.082088     -0.487012     -0.155498
  C      -2.013394      0.302399      1.127124
  H      -0.974590      0.279798      1.509253
  H      -2.640440     -0.173457      1.896331
  C      -2.425385      1.752339      0.887585
  H      -2.294585      2.346288      1.805331
  H      -3.489759      1.795549      0.606920
  C      -1.569413      2.349612     -0.217602
  H      -0.508704      2.344654      0.101977
  C      -1.954298      3.764029     -0.635083
  C      -1.721446      4.825405      0.442157
  H      -2.347272      4.610226      1.325816
  H      -0.673469      4.769368      0.790856
  C      -2.020483      6.240911     -0.052346
  H      -1.849717      6.989789      0.737502
  H      -3.069179      6.334514     -0.380887
  H      -1.381736      6.507436     -0.911103
  H      -3.014201      3.758911     -0.945392
  H      -1.368540      4.013349     -1.536090
  O      -1.639479      1.556201     -1.426381
  C      -1.824362      0.222462     -1.457086
  O      -1.816061     -0.341609     -2.526340
  C      -5.310330     -1.302791     -1.303158
  C      -5.409983     -0.782356      0.051055
  O      -5.594942     -1.753363      0.984666
  C      -5.720914     -1.310008      2.328524
  H      -5.911065     -2.206323      2.933315
  H      -4.799582     -0.812929      2.672702
  H      -6.552050     -0.595342      2.435366
  O      -5.329451      0.398027      0.359808
  C      -5.443579     -2.757385     -1.603308
  H      -5.289024     -3.384596     -0.716353
  H      -6.456106     -2.981147     -1.995913
  H      -4.734431     -3.057159     -2.393794
  C      -5.133202     -0.340449     -2.424048
  H      -5.112138      0.695771     -2.063087
  H      -5.951966     -0.447084     -3.161314
  H      -4.192667     -0.541170     -2.967748
  H      -2.400558     -2.301572     -1.185361
41
Coordinates from ORCA-job orca E -847.145866708575
  C      -2.393751     -1.793571     -0.216144
  H      -2.640557     -2.364569      0.682573
  C      -2.080698     -0.492255     -0.150421
  C      -2.009169      0.298877      1.131021
  H      -0.969458      0.277409      1.510730
  H      -2.634567     -0.176018      1.902043
  C      -2.422400      1.748320      0.890646
  H      -2.289713      2.343172      1.807489
  H      -3.487455      1.790625      0.612336
  C      -1.569740      2.345110     -0.217387
  H      -0.508229      2.342667      0.099453
  C      -1.958430      3.758182     -0.636124
  C      -1.725986      4.821543      0.439250
  H      -2.349268      4.605810      1.324549
  H      -0.677081      4.768756      0.785660
  C      -2.029918      6.235593     -0.056379
  H      -1.859337      6.985950      0.732099
  H      -3.079608      6.325921     -0.382629
  H      -1.393868      6.502732     -0.916949
  H      -3.018901      3.750237     -0.944355
  H      -1.374913      4.007614     -1.538557
  O      -1.641068      1.549691     -1.424838
  C      -1.823711      0.215697     -1.453389
  O      -1.817732     -0.349311     -2.522113
  C      -5.304964     -1.294565     -1.304558
  C      -5.405956     -0.776054      0.050362
  O      -5.590348     -1.748398      0.983350
  C      -5.717500     -1.306556      2.327485
  H      -5.905997     -2.203901      2.931189
  H      -4.797116     -0.808030      2.672103
  H      -6.550006     -0.593567      2.434631
  O      -5.326875      0.403765      0.360755
  C      -5.442489     -2.748688     -1.607458
  H      -5.291919     -3.377267     -0.721001
  H      -6.454569     -2.967965     -2.003544
  H      -4.732708     -3.049825     -2.396910
  C      -5.129311     -0.329334     -2.423757
  H      -5.106506      0.706252     -2.061195
  H      -5.949092     -0.433647     -3.160068
  H      -4.189678     -0.530883     -2.968089
  H      -2.404477     -2.306132     -1.179396
41
Coordinates from ORCA-job orca E -847.145875947698
  C      -2.395272     -1.798859     -0.207343
  H      -2.640767     -2.369122      0.692082
  C      -2.080607     -0.497694     -0.143801
  C      -2.004105      0.295425      1.136190
  H      -0.962974      0.274972      1.511960
  H      -2.626714     -0.178230      1.910214
  C      -2.418822      1.744396      0.895158
  H      -2.282742      2.340405      1.810742
  H      -3.484933      1.785838      0.620850
  C      -1.570897      2.340223     -0.216992
  H      -0.508169      2.340092      0.095676
  C      -1.963591      3.751887     -0.636921
  C      -1.729872      4.817534      0.435915
  H      -2.349370      4.601597      1.323812
  H      -0.679562      4.767965      0.778534
  C      -2.039246      6.230015     -0.060824
  H      -1.867659      6.982063      0.725819
  H      -3.090370      6.317083     -0.383312
  H      -1.407096      6.497444     -0.924179
  H      -3.025047      3.741264     -0.941649
  H      -1.383479      4.000977     -1.541638
  O      -1.645170      1.542423     -1.422754
  C      -1.826379      0.208252     -1.448603
  O      -1.822155     -0.358464     -2.516399
  C      -5.299821     -1.285829     -1.306981
  C      -5.401909     -0.769550      0.048637
  O      -5.585103     -1.743341      0.980809
  C      -5.713159     -1.302925      2.325233
  H      -5.899390     -2.201311      2.928073
  H      -4.793918     -0.802433      2.670067
  H      -6.547382     -0.592036      2.433009
  O      -5.324485      0.409859      0.360530
  C      -5.439758     -2.739417     -1.613022
  H      -5.293239     -3.369601     -0.727164
  H      -6.450837     -2.955052     -2.013480
  H      -4.728335     -3.040882     -2.400917
  C      -5.126065     -0.317751     -2.424524
  H      -5.101258      0.717036     -2.059998
  H      -5.947467     -0.419584     -3.159306
  H      -4.187720     -0.519871     -2.970571
  H      -2.410225     -2.311408     -1.170471
41
Coordinates from ORCA-job orca E -847.145892080529
  C      -2.400491     -1.805723     -0.191029
  H      -2.642629     -2.374431      0.710198
  C      -2.082233     -0.505209     -0.132061
  C      -1.996111      0.291256      1.145305
  H      -0.952422      0.272078      1.513782
  H      -2.613547     -0.180053      1.924956
  C      -2.413120      1.739553      0.903243
  H      -2.270565      2.337712      1.816463
  H      -3.481155      1.779839      0.636390
  C      -1.573488      2.333110     -0.216308
  H      -0.508615      2.335971      0.088874
  C      -1.971849      3.742658     -0.638130
  C      -1.734188      4.812015      0.430140
  H      -2.347066      4.596617      1.322732
  H      -0.681446      4.766641      0.765803
  C      -2.051267      6.222115     -0.068454
  H      -1.876728      6.976899      0.714907
  H      -3.104809      6.304937     -0.384097
  H      -1.425801      6.489115     -0.936793
  H      -3.035135      3.728566     -0.936249
  H      -1.397854      3.990457     -1.547096
  O      -1.653872      1.531272     -1.419089
  C      -1.833666      0.196892     -1.440111
  O      -1.832347     -0.373212     -2.506090
  C      -5.293411     -1.272744     -1.311635
  C      -5.396905     -0.760745      0.045312
  O      -5.577572     -1.737354      0.975409
  C      -5.706253     -1.299979      2.320671
  H      -5.888505     -2.200294      2.921858
  H      -4.788749     -0.796456      2.665747
  H      -6.543209     -0.592596      2.430482
  O      -5.322412      0.418059      0.360038
  C      -5.432937     -2.725508     -1.623120
  H      -5.291748     -3.358385     -0.738428
  H      -6.441556     -2.938106     -2.031126
  H      -4.717308     -3.025053     -2.408014
  C      -5.122810     -0.300181     -2.426294
  H      -5.094360      0.733070     -2.057932
  H      -5.947498     -0.397468     -3.158002
  H      -4.186971     -0.502878     -2.976229
  H      -2.422463     -2.319066     -1.153561
41
Coordinates from ORCA-job orca E -847.145906420530
  C      -2.410153     -1.812281     -0.168610
  H      -2.647117     -2.378193      0.735699
  C      -2.085677     -0.513173     -0.116486
  C      -1.986116      0.287530      1.157214
  H      -0.938975      0.269501      1.515631
  H      -2.596267     -0.180607      1.944607
  C      -2.405793      1.735061      0.913924
  H      -2.254420      2.336245      1.823769
  H      -3.476295      1.774169      0.657048
  C      -1.577048      2.325085     -0.215441
  H      -0.509469      2.331022      0.080047
  C      -1.981741      3.732111     -0.639645
  C      -1.737621      4.806096      0.422509
  H      -2.341872      4.592135      1.321292
  H      -0.681777      4.765003      0.748870
  C      -2.063311      6.213415     -0.078392
  H      -1.883924      6.971602      0.700582
  H      -3.119902      6.291934     -0.384797
  H      -1.446532      6.479061     -0.953339
  H      -3.047452      3.714507     -0.928797
  H      -1.415830      3.977588     -1.554285
  O      -1.666096      1.518023     -1.414234
  C      -1.844816      0.183452     -1.428737
  O      -1.847680     -0.391405     -2.492171
  C      -5.287547     -1.257401     -1.318183
  C      -5.392561     -0.751469      0.040689
  O      -5.570060     -1.732105      0.967151
  C      -5.698153     -1.299674      2.314013
  H      -5.875839     -2.202667      2.912588
  H      -4.782164     -0.793499      2.659262
  H      -6.537795     -0.596061      2.427717
  O      -5.321581      0.426492      0.359710
  C      -5.421635     -2.709172     -1.636600
  H      -5.285834     -3.345426     -0.753524
  H      -6.426217     -2.921482     -2.054460
  H      -4.698867     -3.003550     -2.416985
  C      -5.121276     -0.279479     -2.429010
  H      -5.087962      0.751643     -2.055252
  H      -5.950942     -0.370648     -3.155982
  H      -4.189174     -0.482302     -2.985148
  H      -2.441579     -2.327691     -1.129782
41
Coordinates from ORCA-job orca E -847.145919182543
  C      -2.421131     -1.815228     -0.148624
  H      -2.653274     -2.377752      0.759069
  C      -2.089564     -0.517889     -0.103031
  C      -1.978054      0.286373      1.167300
  H      -0.927847      0.269141      1.516637
  H      -2.581325     -0.179091      1.961672
  C      -2.399889      1.733219      0.922867
  H      -2.241301      2.337340      1.829563
  H      -3.472317      1.771463      0.674069
  C      -1.579968      2.319768     -0.214691
  H      -0.510322      2.327539      0.073186
  C      -1.988811      3.724917     -0.641029
  C      -1.738277      4.802651      0.415838
  H      -2.335783      4.590835      1.319620
  H      -0.680060      4.763791      0.734695
  C      -2.069220      6.207964     -0.087220
  H      -1.884944      6.968883      0.687941
  H      -3.128135      6.284319     -0.386065
  H      -1.459235      6.471439     -0.967568
  H      -3.056495      3.705407     -0.922698
  H      -1.429440      3.967746     -1.560377
  O      -1.676519      1.508313     -1.410029
  C      -1.854989      0.173629     -1.418756
  O      -1.861806     -0.405536     -2.479876
  C      -5.285308     -1.246283     -1.324040
  C      -5.391666     -0.746233      0.036816
  O      -5.567061     -1.730845      0.958999
  C      -5.692749     -1.304147      2.307931
  H      -5.867857     -2.209739      2.903381
  H      -4.776772     -0.797981      2.653225
  H      -6.533165     -0.602258      2.426577
  O      -5.323175      0.430785      0.360485
  C      -5.409182     -2.697329     -1.648413
  H      -5.276248     -3.336432     -0.766920
  H      -6.409313     -2.913635     -2.074767
  H      -4.678477     -2.984147     -2.424286
  C      -5.123695     -0.263882     -2.431307
  H      -5.086452      0.765262     -2.052427
  H      -5.958478     -0.349768     -3.153259
  H      -4.195365     -0.465728     -2.994069
  H      -2.461403     -2.333492     -1.107959
41
Coordinates from ORCA-job orca E -847.145926348900
  C      -2.429003     -1.814835     -0.136958
  H      -2.658479     -2.374181      0.773427
  C      -2.091549     -0.519019     -0.095460
  C      -1.973276      0.287299      1.172789
  H      -0.921161      0.270726      1.516524
  H      -2.571864     -0.176899      1.971485
  C      -2.396448      1.733593      0.927447
  H      -2.234612      2.339834      1.832147
  H      -3.469742      1.771229      0.682285
  C      -1.580759      2.317948     -0.214391
  H      -0.510251      2.326446      0.070289
  C      -1.991150      3.722139     -0.642190
  C      -1.737181      4.801801      0.411920
  H      -2.331743      4.591508      1.317997
  H      -0.677949      4.763444      0.727440
  C      -2.069747      6.206253     -0.092453
  H      -1.882712      6.968507      0.680736
  H      -3.129683      6.282257     -0.387746
  H      -1.462791      6.468108     -0.975371
  H      -3.059746      3.702124     -0.920350
  H      -1.434731      3.963198     -1.563788
  O      -1.680999      1.504015     -1.407758
  C      -1.859782      0.169274     -1.413027
  O      -1.869215     -0.412470     -2.472758
  C      -5.286107     -1.241415     -1.327317
  C      -5.393600     -0.745252      0.034982
  O      -5.569268     -1.732522      0.953664
  C      -5.691778     -1.310494      2.304397
  H      -5.867734     -2.217753      2.897069
  H      -4.774105     -0.807457      2.649791
  H      -6.530497     -0.607299      2.427115
  O      -5.325738      0.430939      0.362234
  C      -5.399736     -2.692119     -1.655200
  H      -5.267243     -3.332855     -0.774760
  H      -6.396500     -2.914227     -2.086500
  H      -4.663047     -2.972173     -2.427898
  C      -5.128874     -0.256306     -2.432267
  H      -5.089937      0.771641     -2.050082
  H      -5.967609     -0.339452     -3.150141
  H      -4.203440     -0.456255     -3.000410
  H      -2.475282     -2.335907     -1.094452
41
Coordinates from ORCA-job orca E -847.145931798505
  C      -2.431023     -1.814236     -0.134144
  H      -2.660227     -2.371703      0.777491
  C      -2.090873     -0.519099     -0.093707
  C      -1.970972      0.287699      1.173977
  H      -0.918118      0.271836      1.515661
  H      -2.567427     -0.176675      1.974151
  C      -2.394981      1.733612      0.928422
  H      -2.233032      2.340653      1.832540
  H      -3.468383      1.770740      0.683579
  C      -1.580122      2.317717     -0.214312
  H      -0.509575      2.326711      0.070251
  C      -1.991127      3.721590     -0.642537
  C      -1.736775      4.801778      0.410968
  H      -2.330886      4.591782      1.317411
  H      -0.677401      4.763646      0.726033
  C      -2.069758      6.205981     -0.093776
  H      -1.882237      6.968564      0.678969
  H      -3.129895      6.281866     -0.388373
  H      -1.463399      6.467480     -0.977206
  H      -3.059864      3.701293     -0.920118
  H      -1.435248      3.962327     -1.564546
  O      -1.680610      1.503208     -1.407219
  C      -1.859450      0.168406     -1.411632
  O      -1.870061     -0.413859     -2.471063
  C      -5.286547     -1.240384     -1.328081
  C      -5.394885     -0.745163      0.034659
  O      -5.572317     -1.733061      0.952066
  C      -5.693287     -1.312718      2.303490
  H      -5.871658     -2.220309      2.894909
  H      -4.773928     -0.812925      2.649151
  H      -6.529846     -0.607213      2.427459
  O      -5.326312      0.430653      0.363133
  C      -5.395973     -2.691078     -1.656732
  H      -5.263570     -3.332089     -0.776460
  H      -6.391475     -2.916127     -2.089481
  H      -4.657085     -2.968806     -2.428167
  C      -5.132254     -0.254478     -2.432494
  H      -5.092977      0.773237     -2.049580
  H      -5.973138     -0.337234     -3.147973
  H      -4.208576     -0.453354     -3.003697
  H      -2.479795     -2.336881     -1.090565
41
Coordinates from ORCA-job orca E -847.145931977718
  C      -2.430743     -1.814569     -0.133723
  H      -2.660551     -2.370866      0.778485
  C      -2.089241     -0.519746     -0.093416
  C      -1.968861      0.287196      1.174085
  H      -0.915582      0.272214      1.514616
  H      -2.563953     -0.177638      1.974977
  C      -2.393800      1.732740      0.928486
  H      -2.232361      2.340140      1.832433
  H      -3.467205      1.769258      0.683437
  C      -1.579230      2.317200     -0.214399
  H      -0.508763      2.326948      0.070436
  C      -1.991129      3.720782     -0.642701
  C      -1.737506      4.801185      0.410767
  H      -2.331549      4.590852      1.317176
  H      -0.678132      4.763712      0.725919
  C      -2.071348      6.205160     -0.094013
  H      -1.884215      6.967882      0.678693
  H      -3.131552      6.280444     -0.388522
  H      -1.465196      6.466985     -0.977491
  H      -3.059840      3.699831     -0.920326
  H      -1.435348      3.961831     -1.564693
  O      -1.679088      1.502523     -1.407185
  C      -1.857835      0.167661     -1.411437
  O      -1.869109     -0.414584     -2.470841
  C      -5.285826     -1.239387     -1.328075
  C      -5.395006     -0.744220      0.034734
  O      -5.574156     -1.732106      0.951838
  C      -5.695038     -1.312092      2.303375
  H      -5.875547     -2.219590      2.894257
  H      -4.774711     -0.814430      2.649577
  H      -6.530135     -0.604841      2.427112
  O      -5.325697      0.431414      0.363494
  C      -5.394188     -2.690151     -1.656817
  H      -5.262377     -3.331050     -0.776391
  H      -6.389156     -2.916074     -2.090349
  H      -4.654466     -2.967605     -2.427556
  C      -5.133734     -0.253010     -2.432429
  H      -5.093577      0.774664     -2.049485
  H      -5.976421     -0.335356     -3.145875
  H      -4.211724     -0.451934     -3.006137
  H      -2.481177     -2.337981     -1.089572
41
Coordinates from ORCA-job orca E -847.145928725957
  C      -2.430057     -1.815589     -0.133397
  H      -2.660412     -2.371371      0.778990
  C      -2.087903     -0.520908     -0.093071
  C      -1.966806      0.286128      1.174304
  H      -0.913187      0.271827      1.513837
  H      -2.560901     -0.178964      1.975767
  C      -2.392583      1.731423      0.928766
  H      -2.231233      2.338991      1.832615
  H      -3.466083      1.767397      0.683980
  C      -1.578636      2.316268     -0.214416
  H      -0.508114      2.326876      0.070189
  C      -1.991722      3.719506     -0.642777
  C      -1.738701      4.800271      0.410474
  H      -2.332277      4.589542      1.317097
  H      -0.679196      4.763767      0.725299
  C      -2.073938      6.203897     -0.094354
  H      -1.887175      6.966869      0.678198
  H      -3.134319      6.278228     -0.388470
  H      -1.468339      6.466155     -0.978086
  H      -3.060487      3.697680     -0.920116
  H      -1.436374      3.960883     -1.564948
  O      -1.678093      1.501382     -1.407046
  C      -1.856800      0.166495     -1.411227
  O      -1.868565     -0.415700     -2.470615
  C      -5.284506     -1.237809     -1.328010
  C      -5.394410     -0.742661      0.034768
  O      -5.574506     -1.730515      0.951845
  C      -5.696158     -1.310417      2.303289
  H      -5.877824     -2.217831      2.893934
  H      -4.775676     -0.813534      2.650204
  H      -6.530770     -0.602480      2.426312
  O      -5.324827      0.432903      0.363561
  C      -5.393190     -2.688585     -1.656904
  H      -5.262349     -3.329411     -0.776309
  H      -6.387837     -2.914120     -2.091357
  H      -4.653023     -2.966439     -2.427082
  C      -5.133621     -0.250994     -2.432310
  H      -5.091684      0.776550     -2.049284
  H      -5.977947     -0.332218     -3.143973
  H      -4.213244     -0.450909     -3.008171
  H      -2.481600     -2.339194     -1.089044
41
Coordinates from ORCA-job orca E -847.145259428722
  C      -2.390149     -1.833135     -0.083275
  H      -2.634633     -2.385439      0.823238
  C      -2.057476     -0.536143     -0.067201
  C      -1.941947      0.281904      1.189173
  H      -0.887211      0.282167      1.525852
  H      -2.532798     -0.183309      1.992371
  C      -2.386335      1.722245      0.936236
  H      -2.228732      2.334161      1.837831
  H      -3.469748      1.754615      0.690632
  C      -1.575040      2.306262     -0.209767
  H      -0.504213      2.324377      0.073410
  C      -1.995900      3.705341     -0.644256
  C      -1.746927      4.792434      0.403475
  H      -2.338155      4.583003      1.311937
  H      -0.686794      4.762851      0.716989
  C      -2.090049      6.191933     -0.107592
  H      -1.906103      6.959552      0.661052
  H      -3.151222      6.259437     -0.400576
  H      -1.487029      6.453062     -0.993426
  H      -3.064943      3.676725     -0.919992
  H      -1.443079      3.945149     -1.568359
  O      -1.675096      1.486976     -1.398387
  C      -1.847894      0.151327     -1.399512
  O      -1.868849     -0.423109     -2.463570
  C      -5.318967     -1.207454     -1.356590
  C      -5.422960     -0.727540      0.019609
  O      -5.576057     -1.728228      0.940048
  C      -5.680690     -1.313477      2.295909
  H      -5.857536     -2.223132      2.884595
  H      -4.755829     -0.820209      2.645060
  H      -6.517192     -0.609163      2.426961
  O      -5.355814      0.445471      0.364528
  C      -5.398282     -2.664213     -1.668535
  H      -5.269849     -3.309327     -0.785729
  H      -6.392073     -2.873527     -2.113368
  H      -4.644000     -2.952172     -2.424797
  C      -5.159365     -0.219536     -2.445996
  H      -5.121665      0.806318     -2.057974
  H      -5.993179     -0.295718     -3.170705
  H      -4.220007     -0.428189     -3.009633
  H      -2.461281     -2.358895     -1.057206
41
Coordinates from ORCA-job orca E -847.146048754280
  C      -2.385360     -1.832666     -0.092593
  H      -2.625738     -2.388694      0.816571
  C      -2.057940     -0.534472     -0.068535
  C      -1.943400      0.283989      1.191462
  H      -0.889758      0.285050      1.530665
  H      -2.534522     -0.182933      1.993884
  C      -2.385378      1.723523      0.937719
  H      -2.229226      2.336807      1.838663
  H      -3.459449      1.753192      0.692372
  C      -1.575569      2.306819     -0.208885
  H      -0.504765      2.324301      0.074079
  C      -1.995813      3.705984     -0.644363
  C      -1.746694      4.793606      0.402745
  H      -2.337754      4.584533      1.311399
  H      -0.686519      4.764263      0.716090
  C      -2.090105      6.192802     -0.108875
  H      -1.906237      6.960784      0.659394
  H      -3.151300      6.259933     -0.401763
  H      -1.487243      6.453660     -0.994891
  H      -3.064791      3.677516     -0.920152
  H      -1.442816      3.945089     -1.568551
  O      -1.675566      1.484768     -1.396015
  C      -1.849515      0.148970     -1.394969
  O      -1.875107     -0.432236     -2.454379
  C      -5.322403     -1.210561     -1.348597
  C      -5.415340     -0.728598      0.021995
  O      -5.573541     -1.727124      0.936020
  C      -5.681985     -1.314124      2.290731
  H      -5.860738     -2.224824      2.877619
  H      -4.758931     -0.822378      2.638989
  H      -6.516178     -0.607540      2.423071
  O      -5.347388      0.443430      0.364022
  C      -5.403302     -2.665836     -1.669239
  H      -5.276516     -3.307058     -0.788762
  H      -6.394216     -2.882770     -2.116859
  H      -4.649802     -2.946407     -2.426087
  C      -5.159382     -0.220747     -2.442726
  H      -5.117322      0.805064     -2.055136
  H      -5.992274     -0.294212     -3.168630
  H      -4.229766     -0.429259     -3.002299
  H      -2.455422     -2.348255     -1.052724
41
Coordinates from ORCA-job orca E -847.146169693912
  C      -2.382091     -1.831923     -0.096291
  H      -2.617961     -2.388028      0.814630
  C      -2.057992     -0.532547     -0.067259
  C      -1.943027      0.285609      1.194323
  H      -0.889736      0.286551      1.534462
  H      -2.533653     -0.181838      1.996919
  C      -2.384065      1.724606      0.938963
  H      -2.229468      2.339235      1.839268
  H      -3.456392      1.751518      0.691881
  C      -1.574873      2.307969     -0.208074
  H      -0.503880      2.325469      0.074352
  C      -1.995570      3.706726     -0.643904
  C      -1.746210      4.794588      0.402856
  H      -2.336618      4.585414      1.311905
  H      -0.685834      4.765723      0.715534
  C      -2.090536      6.193522     -0.108815
  H      -1.906613      6.961716      0.659224
  H      -3.151919      6.260067     -0.401135
  H      -1.488288      6.454517     -0.995208
  H      -3.064678      3.677949     -0.919239
  H      -1.443000      3.945615     -1.568391
  O      -1.674824      1.485084     -1.394768
  C      -1.849625      0.149397     -1.391662
  O      -1.875732     -0.435988     -2.448781
  C      -5.323357     -1.214784     -1.344839
  C      -5.410479     -0.729677      0.023114
  O      -5.572107     -1.725191      0.936221
  C      -5.682611     -1.313039      2.290760
  H      -5.862861     -2.223831      2.876994
  H      -4.759161     -0.821974      2.637627
  H      -6.514790     -0.604207      2.424082
  O      -5.341025      0.443143      0.361199
  C      -5.410559     -2.668109     -1.673578
  H      -5.286155     -3.308501     -0.792889
  H      -6.399312     -2.890147     -2.123145
  H      -4.657777     -2.944084     -2.432113
  C      -5.159581     -0.223989     -2.442479
  H      -5.116699      0.801627     -2.054553
  H      -5.992389     -0.297148     -3.168256
  H      -4.231637     -0.431239     -3.001863
  H      -2.451981     -2.346412     -1.054612
41
Coordinates from ORCA-job orca E -847.146231774155
  C      -2.379769     -1.831672     -0.096572
  H      -2.611272     -2.386046      0.816458
  C      -2.057980     -0.531474     -0.065697
  C      -1.941882      0.286269      1.196151
  H      -0.888464      0.286734      1.536026
  H      -2.531558     -0.180840      1.999673
  C      -2.383126      1.724834      0.939464
  H      -2.230105      2.340562      1.839233
  H      -3.455494      1.749011      0.690447
  C      -1.574575      2.308690     -0.207879
  H      -0.503325      2.326252      0.073685
  C      -1.996063      3.707316     -0.642959
  C      -1.745905      4.794989      0.403833
  H      -2.335249      4.585380      1.313467
  H      -0.685177      4.766367      0.715334
  C      -2.091231      6.193946     -0.107103
  H      -1.906784      6.962002      0.660947
  H      -3.152937      6.260172     -0.398319
  H      -1.489994      6.455391     -0.994048
  H      -3.065428      3.678365     -0.917289
  H      -1.444441      3.946496     -1.567927
  O      -1.674845      1.486038     -1.394884
  C      -1.850034      0.150591     -1.390283
  O      -1.875761     -0.436677     -2.446604
  C      -5.322323     -1.218356     -1.343969
  C      -5.406495     -0.730201      0.022699
  O      -5.570844     -1.722828      0.937070
  C      -5.682228     -1.310020      2.291335
  H      -5.864142     -2.220075      2.877971
  H      -4.757773     -0.819535      2.636605
  H      -6.512613     -0.598946      2.424359
  O      -5.334405      0.443734      0.356979
  C      -5.417408     -2.669865     -1.677269
  H      -5.296503     -3.309824     -0.795134
  H      -6.404211     -2.895712     -2.128823
  H      -4.664459     -2.944080     -2.436292
  C      -5.159630     -0.227709     -2.444157
  H      -5.117411      0.797942     -2.056232
  H      -5.993045     -0.302494     -3.168768
  H      -4.231396     -0.433078     -3.004653
  H      -2.448786     -2.348254     -1.054416
41
Coordinates from ORCA-job orca E -847.146248307639
  C      -2.378722     -1.831937     -0.095050
  H      -2.606464     -2.384396      0.819892
  C      -2.058423     -0.531352     -0.064638
  C      -1.940941      0.286088      1.196821
  H      -0.887091      0.286129      1.535515
  H      -2.529429     -0.180447      2.001561
  C      -2.383074      1.724382      0.939899
  H      -2.231194      2.340620      1.839454
  H      -3.455708      1.746462      0.689663
  C      -1.575127      2.308808     -0.207575
  H      -0.503642      2.326430      0.073105
  C      -1.997358      3.707501     -0.641654
  C      -1.745658      4.795053      0.404920
  H      -2.333569      4.585301      1.315442
  H      -0.684445      4.766431      0.714759
  C      -2.091815      6.194071     -0.105285
  H      -1.906183      6.962034      0.662575
  H      -3.153977      6.260298     -0.394834
  H      -1.491980      6.455645     -0.993140
  H      -3.067111      3.678581     -0.914463
  H      -1.447100      3.946872     -1.567388
  O      -1.675889      1.486673     -1.395100
  C      -1.851152      0.151416     -1.389961
  O      -1.876758     -0.436038     -2.446304
  C      -5.320403     -1.220020     -1.345190
  C      -5.403620     -0.730142      0.021175
  O      -5.569734     -1.720990      0.937099
  C      -5.680747     -1.306588      2.290988
  H      -5.864032     -2.215620      2.878619
  H      -4.755369     -0.816650      2.634973
  H      -6.509957     -0.593893      2.422954
  O      -5.328697      0.444430      0.353257
  C      -5.421877     -2.670530     -1.678986
  H      -5.304233     -3.310162     -0.795606
  H      -6.407469     -2.898220     -2.132055
  H      -4.668140     -2.945515     -2.437218
  C      -5.159338     -0.230184     -2.446547
  H      -5.118160      0.795727     -2.059156
  H      -5.993597     -0.307351     -3.169793
  H      -4.230731     -0.433887     -3.008194
  H      -2.446159     -2.351638     -1.052076
41
Coordinates from ORCA-job orca E -847.146268421948
  C      -2.378445     -1.832701     -0.092577
  H      -2.601589     -2.383495      0.824392
  C      -2.059663     -0.531823     -0.063665
  C      -1.940380      0.285505      1.197239
  H      -0.885850      0.285230      1.533937
  H      -2.527194     -0.180490      2.003548
  C      -2.383660      1.723640      0.940850
  H      -2.232586      2.340065      1.840370
  H      -3.456449      1.743833      0.689888
  C      -1.576432      2.308540     -0.206828
  H      -0.504697      2.326204      0.072820
  C      -1.999297      3.707326     -0.640075
  C      -1.745420      4.794936      0.405907
  H      -2.331465      4.585290      1.317659
  H      -0.683574      4.766269      0.713562
  C      -2.092544      6.193938     -0.103694
  H      -1.905267      6.961951      0.663720
  H      -3.155303      6.260219     -0.391056
  H      -1.494527      6.455400     -0.992810
  H      -3.069549      3.678586     -0.910921
  H      -1.450707      3.946605     -1.566833
  O      -1.677917      1.486744     -1.394761
  C      -1.853370      0.151617     -1.389564
  O      -1.879463     -0.435487     -2.446112
  C      -5.317984     -1.220401     -1.347560
  C      -5.400613     -0.729603      0.018875
  O      -5.568433     -1.719217      0.936145
  C      -5.678039     -1.302699      2.289624
  H      -5.862595     -2.210574      2.878571
  H      -4.751695     -0.813526      2.632289
  H      -6.506208     -0.588562      2.420395
  O      -5.322536      0.445225      0.349719
  C      -5.425287     -2.670398     -1.679831
  H      -5.311026     -3.309846     -0.795599
  H      -6.410028     -2.898611     -2.134413
  H      -4.670373     -2.947679     -2.436343
  C      -5.158754     -0.231638     -2.449490
  H      -5.118675      0.794708     -2.063119
  H      -5.993996     -0.311625     -3.171268
  H      -4.230088     -0.433770     -3.012353
  H      -2.443394     -2.356294     -1.048178
41
Coordinates from ORCA-job orca E -847.146286203517
  C      -2.378950     -1.834010     -0.089219
  H      -2.596180     -2.383824      0.829776
  C      -2.061951     -0.532787     -0.062436
  C      -1.940545      0.284803      1.197873
  H      -0.885131      0.284451      1.531884
  H      -2.525139     -0.180839      2.006036
  C      -2.384835      1.722891      0.942446
  H      -2.233975      2.339288      1.841988
  H      -3.457652      1.741650      0.691390
  C      -1.578464      2.307873     -0.205720
  H      -0.506446      2.325504      0.072762
  C      -2.001704      3.706685     -0.638608
  C      -1.745129      4.794532      0.406459
  H      -2.328853      4.585142      1.319768
  H      -0.682508      4.765846      0.711424
  C      -2.093470      6.193437     -0.102571
  H      -1.904087      6.961618      0.664156
  H      -3.156977      6.259770     -0.387140
  H      -1.497781      6.454614     -0.993330
  H      -3.072530      3.678304     -0.907198
  H      -1.454897      3.945482     -1.566552
  O      -1.681019      1.485943     -1.393677
  C      -1.857091      0.150904     -1.388600
  O      -1.884504     -0.435810     -2.445289
  C      -5.315322     -1.219533     -1.350534
  C      -5.397360     -0.728479      0.016108
  O      -5.567009     -1.717332      0.934223
  C      -5.674170     -1.298752      2.287403
  H      -5.859690     -2.205577      2.877680
  H      -4.746755     -0.810640      2.628576
  H      -6.501323     -0.583343      2.417542
  O      -5.316124      0.446274      0.346545
  C      -5.427286     -2.669409     -1.680397
  H      -5.316523     -3.308992     -0.795852
  H      -6.411405     -2.896574     -2.136841
  H      -4.670851     -2.949954     -2.434387
  C      -5.158030     -0.231795     -2.452709
  H      -5.118984      0.795097     -2.067693
  H      -5.994276     -0.314609     -3.173083
  H      -4.229741     -0.432525     -3.016912
  H      -2.440401     -2.361933     -1.042829
41
Coordinates from ORCA-job orca E -847.146303747279
  C      -2.380076     -1.835926     -0.085167
  H      -2.590385     -2.385955      0.835435
  C      -2.065079     -0.534249     -0.060560
  C      -1.941554      0.284077      1.199211
  H      -0.885219      0.283843      1.530363
  H      -2.523722     -0.181479      2.009195
  C      -2.386189      1.722294      0.944731
  H      -2.234486      2.338543      1.844226
  H      -3.459001      1.740666      0.694459
  C      -1.580902      2.306696     -0.204473
  H      -0.508551      2.324213      0.072675
  C      -2.004252      3.705374     -0.637728
  C      -1.744995      4.793739      0.406138
  H      -2.326297      4.584736      1.321093
  H      -0.681589      4.765191      0.708346
  C      -2.094709      6.192417     -0.102579
  H      -1.903064      6.960966      0.663222
  H      -3.159029      6.258711     -0.384113
  H      -1.501576      6.453121     -0.995187
  H      -3.075628      3.677403     -0.904157
  H      -1.459049      3.943260     -1.566846
  O      -1.684967      1.484023     -1.391875
  C      -1.862235      0.149074     -1.386754
  O      -1.891848     -0.437505     -2.443396
  C      -5.312660     -1.217329     -1.353264
  C      -5.394218     -0.726639      0.013573
  O      -5.565716     -1.715285      0.931727
  C      -5.669766     -1.295606      2.284902
  H      -5.855684     -2.201864      2.875992
  H      -4.741203     -0.808816      2.624509
  H      -6.495943     -0.579220      2.415682
  O      -5.310558      0.447789      0.344409
  C      -5.427077     -2.667300     -1.681423
  H      -5.319734     -3.307578     -0.797222
  H      -6.410698     -2.891592     -2.140374
  H      -4.668930     -2.951054     -2.432551
  C      -5.157389     -0.230114     -2.455481
  H      -5.119087      0.797265     -2.071738
  H      -5.994578     -0.315000     -3.174648
  H      -4.229958     -0.429819     -3.021164
  H      -2.437469     -2.367684     -1.036726
41
Coordinates from ORCA-job orca E -847.146315505302
  C      -2.381449     -1.838125     -0.080808
  H      -2.584944     -2.389544      0.840653
  C      -2.068397     -0.535931     -0.057914
  C      -1.943097      0.283533      1.201311
  H      -0.886024      0.283479      1.530152
  H      -2.523238     -0.182084      2.012705
  C      -2.387115      1.721988      0.947215
  H      -2.233333      2.338153      1.846415
  H      -3.460037      1.741393      0.698657
  C      -1.583083      2.305044     -0.203590
  H      -0.510370      2.322384      0.072168
  C      -2.006350      3.703450     -0.637757
  C      -1.745176      4.792518      0.404909
  H      -2.324504      4.583894      1.321207
  H      -0.681144      4.764380      0.704931
  C      -2.096284      6.190806     -0.103878
  H      -1.902929      6.959878      0.660965
  H      -3.161275      6.256795     -0.382930
  H      -1.505306      6.451013     -0.998054
  H      -3.078113      3.675763     -0.902635
  H      -1.462216      3.940284     -1.567757
  O      -1.689044      1.481167     -1.389928
  C      -1.867950      0.146369     -1.384214
  O      -1.900289     -0.440583     -2.440539
  C      -5.310294     -1.214251     -1.354946
  C      -5.391863     -0.724298      0.011939
  O      -5.564776     -1.713237      0.929376
  C      -5.665847     -1.293985      2.282895
  H      -5.851457     -2.200376      2.873952
  H      -4.736214     -0.808473      2.621079
  H      -6.491206     -0.577064      2.415714
  O      -5.307265      0.449746      0.343655
  C      -5.424448     -2.664274     -1.683389
  H      -5.320233     -3.305719     -0.799964
  H      -6.407514     -2.884421     -2.145535
  H      -4.664607     -2.949927     -2.431984
  C      -5.157157     -0.226751     -2.457107
  H      -5.119112      0.800848     -2.073970
  H      -5.995291     -0.312279     -3.175225
  H      -4.230910     -0.425890     -3.024414
  H      -2.435209     -2.372284     -1.030901
41
Coordinates from ORCA-job orca E -847.146333980838
  C      -2.382495     -1.840242     -0.076582
  H      -2.580424     -2.393602      0.845033
  C      -2.071181     -0.537546     -0.054698
  C      -1.944659      0.283205      1.203913
  H      -0.887185      0.283189      1.531501
  H      -2.523647     -0.182370      2.016126
  C      -2.387406      1.721894      0.949466
  H      -2.230674      2.338219      1.848063
  H      -3.460673      1.743399      0.703281
  C      -1.584766      2.303187     -0.203308
  H      -0.511670      2.320368      0.071033
  C      -2.007973      3.701271     -0.638506
  C      -1.745617      4.791150      0.403047
  H      -2.323650      4.582994      1.320259
  H      -0.681173      4.763431      0.701646
  C      -2.097669      6.189016     -0.106225
  H      -1.903156      6.958690      0.657721
  H      -3.163111      6.254691     -0.383607
  H      -1.508157      6.448615     -1.001547
  H      -3.079986      3.673649     -0.902355
  H      -1.464575      3.937108     -1.569175
  O      -1.692763      1.478029     -1.388413
  C      -1.873198      0.143430     -1.381474
  O      -1.908140     -0.444363     -2.437268
  C      -5.308159     -1.211067     -1.355413
  C      -5.390540     -0.722029      0.011402
  O      -5.564042     -1.711637      0.927687
  C      -5.663185     -1.294138      2.281768
  H      -5.847961     -2.201250      2.872019
  H      -4.732825     -0.809439      2.618990
  H      -6.488079     -0.577186      2.417267
  O      -5.306726      0.451750      0.344109
  C      -5.420089     -2.660891     -1.686263
  H      -5.318701     -3.303659     -0.803639
  H      -6.402376     -2.876846     -2.152026
  H      -4.658678     -2.946484     -2.433121
  C      -5.157437     -0.222481     -2.457401
  H      -5.119096      0.804948     -2.073853
  H      -5.996742     -0.307197     -3.174309
  H      -4.232502     -0.421330     -3.026505
  H      -2.433985     -2.375085     -1.026184
41
Coordinates from ORCA-job orca E -847.146337290035
  C      -2.383034     -1.842098     -0.072620
  H      -2.577083     -2.397053      0.848890
  C      -2.073112     -0.538994     -0.051350
  C      -1.945684      0.282942      1.206516
  H      -0.888102      0.282652      1.533766
  H      -2.524423     -0.182207      2.019133
  C      -2.386980      1.721808      0.951251
  H      -2.226946      2.338593      1.848974
  H      -3.460807      1.745765      0.707774
  C      -1.585918      2.301314     -0.203611
  H      -0.512417      2.318382      0.069203
  C      -2.009293      3.699118     -0.639547
  C      -1.746379      4.789762      0.401082
  H      -2.323805      4.582143      1.318779
  H      -0.681735      4.762375      0.699008
  C      -2.098878      6.187227     -0.108964
  H      -1.903776      6.957488      0.654241
  H      -3.164546      6.252654     -0.385542
  H      -1.510088      6.446185     -1.004950
  H      -3.081465      3.671307     -0.902719
  H      -1.466486      3.934267     -1.570733
  O      -1.696000      1.475094     -1.387629
  C      -1.877372      0.140680     -1.379023
  O      -1.914342     -0.448233     -2.434171
  C      -5.306007     -1.208141     -1.355238
  C      -5.389858     -0.720107      0.011547
  O      -5.563099     -1.710601      0.926640
  C      -5.661649     -1.295368      2.281304
  H      -5.845434     -2.203421      2.870401
  H      -4.731035     -0.810852      2.618172
  H      -6.486505     -0.578787      2.419099
  O      -5.307990      0.453555      0.345189
  C      -5.415325     -2.657527     -1.689468
  H      -5.316754     -3.301385     -0.807326
  H      -6.396551     -2.870249     -2.158932
  H      -4.652395     -2.941614     -2.435221
  C      -5.157929     -0.218015     -2.456873
  H      -5.118732      0.808914     -2.072042
  H      -5.998848     -0.300992     -3.172090
  H      -4.234317     -0.416637     -3.028019
  H      -2.433974     -2.376552     -1.022442
41
Coordinates from ORCA-job orca E -847.146342124889
  C      -2.383409     -1.844151     -0.067689
  H      -2.574095     -2.400129      0.853865
  C      -2.074891     -0.540669     -0.047259
  C      -1.946224      0.282591      1.209569
  H      -0.888649      0.281627      1.536821
  H      -2.525250     -0.181485      2.022586
  C      -2.385947      1.721594      0.953175
  H      -2.221810      2.339262      1.849584
  H      -3.460605      1.748259      0.713248
  C      -1.587151      2.299036     -0.204347
  H      -0.513081      2.316044      0.066268
  C      -2.011055      3.696531     -0.640795
  C      -1.747417      4.788057      0.398725
  H      -2.324260      4.581191      1.316941
  H      -0.682567      4.760937      0.695957
  C      -2.100245      6.185078     -0.112307
  H      -1.904572      6.956007      0.650072
  H      -3.166111      6.250279     -0.388168
  H      -1.512091      6.443245     -1.008935
  H      -3.083475      3.668312     -0.902939
  H      -1.469253      3.931038     -1.572735
  O      -1.699983      1.471743     -1.387231
  C      -1.881710      0.137497     -1.376338
  O      -1.920553     -0.452946     -2.430618
  C      -5.303051     -1.204691     -1.355153
  C      -5.389068     -0.718142      0.011832
  O      -5.561246     -1.709896      0.925590
  C      -5.660302     -1.297270      2.280860
  H      -5.842958     -2.206443      2.868535
  H      -4.729922     -0.812339      2.617983
  H      -6.485587     -0.581502      2.420420
  O      -5.310124      0.455428      0.346662
  C      -5.409708     -2.653445     -1.693394
  H      -5.314926     -3.298353     -0.811530
  H      -6.389268     -2.863547     -2.167500
  H      -4.644632     -2.935018     -2.437837
  C      -5.158465     -0.212461     -2.456003
  H      -5.117659      0.813612     -2.068992
  H      -6.001978     -0.292910     -3.168418
  H      -4.236618     -0.410675     -3.030082
  H      -2.435154     -2.377905     -1.017963
41
Coordinates from ORCA-job orca E -847.146358834553
  C      -2.384151     -1.847119     -0.059954
  H      -2.570961     -2.403328      0.862169
  C      -2.077272     -0.543230     -0.041267
  C      -1.946251      0.281818      1.213973
  H      -0.888622      0.279607      1.540987
  H      -2.525805     -0.180160      2.027833
  C      -2.384170      1.720986      0.956238
  H      -2.214120      2.340117      1.850575
  H      -3.460120      1.750801      0.721800
  C      -1.589256      2.295693     -0.205362
  H      -0.514242      2.312694      0.061485
  C      -2.014308      3.692711     -0.642335
  C      -1.749005      4.785669      0.395229
  H      -2.324755      4.580285      1.314444
  H      -0.683769      4.758750      0.691123
  C      -2.102174      6.182009     -0.117437
  H      -1.905414      6.954015      0.643575
  H      -3.168368      6.247012     -0.392087
  H      -1.515055      6.438771     -1.015144
  H      -3.087240      3.663779     -0.902314
  H      -1.474606      3.926252     -1.575748
  O      -1.706471      1.466950     -1.386713
  C      -1.887747      0.132825     -1.372456
  O      -1.928839     -0.459862     -2.425453
  C      -5.298242     -1.199278     -1.355775
  C      -5.387313     -0.715490      0.011913
  O      -5.557401     -1.709410      0.923698
  C      -5.658159     -1.300295      2.279795
  H      -5.839336     -2.211084      2.865367
  H      -4.728685     -0.814260      2.618124
  H      -6.484598     -0.586122      2.420798
  O      -5.312596      0.457831      0.348845
  C      -5.402001     -2.647137     -1.699003
  H      -5.313370     -3.293484     -0.817469
  H      -6.378640     -2.854770     -2.180184
  H      -4.633110     -2.925176     -2.440846
  C      -5.158848     -0.203804     -2.454868
  H      -5.115095      0.820823     -2.064276
  H      -6.006807     -0.280458     -3.162382
  H      -4.239920     -0.401155     -3.033902
  H      -2.438229     -2.380390     -1.010537
41
Coordinates from ORCA-job orca E -847.146380324442
  C      -2.386277     -1.851905     -0.046308
  H      -2.567916     -2.406836      0.877486
  C      -2.081256     -0.547595     -0.031457
  C      -1.945388      0.280367      1.221108
  H      -0.887412      0.275963      1.546816
  H      -2.525426     -0.177647      2.036908
  C      -2.380986      1.719809      0.961669
  H      -2.201451      2.341456      1.852462
  H      -3.458999      1.753490      0.736596
  C      -1.593266      2.290227     -0.206954
  H      -0.516560      2.307275      0.052973
  C      -2.020511      3.686418     -0.644664
  C      -1.751443      4.781772      0.389359
  H      -2.324703      4.579035      1.310702
  H      -0.685361      4.755039      0.682225
  C      -2.105439      6.176982     -0.125811
  H      -1.906314      6.950781      0.632761
  H      -3.172353      6.241717     -0.397707
  H      -1.520658      6.431316     -1.025729
  H      -3.094509      3.656373     -0.900117
  H      -1.485023      3.918253     -1.580945
  O      -1.718334      1.458931     -1.385694
  C      -1.897723      0.124813     -1.365947
  O      -1.942134     -0.471641     -2.416764
  C      -5.290055     -1.189704     -1.357924
  C      -5.383524     -0.711220      0.011402
  O      -5.549795     -1.709041      0.919815
  C      -5.654142     -1.305307      2.277211
  H      -5.833065     -2.218753      2.859261
  H      -4.726775     -0.817088      2.618512
  H      -6.483071     -0.594262      2.419408
  O      -5.315202      0.461439      0.352314
  C      -5.389788     -2.636266     -1.707905
  H      -5.311792     -3.285082     -0.827151
  H      -6.360924     -2.841428     -2.201142
  H      -4.613502     -2.909365     -2.443984
  C      -5.158980     -0.188812     -2.453396
  H      -5.109776      0.833325     -2.056863
  H      -6.014705     -0.259396     -3.152157
  H      -4.245403     -0.384457     -3.041360
  H      -2.445129     -2.385588     -0.996551
41
Coordinates from ORCA-job orca E -847.146414195638
  C      -2.391847     -1.859797     -0.022074
  H      -2.566249     -2.410833      0.905288
  C      -2.088180     -0.555252     -0.014787
  C      -1.942713      0.277613      1.233224
  H      -0.883605      0.269670      1.554906
  H      -2.522361     -0.173407      2.053275
  C      -2.375248      1.717494      0.971528
  H      -2.180375      2.343251      1.856270
  H      -3.456463      1.755755      0.762294
  C      -1.600609      2.280898     -0.209223
  H      -0.520989      2.298139      0.038236
  C      -2.031966      3.675456     -0.648360
  C      -1.755050      4.775084      0.378969
  H      -2.322331      4.576775      1.304952
  H      -0.687044      4.749018      0.664819
  C      -2.111930      6.168200     -0.139893
  H      -1.907747      6.945159      0.614092
  H      -3.180559      6.232063     -0.405176
  H      -1.532898      6.418537     -1.044625
  H      -3.108059      3.643639     -0.894624
  H      -1.504749      3.903993     -1.590149
  O      -1.739633      1.444905     -1.383124
  C      -1.914755      0.110627     -1.354293
  O      -1.964705     -0.492148     -2.401387
  C      -5.276351     -1.172236     -1.362847
  C      -5.375818     -0.703508      0.009682
  O      -5.535979     -1.708185      0.912007
  C      -5.646640     -1.313458      2.271601
  H      -5.822117     -2.231510      2.847388
  H      -4.723216     -0.821790      2.618933
  H      -6.480086     -0.608010      2.415147
  O      -5.316711      0.467622      0.357941
  C      -5.369644     -2.616794     -1.722639
  H      -5.309822     -3.270281     -0.844048
  H      -6.330457     -2.819345     -2.236691
  H      -4.579445     -2.883338     -2.446490
  C      -5.158417     -0.162332     -2.451440
  H      -5.099708      0.855644     -2.045515
  H      -6.026969     -0.223359     -3.135254
  H      -4.254500     -0.354756     -3.054963
  H      -2.459123     -2.395814     -0.970492
41
Coordinates from ORCA-job orca E -847.146454800986
  C      -2.399794     -1.866950      0.002605
  H      -2.569884     -2.412358      0.933987
  C      -2.094631     -0.562872      0.001497
  C      -1.938404      0.274868      1.244983
  H      -0.877571      0.263974      1.560564
  H      -2.516005     -0.169210      2.070310
  C      -2.369157      1.715096      0.981567
  H      -2.160492      2.344664      1.860475
  H      -3.453091      1.755468      0.787416
  C      -1.608252      2.271884     -0.211160
  H      -0.525794      2.289487      0.023489
  C      -2.044025      3.664609     -0.651858
  C      -1.757744      4.768552      0.368227
  H      -2.317029      4.574340      1.299923
  H      -0.687313      4.743494      0.644940
  C      -2.119139      6.159509     -0.153348
  H      -1.908672      6.939570      0.595684
  H      -3.190004      6.222169     -0.409756
  H      -1.547904      6.406188     -1.064022
  H      -3.122448      3.631289     -0.887463
  H      -1.526110      3.889461     -1.599680
  O      -1.761358      1.430756     -1.379752
  C      -1.930881      0.096086     -1.342313
  O      -1.985947     -0.512871     -2.385663
  C      -5.263808     -1.154151     -1.368570
  C      -5.367516     -0.695697      0.007453
  O      -5.522304     -1.707221      0.903366
  C      -5.639274     -1.321364      2.265085
  H      -5.811787     -2.244049      2.834357
  H      -4.720004     -0.826798      2.619294
  H      -6.477299     -0.621602      2.409551
  O      -5.315529      0.473492      0.363450
  C      -5.350211     -2.596839     -1.736879
  H      -5.307565     -3.255713     -0.861522
  H      -6.299722     -2.798841     -2.271593
  H      -4.544934     -2.858550     -2.446071
  C      -5.157343     -0.135549     -2.449733
  H      -5.089391      0.878510     -2.035527
  H      -6.037540     -0.187971     -3.119487
  H      -4.263415     -0.324777     -3.068552
  H      -2.475777     -2.406690     -0.942813
41
Coordinates from ORCA-job orca E -847.146499671130
  C      -2.407813     -1.870442      0.018956
  H      -2.579612     -2.409922      0.953522
  C      -2.097364     -0.567617      0.011407
  C      -1.932906      0.273383      1.252059
  H      -0.870074      0.261826      1.560690
  H      -2.506497     -0.166739      2.082278
  C      -2.364662      1.713634      0.988272
  H      -2.149729      2.345281      1.864136
  H      -3.449802      1.751838      0.802193
  C      -1.613186      2.266864     -0.211896
  H      -0.528947      2.285136      0.014307
  C      -2.052346      3.658085     -0.653831
  C      -1.758063      4.764913      0.360869
  H      -2.309337      4.572799      1.297775
  H      -0.685352      4.741150      0.628693
  C      -2.124773      6.154321     -0.161123
  H      -1.908505      6.936401      0.584140
  H      -3.197829      6.215616     -0.408550
  H      -1.561534      6.399086     -1.077284
  H      -3.132609      3.624102     -0.880680
  H      -1.541712      3.880092     -1.606242
  O      -1.774916      1.421726     -1.376579
  C      -1.938775      0.086346     -1.334367
  O      -1.995884     -0.526398     -2.375239
  C      -5.257966     -1.142365     -1.372917
  C      -5.361909     -0.691139      0.005699
  O      -5.514852     -1.706883      0.897106
  C      -5.635463     -1.326308      2.260101
  H      -5.806941     -2.251895      2.825064
  H      -4.718843     -0.830868      2.619499
  H      -6.476194     -0.629907      2.404833
  O      -5.311239      0.476288      0.367098
  C      -5.339376     -2.583789     -1.745912
  H      -5.305875     -3.247454     -0.873923
  H      -6.280748     -2.787910     -2.293813
  H      -4.522925     -2.844021     -2.443121
  C      -5.156350     -0.118335     -2.448757
  H      -5.082934      0.893647     -2.030554
  H      -6.042343     -0.165974     -3.111500
  H      -4.269206     -0.306473     -3.077050
  H      -2.489679     -2.414705     -0.922897
41
Coordinates from ORCA-job orca E -847.146540967520
  C      -2.417732     -1.873411      0.036154
  H      -2.591998     -2.407179      0.973632
  C      -2.099514     -0.572482      0.022063
  C      -1.926021      0.272175      1.259463
  H      -0.860477      0.261509      1.558681
  H      -2.492728     -0.165207      2.095797
  C      -2.360106      1.711996      0.995203
  H      -2.140380      2.345382      1.868539
  H      -3.446224      1.746823      0.815853
  C      -1.617672      2.261802     -0.212121
  H      -0.531799      2.281291      0.006135
  C      -2.060599      3.651141     -0.655879
  C      -1.757807      4.761245      0.352819
  H      -2.299220      4.570739      1.295795
  H      -0.682439      4.739700      0.609909
  C      -2.131841      6.148753     -0.168976
  H      -1.908781      6.933110      0.571876
  H      -3.207543      6.207975     -0.405179
  H      -1.578711      6.391817     -1.091726
  H      -3.142753      3.616522     -0.873380
  H      -1.557627      3.869834     -1.613080
  O      -1.787220      1.412176     -1.372427
  C      -1.945470      0.076026     -1.325565
  O      -2.004658     -0.540348     -2.364068
  C      -5.253657     -1.130342     -1.376702
  C      -5.357081     -0.686072      0.004135
  O      -5.510566     -1.705773      0.890537
  C      -5.632392     -1.331214      2.255064
  H      -5.803367     -2.259712      2.815514
  H      -4.716961     -0.836709      2.618441
  H      -6.474400     -0.636891      2.402206
  O      -5.305322      0.479528      0.370829
  C      -5.328574     -2.570066     -1.755955
  H      -5.303204     -3.239516     -0.888264
  H      -6.261367     -2.774996     -2.317720
  H      -4.500614     -2.828899     -2.440192
  C      -5.155578     -0.100936     -2.447440
  H      -5.077643      0.909324     -2.026187
  H      -6.045891     -0.143978     -3.105094
  H      -4.274952     -0.288750     -3.084493
  H      -2.504179     -2.422993     -0.901737
41
Coordinates from ORCA-job orca E -847.146576136363
  C      -2.427585     -1.876874      0.054343
  H      -2.602272     -2.406448      0.994132
  C      -2.102004     -0.577881      0.034355
  C      -1.919068      0.270761      1.267774
  H      -0.850833      0.261316      1.557411
  H      -2.478185     -0.164206      2.110455
  C      -2.355261      1.709854      1.002257
  H      -2.129726      2.345301      1.872575
  H      -3.442546      1.742862      0.830169
  C      -1.621753      2.255700     -0.212436
  H      -0.534365      2.276702     -0.001930
  C      -2.068741      3.643018     -0.658238
  C      -1.758647      4.756841      0.344197
  H      -2.290848      4.568184      1.292767
  H      -0.680903      4.737907      0.591337
  C      -2.139917      6.142094     -0.178269
  H      -1.910732      6.929141      0.557841
  H      -3.217997      6.198979     -0.403983
  H      -1.596337      6.383069     -1.107224
  H      -3.152547      3.607298     -0.867130
  H      -1.573043      3.858401     -1.619952
  O      -1.798991      1.401596     -1.368213
  C      -1.952928      0.065010     -1.315831
  O      -2.015101     -0.555378     -2.351819
  C      -5.248568     -1.117472     -1.379582
  C      -5.353163     -0.679994      0.003081
  O      -5.507830     -1.703869      0.884014
  C      -5.629429     -1.336721      2.250396
  H      -5.799789     -2.268307      2.805931
  H      -4.714082     -0.843970      2.616350
  H      -6.471713     -0.643673      2.401963
  O      -5.301188      0.483942      0.375090
  C      -5.315872     -2.555021     -1.767341
  H      -5.299962     -3.230028     -0.903785
  H      -6.239553     -2.758282     -2.344238
  H      -4.476761     -2.810622     -2.439133
  C      -5.155048     -0.082263     -2.445403
  H      -5.072443      0.925982     -2.020408
  H      -6.050082     -0.119782     -3.097274
  H      -4.280759     -0.269418     -3.091142
  H      -2.518497     -2.430359     -0.880650
41
Coordinates from ORCA-job orca E -847.146628456219
  C      -2.442933     -1.882292      0.082184
  H      -2.617604     -2.406541      1.024946
  C      -2.104953     -0.586679      0.054037
  C      -1.906880      0.268217      1.280616
  H      -0.834427      0.261570      1.554656
  H      -2.452617     -0.163696      2.133616
  C      -2.347174      1.705710      1.012629
  H      -2.113135      2.344713      1.878055
  H      -3.436142      1.736595      0.850977
  C      -1.626845      2.245594     -0.212833
  H      -0.537433      2.269693     -0.013310
  C      -2.080811      3.629555     -0.661901
  C      -1.761341      4.749500      0.330807
  H      -2.279994      4.563575      1.287374
  H      -0.680313      4.735398      0.563502
  C      -2.154270      6.130821     -0.193298
  H      -1.916825      6.922401      0.535299
  H      -3.235663      6.183415     -0.403693
  H      -1.624869      6.368552     -1.131233
  H      -3.166809      3.591306     -0.858551
  H      -1.595775      3.840111     -1.630087
  O      -1.814232      1.384623     -1.361779
  C      -1.962823      0.047682     -1.300560
  O      -2.029591     -0.579002     -2.332536
  C      -5.240817     -1.097389     -1.382927
  C      -5.348858     -0.670095      0.002128
  O      -5.507096     -1.700180      0.874401
  C      -5.625844     -1.344881      2.243765
  H      -5.795977     -2.280840      2.791961
  H      -4.708857     -0.856395      2.611446
  H      -6.466730     -0.652018      2.403980
  O      -5.296317      0.491256      0.382335
  C      -5.296119     -2.531059     -1.785503
  H      -5.295497     -3.214172     -0.928095
  H      -6.205340     -2.729590     -2.386020
  H      -4.440711     -2.779799     -2.439071
  C      -5.153887     -0.053136     -2.441400
  H      -5.063977      0.951781     -2.010215
  H      -6.055828     -0.081199     -3.084499
  H      -4.288680     -0.239481     -3.099384
  H      -2.541074     -2.440234     -0.849365
41
Coordinates from ORCA-job orca E -847.146680428143
  C      -2.458288     -1.888214      0.109968
  H      -2.631938     -2.407691      1.055486
  C      -2.107243     -0.596368      0.074206
  C      -1.893051      0.264570      1.293322
  H      -0.816528      0.260882      1.551305
  H      -2.424455     -0.164209      2.157002
  C      -2.337909      1.700208      1.022730
  H      -2.095131      2.343325      1.882679
  H      -3.428548      1.729935      0.871561
  C      -1.630788      2.234445     -0.213125
  H      -0.539595      2.262616     -0.024156
  C      -2.092970      3.614613     -0.665519
  C      -1.766566      4.741271      0.317325
  H      -2.273181      4.558455      1.280912
  H      -0.682829      4.732681      0.537362
  C      -2.171036      6.118092     -0.209741
  H      -1.927266      6.914735      0.511209
  H      -3.255166      6.165699     -0.406812
  H      -1.654257      6.352261     -1.155579
  H      -3.180788      3.572444     -0.851021
  H      -1.618141      3.820783     -1.639689
  O      -1.826759      1.366664     -1.355474
  C      -1.971423      0.029737     -1.285171
  O      -2.042784     -0.603382     -2.312974
  C      -5.232039     -1.075934     -1.385788
  C      -5.345627     -0.659319      0.001637
  O      -5.508578     -1.695891      0.864796
  C      -5.622692     -1.352694      2.237262
  H      -5.793312     -2.292721      2.778234
  H      -4.702803     -0.869556      2.604962
  H      -6.460838     -0.658731      2.407026
  O      -5.293017      0.499213      0.390770
  C      -5.276288     -2.505497     -1.803649
  H      -5.292830     -3.195855     -0.952073
  H      -6.170432     -2.697816     -2.427908
  H      -4.405386     -2.745952     -2.439574
  C      -5.151233     -0.022267     -2.436421
  H      -5.052860      0.978640     -1.997861
  H      -6.060507     -0.039372     -3.069693
  H      -4.294720     -0.207506     -3.106033
  H      -2.565265     -2.448905     -0.819035
41
Coordinates from ORCA-job orca E -847.146740594572
  C      -2.481197     -1.897356      0.150694
  H      -2.652121     -2.409499      1.100542
  C      -2.110659     -0.611557      0.103432
  C      -1.871364      0.257629      1.311044
  H      -0.789312      0.257438      1.545191
  H      -2.381647     -0.165263      2.190494
  C      -2.322845      1.690586      1.037048
  H      -2.066403      2.340390      1.887989
  H      -3.415893      1.719448      0.902166
  C      -1.635968      2.216888     -0.213861
  H      -0.542379      2.251879     -0.040722
  C      -2.111573      3.590983     -0.670936
  C      -1.777567      4.727703      0.297613
  H      -2.268838      4.550051      1.270076
  H      -0.690663      4.727258      0.501647
  C      -2.197884      6.097562     -0.235107
  H      -1.947409      6.901867      0.474957
  H      -3.285172      6.137532     -0.415756
  H      -1.696996      6.326196     -1.190790
  H      -3.201615      3.541586     -0.841059
  H      -1.651290      3.791370     -1.653271
  O      -1.843501      1.339121     -1.346687
  C      -1.983945      0.002665     -1.262986
  O      -2.062484     -0.640054     -2.284434
  C      -5.216939     -1.041855     -1.390282
  C      -5.341075     -0.642123      0.000914
  O      -5.511293     -1.688985      0.849926
  C      -5.617898     -1.363773      2.227021
  H      -5.789529     -2.309748      2.757081
  H      -4.693393     -0.888759      2.593964
  H      -6.451690     -0.668078      2.410675
  O      -5.289462      0.511740      0.404569
  C      -5.246622     -2.465764     -1.828498
  H      -5.290882     -3.165449     -0.985522
  H      -6.117485     -2.649087     -2.486935
  H      -4.353663     -2.694248     -2.437654
  C      -5.144498      0.025914     -2.428172
  H      -5.031986      1.019898     -1.977338
  H      -6.065312      0.026083     -3.044954
  H      -4.300667     -0.156447     -3.114586
  H      -2.603950     -2.460354     -0.775033
41
Coordinates from ORCA-job orca E -847.146767993944
  C      -2.493655     -1.901233      0.168499
  H      -2.665373     -2.408673      1.120977
  C      -2.105962     -0.620501      0.115835
  C      -1.851684      0.252403      1.316955
  H      -0.765988      0.258448      1.533977
  H      -2.343795     -0.170931      2.206388
  C      -2.311985      1.682511      1.042635
  H      -2.054135      2.336381      1.890052
  H      -3.405392      1.708457      0.911711
  C      -1.633157      2.207948     -0.212996
  H      -0.539266      2.250876     -0.043918
  C      -2.119755      3.577125     -0.673431
  C      -1.789182      4.720269      0.288623
  H      -2.276129      4.544609      1.263641
  H      -0.701588      4.727036      0.488881
  C      -2.218991      6.085079     -0.249500
  H      -1.970501      6.894332      0.455620
  H      -3.307071      6.118130     -0.426638
  H      -1.722471      6.311604     -1.207963
  H      -3.210096      3.519717     -0.839158
  H      -1.664705      3.776261     -1.658478
  O      -1.836690      1.324152     -1.342375
  C      -1.977877     -0.011961     -1.253957
  O      -2.055770     -0.658480     -2.272494
  C      -5.212708     -1.024398     -1.389927
  C      -5.344306     -0.634160      0.002893
  O      -5.526700     -1.685108      0.844141
  C      -5.621067     -1.366620      2.223921
  H      -5.797136     -2.313545      2.750683
  H      -4.689309     -0.901393      2.584396
  H      -6.446809     -0.663966      2.417165
  O      -5.288166      0.515993      0.415525
  C      -5.238118     -2.444511     -1.841217
  H      -5.296084     -3.149111     -1.002631
  H      -6.098494     -2.619297     -2.515331
  H      -4.335867     -2.663368     -2.440687
  C      -5.137065      0.051455     -2.420116
  H      -5.014990      1.040719     -1.961276
  H      -6.061162      0.065337     -3.031627
  H      -4.298081     -0.132794     -3.111404
  H      -2.627789     -2.465402     -0.754935
41
Coordinates from ORCA-job orca E -847.146785311384
  C      -2.513789     -1.910831      0.206933
  H      -2.676989     -2.410357      1.164734
  C      -2.114125     -0.635006      0.140871
  C      -1.835587      0.243771      1.331606
  H      -0.746406      0.247617      1.530160
  H      -2.314507     -0.169263      2.233424
  C      -2.297277      1.673061      1.055309
  H      -2.021219      2.333747      1.891707
  H      -3.393440      1.700583      0.945611
  C      -1.640615      2.190301     -0.215823
  H      -0.544348      2.238624     -0.064846
  C      -2.139727      3.553737     -0.679936
  C      -1.802806      4.705328      0.269642
  H      -2.280346      4.536502      1.250516
  H      -0.713434      4.716412      0.459786
  C      -2.241324      6.064709     -0.275312
  H      -1.989579      6.880051      0.421579
  H      -3.330922      6.092946     -0.443614
  H      -1.753462      6.285411     -1.239564
  H      -3.231770      3.489281     -0.831224
  H      -1.698337      3.747953     -1.672169
  O      -1.858428      1.297605     -1.335961
  C      -1.998576     -0.037240     -1.234703
  O      -2.087521     -0.692663     -2.247464
  C      -5.191241     -0.986998     -1.395741
  C      -5.336564     -0.615773      0.001648
  O      -5.520608     -1.679542      0.827706
  C      -5.614596     -1.380223      2.212133
  H      -5.788486     -2.334895      2.725494
  H      -4.682967     -0.917967      2.576929
  H      -6.441783     -0.682038      2.414517
  O      -5.287398      0.529510      0.430385
  C      -5.205083     -2.403894     -1.858701
  H      -5.292985     -3.115554     -1.029802
  H      -6.042068     -2.574508     -2.562596
  H      -4.282744     -2.615738     -2.429044
  C      -5.125702      0.102410     -2.410622
  H      -4.988104      1.083028     -1.937761
  H      -6.063551      0.131617     -3.000568
  H      -4.299734     -0.073328     -3.119666
  H      -2.666921     -2.474997     -0.713114
41
Coordinates from ORCA-job orca E -847.146818113577
  C      -2.501023     -1.906943      0.185274
  H      -2.665544     -2.408363      1.142151
  C      -2.107450     -0.628634      0.124112
  C      -1.840145      0.246004      1.321017
  H      -0.752757      0.251021      1.529110
  H      -2.326182     -0.172592      2.216053
  C      -2.301663      1.675750      1.047482
  H      -2.035467      2.333773      1.889163
  H      -3.396449      1.701701      0.928141
  C      -1.633325      2.199112     -0.214768
  H      -0.538651      2.247902     -0.052885
  C      -2.129236      3.563861     -0.678311
  C      -1.802560      4.711648      0.279389
  H      -2.291516      4.539475      1.254039
  H      -0.715451      4.721370      0.482142
  C      -2.234067      6.073393     -0.265312
  H      -1.990991      6.885755      0.438105
  H      -3.321476      6.102449     -0.447114
  H      -1.734200      6.298013     -1.222479
  H      -3.219689      3.499042     -0.840482
  H      -1.678394      3.762538     -1.665390
  O      -1.837743      1.310134     -1.340514
  C      -1.982811     -0.025003     -1.247686
  O      -2.064484     -0.674219     -2.264535
  C      -5.200713     -1.003203     -1.391339
  C      -5.341726     -0.625326      0.004732
  O      -5.527925     -1.683726      0.837381
  C      -5.622250     -1.373574      2.220059
  H      -5.798275     -2.324306      2.739995
  H      -4.690766     -0.910504      2.583469
  H      -6.448874     -0.672804      2.415471
  O      -5.288703      0.521438      0.427831
  C      -5.225733     -2.421958     -1.848214
  H      -5.300021     -3.130994     -1.015185
  H      -6.077165     -2.593193     -2.534702
  H      -4.314933     -2.636703     -2.436767
  C      -5.125473      0.081214     -2.410585
  H      -4.991794      1.063970     -1.941042
  H      -6.056888      0.107152     -3.010611
  H      -4.292994     -0.098785     -3.110263
  H      -2.649562     -2.472496     -0.734472
41
Coordinates from ORCA-job orca E -847.146838533009
  C      -2.500196     -1.907283      0.183771
  H      -2.664158     -2.406437      1.141950
  C      -2.103555     -0.629902      0.120848
  C      -1.834307      0.244025      1.318075
  H      -0.746545      0.249981      1.524284
  H      -2.318846     -0.175773      2.213388
  C      -2.297335      1.673544      1.045656
  H      -2.033024      2.331749      1.887795
  H      -3.391990      1.697578      0.926000
  C      -1.628358      2.198687     -0.215464
  H      -0.534271      2.251502     -0.051085
  C      -2.128088      3.561419     -0.680793
  C      -1.809206      4.710029      0.278588
  H      -2.302839      4.536510      1.250643
  H      -0.723205      4.722466      0.487056
  C      -2.241479      6.070779     -0.268020
  H      -2.005339      6.883457      0.437390
  H      -3.327829      6.096488     -0.456556
  H      -1.736440      6.297488     -1.221972
  H      -3.217730      3.492348     -0.846577
  H      -1.674580      3.762098     -1.666219
  O      -1.825679      1.308238     -1.341488
  C      -1.975220     -0.026653     -1.250036
  O      -2.055249     -0.674900     -2.267480
  C      -5.201122     -0.999521     -1.388408
  C      -5.342977     -0.624070      0.008261
  O      -5.534110     -1.683268      0.838742
  C      -5.628286     -1.374030      2.221929
  H      -5.806053     -2.325226      2.740440
  H      -4.696141     -0.913037      2.586276
  H      -6.454113     -0.672339      2.417148
  O      -5.286846      0.521537      0.433800
  C      -5.230586     -2.417533     -1.847186
  H      -5.304647     -3.128577     -1.015923
  H      -6.084506     -2.585612     -2.531454
  H      -4.321592     -2.632717     -2.438437
  C      -5.118894      0.086480     -2.405018
  H      -4.981864      1.067581     -1.933040
  H      -6.048793      0.117430     -3.007221
  H      -4.286073     -0.095993     -3.103332
  H      -2.652999     -2.475150     -0.733873
41
Coordinates from ORCA-job orca E -847.146873901748
  C      -2.503037     -1.910319      0.189825
  H      -2.664696     -2.403190      1.151737
  C      -2.096554     -0.636306      0.120451
  C      -1.817676      0.237708      1.315749
  H      -0.728443      0.244461      1.514050
  H      -2.296819     -0.182159      2.213928
  C      -2.283538      1.666629      1.044323
  H      -2.018747      2.326061      1.885349
  H      -3.378618      1.686942      0.928769
  C      -1.618152      2.193079     -0.218212
  H      -0.524887      2.256275     -0.052302
  C      -2.129283      3.549806     -0.688703
  C      -1.826954      4.702547      0.271239
  H      -2.327488      4.526610      1.239302
  H      -0.742874      4.723513      0.488876
  C      -2.265302      6.059181     -0.280754
  H      -2.043833      6.874252      0.426640
  H      -3.349815      6.075003     -0.480644
  H      -1.752507      6.289845     -1.229609
  H      -3.217382      3.469591     -0.859391
  H      -1.672828      3.753734     -1.672067
  O      -1.803553      1.297295     -1.342205
  C      -1.963271     -0.036581     -1.250010
  O      -2.043648     -0.685226     -2.267162
  C      -5.197207     -0.981457     -1.381621
  C      -5.342562     -0.615548      0.017223
  O      -5.544665     -1.679477      0.838569
  C      -5.641236     -1.379484      2.223930
  H      -5.822182     -2.334387      2.734504
  H      -4.708689     -0.923432      2.593566
  H      -6.466334     -0.677738      2.421798
  O      -5.280393      0.526401      0.451674
  C      -5.233691     -2.395847     -1.850350
  H      -5.313166     -3.114111     -1.026041
  H      -6.087888     -2.554221     -2.536700
  H      -4.324564     -2.611789     -2.440952
  C      -5.101073      0.111256     -2.389290
  H      -4.953572      1.086934     -1.909456
  H      -6.029533      0.157279     -2.992949
  H      -4.270304     -0.076170     -3.088328
  H      -2.668105     -2.483569     -0.722293
41
Coordinates from ORCA-job orca E -847.146904442292
  C      -2.510233     -1.915179      0.204901
  H      -2.669202     -2.401082      1.170898
  C      -2.091313     -0.645743      0.127162
  C      -1.798279      0.230272      1.317629
  H      -0.707125      0.236692      1.504954
  H      -2.270111     -0.186862      2.220900
  C      -2.266648      1.658379      1.045501
  H      -1.996754      2.320173      1.883045
  H      -3.362726      1.676043      0.938574
  C      -1.609714      2.183228     -0.222243
  H      -0.516753      2.257351     -0.059138
  C      -2.134303      3.532944     -0.698292
  C      -1.846020      4.691719      0.258835
  H      -2.349238      4.514375      1.225216
  H      -0.763098      4.722909      0.481044
  C      -2.294151      6.042548     -0.299438
  H      -2.084910      6.861615      0.407059
  H      -3.377572      6.047063     -0.505749
  H      -1.778188      6.275711     -1.245963
  H      -3.221281      3.440757     -0.869980
  H      -1.678540      3.738599     -1.681599
  O      -1.787835      1.280385     -1.341834
  C      -1.956901     -0.052016     -1.244949
  O      -2.041545     -0.703837     -2.259917
  C      -5.188607     -0.955255     -1.374858
  C      -5.339766     -0.602971      0.026843
  O      -5.551595     -1.674310      0.835448
  C      -5.653504     -1.389474      2.223639
  H      -5.836776     -2.350052      2.722606
  H      -4.722000     -0.937973      2.601611
  H      -6.479158     -0.689694      2.426182
  O      -5.274009      0.534243      0.473407
  C      -5.227924     -2.364083     -1.859142
  H      -5.318384     -3.091633     -1.044317
  H      -6.076770     -2.510824     -2.554655
  H      -4.314272     -2.579098     -2.442884
  C      -5.081782      0.147382     -2.370569
  H      -4.921269      1.115807     -1.880436
  H      -6.011130      0.211876     -2.971343
  H      -4.255811     -0.043812     -3.074077
  H      -2.689872     -2.492783     -0.701611
41
Coordinates from ORCA-job orca E -847.146944476139
  C      -2.524822     -1.923456      0.235446
  H      -2.679686     -2.399038      1.207297
  C      -2.085467     -0.662076      0.143998
  C      -1.767834      0.218684      1.324266
  H      -0.673689      0.223469      1.492844
  H      -2.227040     -0.191538      2.237087
  C      -2.239658      1.645384      1.049423
  H      -1.958062      2.311890      1.879355
  H      -3.337557      1.660524      0.959165
  C      -1.599672      2.164928     -0.229348
  H      -0.506721      2.255078     -0.074952
  C      -2.145602      3.503379     -0.713583
  C      -1.873853      4.672847      0.235414
  H      -2.375644      4.495043      1.202398
  H      -0.791623      4.720376      0.458254
  C      -2.340065      6.013295     -0.332845
  H      -2.144731      6.839922      0.368800
  H      -3.422896      6.000428     -0.541918
  H      -1.825242      6.247863     -1.279644
  H      -3.231463      3.393352     -0.881838
  H      -1.695268      3.709426     -1.699305
  O      -1.771996      1.250365     -1.340321
  C      -1.953586     -0.079269     -1.232701
  O      -2.048840     -0.738254     -2.242518
  C      -5.171103     -0.909587     -1.364570
  C      -5.333693     -0.581898      0.041768
  O      -5.557800     -1.666782      0.827969
  C      -5.671622     -1.409504      2.220346
  H      -5.857366     -2.379906      2.698933
  H      -4.743874     -0.963732      2.614407
  H      -6.499996     -0.715060      2.430463
  O      -5.266335      0.546985      0.509522
  C      -5.209643     -2.308039     -1.877280
  H      -5.321058     -3.050972     -1.079080
  H      -6.044789     -2.435884     -2.592678
  H      -4.285178     -2.519105     -2.445222
  C      -5.052346      0.211015     -2.339097
  H      -4.870620      1.166484     -1.831292
  H      -5.985178      0.305726     -2.930556
  H      -4.235946      0.016361     -3.052704
  H      -2.727503     -2.505330     -0.663243
41
Coordinates from ORCA-job orca E -847.146961119079
  C      -2.530920     -1.927375      0.250685
  H      -2.685121     -2.398099      1.225018
  C      -2.081337     -0.670243      0.153087
  C      -1.752692      0.213432      1.327869
  H      -0.657372      0.216905      1.488335
  H      -2.206610     -0.192673      2.245043
  C      -2.225945      1.639339      1.050992
  H      -1.938703      2.308231      1.877066
  H      -3.324531      1.653655      0.968784
  C      -1.593832      2.155720     -0.233060
  H      -0.501013      2.253719     -0.082865
  C      -2.150340      3.488357     -0.721702
  C      -1.886064      4.664010      0.221715
  H      -2.384767      4.486304      1.190287
  H      -0.803809      4.721072      0.442279
  C      -2.363735      5.998111     -0.351875
  H      -2.173732      6.829492      0.345603
  H      -3.446774      5.975791     -0.559082
  H      -1.852316      6.232377     -1.300592
  H      -3.235675      3.369477     -0.887449
  H      -1.703546      3.693637     -1.709219
  O      -1.762930      1.235239     -1.339654
  C      -1.950574     -0.092780     -1.226401
  O      -2.051636     -0.754996     -2.233692
  C      -5.161928     -0.886725     -1.357304
  C      -5.330585     -0.573414      0.051337
  O      -5.559268     -1.665783      0.825590
  C      -5.684282     -1.423083      2.219336
  H      -5.871373     -2.398503      2.687057
  H      -4.761182     -0.978516      2.625719
  H      -6.515975     -0.732843      2.430634
  O      -5.264428      0.550811      0.530390
  C      -5.199744     -2.278121     -1.888411
  H      -5.320420     -3.030268     -1.099928
  H      -6.028338     -2.394333     -2.613221
  H      -4.270685     -2.485281     -2.450391
  C      -5.037222      0.244593     -2.319531
  H      -4.844604      1.192676     -1.801906
  H      -5.971653      0.355855     -2.905488
  H      -4.225664      0.048843     -3.038367
  H      -2.743745     -2.511219     -0.644231
41
Coordinates from ORCA-job orca E -847.146971630963
  C      -2.528138     -1.927277      0.251300
  H      -2.684280     -2.397718      1.225447
  C      -2.079350     -0.669980      0.154250
  C      -1.753261      0.215094      1.328582
  H      -0.658338      0.217785      1.491531
  H      -2.209483     -0.189727      2.245057
  C      -2.225849      1.640779      1.050329
  H      -1.938785      2.309937      1.876259
  H      -3.324259      1.655489      0.968125
  C      -1.592567      2.156098     -0.233552
  H      -0.499800      2.253593     -0.082795
  C      -2.148392      3.488803     -0.723123
  C      -1.882123      4.665964      0.217707
  H      -2.376695      4.489015      1.188534
  H      -0.799066      4.724932      0.433776
  C      -2.363604      5.998481     -0.356374
  H      -2.170260      6.831610      0.338102
  H      -3.447706      5.975334     -0.557853
  H      -1.857145      6.230783     -1.308228
  H      -3.233991      3.370615     -0.887625
  H      -1.702778      3.692194     -1.711586
  O      -1.761099      1.235107     -1.339897
  C      -1.948154     -0.092817     -1.226092
  O      -2.049072     -0.754764     -2.233472
  C      -5.161213     -0.887085     -1.353598
  C      -5.330340     -0.578043      0.055459
  O      -5.555472     -1.672434      0.828196
  C      -5.691379     -1.431527      2.220942
  H      -5.878230     -2.407770      2.687054
  H      -4.774172     -0.982958      2.636260
  H      -6.527536     -0.744943      2.426928
  O      -5.268459      0.545559      0.536065
  C      -5.198706     -2.275260     -1.892854
  H      -5.316924     -3.031166     -1.107222
  H      -6.028552     -2.387470     -2.616804
  H      -4.271218     -2.478510     -2.458872
  C      -5.037415      0.248016     -2.312534
  H      -4.844247      1.194784     -1.792710
  H      -5.972478      0.361750     -2.896798
  H      -4.226355      0.053860     -3.032328
  H      -2.738178     -2.512742     -0.643129
41
Coordinates from ORCA-job orca E -847.146994881088
  C      -2.528530     -1.927225      0.257832
  H      -2.686146     -2.396386      1.232284
  C      -2.079054     -0.670383      0.159233
  C      -1.752824      0.217165      1.331269
  H      -0.657733      0.220156      1.493244
  H      -2.207518     -0.185505      2.249452
  C      -2.226214      1.642200      1.051510
  H      -1.937885      2.312972      1.875720
  H      -3.324867      1.657337      0.971329
  C      -1.594680      2.155343     -0.234036
  H      -0.501537      2.251714     -0.085537
  C      -2.149951      3.487868     -0.724675
  C      -1.876024      4.667597      0.210525
  H      -2.362469      4.493952      1.186081
  H      -0.791213      4.727206      0.417337
  C      -2.361684      5.998403     -0.364085
  H      -2.160192      6.834124      0.324947
  H      -3.447758      5.976122     -0.554662
  H      -1.864176      6.226078     -1.321756
  H      -3.236596      3.371588     -0.883664
  H      -1.708863      3.687017     -1.716035
  O      -1.765931      1.232746     -1.338867
  C      -1.949279     -0.095505     -1.222769
  O      -2.049684     -0.759253     -2.228878
  C      -5.157913     -0.884066     -1.351188
  C      -5.330386     -0.582715      0.058911
  O      -5.550768     -1.681764      0.827129
  C      -5.698232     -1.445317      2.219232
  H      -5.883888     -2.423440      2.681906
  H      -4.787706     -0.992466      2.644356
  H      -6.539784     -0.763802      2.420325
  O      -5.275694      0.539138      0.544369
  C      -5.191328     -2.269202     -1.898850
  H      -5.309600     -3.029485     -1.117322
  H      -6.019022     -2.377945     -2.625744
  H      -4.262234     -2.465309     -2.464909
  C      -5.038804      0.256754     -2.304307
  H      -4.844198      1.201002     -1.780463
  H      -5.977188      0.373434     -2.882543
  H      -4.230444      0.067366     -3.028303
  H      -2.737076     -2.514127     -0.635939
41
Coordinates from ORCA-job orca E -847.147010344871
  C      -2.526265     -1.925676      0.261234
  H      -2.684642     -2.394080      1.235908
  C      -2.079869     -0.667810      0.161446
  C      -1.757270      0.221867      1.332663
  H      -0.662267      0.226567      1.495624
  H      -2.211143     -0.180269      2.251502
  C      -2.231583      1.646187      1.051515
  H      -1.944480      2.318299      1.875092
  H      -3.330202      1.661440      0.970660
  C      -1.599069      2.157762     -0.234093
  H      -0.505552      2.250674     -0.086093
  C      -2.150141      3.491631     -0.725370
  C      -1.864938      4.672300      0.205114
  H      -2.343272      4.502560      1.185400
  H      -0.778218      4.729132      0.402344
  C      -2.351181      6.003470     -0.368275
  H      -2.138799      6.840348      0.316065
  H      -3.439261      5.985460     -0.547401
  H      -1.862510      6.226127     -1.331654
  H      -3.238124      3.380663     -0.879065
  H      -1.712644      3.685858     -1.719277
  O      -1.773756      1.234824     -1.338285
  C      -1.950619     -0.094469     -1.221324
  O      -2.047357     -0.759170     -2.226949
  C      -5.156363     -0.886732     -1.349342
  C      -5.331438     -0.591015      0.061530
  O      -5.545602     -1.694074      0.826403
  C      -5.705043     -1.460817      2.217663
  H      -5.888336     -2.440719      2.677606
  H      -4.801632     -1.002571      2.651988
  H      -6.552745     -0.785189      2.412817
  O      -5.284621      0.529650      0.550467
  C      -5.186179     -2.270384     -1.901651
  H      -5.300445     -3.033936     -1.122750
  H      -6.014778     -2.377841     -2.627750
  H      -4.257469     -2.459198     -2.470940
  C      -5.043837      0.258001     -2.298411
  H      -4.851039      1.201222     -1.772014
  H      -5.985386      0.373374     -2.871790
  H      -4.237565      0.075316     -3.026286
  H      -2.729432     -2.515393     -0.631861
41
Coordinates from ORCA-job orca E -847.147026935019
  C      -2.525879     -1.924936      0.269099
  H      -2.684276     -2.390492      1.245135
  C      -2.079758     -0.667160      0.165252
  C      -1.757513      0.225378      1.334281
  H      -0.662078      0.233174      1.494715
  H      -2.207367     -0.176301      2.255280
  C      -2.234311      1.648458      1.051114
  H      -1.948010      2.322900      1.873106
  H      -3.333096      1.662744      0.970937
  C      -1.602820      2.157808     -0.235872
  H      -0.509046      2.249688     -0.088983
  C      -2.152390      3.491342     -0.729252
  C      -1.858215      4.674116      0.195737
  H      -2.329531      4.508578      1.180176
  H      -0.769972      4.729180      0.384786
  C      -2.345657      6.004822     -0.377823
  H      -2.125109      6.843242      0.302028
  H      -3.435238      5.989385     -0.547741
  H      -1.864296      6.222975     -1.345907
  H      -3.241467      3.383617     -0.877461
  H      -1.718698      3.680648     -1.725748
  O      -1.779812      1.232806     -1.338021
  C      -1.950654     -0.097417     -1.218583
  O      -2.043584     -0.764551     -2.222833
  C      -5.152121     -0.881960     -1.345160
  C      -5.332579     -0.596163      0.067266
  O      -5.543840     -1.705671      0.823838
  C      -5.716021     -1.481727      2.215186
  H      -5.896655     -2.465597      2.667694
  H      -4.819584     -1.020108      2.660199
  H      -6.569955     -0.813013      2.406936
  O      -5.292771      0.521267      0.564184
  C      -5.178033     -2.262779     -1.905316
  H      -5.290141     -3.031721     -1.131703
  H      -6.006462     -2.367003     -2.632157
  H      -4.248488     -2.443406     -2.475881
  C      -5.043477      0.269256     -2.286233
  H      -4.849644      1.208964     -1.753942
  H      -5.988136      0.387946     -2.854015
  H      -4.241047      0.093489     -3.019920
  H      -2.727343     -2.518387     -0.621937
41
Coordinates from ORCA-job orca E -847.147043283267
  C      -2.522135     -1.923874      0.273090
  H      -2.679728     -2.386929      1.250503
  C      -2.079743     -0.664912      0.165808
  C      -1.761390      0.230236      1.334158
  H      -0.665929      0.242271      1.494705
  H      -2.209180     -0.172465      2.255650
  C      -2.240569      1.651921      1.048368
  H      -1.957202      2.328346      1.869772
  H      -3.339203      1.664804      0.966170
  C      -1.607259      2.159423     -0.238514
  H      -0.513431      2.249241     -0.090443
  C      -2.152987      3.493697     -0.733736
  C      -1.851349      4.676912      0.188393
  H      -2.320141      4.515124      1.174686
  H      -0.762314      4.727647      0.373960
  C      -2.335059      6.008889     -0.385415
  H      -2.108658      6.847209      0.292618
  H      -3.425266      5.997815     -0.551611
  H      -1.856036      6.223699     -1.355411
  H      -3.242839      3.390574     -0.879379
  H      -1.720255      3.679150     -1.731340
  O      -1.785984      1.233504     -1.339428
  C      -1.949856     -0.097882     -1.218328
  O      -2.037091     -0.766663     -2.221908
  C      -5.148989     -0.880210     -1.339730
  C      -5.334570     -0.602777      0.073968
  O      -5.544167     -1.717742      0.822694
  C      -5.727352     -1.503024      2.214286
  H      -5.904342     -2.490964      2.659300
  H      -4.836879     -1.038298      2.667870
  H      -6.587099     -0.841192      2.403726
  O      -5.300582      0.511680      0.577865
  C      -5.172294     -2.258662     -1.906098
  H      -5.278816     -3.032226     -1.136771
  H      -6.003996     -2.361527     -2.629538
  H      -4.244499     -2.432372     -2.481224
  C      -5.043525      0.276456     -2.273689
  H      -4.850469      1.213127     -1.735806
  H      -5.990044      0.397007     -2.838310
  H      -4.244200      0.108020     -3.012389
  H      -2.719645     -2.521643     -0.616062
41
Coordinates from ORCA-job orca E -847.147065141391
  C      -2.517890     -1.924333      0.278517
  H      -2.674277     -2.384209      1.257654
  C      -2.079329     -0.664246      0.167123
  C      -1.764901      0.234365      1.334223
  H      -0.669532      0.251085      1.495218
  H      -2.211263     -0.169009      2.256041
  C      -2.246768      1.654319      1.044306
  H      -1.966088      2.333361      1.864485
  H      -3.345320      1.665472      0.960142
  C      -1.611773      2.158964     -0.243003
  H      -0.517964      2.247506     -0.093663
  C      -2.154265      3.493516     -0.740893
  C      -1.848230      4.677605      0.178846
  H      -2.318039      4.519769      1.165301
  H      -0.759063      4.724008      0.364775
  C      -2.326420      6.010519     -0.397354
  H      -2.097860      6.848828      0.279958
  H      -3.416500      6.002979     -0.564686
  H      -1.845763      6.222448     -1.367176
  H      -3.244535      3.393855     -0.885595
  H      -1.721323      3.675578     -1.739018
  O      -1.792008      1.231533     -1.341981
  C      -1.949040     -0.100755     -1.217741
  O      -2.031253     -0.772302     -2.219938
  C      -5.143613     -0.873587     -1.331541
  C      -5.336611     -0.607900      0.083842
  O      -5.547195     -1.729663      0.821457
  C      -5.740493     -1.528109      2.213895
  H      -5.912960     -2.521358      2.648682
  H      -4.855465     -1.061294      2.675886
  H      -6.605950     -0.873862      2.403529
  O      -5.307920      0.502163      0.597666
  C      -5.163658     -2.247911     -1.907855
  H      -5.264949     -3.027803     -1.144571
  H      -5.998749     -2.348772     -2.627865
  H      -4.237523     -2.414301     -2.487321
  C      -5.039779      0.290994     -2.255167
  H      -4.845720      1.222544     -1.708863
  H      -5.987913      0.417097     -2.816249
  H      -4.244411      0.130355     -2.999893
  H      -2.712757     -2.526060     -0.608712
41
Coordinates from ORCA-job orca E -847.147083212110
  C      -2.509475     -1.925500      0.279916
  H      -2.665221     -2.383188      1.260195
  C      -2.079147     -0.662697      0.166321
  C      -1.774360      0.239925      1.333358
  H      -0.679961      0.261572      1.500232
  H      -2.224086     -0.164513      2.253004
  C      -2.258004      1.657982      1.037241
  H      -1.982021      2.339573      1.856878
  H      -3.356097      1.667553      0.947700
  C      -1.617505      2.159142     -0.248826
  H      -0.523841      2.244248     -0.095944
  C      -2.153165      3.495468     -0.749502
  C      -1.844864      4.679100      0.170231
  H      -2.321053      4.525208      1.154227
  H      -0.756467      4.718903      0.362097
  C      -2.312257      6.014130     -0.409745
  H      -2.084457      6.851403      0.269085
  H      -3.401208      6.011708     -0.584554
  H      -1.824235      6.223630     -1.376414
  H      -3.243449      3.400800     -0.897226
  H      -1.716573      3.674806     -1.746550
  O      -1.799541      1.231329     -1.346574
  C      -1.948122     -0.101916     -1.219261
  O      -2.024293     -0.776022     -2.220231
  C      -5.138577     -0.868828     -1.320724
  C      -5.339571     -0.615689      0.096205
  O      -5.551919     -1.744019      0.822427
  C      -5.753210     -1.555786      2.215873
  H      -5.919443     -2.554320      2.640755
  H      -4.873231     -1.085982      2.684331
  H      -6.624512     -0.909847      2.407085
  O      -5.316065      0.489781      0.620080
  C      -5.154920     -2.238069     -1.908533
  H      -5.246757     -3.024688     -1.151176
  H      -5.996738     -2.338692     -2.620952
  H      -4.233182     -2.396815     -2.496316
  C      -5.036584      0.304576     -2.233129
  H      -4.842738      1.230616     -1.677559
  H      -5.985676      0.436285     -2.791651
  H      -4.244485      0.152816     -2.983308
  H      -2.698060     -2.530593     -0.606606
41
Coordinates from ORCA-job orca E -847.147118092957
  C      -2.500772     -1.928027      0.279867
  H      -2.656864     -2.384690      1.260517
  C      -2.079413     -0.662248      0.165919
  C      -1.786251      0.244524      1.332946
  H      -0.693439      0.269317      1.509173
  H      -2.243283     -0.159854      2.248984
  C      -2.270163      1.660967      1.029422
  H      -1.998936      2.344956      1.848618
  H      -3.367724      1.669530      0.933270
  C      -1.622710      2.158109     -0.254756
  H      -0.529261      2.239169     -0.097840
  C      -2.150842      3.496334     -0.758627
  C      -1.843993      4.679504      0.162244
  H      -2.329798      4.529107      1.142053
  H      -0.757140      4.713594      0.363728
  C      -2.299545      6.016130     -0.423266
  H      -2.075669      6.852745      0.257670
  H      -3.386627      6.017956     -0.609497
  H      -1.800898      6.223402     -1.384978
  H      -3.240619      3.405585     -0.912409
  H      -1.708531      3.673749     -1.753537
  O      -1.806262      1.230002     -1.351539
  C      -1.947954     -0.103719     -1.220884
  O      -2.020021     -0.780648     -2.220281
  C      -5.133411     -0.862639     -1.309139
  C      -5.342013     -0.622903      0.109243
  O      -5.556931     -1.757489      0.824371
  C      -5.762228     -1.581738      2.219068
  H      -5.921789     -2.584856      2.635529
  H      -4.886201     -1.108758      2.691644
  H      -6.638511     -0.943604      2.413760
  O      -5.322522      0.477803      0.643334
  C      -5.145602     -2.225839     -1.910181
  H      -5.227748     -3.019573     -1.158836
  H      -5.994076     -2.326604     -2.614890
  H      -4.228402     -2.376790     -2.506714
  C      -5.032723      0.320219     -2.209841
  H      -4.838439      1.240449     -1.644962
  H      -5.982657      0.458592     -2.765480
  H      -4.242936      0.176398     -2.964141
  H      -2.682169     -2.534769     -0.607104
41
Coordinates from ORCA-job orca E -847.147145100468
  C      -2.491146     -1.930130      0.274741
  H      -2.649475     -2.388191      1.254324
  C      -2.080949     -0.660498      0.163821
  C      -1.803867      0.249466      1.332342
  H      -0.713660      0.275152      1.523461
  H      -2.273568     -0.154507      2.242159
  C      -2.285521      1.665007      1.021223
  H      -2.020754      2.350275      1.841405
  H      -3.382080      1.673444      0.915281
  C      -1.627482      2.158788     -0.258737
  H      -0.534429      2.233591     -0.095956
  C      -2.145219      3.499983     -0.765664
  C      -1.841247      4.681713      0.157901
  H      -2.338241      4.534168      1.132484
  H      -0.756415      4.710052      0.370842
  C      -2.283640      6.020311     -0.433070
  H      -2.063930      6.856096      0.250246
  H      -3.368477      6.027145     -0.631926
  H      -1.773121      6.225173     -1.389042
  H      -3.234064      3.413952     -0.928630
  H      -1.694733      3.675925     -1.757217
  O      -1.811736      1.231631     -1.356107
  C      -1.948147     -0.102359     -1.223932
  O      -2.016710     -0.780604     -2.222562
  C      -5.131496     -0.861329     -1.299108
  C      -5.344351     -0.631888      0.120210
  O      -5.559826     -1.770852      0.828150
  C      -5.764446     -1.602788      2.223952
  H      -5.916688     -2.608656      2.636450
  H      -4.891445     -1.125024      2.697163
  H      -6.644998     -0.971710      2.422646
  O      -5.327722      0.465499      0.661289
  C      -5.139829     -2.219625     -1.910553
  H      -5.209549     -3.018641     -1.163146
  H      -5.996158     -2.322829     -2.605541
  H      -4.228808     -2.363135     -2.517989
  C      -5.032954      0.328738     -2.191467
  H      -4.840522      1.245425     -1.620289
  H      -5.983243      0.470157     -2.745627
  H      -4.242836      0.191379     -2.946687
  H      -2.661589     -2.536916     -0.614380
41
Coordinates from ORCA-job orca E -847.147169806392
  C      -2.486254     -1.932664      0.273790
  H      -2.647636     -2.391699      1.252329
  C      -2.083278     -0.660564      0.164784
  C      -1.819044      0.252721      1.333451
  H      -0.731317      0.277375      1.537922
  H      -2.300933     -0.148981      2.237920
  C      -2.297517      1.667754      1.014820
  H      -2.038244      2.354622      1.835377
  H      -3.393367      1.676274      0.900615
  C      -1.630228      2.157745     -0.261532
  H      -0.537647      2.227891     -0.093798
  C      -2.140061      3.500149     -0.773176
  C      -1.840508      4.682208      0.151178
  H      -2.346147      4.537481      1.121711
  H      -0.757459      4.708212      0.373260
  C      -2.274243      6.020865     -0.446070
  H      -2.058212      6.857521      0.237358
  H      -3.357283      6.030319     -0.654365
  H      -1.754885      6.222460     -1.397965
  H      -3.227798      3.416404     -0.944788
  H      -1.682158      3.673978     -1.761747
  O      -1.813466      1.229732     -1.358676
  C      -1.948813     -0.103909     -1.224412
  O      -2.016578     -0.784211     -2.221713
  C      -5.129109     -0.854944     -1.289737
  C      -5.345590     -0.638213      0.130871
  O      -5.560645     -1.782971      0.830018
  C      -5.764072     -1.624767      2.227123
  H      -5.908678     -2.633808      2.634618
  H      -4.894771     -1.142420      2.702590
  H      -6.649281     -1.001715      2.430864
  O      -5.331431      0.454695      0.681121
  C      -5.133096     -2.207683     -1.913307
  H      -5.193581     -3.013184     -1.171324
  H      -5.993854     -2.310951     -2.602935
  H      -4.225353     -2.341423     -2.528370
  C      -5.031568      0.343037     -2.172456
  H      -4.839307      1.255565     -1.594555
  H      -5.982654      0.488959     -2.723829
  H      -4.240704      0.211025     -2.927751
  H      -2.648302     -2.539494     -0.616751
41
Coordinates from ORCA-job orca E -847.147195228036
  C      -2.480386     -1.932495      0.267233
  H      -2.646831     -2.394215      1.243696
  C      -2.088327     -0.656651      0.162373
  C      -1.843188      0.258761      1.333485
  H      -0.759276      0.281361      1.557251
  H      -2.342005     -0.141229      2.229563
  C      -2.315666      1.673866      1.007016
  H      -2.066085      2.361107      1.830206
  H      -3.409814      1.682896      0.878989
  C      -1.633162      2.161040     -0.261897
  H      -0.541562      2.223437     -0.085236
  C      -2.129992      3.506323     -0.778370
  C      -1.833206      4.686969      0.148435
  H      -2.347773      4.544917      1.114653
  H      -0.752036      4.708502      0.379878
  C      -2.255441      6.027346     -0.453353
  H      -2.040262      6.863712      0.230711
  H      -3.336723      6.042473     -0.670194
  H      -1.727342      6.225077     -1.401244
  H      -3.216333      3.428148     -0.961344
  H      -1.661720      3.677466     -1.762559
  O      -1.813727      1.233787     -1.360769
  C      -1.949285     -0.099680     -1.227086
  O      -2.014317     -0.779601     -2.224660
  C      -5.132423     -0.857164     -1.282330
  C      -5.347812     -0.648700      0.139227
  O      -5.557991     -1.797701      0.833510
  C      -5.756983     -1.645690      2.231706
  H      -5.891229     -2.656876      2.637516
  H      -4.891495     -1.156030      2.706437
  H      -6.647561     -1.031997      2.440952
  O      -5.335814      0.441581      0.694797
  C      -5.132082     -2.206901     -1.912528
  H      -5.177559     -3.016027     -1.173455
  H      -5.999577     -2.314356     -2.593127
  H      -4.230444     -2.330013     -2.538397
  C      -5.038124      0.345284     -2.160009
  H      -4.851694      1.256994     -1.578788
  H      -5.988850      0.488518     -2.712366
  H      -4.243167      0.218946     -2.911897
  H      -2.627806     -2.539794     -0.625566
41
Coordinates from ORCA-job orca E -847.147223241055
  C      -2.482753     -1.933617      0.272587
  H      -2.654136     -2.394756      1.248387
  C      -2.095638     -0.656144      0.166765
  C      -1.863242      0.263421      1.337146
  H      -0.782379      0.283348      1.575371
  H      -2.375769     -0.131692      2.227594
  C      -2.329634      1.678423      1.001192
  H      -2.088355      2.367951      1.824931
  H      -3.422746      1.687527      0.862244
  C      -1.634612      2.160372     -0.262452
  H      -0.544116      2.218557     -0.078116
  C      -2.122568      3.505273     -0.787814
  C      -1.828730      4.688410      0.136525
  H      -2.348389      4.551039      1.100674
  H      -0.748739      4.709064      0.373437
  C      -2.244716      6.027519     -0.472649
  H      -2.029136      6.866354      0.208259
  H      -3.325092      6.045409     -0.693639
  H      -1.712029      6.219028     -1.419250
  H      -3.207640      3.429686     -0.979350
  H      -1.646242      3.671061     -1.769038
  O      -1.810265      1.229829     -1.360118
  C      -1.951597     -0.102539     -1.223877
  O      -2.017534     -0.785049     -2.219909
  C      -5.132388     -0.846111     -1.272582
  C      -5.349419     -0.655695      0.151241
  O      -5.553837     -1.814288      0.831903
  C      -5.750878     -1.680187      2.231997
  H      -5.871500     -2.697075      2.627869
  H      -4.891730     -1.183957      2.711718
  H      -6.649403     -1.081150      2.450251
  O      -5.341175      0.427317      0.720921
  C      -5.123933     -2.189253     -1.917371
  H      -5.159795     -3.007009     -1.186887
  H      -5.991955     -2.296216     -2.597389
  H      -4.221989     -2.294470     -2.546905
  C      -5.040048      0.365667     -2.137637
  H      -4.856905      1.272456     -1.547575
  H      -5.990960      0.511315     -2.688787
  H      -4.242114      0.247319     -2.887497
  H      -2.620984     -2.543746     -0.619706
41
Coordinates from ORCA-job orca E -847.147257524269
  C      -2.485911     -1.929905      0.270111
  H      -2.661641     -2.391917      1.244822
  C      -2.106289     -0.650120      0.165419
  C      -1.887384      0.270260      1.338221
  H      -0.809710      0.286973      1.590816
  H      -2.412970     -0.121733      2.222437
  C      -2.345552      1.686195      0.996333
  H      -2.114018      2.375380      1.823127
  H      -3.436672      1.696914      0.844036
  C      -1.635376      2.165751     -0.259443
  H      -0.546400      2.217990     -0.064826
  C      -2.111562      3.512644     -0.790050
  C      -1.816648      4.694779      0.135221
  H      -2.340206      4.560175      1.097670
  H      -0.737447      4.710989      0.376001
  C      -2.224140      6.035745     -0.475796
  H      -2.004745      6.873903      0.204725
  H      -3.303970      6.059802     -0.698768
  H      -1.688272      6.223155     -1.421426
  H      -3.195635      3.443325     -0.989480
  H      -1.626848      3.674510     -1.767781
  O      -1.805393      1.235293     -1.358645
  C      -1.954925     -0.096265     -1.223951
  O      -2.020094     -0.777059     -2.221185
  C      -5.141672     -0.851343     -1.270802
  C      -5.352809     -0.664560      0.154100
  O      -5.546903     -1.826685      0.831926
  C      -5.735387     -1.699511      2.233422
  H      -5.842296     -2.718980      2.626696
  H      -4.878630     -1.195768      2.709314
  H      -6.639110     -1.111620      2.460672
  O      -5.346768      0.416974      0.726634
  C      -5.125698     -2.194685     -1.915659
  H      -5.149715     -3.012753     -1.186169
  H      -5.994837     -2.308821     -2.592953
  H      -4.225157     -2.288611     -2.548062
  C      -5.055039      0.360870     -2.135307
  H      -4.884301      1.269547     -1.544306
  H      -6.003192      0.496159     -2.693624
  H      -4.250134      0.249106     -2.878717
  H      -2.611613     -2.542716     -0.622291
41
Coordinates from ORCA-job orca E -847.147283093541
  C      -2.494858     -1.928345      0.280675
  H      -2.672130     -2.386411      1.256904
  C      -2.114717     -0.648947      0.170875
  C      -1.897055      0.274472      1.342127
  H      -0.819841      0.290163      1.596941
  H      -2.425860     -0.112345      2.226543
  C      -2.351016      1.690332      0.994451
  H      -2.123631      2.381572      1.820685
  H      -3.441761      1.701849      0.837416
  C      -1.634079      2.165603     -0.259060
  H      -0.546299      2.218827     -0.058237
  C      -2.107231      3.510665     -0.796995
  C      -1.811353      4.696170      0.123836
  H      -2.335112      4.566041      1.086809
  H      -0.732138      4.711656      0.364587
  C      -2.216797      6.035582     -0.491949
  H      -1.995210      6.875663      0.185466
  H      -3.296741      6.060857     -0.714200
  H      -1.681153      6.218468     -1.438592
  H      -3.191076      3.442866     -0.998009
  H      -1.619786      3.667345     -1.774172
  O      -1.797742      1.231307     -1.355692
  C      -1.957527     -0.098869     -1.218428
  O      -2.024772     -0.781424     -2.214768
  C      -5.144588     -0.842023     -1.265164
  C      -5.356805     -0.668850      0.161717
  O      -5.543987     -1.839093      0.827199
  C      -5.731930     -1.730596      2.230243
  H      -5.826469     -2.756060      2.610951
  H      -4.879598     -1.223411      2.710662
  H      -6.641862     -1.155802      2.466160
  O      -5.355472      0.406394      0.745847
  C      -5.118011     -2.180306     -1.920582
  H      -5.139695     -3.004576     -1.198226
  H      -5.981901     -2.293554     -2.604547
  H      -4.211772     -2.259340     -2.547195
  C      -5.060376      0.376893     -2.119582
  H      -4.896283      1.281337     -1.520219
  H      -6.006051      0.511864     -2.682261
  H      -4.252590      0.273798     -2.861284
  H      -2.619794     -2.546381     -0.608473
41
Coordinates from ORCA-job orca E -847.147302592722
  C      -2.498239     -1.925087      0.283253
  H      -2.674728     -2.380656      1.260850
  C      -2.121498     -0.644986      0.171315
  C      -1.905632      0.279155      1.342886
  H      -0.828814      0.294698      1.599391
  H      -2.436319     -0.104873      2.227337
  C      -2.356133      1.695165      0.992198
  H      -2.130886      2.386865      1.818644
  H      -3.446207      1.708693      0.831425
  C      -1.633746      2.168284     -0.259152
  H      -0.546901      2.221060     -0.052939
  C      -2.102662      3.514019     -0.799463
  C      -1.804219      4.699684      0.120622
  H      -2.330489      4.572475      1.082636
  H      -0.725436      4.710957      0.363528
  C      -2.203654      6.040053     -0.496849
  H      -1.981302      6.879450      0.181154
  H      -3.282969      6.068493     -0.721842
  H      -1.665251      6.221189     -1.442258
  H      -3.186500      3.449795     -1.001531
  H      -1.613067      3.668173     -1.775958
  O      -1.794414      1.233749     -1.355144
  C      -1.960279     -0.095787     -1.217151
  O      -2.027725     -0.778124     -2.213708
  C      -5.149979     -0.844210     -1.262956
  C      -5.361976     -0.675155      0.164627
  O      -5.543108     -1.848509      0.825623
  C      -5.729397     -1.747932      2.229468
  H      -5.815522     -2.776204      2.604459
  H      -4.878563     -1.237637      2.708911
  H      -6.642471     -1.180254      2.470161
  O      -5.365415      0.398370      0.751953
  C      -5.114359     -2.180824     -1.921154
  H      -5.133182     -3.006094     -1.200540
  H      -5.975507     -2.297817     -2.607825
  H      -4.205480     -2.253390     -2.543915
  C      -5.070983      0.377086     -2.113890
  H      -4.916215      1.280529     -1.510546
  H      -6.013692      0.506930     -2.682881
  H      -4.260470      0.282196     -2.854069
  H      -2.621680     -2.546135     -0.604206
41
Coordinates from ORCA-job orca E -847.147315531673
  C      -2.498773     -1.924311      0.287098
  H      -2.673955     -2.377038      1.266251
  C      -2.124342     -0.643728      0.173042
  C      -1.909591      0.282097      1.343583
  H      -0.833114      0.298101      1.601435
  H      -2.441656     -0.099322      2.228261
  C      -2.358516      1.697710      0.989271
  H      -2.133785      2.390706      1.814776
  H      -3.448319      1.712461      0.826686
  C      -1.633177      2.168236     -0.261461
  H      -0.546957      2.221646     -0.051912
  C      -2.100032      3.513820     -0.804321
  C      -1.802494      4.700614      0.114737
  H      -2.333246      4.576287      1.074674
  H      -0.724726      4.709626      0.362183
  C      -2.196629      6.040633     -0.506724
  H      -1.977252      6.880505      0.171654
  H      -3.274667      6.069948     -0.737734
  H      -1.653070      6.220200     -1.449460
  H      -3.183578      3.450619     -1.008294
  H      -1.608407      3.666251     -1.780085
  O      -1.791968      1.232671     -1.356015
  C      -1.961177     -0.096327     -1.215918
  O      -2.029270     -0.779778     -2.211673
  C      -5.150558     -0.840863     -1.257233
  C      -5.366021     -0.680755      0.171051
  O      -5.545013     -1.858421      0.824598
  C      -5.733710     -1.767054      2.228955
  H      -5.814439     -2.798107      2.597357
  H      -4.885550     -1.255052      2.711112
  H      -6.649828     -1.205261      2.471705
  O      -5.374352      0.389317      0.764616
  C      -5.107224     -2.172796     -1.924001
  H      -5.125281     -3.002140     -1.207719
  H      -5.966169     -2.289571     -2.613446
  H      -4.195824     -2.238958     -2.543920
  C      -5.074715      0.386288     -2.100048
  H      -4.924236      1.286020     -1.490110
  H      -6.016207      0.517363     -2.670869
  H      -4.263860      0.299415     -2.841028
  H      -2.623381     -2.547662     -0.598614
41
Coordinates from ORCA-job orca E -847.147324371512
  C      -2.498716     -1.923357      0.287186
  H      -2.672218     -2.375032      1.267115
  C      -2.125598     -0.642506      0.173355
  C      -1.910529      0.283610      1.343473
  H      -0.834133      0.298748      1.601633
  H      -2.443212     -0.095956      2.228622
  C      -2.358048      1.699508      0.988552
  H      -2.131807      2.392526      1.813616
  H      -3.447827      1.716432      0.826298
  C      -1.632051      2.168860     -0.262392
  H      -0.545968      2.221998     -0.051928
  C      -2.097895      3.514864     -0.805316
  C      -1.801933      4.701595      0.114326
  H      -2.336691      4.578423      1.072189
  H      -0.725126      4.709167      0.365970
  C      -2.191981      6.041711     -0.509443
  H      -1.975845      6.881633      0.169920
  H      -3.268806      6.071475     -0.746052
  H      -1.643645      6.220891     -1.449470
  H      -3.181153      3.451770     -1.010942
  H      -1.604992      3.667449     -1.780436
  O      -1.790564      1.233391     -1.356668
  C      -1.962284     -0.095232     -1.215967
  O      -2.031516     -0.778783     -2.211353
  C      -5.152277     -0.842225     -1.255716
  C      -5.368637     -0.684643      0.172535
  O      -5.546269     -1.863254      0.824766
  C      -5.735013     -1.773115      2.229395
  H      -5.814285     -2.804545      2.596982
  H      -4.887268     -1.260144      2.711169
  H      -6.651684     -1.212379      2.472356
  O      -5.379906      0.384967      0.766733
  C      -5.104122     -2.172287     -1.925379
  H      -5.123752     -3.002603     -1.210085
  H      -5.960746     -2.289759     -2.617556
  H      -4.190754     -2.237922     -2.542433
  C      -5.079920      0.387127     -2.095923
  H      -4.933560      1.286248     -1.484106
  H      -6.020920      0.516454     -2.667946
  H      -4.268377      0.305175     -2.836617
  H      -2.625040     -2.546892     -0.598005
41
Coordinates from ORCA-job orca E -847.147322339604
  C      -2.496804     -1.923065      0.287862
  H      -2.670320     -2.373911      1.268198
  C      -2.126668     -0.641253      0.173959
  C      -1.916244      0.286338      1.343479
  H      -0.841082      0.301293      1.606715
  H      -2.452961     -0.091800      2.226769
  C      -2.361955      1.701955      0.985296
  H      -2.137464      2.395731      1.810183
  H      -3.451172      1.719745      0.819574
  C      -1.632040      2.169355     -0.264020
  H      -0.546393      2.220806     -0.050903
  C      -2.094279      3.515650     -0.809253
  C      -1.801036      4.702771      0.110639
  H      -2.341375      4.581841      1.065649
  H      -0.725640      4.708764      0.368288
  C      -2.185070      6.042730     -0.517229
  H      -1.972110      6.883301      0.162338
  H      -3.260304      6.073813     -0.760813
  H      -1.630480      6.219821     -1.453967
  H      -3.176746      3.453271     -1.019335
  H      -1.597671      3.667153     -1.782686
  O      -1.789933      1.233388     -1.357868
  C      -1.962288     -0.095087     -1.216152
  O      -2.031118     -0.779393     -2.210909
  C      -5.152444     -0.840370     -1.250360
  C      -5.370661     -0.690638      0.178523
  O      -5.546839     -1.872580      0.825359
  C      -5.737497     -1.787981      2.230200
  H      -5.813460     -2.820809      2.594515
  H      -4.892596     -1.273148      2.714718
  H      -6.656642     -1.231479      2.473631
  O      -5.384896      0.376181      0.777725
  C      -5.099557     -2.166453     -1.927244
  H      -5.117677     -3.000557     -1.215893
  H      -5.955639     -2.282844     -2.620336
  H      -4.185706     -2.227378     -2.544398
  C      -5.083096      0.393730     -2.084191
  H      -4.940484      1.290630     -1.468221
  H      -6.024354      0.523085     -2.655771
  H      -4.270842      0.318560     -2.824887
  H      -2.621527     -2.547776     -0.596725
41
Coordinates from ORCA-job orca E -847.147331435460
  C      -2.497131     -1.922296      0.288507
  H      -2.670255     -2.372980      1.268951
  C      -2.127168     -0.640422      0.174816
  C      -1.917603      0.287912      1.343767
  H      -0.842743      0.301885      1.608352
  H      -2.455643     -0.088856      2.226896
  C      -2.362100      1.703722      0.984963
  H      -2.137327      2.397620      1.809660
  H      -3.451305      1.722886      0.818880
  C      -1.631190      2.169936     -0.264244
  H      -0.545545      2.220064     -0.050886
  C      -2.092014      3.516214     -0.810541
  C      -1.801341      4.703509      0.109804
  H      -2.345407      4.583679      1.062822
  H      -0.726938      4.709082      0.371588
  C      -2.181779      6.043303     -0.520711
  H      -1.971188      6.884421      0.158915
  H      -3.255899      6.074983     -0.769071
  H      -1.622872      6.219001     -1.455129
  H      -3.173904      3.453302     -1.023464
  H      -1.593257      3.667614     -1.782891
  O      -1.789068      1.233397     -1.357856
  C      -1.962702     -0.094863     -1.215830
  O      -2.031921     -0.779488     -2.210194
  C      -5.153549     -0.840102     -1.248724
  C      -5.371385     -0.693656      0.180403
  O      -5.546732     -1.876984      0.825259
  C      -5.737441     -1.794592      2.230274
  H      -5.812801     -2.827902      2.593357
  H      -4.893327     -1.279534      2.716010
  H      -6.657176     -1.239282      2.474250
  O      -5.386455      0.372121      0.781268
  C      -5.098051     -2.164527     -1.928429
  H      -5.118670     -3.000381     -1.219103
  H      -5.951534     -2.279411     -2.624965
  H      -4.182321     -2.224787     -2.543087
  C      -5.086872      0.395778     -2.080242
  H      -4.948347      1.292703     -1.463362
  H      -6.028352      0.522631     -2.651994
  H      -4.273416      0.324953     -2.819854
  H      -2.622340     -2.547264     -0.595705
41
Coordinates from ORCA-job orca E -847.147338175909
  C      -2.496904     -1.921217      0.289522
  H      -2.670704     -2.371750      1.269926
  C      -2.127807     -0.639051      0.175542
  C      -1.921587      0.290601      1.343947
  H      -0.847637      0.303921      1.612292
  H      -2.462796     -0.084983      2.225643
  C      -2.364286      1.706323      0.983009
  H      -2.141113      2.400718      1.807705
  H      -3.453115      1.726323      0.814466
  C      -1.630356      2.170797     -0.264993
  H      -0.544941      2.218767     -0.050156
  C      -2.088178      3.516918     -0.813842
  C      -1.802191      4.704421      0.107549
  H      -2.352617      4.586066      1.057077
  H      -0.729537      4.709212      0.376444
  C      -2.176603      6.044201     -0.526796
  H      -1.969722      6.885848      0.153300
  H      -3.248858      6.077066     -0.782905
  H      -1.610612      6.217955     -1.457301
  H      -3.168941      3.453458     -1.032311
  H      -1.584849      3.667994     -1.783887
  O      -1.787820      1.233283     -1.358253
  C      -1.962129     -0.094840     -1.215667
  O      -2.030529     -0.780052     -2.209592
  C      -5.154708     -0.838386     -1.244863
  C      -5.371605     -0.697845      0.184998
  O      -5.546670     -1.883817      0.825286
  C      -5.737374     -1.806748      2.230546
  H      -5.811524     -2.841341      2.590239
  H      -4.894493     -1.292045      2.718728
  H      -6.658139     -1.253895      2.476391
  O      -5.386196      0.365525      0.790079
  C      -5.097021     -2.160185     -1.929339
  H      -5.120366     -2.999301     -1.223975
  H      -5.947698     -2.271884     -2.629852
  H      -4.179464     -2.218570     -2.541622
  C      -5.090492      0.400350     -2.072281
  H      -4.958257      1.296773     -1.453259
  H      -6.031607      0.523965     -2.645345
  H      -4.274656      0.335909     -2.809793
  H      -2.620967     -2.547093     -0.594197
41
Coordinates from ORCA-job orca E -847.147351316440
  C      -2.498633     -1.919898      0.293787
  H      -2.673514     -2.369721      1.274305
  C      -2.128179     -0.638253      0.178115
  C      -1.923322      0.293432      1.345173
  H      -0.849804      0.306212      1.615356
  H      -2.466518     -0.080315      2.226413
  C      -2.364477      1.708895      0.981679
  H      -2.142283      2.404348      1.805746
  H      -3.453214      1.729610      0.811993
  C      -1.628682      2.170829     -0.266095
  H      -0.543396      2.217460     -0.050546
  C      -2.084785      3.515839     -0.818761
  C      -1.805598      4.704548      0.103079
  H      -2.363887      4.588187      1.048230
  H      -0.735194      4.709301      0.380850
  C      -2.173423      6.043659     -0.536738
  H      -1.971838      6.886410      0.143572
  H      -3.243276      6.077014     -0.802599
  H      -1.598675      6.214950     -1.462315
  H      -3.164164      3.450230     -1.043368
  H      -1.576451      3.666561     -1.786244
  O      -1.785532      1.231065     -1.358066
  C      -1.960975     -0.096728     -1.213863
  O      -2.028654     -0.783372     -2.206874
  C      -5.155412     -0.833213     -1.239645
  C      -5.370709     -0.701285      0.191307
  O      -5.547493     -1.891179      0.823860
  C      -5.738033     -1.823721      2.229487
  H      -5.812415     -2.860702      2.582240
  H      -4.895503     -1.312333      2.721868
  H      -6.659028     -1.272921      2.479259
  O      -5.382441      0.358087      0.803321
  C      -5.095981     -2.151088     -1.931412
  H      -5.127918     -2.995373     -1.232723
  H      -5.940002     -2.255192     -2.641069
  H      -4.173567     -2.208180     -2.536763
  C      -5.093097      0.409583     -2.060830
  H      -4.970052      1.304771     -1.438117
  H      -6.032477      0.529128     -2.637607
  H      -4.273261      0.353693     -2.794544
  H      -2.623207     -2.546949     -0.589000
41
Coordinates from ORCA-job orca E -847.147367165229
  C      -2.500111     -1.918772      0.297367
  H      -2.677012     -2.367910      1.277858
  C      -2.127495     -0.637954      0.179951
  C      -1.922875      0.295106      1.346117
  H      -0.849486      0.307964      1.616797
  H      -2.467012     -0.077812      2.227063
  C      -2.363303      1.710215      0.980589
  H      -2.141707      2.406650      1.804009
  H      -3.451989      1.730826      0.810697
  C      -1.626818      2.170415     -0.267325
  H      -0.541640      2.217190     -0.051372
  C      -2.082878      3.514148     -0.822957
  C      -1.810137      4.703947      0.099412
  H      -2.374877      4.588458      1.040804
  H      -0.741650      4.709247      0.384510
  C      -2.173651      6.042386     -0.544358
  H      -1.977253      6.885801      0.136634
  H      -3.241491      6.075195     -0.818235
  H      -1.591920      6.212742     -1.465733
  H      -3.161116      3.445988     -1.052147
  H      -1.570741      3.665216     -1.788372
  O      -1.782811      1.228799     -1.358126
  C      -1.958322     -0.098797     -1.212355
  O      -2.024578     -0.786594     -2.204726
  C      -5.155839     -0.828430     -1.235292
  C      -5.368759     -0.702679      0.196620
  O      -5.549520     -1.895251      0.822670
  C      -5.739081     -1.835717      2.228596
  H      -5.816333     -2.874650      2.574967
  H      -4.894878     -1.329943      2.723952
  H      -6.658444     -1.284031      2.482513
  O      -5.375129      0.353324      0.814499
  C      -5.097725     -2.143361     -1.932736
  H      -5.140446     -2.991750     -1.239944
  H      -5.935028     -2.238395     -2.651497
  H      -4.170490     -2.201890     -2.530527
  C      -5.092652      0.417327     -2.051654
  H      -4.978323      1.311174     -1.425391
  H      -6.028425      0.533637     -2.634930
  H      -4.267851      0.367866     -2.780408
  H      -2.625273     -2.546298     -0.585077
41
Coordinates from ORCA-job orca E -847.147380564320
  C      -2.502202     -1.918498      0.301826
  H      -2.681667     -2.366500      1.282342
  C      -2.126286     -0.638933      0.182408
  C      -1.919716      0.295089      1.347671
  H      -0.845910      0.308542      1.616566
  H      -2.463093     -0.077373      2.229201
  C      -2.360486      1.709792      0.980544
  H      -2.138121      2.407346      1.802840
  H      -3.449418      1.729592      0.812300
  C      -1.625516      2.168765     -0.268663
  H      -0.540315      2.217827     -0.053263
  C      -2.083972      3.510979     -0.826213
  C      -1.814716      4.702372      0.095279
  H      -2.381724      4.587156      1.035326
  H      -0.746928      4.709044      0.382970
  C      -2.178365      6.039680     -0.550694
  H      -1.985003      6.883765      0.130335
  H      -3.245523      6.070632     -0.827434
  H      -1.594463      6.210231     -1.470657
  H      -3.161899      3.440353     -1.055988
  H      -1.571290      3.662193     -1.791305
  O      -1.780776      1.225408     -1.357978
  C      -1.955485     -0.102029     -1.210053
  O      -2.020701     -0.791374     -2.201613
  C      -5.154950     -0.822874     -1.232226
  C      -5.366046     -0.701773      0.200432
  O      -5.552346     -1.896160      0.820882
  C      -5.740787     -1.843143      2.227086
  H      -5.823237     -2.883649      2.567511
  H      -4.893252     -1.344895      2.724496
  H      -6.656918     -1.287930      2.484974
  O      -5.366056      0.351220      0.823536
  C      -5.099957     -2.135327     -1.934736
  H      -5.156069     -2.986986     -1.247123
  H      -5.929823     -2.220088     -2.663185
  H      -4.166893     -2.197096     -2.523093
  C      -5.088418      0.425490     -2.044195
  H      -4.981007      1.317097     -1.413625
  H      -6.018990      0.540766     -2.635860
  H      -4.258230      0.380344     -2.767405
  H      -2.628515     -2.545666     -0.580754
41
Coordinates from ORCA-job orca E -847.147391906569
  C      -2.504353     -1.918996      0.306613
  H      -2.686474     -2.365273      1.287382
  C      -2.124959     -0.640652      0.185486
  C      -1.916093      0.294340      1.349640
  H      -0.841795      0.308608      1.616404
  H      -2.458312     -0.077477      2.232062
  C      -2.357632      1.708555      0.980766
  H      -2.133915      2.407356      1.801656
  H      -3.446843      1.727385      0.814518
  C      -1.624600      2.166399     -0.269986
  H      -0.539482      2.219170     -0.054911
  C      -2.086514      3.506926     -0.829165
  C      -1.818091      4.700595      0.089798
  H      -2.383975      4.585887      1.030594
  H      -0.749983      4.709331      0.376225
  C      -2.185168      6.036043     -0.557915
  H      -1.993027      6.881345      0.121957
  H      -3.252718      6.064129     -0.833493
  H      -1.602854      6.206894     -1.478825
  H      -3.164736      3.434345     -1.056872
  H      -1.575482      3.657425     -1.795253
  O      -1.778322      1.221357     -1.357585
  C      -1.952449     -0.105848     -1.207257
  O      -2.017104     -0.796793     -2.197890
  C      -5.153372     -0.816690     -1.229095
  C      -5.363929     -0.701002      0.204149
  O      -5.555742     -1.897323      0.818877
  C      -5.743665     -1.850334      2.225394
  H      -5.832114     -2.892166      2.560184
  H      -4.892584     -1.360057      2.724723
  H      -6.656098     -1.290638      2.486545
  O      -5.358743      0.348806      0.832693
  C      -5.101202     -2.125913     -1.938053
  H      -5.171418     -2.980798     -1.255616
  H      -5.923372     -2.199341     -2.676153
  H      -4.161695     -2.190928     -2.515956
  C      -5.081951      0.435236     -2.035344
  H      -4.980167      1.323307     -1.398996
  H      -6.006323      0.552022     -2.636198
  H      -4.245978      0.393850     -2.752469
  H      -2.631833     -2.545691     -0.576177
41
Coordinates from ORCA-job orca E -847.147400777282
  C      -2.507046     -1.918623      0.312411
  H      -2.691833     -2.362407      1.293766
  C      -2.124605     -0.641329      0.189642
  C      -1.914827      0.295406      1.352142
  H      -0.840471      0.309817      1.618574
  H      -2.457421     -0.074360      2.235110
  C      -2.355822      1.709189      0.980408
  H      -2.130752      2.409458      1.799682
  H      -3.445151      1.728113      0.815266
  C      -1.623323      2.164775     -0.271514
  H      -0.538461      2.220758     -0.055811
  C      -2.087478      3.503494     -0.833530
  C      -1.819835      4.699978      0.082074
  H      -2.385308      4.587152      1.023355
  H      -0.751621      4.710474      0.367996
  C      -2.188947      6.033117     -0.569098
  H      -1.998144      6.880357      0.108738
  H      -3.256609      6.058743     -0.844520
  H      -1.607272      6.202808     -1.490615
  H      -3.165844      3.429321     -1.060001
  H      -1.577372      3.652199     -1.800399
  O      -1.774762      1.217398     -1.356965
  C      -1.949591     -0.109397     -1.203796
  O      -2.013693     -0.802289     -2.193146
  C      -5.153134     -0.810375     -1.224073
  C      -5.362677     -0.704032      0.210032
  O      -5.558969     -1.903879      0.816448
  C      -5.746558     -1.865615      2.223395
  H      -5.841562     -2.909228      2.550719
  H      -4.891983     -1.384575      2.725720
  H      -6.655102     -1.301538      2.488518
  O      -5.353134      0.341190      0.846171
  C      -5.101713     -2.114280     -1.943027
  H      -5.190860     -2.973885     -1.268518
  H      -5.911903     -2.172381     -2.695287
  H      -4.152920     -2.182914     -2.505615
  C      -5.078089      0.447326     -2.021292
  H      -4.987629      1.330891     -1.377135
  H      -5.994262      0.563633     -2.634425
  H      -4.233321      0.414556     -2.728879
  H      -2.635068     -2.545654     -0.570063
41
Coordinates from ORCA-job orca E -847.147404604887
  C      -2.507772     -1.917823      0.315402
  H      -2.694606     -2.359738      1.297203
  C      -2.125650     -0.640384      0.192120
  C      -1.918967      0.298035      1.353633
  H      -0.845466      0.312495      1.623472
  H      -2.464375     -0.069996      2.235560
  C      -2.358539      1.711432      0.978676
  H      -2.134275      2.412792      1.797224
  H      -3.447493      1.730627      0.811576
  C      -1.623637      2.164945     -0.272591
  H      -0.539203      2.221447     -0.054819
  C      -2.086506      3.503059     -0.837205
  C      -1.817115      4.701260      0.075622
  H      -2.381465      4.590854      1.017886
  H      -0.748548      4.711756      0.360187
  C      -2.186378      6.033146     -0.578006
  H      -1.994360      6.881835      0.097678
  H      -3.254400      6.058681     -0.852061
  H      -1.605938      6.200623     -1.500703
  H      -3.165025      3.429832     -1.063298
  H      -1.576437      3.649084     -1.804506
  O      -1.773306      1.216130     -1.356824
  C      -1.948395     -0.110491     -1.201923
  O      -2.011441     -0.804782     -2.190315
  C      -5.153939     -0.807427     -1.219394
  C      -5.363011     -0.709659      0.215401
  O      -5.559531     -1.912931      0.815132
  C      -5.747853     -1.881646      2.222307
  H      -5.845920     -2.926648      2.544198
  H      -4.892196     -1.405700      2.727532
  H      -6.654895     -1.316204      2.489544
  O      -5.353184      0.331865      0.857585
  C      -5.100936     -2.106878     -1.946401
  H      -5.201451     -2.970050     -1.277979
  H      -5.902924     -2.155408     -2.707833
  H      -4.145967     -2.176758     -2.498490
  C      -5.077987      0.455290     -2.008836
  H      -4.997463      1.335332     -1.358606
  H      -5.988494      0.570341     -2.630380
  H      -4.226373      0.431004     -2.708748
  H      -2.633651     -2.545953     -0.566559
41
Coordinates from ORCA-job orca E -847.147411383414
  C      -2.507237     -1.916845      0.315110
  H      -2.694966     -2.357859      1.297149
  C      -2.126678     -0.638877      0.192541
  C      -1.923537      0.300308      1.353920
  H      -0.850805      0.314763      1.626873
  H      -2.471095     -0.066887      2.234969
  C      -2.362231      1.713548      0.977560
  H      -2.139202      2.415281      1.796110
  H      -3.450868      1.732961      0.808516
  C      -1.624747      2.166289     -0.272586
  H      -0.540656      2.222065     -0.052958
  C      -2.085602      3.504686     -0.838100
  C      -1.811444      4.703398      0.072556
  H      -2.371379      4.594403      1.017642
  H      -0.741575      4.713494      0.352158
  C      -2.182785      6.034928     -0.580632
  H      -1.986385      6.884324      0.092905
  H      -3.252210      6.061304     -0.849094
  H      -1.607056      6.200733     -1.506579
  H      -3.164686      3.433879     -1.062323
  H      -1.576772      3.648190     -1.806432
  O      -1.773056      1.217236     -1.356752
  C      -1.947999     -0.109419     -1.201705
  O      -2.009730     -0.803943     -2.189857
  C      -5.155446     -0.808654     -1.217757
  C      -5.364400     -0.714306      0.217123
  O      -5.558522     -1.919071      0.814863
  C      -5.748031     -1.889674      2.222054
  H      -5.848415     -2.934951      2.542306
  H      -4.891974     -1.416147      2.728916
  H      -6.654188     -1.322751      2.488990
  O      -5.357003      0.326167      0.860943
  C      -5.101093     -2.106542     -1.947587
  H      -5.207044     -2.970473     -1.281005
  H      -5.899017     -2.151519     -2.713331
  H      -4.142951     -2.178056     -2.493920
  C      -5.079310      0.456189     -2.003908
  H      -5.004938      1.334890     -1.351121
  H      -5.986683      0.569627     -2.630131
  H      -4.223354      0.436766     -2.698556
  H      -2.629996     -2.546066     -0.566411
41
Coordinates from ORCA-job orca E -847.147418874490
  C      -2.506881     -1.916645      0.316256
  H      -2.695489     -2.356939      1.298452
  C      -2.128470     -0.637933      0.193648
  C      -1.930181      0.302864      1.354441
  H      -0.858501      0.317838      1.631563
  H      -2.480630     -0.063250      2.234141
  C      -2.368088      1.715540      0.975335
  H      -2.148083      2.418198      1.793889
  H      -3.456202      1.734512      0.802598
  C      -1.626755      2.166915     -0.273028
  H      -0.543124      2.221146     -0.050877
  C      -2.084370      3.505459     -0.840632
  C      -1.805558      4.704943      0.067454
  H      -2.361273      4.597853      1.015271
  H      -0.734476      4.714554      0.342352
  C      -2.178354      6.036028     -0.585861
  H      -1.977127      6.886342      0.085087
  H      -3.249109      6.063708     -0.848825
  H      -1.607101      6.199342     -1.515023
  H      -3.163825      3.437436     -1.063953
  H      -1.575878      3.645657     -1.809609
  O      -1.773790      1.217018     -1.356803
  C      -1.948440     -0.109644     -1.201091
  O      -2.009087     -0.805256     -2.188597
  C      -5.155617     -0.806526     -1.214304
  C      -5.366558     -0.718341      0.220770
  O      -5.557022     -1.926088      0.813991
  C      -5.748544     -1.902205      2.221071
  H      -5.848328     -2.948711      2.537465
  H      -4.893748     -1.429681      2.731017
  H      -6.655675     -1.337164      2.488626
  O      -5.363671      0.319809      0.868354
  C      -5.097486     -2.101899     -1.948392
  H      -5.204142     -2.967808     -1.284468
  H      -5.893286     -2.145979     -2.716335
  H      -4.137326     -2.171071     -2.491487
  C      -5.079912      0.461370     -1.995582
  H      -5.008895      1.338028     -1.339662
  H      -5.986365      0.575325     -2.622968
  H      -4.221573      0.446166     -2.687314
  H      -2.626128     -2.547524     -0.564511
41
Coordinates from ORCA-job orca E -847.147419414772
  C      -2.505334     -1.916335      0.312990
  H      -2.693686     -2.357495      1.294904
  C      -2.128458     -0.637205      0.191588
  C      -1.931978      0.303007      1.353222
  H      -0.860473      0.318146      1.631076
  H      -2.482631     -0.063805      2.232587
  C      -2.370177      1.715675      0.974992
  H      -2.151538      2.417939      1.794248
  H      -3.458150      1.734377      0.801493
  C      -1.627576      2.168095     -0.272361
  H      -0.544083      2.221221     -0.049334
  C      -2.084052      3.507351     -0.839067
  C      -1.801761      4.706067      0.068899
  H      -2.353205      4.598135      1.019127
  H      -0.729490      4.715663      0.339112
  C      -2.177484      6.037709     -0.581599
  H      -1.972388      6.887553      0.088764
  H      -3.249567      6.066027     -0.838994
  H      -1.610917      6.201337     -1.513585
  H      -3.163943      3.441125     -1.060833
  H      -1.576649      3.646996     -1.808681
  O      -1.773949      1.219092     -1.357178
  C      -1.947852     -0.107764     -1.202708
  O      -2.006971     -0.802389     -2.190848
  C      -5.156664     -0.809660     -1.215571
  C      -5.368237     -0.718222      0.219048
  O      -5.556257     -1.924918      0.815130
  C      -5.748316     -1.898162      2.222019
  H      -5.849779     -2.943996      2.540112
  H      -4.893016     -1.426071      2.731599
  H      -6.654673     -1.331319      2.488311
  O      -5.368199      0.321710      0.863712
  C      -5.098654     -2.106925     -1.946243
  H      -5.202999     -2.970910     -1.279620
  H      -5.896313     -2.154126     -2.712115
  H      -4.139733     -2.177179     -2.491116
  C      -5.080321      0.456452     -1.999574
  H      -5.008746      1.334485     -1.345530
  H      -5.987055      0.569729     -2.626664
  H      -4.221833      0.439409     -2.690838
  H      -2.621964     -2.547427     -0.568017
41
Coordinates from ORCA-job orca E -847.147422539992
  C      -2.505170     -1.916855      0.312686
  H      -2.693573     -2.358516      1.294367
  C      -2.128475     -0.637717      0.191174
  C      -1.932401      0.302632      1.352861
  H      -0.860885      0.317899      1.630683
  H      -2.483184     -0.064095      2.232158
  C      -2.370761      1.715138      0.974396
  H      -2.153141      2.417605      1.793762
  H      -3.458710      1.733469      0.800555
  C      -1.627725      2.167667     -0.272627
  H      -0.544309      2.220461     -0.049226
  C      -2.083975      3.506820     -0.839669
  C      -1.801669      4.705599      0.068211
  H      -2.352120      4.597191      1.018956
  H      -0.729145      4.715794      0.337405
  C      -2.178684      6.037166     -0.581697
  H      -1.972858      6.886995      0.088454
  H      -3.251110      6.065227     -0.837673
  H      -1.613323      6.200948     -1.514394
  H      -3.163830      3.440608     -1.061583
  H      -1.576360      3.646294     -1.809186
  O      -1.773701      1.218489     -1.357528
  C      -1.947318     -0.108368     -1.203034
  O      -2.005706     -0.803194     -2.191167
  C      -5.156278     -0.808065     -1.214728
  C      -5.369216     -0.716825      0.219766
  O      -5.556415     -1.923872      0.815324
  C      -5.748901     -1.898459      2.222082
  H      -5.851591     -2.944578      2.538860
  H      -4.893082     -1.428085      2.732458
  H      -6.654639     -1.330949      2.489054
  O      -5.370842      0.322997      0.864601
  C      -5.097331     -2.105393     -1.945104
  H      -5.200919     -2.969503     -1.278546
  H      -5.895007     -2.153591     -2.710955
  H      -4.138475     -2.174865     -2.490210
  C      -5.079227      0.457857     -1.998862
  H      -5.006988      1.336024     -1.345062
  H      -5.986240      0.571794     -2.625462
  H      -4.220876      0.439688     -2.690211
  H      -2.620912     -2.548039     -0.568429
41
Coordinates from ORCA-job orca E -847.147426510683
  C      -2.504106     -1.918234      0.311241
  H      -2.692868     -2.361020      1.292356
  C      -2.128248     -0.638873      0.189648
  C      -1.933220      0.301414      1.351757
  H      -0.861881      0.316779      1.630183
  H      -2.484995     -0.065325      2.230329
  C      -2.371491      1.713709      0.972663
  H      -2.155669      2.416402      1.792335
  H      -3.459301      1.731297      0.798066
  C      -1.627732      2.166620     -0.273642
  H      -0.544480      2.219111     -0.049451
  C      -2.083723      3.505607     -0.841171
  C      -1.803569      4.704397      0.067420
  H      -2.355112      4.595097      1.017409
  H      -0.731381      4.715298      0.337899
  C      -2.180757      6.035931     -0.582436
  H      -1.975844      6.885529      0.088285
  H      -3.252962      6.063509     -0.839346
  H      -1.614588      6.200277     -1.514543
  H      -3.163193      3.438729     -1.064722
  H      -1.574675      3.645586     -1.809860
  O      -1.773154      1.217429     -1.358815
  C      -1.945643     -0.109505     -1.204215
  O      -2.002099     -0.804607     -2.192451
  C      -5.155536     -0.804830     -1.212252
  C      -5.370656     -0.714098      0.222103
  O      -5.557246     -1.921659      0.816518
  C      -5.750106     -1.898552      2.223082
  H      -5.857126     -2.945013      2.537325
  H      -4.892072     -1.433411      2.734583
  H      -6.653347     -1.327867      2.491710
  O      -5.374514      0.325407      0.867521
  C      -5.094990     -2.101921     -1.942644
  H      -5.198711     -2.966664     -1.276987
  H      -5.891647     -2.150938     -2.709600
  H      -4.135860     -2.170289     -2.487410
  C      -5.077277      0.460992     -1.996347
  H      -5.005287      1.339253     -1.342651
  H      -5.983787      0.575465     -2.623641
  H      -4.218588      0.441490     -2.687287
  H      -2.617629     -2.549135     -0.570500
41
Coordinates from ORCA-job orca E -847.147427143175
  C      -2.504234     -1.919326      0.310728
  H      -2.693008     -2.362486      1.291609
  C      -2.127825     -0.640149      0.189075
  C      -1.931779      0.299989      1.351230
  H      -0.860214      0.314937      1.628759
  H      -2.483397     -0.066226      2.230102
  C      -2.370016      1.712395      0.972370
  H      -2.153826      2.415056      1.791978
  H      -3.458029      1.729866      0.798728
  C      -1.627160      2.165491     -0.274328
  H      -0.543841      2.218601     -0.050572
  C      -2.084215      3.504152     -0.841788
  C      -1.806526      4.703061      0.067456
  H      -2.359905      4.593164      1.016298
  H      -0.734857      4.714623      0.340007
  C      -2.183420      6.034405     -0.582957
  H      -1.980589      6.883963      0.088445
  H      -3.255107      6.061135     -0.842109
  H      -1.615440      6.199428     -1.513837
  H      -3.163405      3.435892     -1.066241
  H      -1.574546      3.645082     -1.810011
  O      -1.772428      1.216168     -1.359421
  C      -1.944588     -0.110760     -1.204647
  O      -2.000392     -0.806084     -2.192861
  C      -5.155121     -0.802541     -1.211235
  C      -5.370903     -0.711820      0.223015
  O      -5.557776     -1.919410      0.817199
  C      -5.750564     -1.896919      2.223743
  H      -5.862265     -2.943254      2.536785
  H      -4.890138     -1.436596      2.735716
  H      -6.651037     -1.322355      2.493261
  O      -5.375246      0.327677      0.868435
  C      -5.093569     -2.099428     -1.941768
  H      -5.200279     -2.964560     -1.277010
  H      -5.887380     -2.147432     -2.711744
  H      -4.132878     -2.168257     -2.483926
  C      -5.076521      0.463257     -1.995346
  H      -5.005574      1.341677     -1.341763
  H      -5.982216      0.577252     -2.623915
  H      -4.217308      0.443528     -2.685645
  H      -2.617549     -2.549803     -0.571355
41
Coordinates from ORCA-job orca E -847.146605370492
  C      -2.472183     -1.942006      0.352718
  H      -2.666214     -2.378567      1.320529
  C      -2.107154     -0.654811      0.208591
  C      -1.917990      0.296859      1.358886
  H      -0.845395      0.325088      1.631727
  H      -2.466365     -0.064027      2.243492
  C      -2.374972      1.707905      0.971672
  H      -2.160301      2.411665      1.790740
  H      -3.474983      1.730709      0.793424
  C      -1.629686      2.159996     -0.274677
  H      -0.546859      2.214755     -0.048930
  C      -2.087111      3.499338     -0.844022
  C      -1.810045      4.697018      0.067033
  H      -2.366001      4.587032      1.014362
  H      -0.739056      4.706812      0.342330
  C      -2.183395      6.029493     -0.583117
  H      -1.981075      6.878147      0.089584
  H      -3.254383      6.057979     -0.844979
  H      -1.612806      6.194569     -1.512396
  H      -3.166351      3.436051     -1.071233
  H      -1.574844      3.639950     -1.810924
  O      -1.773785      1.209723     -1.358970
  C      -1.941310     -0.118565     -1.199127
  O      -2.000593     -0.810478     -2.187744
  C      -5.189162     -0.770962     -1.241686
  C      -5.396923     -0.698831      0.204916
  O      -5.555020     -1.919144      0.810902
  C      -5.733531     -1.897361      2.222041
  H      -5.839162     -2.943426      2.538153
  H      -4.873958     -1.437468      2.739610
  H      -6.638272     -1.328590      2.489645
  O      -5.405212      0.336327      0.859516
  C      -5.100346     -2.088246     -1.945288
  H      -5.199829     -2.956691     -1.277583
  H      -5.888447     -2.133973     -2.721292
  H      -4.133043     -2.165649     -2.478221
  C      -5.099265      0.480868     -2.009808
  H      -5.024990      1.358605     -1.355148
  H      -5.998332      0.599790     -2.647034
  H      -4.221636      0.451107     -2.691270
  H      -2.605084     -2.567602     -0.553962
41
Coordinates from ORCA-job orca E -847.147904629820
  C      -2.461459     -1.937107      0.343138
  H      -2.654830     -2.378612      1.322313
  C      -2.107264     -0.651828      0.205040
  C      -1.922187      0.299779      1.359140
  H      -0.850997      0.330438      1.636048
  H      -2.471098     -0.062948      2.241118
  C      -2.375480      1.707596      0.974056
  H      -2.161756      2.411473      1.793260
  H      -3.464047      1.727415      0.797621
  C      -1.632057      2.158940     -0.272291
  H      -0.548981      2.212577     -0.047948
  C      -2.087199      3.497634     -0.842306
  C      -1.809575      4.696388      0.067393
  H      -2.366713      4.588289      1.014217
  H      -0.738893      4.705479      0.343895
  C      -2.180824      6.028391     -0.584959
  H      -1.978752      6.877763      0.086909
  H      -3.251434      6.057496     -0.848326
  H      -1.608851      6.191825     -1.513665
  H      -3.165980      3.433591     -1.069847
  H      -1.574653      3.637211     -1.809263
  O      -1.779120      1.207304     -1.354668
  C      -1.946485     -0.120580     -1.195915
  O      -2.010568     -0.814188     -2.183904
  C      -5.194545     -0.779060     -1.233128
  C      -5.388682     -0.701207      0.207955
  O      -5.548756     -1.917127      0.803189
  C      -5.733670     -1.896012      2.210893
  H      -5.842132     -2.942720      2.524357
  H      -4.875327     -1.436811      2.728422
  H      -6.636769     -1.325078      2.479222
  O      -5.396170      0.332758      0.861709
  C      -5.102960     -2.089252     -1.941774
  H      -5.202526     -2.951719     -1.272936
  H      -5.889899     -2.142306     -2.718834
  H      -4.135784     -2.162258     -2.473219
  C      -5.103672      0.481351     -2.009134
  H      -5.027160      1.358634     -1.354478
  H      -6.002219      0.603081     -2.646952
  H      -4.234293      0.452361     -2.687599
  H      -2.591302     -2.555571     -0.546291
41
Coordinates from ORCA-job orca E -847.148130451388
  C      -2.455392     -1.935240      0.339085
  H      -2.646027     -2.377599      1.320819
  C      -2.107766     -0.649293      0.206297
  C      -1.923743      0.301363      1.362578
  H      -0.853219      0.331802      1.642259
  H      -2.473208     -0.063789      2.242986
  C      -2.374088      1.708197      0.977622
  H      -2.161536      2.413020      1.796427
  H      -3.460551      1.724779      0.800515
  C      -1.631668      2.159192     -0.269494
  H      -0.548228      2.212824     -0.046378
  C      -2.086799      3.496880     -0.840733
  C      -1.810000      4.696982      0.067416
  H      -2.368440      4.590525      1.013680
  H      -0.739690      4.706293      0.345320
  C      -2.180077      6.027977     -0.587622
  H      -1.979129      6.878411      0.083242
  H      -3.250241      6.056725     -0.852816
  H      -1.606575      6.189952     -1.515636
  H      -3.165534      3.431118     -1.068671
  H      -1.574226      3.635820     -1.807766
  O      -1.780196      1.206274     -1.350405
  C      -1.948200     -0.121160     -1.191501
  O      -2.014979     -0.816003     -2.179250
  C      -5.196403     -0.785510     -1.229490
  C      -5.384023     -0.701917      0.209548
  O      -5.545985     -1.914431      0.802326
  C      -5.732944     -1.895405      2.209221
  H      -5.842925     -2.942616      2.520544
  H      -4.873416     -1.437041      2.724455
  H      -6.633845     -1.322735      2.481263
  O      -5.389896      0.333678      0.860853
  C      -5.108165     -2.089177     -1.946608
  H      -5.211531     -2.950456     -1.277622
  H      -5.893029     -2.144626     -2.725489
  H      -4.140343     -2.158797     -2.476264
  C      -5.106248      0.479953     -2.009995
  H      -5.030070      1.356438     -1.354379
  H      -6.003866      0.602902     -2.648176
  H      -4.238642      0.452972     -2.688350
  H      -2.584225     -2.554893     -0.547351
41
Coordinates from ORCA-job orca E -847.148204139199
  C      -2.452415     -1.935419      0.338377
  H      -2.640310     -2.377160      1.320730
  C      -2.108150     -0.648133      0.208550
  C      -1.923708      0.301539      1.365586
  H      -0.853446      0.330348      1.646780
  H      -2.473683     -0.065179      2.245158
  C      -2.372398      1.708504      0.979984
  H      -2.161021      2.414440      1.798079
  H      -3.459204      1.722144      0.801797
  C      -1.630794      2.159360     -0.268013
  H      -0.547063      2.213275     -0.046052
  C      -2.086901      3.496455     -0.839561
  C      -1.811121      4.697284      0.067843
  H      -2.370515      4.591607      1.013642
  H      -0.741089      4.706924      0.346817
  C      -2.180640      6.027643     -0.588787
  H      -1.980917      6.878701      0.081654
  H      -3.250432      6.055858     -0.855534
  H      -1.605871      6.189010     -1.516118
  H      -3.165565      3.428974     -1.067467
  H      -1.574658      3.635445     -1.806754
  O      -1.780272      1.205986     -1.348329
  C      -1.948857     -0.121074     -1.188654
  O      -2.017204     -0.816866     -2.175886
  C      -5.195487     -0.789180     -1.229149
  C      -5.380722     -0.701688      0.209518
  O      -5.544810     -1.912007      0.803885
  C      -5.731853     -1.893451      2.210868
  H      -5.843258     -2.940564      2.521648
  H      -4.870366     -1.435824      2.723275
  H      -6.630768     -1.318809      2.485379
  O      -5.384256      0.336010      0.858035
  C      -5.112702     -2.088572     -1.952840
  H      -5.220701     -2.950047     -1.283942
  H      -5.895175     -2.144568     -2.733718
  H      -4.143804     -2.155915     -2.480546
  C      -5.107492      0.478167     -2.011481
  H      -5.032679      1.353779     -1.354555
  H      -6.004823      0.600958     -2.649574
  H      -4.240057      0.453268     -2.690864
  H      -2.579879     -2.557835     -0.547320
41
Coordinates from ORCA-job orca E -847.148236036873
  C      -2.451339     -1.936180      0.339475
  H      -2.636552     -2.376812      1.322122
  C      -2.108639     -0.647926      0.210473
  C      -1.923123      0.301148      1.367431
  H      -0.852873      0.328057      1.649038
  H      -2.473415     -0.066150      2.246699
  C      -2.371260      1.708395      0.981148
  H      -2.160816      2.415349      1.798495
  H      -3.458498      1.719547      0.802188
  C      -1.630325      2.159050     -0.267523
  H      -0.546380      2.213075     -0.046574
  C      -2.087478      3.496053     -0.838618
  C      -1.812419      4.697053      0.068706
  H      -2.372410      4.591538      1.014169
  H      -0.742560      4.706846      0.348367
  C      -2.181665      6.027226     -0.588478
  H      -1.982871      6.878458      0.082024
  H      -3.251194      6.055077     -0.856306
  H      -1.606019      6.188599     -1.515268
  H      -3.166078      3.427267     -1.066200
  H      -1.575712      3.635443     -1.806008
  O      -1.780679      1.205833     -1.347887
  C      -1.949662     -0.120952     -1.187286
  O      -2.018988     -0.817663     -2.173722
  C      -5.193337     -0.790700     -1.230482
  C      -5.378059     -0.701273      0.208289
  O      -5.544093     -1.910242      0.805158
  C      -5.730155     -1.890046      2.212441
  H      -5.842919     -2.936614      2.524240
  H      -4.866777     -1.432883      2.722215
  H      -6.627591     -1.313343      2.487529
  O      -5.379075      0.337978      0.854587
  C      -5.115963     -2.088195     -1.957726
  H      -5.227748     -2.950049     -1.289178
  H      -5.896459     -2.143940     -2.740290
  H      -4.145935     -2.154289     -2.483667
  C      -5.107978      0.476717     -2.012945
  H      -5.034865      1.351588     -1.354803
  H      -6.005644      0.598479     -2.650614
  H      -4.240807      0.453531     -2.693638
  H      -2.576710     -2.561658     -0.545122
41
Coordinates from ORCA-job orca E -847.148256980639
  C      -2.451402     -1.936800      0.341276
  H      -2.633675     -2.376550      1.324471
  C      -2.109460     -0.648152      0.211821
  C      -1.922708      0.300668      1.368485
  H      -0.852317      0.325987      1.649716
  H      -2.473010     -0.066675      2.247828
  C      -2.370926      1.708021      0.981794
  H      -2.161039      2.415797      1.798484
  H      -3.458313      1.717160      0.802511
  C      -1.630530      2.158398     -0.267330
  H      -0.546420      2.212244     -0.047231
  C      -2.088350      3.495596     -0.837755
  C      -1.813679      4.696505      0.069735
  H      -2.374209      4.591067      1.014878
  H      -0.743971      4.706179      0.349993
  C      -2.182462      6.026715     -0.587650
  H      -1.984329      6.877919      0.083083
  H      -3.251761      6.054467     -0.856410
  H      -1.606038      6.188174     -1.513937
  H      -3.166915      3.425976     -1.064974
  H      -1.576987      3.635382     -1.805309
  O      -1.781766      1.205588     -1.348028
  C      -1.950997     -0.120999     -1.186646
  O      -2.020976     -0.818611     -2.172241
  C      -5.191076     -0.790906     -1.232431
  C      -5.375684     -0.701030      0.206511
  O      -5.543322     -1.909178      0.805385
  C      -5.727724     -1.886164      2.213035
  H      -5.841687     -2.931997      2.526739
  H      -4.862749     -1.429312      2.720509
  H      -6.624040     -1.307514      2.487634
  O      -5.374430      0.339090      0.851459
  C      -5.118148     -2.088063     -1.960949
  H      -5.232447     -2.950288     -1.293062
  H      -5.897288     -2.142958     -2.744738
  H      -4.147162     -2.153714     -2.485441
  C      -5.108139      0.476016     -2.014248
  H      -5.036860      1.350345     -1.355180
  H      -6.006460      0.596301     -2.651374
  H      -4.241571      0.454194     -2.696234
  H      -2.574041     -2.565487     -0.541719
41
Coordinates from ORCA-job orca E -847.148273840052
  C      -2.452365     -1.937245      0.343551
  H      -2.630809     -2.376542      1.327607
  C      -2.110870     -0.648627      0.212882
  C      -1.922851      0.300245      1.369271
  H      -0.852182      0.324421      1.649476
  H      -2.472722     -0.066951      2.249001
  C      -2.371453      1.707512      0.982387
  H      -2.161732      2.416023      1.798434
  H      -3.458804      1.714977      0.803226
  C      -1.631544      2.157476     -0.267092
  H      -0.547282      2.210810     -0.047758
  C      -2.089491      3.495009     -0.836934
  C      -1.814868      4.695732      0.070760
  H      -2.375997      4.590511      1.015559
  H      -0.745317      4.704998      0.351650
  C      -2.182818      6.026103     -0.586794
  H      -1.985154      6.877190      0.084221
  H      -3.251868      6.054041     -0.856528
  H      -1.605528      6.187557     -1.512542
  H      -3.168037      3.424975     -1.063856
  H      -1.578386      3.635023     -1.804608
  O      -1.783783      1.205065     -1.348140
  C      -1.953136     -0.121360     -1.186115
  O      -2.023587     -0.819848     -2.170930
  C      -5.189017     -0.790309     -1.234651
  C      -5.373317     -0.700874      0.204451
  O      -5.542313     -1.908494      0.804598
  C      -5.724295     -1.882253      2.212723
  H      -5.839374     -2.927286      2.528706
  H      -4.857762     -1.425796      2.717929
  H      -6.619519     -1.301673      2.486675
  O      -5.369975      0.339628      0.848790
  C      -5.119536     -2.087923     -1.963105
  H      -5.235453     -2.950575     -1.296195
  H      -5.897737     -2.141238     -2.747842
  H      -4.147748     -2.153814     -2.486304
  C      -5.108191      0.476150     -2.015634
  H      -5.039031      1.350194     -1.355970
  H      -6.007309      0.594523     -2.652203
  H      -4.242514      0.455576     -2.698909
  H      -2.571396     -2.569539     -0.537327
41
Coordinates from ORCA-job orca E -847.148286705315
  C      -2.454088     -1.937631      0.345951
  H      -2.628056     -2.377147      1.330947
  C      -2.112746     -0.649320      0.213788
  C      -1.923716      0.299877      1.370021
  H      -0.852688      0.323635      1.648812
  H      -2.472690     -0.067189      2.250363
  C      -2.372698      1.706978      0.983176
  H      -2.162563      2.415996      1.798667
  H      -3.459945      1.713561      0.804637
  C      -1.633227      2.156427     -0.266634
  H      -0.548834      2.209043     -0.047885
  C      -2.090718      3.494226     -0.836349
  C      -1.815862      4.694843      0.071362
  H      -2.377543      4.590038      1.015874
  H      -0.746452      4.703580      0.352799
  C      -2.182824      6.025337     -0.586524
  H      -1.985381      6.876374      0.084614
  H      -3.251660      6.053616     -0.857081
  H      -1.604776      6.186543     -1.511843
  H      -3.169257      3.424275     -1.063179
  H      -1.579618      3.634109     -1.804043
  O      -1.786465      1.204153     -1.347792
  C      -1.955792     -0.122166     -1.185375
  O      -2.026487     -0.821221     -2.169750
  C      -5.187557     -0.788970     -1.236505
  C      -5.371292     -0.700422      0.202672
  O      -5.541225     -1.907857      0.802991
  C      -5.720330     -1.879442      2.211631
  H      -5.836347     -2.923900      2.529279
  H      -4.852304     -1.423716      2.714878
  H      -6.614401     -1.297241      2.485714
  O      -5.366420      0.339981      0.847222
  C      -5.119818     -2.087253     -1.964184
  H      -5.236591     -2.950353     -1.298346
  H      -5.897536     -2.138280     -2.749549
  H      -4.147529     -2.154193     -2.486397
  C      -5.108124      0.477374     -2.016989
  H      -5.041045      1.351535     -1.357296
  H      -6.007957      0.593706     -2.653140
  H      -4.243349      0.457828     -2.701303
  H      -2.569159     -2.573342     -0.532777
41
Coordinates from ORCA-job orca E -847.148299444859
  C      -2.456157     -1.938186      0.348228
  H      -2.625482     -2.378495      1.334011
  C      -2.114799     -0.650229      0.214738
  C      -1.925148      0.299495      1.370842
  H      -0.853754      0.323551      1.648180
  H      -2.472914     -0.067509      2.251915
  C      -2.374304      1.706454      0.984203
  H      -2.163196      2.415699      1.799289
  H      -3.461522      1.713168      0.806713
  C      -1.635285      2.155328     -0.265996
  H      -0.550769      2.207237     -0.047675
  C      -2.091959      3.493186     -0.836107
  C      -1.816666      4.693894      0.071342
  H      -2.378705      4.589688      1.015707
  H      -0.747338      4.702161      0.353109
  C      -2.182732      6.024389     -0.587054
  H      -1.985161      6.875523      0.083928
  H      -3.251447      6.053070     -0.858034
  H      -1.604270      6.185060     -1.512200
  H      -3.170500      3.423727     -1.063052
  H      -1.580638      3.632590     -1.803751
  O      -1.789426      1.202807     -1.346868
  C      -1.958552     -0.123471     -1.184278
  O      -2.029264     -0.822610     -2.168670
  C      -5.186661     -0.787098     -1.237581
  C      -5.369884     -0.699304      0.201553
  O      -5.540292     -1.906830      0.801131
  C      -5.716450     -1.878169      2.210218
  H      -5.833233     -2.922450      2.528239
  H      -4.846938     -1.423657      2.711914
  H      -6.609240     -1.294778      2.485797
  O      -5.364272      0.340677      0.846857
  C      -5.118854     -2.085701     -1.964621
  H      -5.236229     -2.949185     -1.299710
  H      -5.896376     -2.134027     -2.750400
  H      -4.146361     -2.154374     -2.486156
  C      -5.107958      0.479477     -2.018180
  H      -5.042584      1.354189     -1.359074
  H      -6.008296      0.593900     -2.654086
  H      -4.243848      0.460748     -2.703117
  H      -2.567607     -2.576556     -0.528845
41
Coordinates from ORCA-job orca E -847.148307256845
  C      -2.457776     -1.939033      0.349917
  H      -2.623540     -2.380274      1.336096
  C      -2.116408     -0.651228      0.215700
  C      -1.926539      0.299025      1.371592
  H      -0.854895      0.323723      1.647983
  H      -2.473274     -0.067914      2.253281
  C      -2.375525      1.706017      0.985195
  H      -2.163143      2.415143      1.800096
  H      -3.462871      1.713796      0.808867
  C      -1.636965      2.154403     -0.265449
  H      -0.552352      2.205965     -0.047411
  C      -2.093007      3.492091     -0.836231
  C      -1.817276      4.693071      0.070764
  H      -2.379317      4.589395      1.015193
  H      -0.747936      4.701124      0.352488
  C      -2.182921      6.023442     -0.588134
  H      -1.984922      6.874781      0.082461
  H      -3.251670      6.052426     -0.858958
  H      -1.604543      6.183499     -1.513442
  H      -3.171563      3.423218     -1.063359
  H      -1.581468      3.630900     -1.803838
  O      -1.791731      1.201352     -1.345723
  C      -1.960573     -0.124977     -1.183106
  O      -2.031140     -0.823792     -2.167840
  C      -5.186062     -0.785164     -1.237687
  C      -5.369378     -0.697558      0.201287
  O      -5.539819     -1.905358      0.799781
  C      -5.713780     -1.878358      2.209092
  H      -5.831111     -2.922891      2.526092
  H      -4.842997     -1.425333      2.709880
  H      -6.605390     -1.294365      2.487186
  O      -5.363962      0.341960      0.847374
  C      -5.117057     -2.083535     -1.964760
  H      -5.235251     -2.947176     -1.300287
  H      -5.894499     -2.129627     -2.750817
  H      -4.144579     -2.154103     -2.485920
  C      -5.107652      0.481724     -2.018916
  H      -5.043130      1.357235     -1.360779
  H      -6.008223      0.594832     -2.654735
  H      -4.243729      0.463541     -2.703954
  H      -2.567098     -2.578587     -0.526515
41
Coordinates from ORCA-job orca E -847.148314581717
  C      -2.458729     -1.940124      0.351223
  H      -2.622086     -2.382017      1.337549
  C      -2.117535     -0.652242      0.216701
  C      -1.927471      0.298462      1.372199
  H      -0.855689      0.323638      1.648139
  H      -2.473557     -0.068226      2.254362
  C      -2.376028      1.705622      0.985999
  H      -2.162268      2.414445      1.800841
  H      -3.463607      1.714915      0.810786
  C      -1.638046      2.153530     -0.265202
  H      -0.553343      2.205134     -0.047508
  C      -2.093943      3.490930     -0.836540
  C      -1.817903      4.692214      0.070014
  H      -2.379601      4.588794      1.014680
  H      -0.748466      4.700354      0.351349
  C      -2.183723      6.022404     -0.589149
  H      -1.985223      6.873946      0.081035
  H      -3.252619      6.051479     -0.859386
  H      -1.605829      6.182054     -1.514833
  H      -3.172528      3.422450     -1.063727
  H      -1.582352      3.629311     -1.804177
  O      -1.793299      1.199897     -1.344779
  C      -1.961873     -0.126517     -1.182065
  O      -2.032250     -0.824973     -2.167115
  C      -5.185190     -0.783288     -1.237357
  C      -5.369371     -0.695420      0.201402
  O      -5.539693     -1.903521      0.799026
  C      -5.712187     -1.878825      2.208371
  H      -5.829987     -2.923775      2.523781
  H      -4.840273     -1.427342      2.708606
  H      -6.602768     -1.294516      2.489188
  O      -5.364762      0.343770      0.847985
  C      -5.115067     -2.081144     -1.964982
  H      -5.234674     -2.944665     -1.300512
  H      -5.892299     -2.125753     -2.751363
  H      -4.142603     -2.153472     -2.485790
  C      -5.107158      0.483716     -2.019374
  H      -5.042808      1.360042     -1.362281
  H      -6.007829      0.595965     -2.655140
  H      -4.243081      0.465956     -2.704204
  H      -2.567353     -2.579817     -0.525292
41
Coordinates from ORCA-job orca E -847.148315981843
  C      -2.459096     -1.941295      0.352287
  H      -2.620986     -2.383406      1.338695
  C      -2.118294     -0.653205      0.217638
  C      -1.927882      0.297815      1.372658
  H      -0.856058      0.323017      1.648505
  H      -2.473762     -0.068376      2.255158
  C      -2.375879      1.705214      0.986580
  H      -2.160810      2.413683      1.801403
  H      -3.463707      1.715984      0.812349
  C      -1.638579      2.152658     -0.265254
  H      -0.553776      2.204534     -0.048068
  C      -2.094807      3.489800     -0.836831
  C      -1.818603      4.691307      0.069404
  H      -2.379753      4.587855      1.014395
  H      -0.749010      4.699751      0.350149
  C      -2.185090      6.021303     -0.589749
  H      -1.986211      6.873003      0.080126
  H      -3.254183      6.050209     -0.859221
  H      -1.607871      6.180857     -1.515867
  H      -3.173440      3.421391     -1.063844
  H      -1.583423      3.628041     -1.804608
  O      -1.794296      1.198568     -1.344254
  C      -1.962689     -0.127923     -1.181297
  O      -2.032903     -0.826269     -2.166415
  C      -5.183853     -0.781554     -1.237099
  C      -5.369398     -0.693326      0.201447
  O      -5.539636     -1.901663      0.798630
  C      -5.711208     -1.878730      2.207916
  H      -5.829484     -2.924011      2.522001
  H      -4.838306     -1.428620      2.707705
  H      -6.600946     -1.294120      2.490858
  O      -5.365831      0.345722      0.848182
  C      -5.113407     -2.078992     -1.965331
  H      -5.234897     -2.942194     -1.300632
  H      -5.890237     -2.122878     -2.752158
  H      -4.140822     -2.152739     -2.485633
  C      -5.106504      0.485323     -2.019707
  H      -5.041965      1.362303     -1.363481
  H      -6.007262      0.596982     -2.655367
  H      -4.242138      0.467997     -2.704250
  H      -2.568072     -2.580626     -0.524564
41
Coordinates from ORCA-job orca E -847.148317571333
  C      -2.459232     -1.942593      0.353446
  H      -2.620005     -2.384588      1.340001
  C      -2.119036     -0.654252      0.218631
  C      -1.927976      0.297027      1.373108
  H      -0.856138      0.321793      1.648990
  H      -2.473953     -0.068333      2.255919
  C      -2.375262      1.704711      0.987088
  H      -2.158739      2.412823      1.801830
  H      -3.463341      1.716937      0.813942
  C      -1.638862      2.151583     -0.265527
  H      -0.553915      2.203787     -0.049148
  C      -2.095772      3.488509     -0.837069
  C      -1.819448      4.690186      0.068918
  H      -2.379791      4.586455      1.014353
  H      -0.749636      4.699145      0.348815
  C      -2.187095      6.019985     -0.589963
  H      -1.987894      6.871804      0.079668
  H      -3.256458      6.048485     -0.858410
  H      -1.610809      6.179720     -1.516635
  H      -3.174493      3.419877     -1.063611
  H      -1.584897      3.626823     -1.805108
  O      -1.795248      1.197147     -1.344026
  C      -1.963507     -0.129390     -1.180624
  O      -2.033530     -0.827973     -2.165520
  C      -5.181920     -0.779645     -1.237141
  C      -5.369212     -0.691182      0.201197
  O      -5.539451     -1.899704      0.798232
  C      -5.710228     -1.877817      2.207478
  H      -5.829107     -2.923295      2.520675
  H      -4.836286     -1.429085      2.706725
  H      -6.599140     -1.292719      2.492017
  O      -5.366871      0.347834      0.847886
  C      -5.111911     -2.076898     -1.965796
  H      -5.235791     -2.939662     -1.300842
  H      -5.888056     -2.120468     -2.753306
  H      -4.138979     -2.151935     -2.485240
  C      -5.105612      0.486960     -2.020117
  H      -5.040771      1.364511     -1.364661
  H      -6.006514      0.598004     -2.655619
  H      -4.240933      0.470250     -2.704372
  H      -2.569248     -2.581430     -0.523723
41
Coordinates from ORCA-job orca E -847.148319502024
  C      -2.459372     -1.943753      0.354622
  H      -2.619345     -2.385430      1.341401
  C      -2.119787     -0.655244      0.219544
  C      -1.927865      0.296177      1.373606
  H      -0.856025      0.320111      1.649496
  H      -2.474156     -0.068168      2.256681
  C      -2.374402      1.704138      0.987621
  H      -2.156386      2.411988      1.802174
  H      -3.462692      1.717507      0.815658
  C      -1.639095      2.150428     -0.265841
  H      -0.553954      2.202896     -0.050538
  C      -2.096883      3.487198     -0.837126
  C      -1.820420      4.689010      0.068622
  H      -2.379955      4.585008      1.014496
  H      -0.750387      4.698467      0.347660
  C      -2.189232      6.018619     -0.589974
  H      -1.989823      6.870542      0.079463
  H      -3.258837      6.046643     -0.857488
  H      -1.613816      6.178608     -1.517145
  H      -3.175723      3.418079     -1.062900
  H      -1.586775      3.625713     -1.805550
  O      -1.796337      1.195796     -1.344004
  C      -1.964436     -0.130725     -1.180044
  O      -2.034231     -0.829862     -2.164501
  C      -5.179809     -0.777733     -1.237566
  C      -5.368653     -0.689361      0.200631
  O      -5.538957     -1.898005      0.797660
  C      -5.709016     -1.876268      2.206954
  H      -5.828610     -2.921760      2.519881
  H      -4.834088     -1.428782      2.705604
  H      -6.597179     -1.290461      2.492315
  O      -5.367382      0.349669      0.847243
  C      -5.110724     -2.075110     -1.966253
  H      -5.236958     -2.937501     -1.301234
  H      -5.885954     -2.118586     -2.754651
  H      -4.137226     -2.151131     -2.484512
  C      -5.104649      0.488618     -2.020603
  H      -5.039634      1.366574     -1.365689
  H      -6.005738      0.598980     -2.655935
  H      -4.239758      0.472725     -2.704687
  H      -2.570801     -2.582224     -0.522632
41
Coordinates from ORCA-job orca E -847.148322328429
  C      -2.459743     -1.944634      0.355735
  H      -2.619368     -2.385949      1.342753
  C      -2.120461     -0.656117      0.220329
  C      -1.927581      0.295318      1.374211
  H      -0.855709      0.318251      1.649989
  H      -2.474277     -0.068016      2.257479
  C      -2.373456      1.703504      0.988270
  H      -2.154033      2.411244      1.802527
  H      -3.461919      1.717562      0.817576
  C      -1.639372      2.149343     -0.266056
  H      -0.554003      2.201914     -0.051993
  C      -2.098045      3.486025     -0.837003
  C      -1.821310      4.688010      0.068412
  H      -2.380049      4.583908      1.014742
  H      -0.751053      4.697900      0.346588
  C      -2.191192      6.017405     -0.590014
  H      -1.991593      6.869475      0.079180
  H      -3.261027      6.044953     -0.856661
  H      -1.616600      6.177554     -1.517670
  H      -3.177046      3.416278     -1.061761
  H      -1.588909      3.624716     -1.805918
  O      -1.797592      1.194602     -1.344021
  C      -1.965409     -0.131852     -1.179496
  O      -2.034917     -0.831680     -2.163462
  C      -5.178018     -0.776021     -1.238244
  C      -5.367820     -0.688055      0.199899
  O      -5.538222     -1.896757      0.796920
  C      -5.707669     -1.874539      2.206357
  H      -5.828104     -2.919893      2.519466
  H      -4.831892     -1.428151      2.704490
  H      -6.595153     -1.287826      2.491839
  O      -5.367219      0.350971      0.846526
  C      -5.109771     -2.073678     -1.966670
  H      -5.237873     -2.935944     -1.301904
  H      -5.883909     -2.117050     -2.756128
  H      -4.135528     -2.150258     -2.483508
  C      -5.103780      0.490240     -2.021086
  H      -5.038860      1.368399     -1.366441
  H      -6.005031      0.599899     -2.656300
  H      -4.238824      0.475285     -2.705136
  H      -2.572734     -2.582947     -0.521355
41
Coordinates from ORCA-job orca E -847.148327391602
  C      -2.460431     -1.945131      0.356693
  H      -2.620275     -2.386177      1.343849
  C      -2.120944     -0.656772      0.221001
  C      -1.927149      0.294601      1.374919
  H      -0.855213      0.316634      1.650445
  H      -2.474199     -0.067940      2.258305
  C      -2.372610      1.702931      0.989067
  H      -2.151967      2.410757      1.802930
  H      -3.461227      1.717181      0.819691
  C      -1.639795      2.148490     -0.266053
  H      -0.554192      2.201050     -0.053244
  C      -2.099266      3.485051     -0.836727
  C      -1.822038      4.687280      0.068177
  H      -2.380106      4.583402      1.014923
  H      -0.751588      4.697364      0.345596
  C      -2.192564      6.016453     -0.590352
  H      -1.992732      6.868726      0.078517
  H      -3.262569      6.043700     -0.856344
  H      -1.618593      6.176505     -1.518407
  H      -3.178471      3.414690     -1.060299
  H      -1.591200      3.623747     -1.806199
  O      -1.798988      1.193680     -1.343905
  C      -1.966276     -0.132693     -1.178919
  O      -2.035437     -0.833134     -2.162507
  C      -5.176935     -0.774666     -1.238944
  C      -5.366883     -0.687271      0.199232
  O      -5.537328     -1.896006      0.796129
  C      -5.706344     -1.873237      2.205753
  H      -5.827712     -2.918420      2.519115
  H      -4.829920     -1.427836      2.703609
  H      -6.593213     -1.285542      2.490978
  O      -5.366421      0.351701      0.846015
  C      -5.108914     -2.072546     -1.967068
  H      -5.238161     -2.934989     -1.302856
  H      -5.881833     -2.115687     -2.757717
  H      -4.133823     -2.149203     -2.482373
  C      -5.103202      0.491730     -2.021440
  H      -5.038695      1.369913     -1.366796
  H      -6.004546      0.600748     -2.656664
  H      -4.238295      0.477731     -2.705563
  H      -2.575016     -2.583423     -0.520106
41
Coordinates from ORCA-job orca E -847.147185535181
  C      -2.429488     -1.968617      0.399036
  H      -2.594375     -2.402943      1.372815
  C      -2.101168     -0.671500      0.240942
  C      -1.914111      0.292068      1.382562
  H      -0.841242      0.327252      1.653404
  H      -2.457720     -0.065229      2.271399
  C      -2.377868      1.698882      0.988217
  H      -2.158638      2.407892      1.801433
  H      -3.478247      1.718437      0.814318
  C      -1.642477      2.143034     -0.266307
  H      -0.557362      2.197087     -0.051377
  C      -2.102131      3.480265     -0.839020
  C      -1.825469      4.681300      0.067645
  H      -2.386187      4.577452      1.012832
  H      -0.755734      4.689529      0.347890
  C      -2.192254      6.011597     -0.590719
  H      -1.992896      6.862995      0.079407
  H      -3.261518      6.040688     -0.859504
  H      -1.615599      6.171578     -1.517126
  H      -3.181436      3.414938     -1.065453
  H      -1.591371      3.618550     -1.807139
  O      -1.800467      1.187097     -1.343066
  C      -1.963427     -0.140679     -1.172760
  O      -2.035847     -0.837679     -2.156675
  C      -5.210564     -0.742884     -1.270095
  C      -5.392499     -0.674025      0.181057
  O      -5.534439     -1.895126      0.790183
  C      -5.688933     -1.873622      2.203960
  H      -5.803603     -2.918951      2.519426
  H      -4.813183     -1.429121      2.707237
  H      -6.580181     -1.294051      2.492309
  O      -5.395796      0.360587      0.837040
  C      -5.115469     -2.061325     -1.971240
  H      -5.237418     -2.927156     -1.304323
  H      -5.882185     -2.103234     -2.768020
  H      -4.134088     -2.146291     -2.477709
  C      -5.125660      0.509578     -2.036058
  H      -5.057792      1.387177     -1.380286
  H      -6.020366      0.623623     -2.679838
  H      -4.242288      0.485273     -2.711020
  H      -2.563574     -2.601055     -0.502917
41
Coordinates from ORCA-job orca E -847.148533820561
  C      -2.418222     -1.962119      0.389445
  H      -2.582632     -2.401674      1.374890
  C      -2.100508     -0.668288      0.237351
  C      -1.917943      0.294826      1.383093
  H      -0.846409      0.332520      1.657763
  H      -2.462344     -0.064259      2.269465
  C      -2.378201      1.698406      0.990856
  H      -2.160299      2.407725      1.804175
  H      -3.467452      1.714974      0.818861
  C      -1.644691      2.141956     -0.263801
  H      -0.559321      2.194574     -0.050308
  C      -2.101935      3.478443     -0.837429
  C      -1.824350      4.680669      0.067612
  H      -2.385399      4.578571      1.012768
  H      -0.754693      4.688470      0.348158
  C      -2.189863      6.010417     -0.592604
  H      -1.990066      6.862540      0.076463
  H      -3.259024      6.040028     -0.861775
  H      -1.612778      6.168725     -1.519023
  H      -3.180789      3.412505     -1.064008
  H      -1.590951      3.615397     -1.805663
  O      -1.805785      1.184542     -1.338656
  C      -1.968211     -0.142755     -1.169435
  O      -2.045653     -0.841424     -2.152876
  C      -5.216832     -0.750912     -1.260875
  C      -5.385624     -0.676088      0.183937
  O      -5.529012     -1.893018      0.781301
  C      -5.689471     -1.873033      2.191621
  H      -5.806287     -2.919217      2.504131
  H      -4.815217     -1.428691      2.695511
  H      -6.579767     -1.292031      2.479999
  O      -5.388019      0.357160      0.839238
  C      -5.118198     -2.062038     -1.966760
  H      -5.239761     -2.922209     -1.298709
  H      -5.883846     -2.111538     -2.764553
  H      -4.136826     -2.142610     -2.471092
  C      -5.130128      0.510197     -2.035171
  H      -5.060321      1.387367     -1.379538
  H      -6.024120      0.627044     -2.679842
  H      -4.254880      0.486367     -2.707063
  H      -2.549244     -2.588128     -0.494998
41
Coordinates from ORCA-job orca E -847.148771306774
  C      -2.412091     -1.959223      0.385425
  H      -2.574366     -2.399736      1.373290
  C      -2.100236     -0.665463      0.238611
  C      -1.918790      0.296491      1.386743
  H      -0.847846      0.334025      1.663902
  H      -2.463800     -0.064890      2.271606
  C      -2.376365      1.699029      0.994627
  H      -2.160000      2.409537      1.807440
  H      -3.463633      1.712203      0.822219
  C      -1.644005      2.142324     -0.260923
  H      -0.558264      2.194659     -0.048711
  C      -2.101180      3.477686     -0.835964
  C      -1.824013      4.681392      0.067218
  H      -2.385241      4.580680      1.012437
  H      -0.754419      4.689884      0.347964
  C      -2.189614      6.009977     -0.595243
  H      -1.990200      6.863209      0.072517
  H      -3.258693      6.038934     -0.864782
  H      -1.612276      6.166899     -1.521737
  H      -3.180028      3.410122     -1.062674
  H      -1.590305      3.613720     -1.804372
  O      -1.806692      1.183495     -1.334310
  C      -1.969305     -0.143287     -1.164882
  O      -2.049503     -0.843245     -2.148093
  C      -5.219479     -0.757405     -1.256832
  C      -5.382105     -0.676732      0.185614
  O      -5.527298     -1.890445      0.779992
  C      -5.689469     -1.873347      2.189564
  H      -5.807202     -2.920140      2.499797
  H      -4.814452     -1.429271      2.691283
  H      -6.577880     -1.290805      2.480683
  O      -5.382837      0.358084      0.838574
  C      -5.123640     -2.061793     -1.971255
  H      -5.248859     -2.921020     -1.303378
  H      -5.887010     -2.113619     -2.770972
  H      -4.141373     -2.138936     -2.473149
  C      -5.132606      0.508763     -2.035941
  H      -5.063547      1.385213     -1.379416
  H      -6.025454      0.626803     -2.681291
  H      -4.258942      0.486750     -2.707482
  H      -2.542051     -2.587134     -0.495640
41
Coordinates from ORCA-job orca E -847.148846815579
  C      -2.409371     -1.958767      0.384968
  H      -2.569660     -2.398623      1.373275
  C      -2.099977     -0.664020      0.241012
  C      -1.917828      0.296867      1.389965
  H      -0.847049      0.332803      1.668262
  H      -2.463259     -0.065900      2.274102
  C      -2.374028      1.699444      0.997193
  H      -2.159075      2.411288      1.809173
  H      -3.461670      1.709417      0.824036
  C      -1.642750      2.142645     -0.259380
  H      -0.556705      2.195083     -0.048462
  C      -2.100953      3.477304     -0.834857
  C      -1.824346      4.681930      0.067192
  H      -2.385296      4.581769      1.012651
  H      -0.754692      4.691292      0.347679
  C      -2.190829      6.009664     -0.596481
  H      -1.991810      6.863650      0.070433
  H      -3.259955      6.037731     -0.865903
  H      -1.613707      6.166003     -1.523207
  H      -3.179802      3.408079     -1.061145
  H      -1.590696      3.613105     -1.803611
  O      -1.806554      1.183245     -1.332147
  C      -1.969323     -0.143145     -1.161848
  O      -2.051044     -0.844186     -2.144451
  C      -5.219118     -0.761127     -1.256306
  C      -5.379504     -0.676736      0.185705
  O      -5.526987     -1.888438      0.781320
  C      -5.689321     -1.872367      2.191065
  H      -5.807974     -2.919100      2.500669
  H      -4.812834     -1.428433      2.690067
  H      -6.575995     -1.287919      2.483736
  O      -5.378003      0.360089      0.836035
  C      -5.128457     -2.061058     -1.977598
  H      -5.258373     -2.920732     -1.310294
  H      -5.889123     -2.112960     -2.779504
  H      -4.144899     -2.135836     -2.477036
  C      -5.133706      0.506953     -2.037238
  H      -5.066445      1.382544     -1.379373
  H      -6.026086      0.624856     -2.682773
  H      -4.260021      0.486891     -2.709501
  H      -2.537840     -2.589912     -0.494965
41
Coordinates from ORCA-job orca E -847.148880685721
  C      -2.408602     -1.958994      0.386574
  H      -2.566895     -2.397531      1.375056
  C      -2.099967     -0.663470      0.243384
  C      -1.916217      0.296812      1.392185
  H      -0.845341      0.330797      1.670509
  H      -2.461771     -0.066390      2.276171
  C      -2.372084      1.699547      0.998640
  H      -2.158215      2.412679      1.809670
  H      -3.460180      1.706563      0.825039
  C      -1.641841      2.142512     -0.258814
  H      -0.555546      2.195026     -0.049143
  C      -2.101279      3.476944     -0.833923
  C      -1.824855      4.681964      0.067559
  H      -2.385121      4.581820      1.013423
  H      -0.755015      4.692016      0.347336
  C      -2.192539      6.009240     -0.596372
  H      -1.993668      6.863590      0.070121
  H      -3.261830      6.036529     -0.865207
  H      -1.616032      6.165579     -1.523483
  H      -3.180178      3.406388     -1.059333
  H      -1.591963      3.612867     -1.803150
  O      -1.806727      1.183115     -1.331522
  C      -1.969512     -0.143000     -1.160075
  O      -2.052144     -0.845217     -2.141684
  C      -5.217321     -0.762858     -1.257554
  C      -5.377118     -0.676800      0.184556
  O      -5.526816     -1.887264      0.782407
  C      -5.688603     -1.869922      2.192502
  H      -5.808172     -2.916156      2.502978
  H      -4.810707     -1.425845      2.688983
  H      -6.574037     -1.283512      2.485061
  O      -5.373212      0.361515      0.832783
  C      -5.132264     -2.060542     -1.983103
  H      -5.266389     -2.920880     -1.316723
  H      -5.890499     -2.111344     -2.787034
  H      -4.147381     -2.133885     -2.480308
  C      -5.134115      0.505448     -2.038425
  H      -5.069059      1.380210     -1.379186
  H      -6.026625      0.622373     -2.683813
  H      -4.260482      0.487080     -2.711693
  H      -2.534748     -2.593614     -0.491932
41
Coordinates from ORCA-job orca E -847.148902269106
  C      -2.409072     -1.959071      0.389031
  H      -2.565148     -2.396443      1.377978
  C      -2.100373     -0.663368      0.245267
  C      -1.914845      0.296766      1.393602
  H      -0.843703      0.329228      1.671080
  H      -2.460081     -0.066333      2.277904
  C      -2.371062      1.699459      0.999539
  H      -2.157756      2.413652      1.809698
  H      -3.459340      1.704029      0.825981
  C      -1.641729      2.142044     -0.258584
  H      -0.555238      2.194433     -0.049980
  C      -2.102027      3.476564     -0.833085
  C      -1.825296      4.681741      0.068034
  H      -2.384879      4.581667      1.014302
  H      -0.755262      4.692062      0.347072
  C      -2.193751      6.008829     -0.595874
  H      -1.994711      6.863343      0.070364
  H      -3.263212      6.035759     -0.864070
  H      -1.617856      6.165175     -1.523365
  H      -3.181030      3.405206     -1.057457
  H      -1.593684      3.612552     -1.802824
  O      -1.807639      1.182885     -1.331472
  C      -1.970248     -0.143061     -1.158985
  O      -2.053324     -0.846457     -2.139534
  C      -5.215375     -0.763240     -1.259437
  C      -5.375000     -0.677217      0.182842
  O      -5.526369     -1.887056      0.782316
  C      -5.687120     -1.867231      2.192766
  H      -5.807287     -2.912850      2.504878
  H      -4.808218     -1.422822      2.687270
  H      -6.571867     -1.279335      2.484381
  O      -5.369027      0.361806      0.829981
  C      -5.134977     -2.060332     -1.986865
  H      -5.272041     -2.921326     -1.321713
  H      -5.891497     -2.109163     -2.792335
  H      -4.149032     -2.133142     -2.482338
  C      -5.134211      0.504762     -2.039291
  H      -5.071448      1.378879     -1.378957
  H      -6.027106      0.620312     -2.684491
  H      -4.260903      0.487715     -2.713458
  H      -2.532328     -2.597028     -0.487714
41
Coordinates from ORCA-job orca E -847.148916312846
  C      -2.410584     -1.958919      0.392221
  H      -2.563709     -2.395428      1.381976
  C      -2.101268     -0.663538      0.247085
  C      -1.913876      0.296818      1.394895
  H      -0.842318      0.328247      1.670781
  H      -2.458221     -0.065954      2.279934
  C      -2.370790      1.699278      1.000492
  H      -2.157542      2.414455      1.809742
  H      -3.459078      1.701732      0.827493
  C      -1.642370      2.141300     -0.258269
  H      -0.555698      2.193366     -0.050677
  C      -2.103103      3.476010     -0.832296
  C      -1.825543      4.681327      0.068307
  H      -2.384242      4.581509      1.015118
  H      -0.755248      4.691716      0.346338
  C      -2.194694      6.008260     -0.595550
  H      -1.995164      6.862934      0.070332
  H      -3.264395      6.034999     -0.862816
  H      -1.619640      6.164472     -1.523585
  H      -3.182275      3.404283     -1.055464
  H      -1.595788      3.611792     -1.802615
  O      -1.809346      1.182336     -1.331291
  C      -1.971570     -0.143497     -1.157836
  O      -2.054753     -0.848091     -2.137373
  C      -5.213572     -0.762715     -1.261611
  C      -5.372843     -0.677771      0.180809
  O      -5.525588     -1.887359      0.781047
  C      -5.684737     -1.864784      2.191892
  H      -5.805178     -2.909824      2.505843
  H      -4.805027     -1.420034      2.684664
  H      -6.569058     -1.275866      2.482603
  O      -5.364950      0.361400      0.827722
  C      -5.137103     -2.059988     -1.989651
  H      -5.276455     -2.921729     -1.326117
  H      -5.892345     -2.105732     -2.796403
  H      -4.150309     -2.133129     -2.483631
  C      -5.134055      0.505075     -2.040093
  H      -5.073919      1.378725     -1.378923
  H      -6.027332      0.618909     -2.685271
  H      -4.261213      0.489232     -2.714997
  H      -2.530175     -2.600426     -0.482366
41
Coordinates from ORCA-job orca E -847.148931037787
  C      -2.412814     -1.958676      0.395498
  H      -2.562492     -2.394941      1.386128
  C      -2.102521     -0.663918      0.248809
  C      -1.913619      0.296916      1.396211
  H      -0.841562      0.328108      1.670105
  H      -2.456529     -0.065584      2.282247
  C      -2.371281      1.699068      1.001729
  H      -2.157491      2.414970      1.810195
  H      -3.459535      1.700247      0.829791
  C      -1.643732      2.140484     -0.257656
  H      -0.556900      2.192184     -0.050879
  C      -2.104448      3.475259     -0.831701
  C      -1.825670      4.680891      0.068066
  H      -2.383535      4.581772      1.015437
  H      -0.755115      4.691107      0.345114
  C      -2.195082      6.007609     -0.596100
  H      -1.994741      6.862558      0.069183
  H      -3.265022      6.034468     -0.862399
  H      -1.620856      6.163243     -1.524741
  H      -3.183830      3.403632     -1.053725
  H      -1.598035      3.610418     -1.802580
  O      -1.811625      1.181426     -1.330538
  C      -1.973229     -0.144354     -1.156387
  O      -2.056137     -0.849804     -2.135300
  C      -5.212402     -0.761474     -1.263363
  C      -5.371092     -0.678064      0.179119
  O      -5.524712     -1.887777      0.778978
  C      -5.681839     -1.863744      2.190200
  H      -5.802093     -2.908525      2.505228
  H      -4.801500     -1.418896      2.681687
  H      -6.565898     -1.274582      2.481053
  O      -5.361781      0.360738      0.826670
  C      -5.138255     -2.059062     -1.991416
  H      -5.279259     -2.921564     -1.329585
  H      -5.892761     -2.101037     -2.799055
  H      -4.150983     -2.133476     -2.484326
  C      -5.133675      0.506536     -2.040737
  H      -5.076060      1.380059     -1.379210
  H      -6.027098      0.618674     -2.686216
  H      -4.261169      0.491735     -2.715957
  H      -2.528693     -2.603234     -0.477117
41
Coordinates from ORCA-job orca E -847.148943944034
  C      -2.415489     -1.958600      0.398857
  H      -2.561318     -2.395127      1.390268
  C      -2.103979     -0.664534      0.250680
  C      -1.913935      0.297000      1.397663
  H      -0.841346      0.328678      1.669422
  H      -2.454988     -0.065293      2.284881
  C      -2.372232      1.698862      1.003274
  H      -2.157278      2.415241      1.811043
  H      -3.460545      1.699738      0.832886
  C      -1.645666      2.139608     -0.256843
  H      -0.558690      2.191080     -0.050749
  C      -2.106164      3.474200     -0.831399
  C      -1.825830      4.680296      0.067226
  H      -2.382792      4.582183      1.015236
  H      -0.754996      4.690165      0.343185
  C      -2.195227      6.006736     -0.597512
  H      -1.993766      6.862048      0.066962
  H      -3.265429      6.033959     -0.862728
  H      -1.621884      6.161431     -1.526862
  H      -3.185795      3.403045     -1.052291
  H      -1.600584      3.608387     -1.802846
  O      -1.814304      1.180044     -1.329173
  C      -1.975042     -0.145740     -1.154500
  O      -2.057341     -0.851628     -2.133219
  C      -5.211648     -0.759597     -1.264480
  C      -5.369726     -0.677612      0.177979
  O      -5.523874     -1.887733      0.776521
  C      -5.678691     -1.864159      2.188035
  H      -5.798403     -2.909077      2.502959
  H      -4.797744     -1.419601      2.678583
  H      -6.562487     -1.275422      2.480457
  O      -5.359520      0.360465      0.826751
  C      -5.138420     -2.057193     -1.992625
  H      -5.281036     -2.920398     -1.332359
  H      -5.892554     -2.095025     -2.800873
  H      -4.150993     -2.133873     -2.484791
  C      -5.132986      0.508977     -2.041284
  H      -5.077652      1.382742     -1.379920
  H      -6.026230      0.619506     -2.687392
  H      -4.260493      0.495161     -2.716321
  H      -2.527992     -2.605546     -0.472239
41
Coordinates from ORCA-job orca E -847.148953487845
  C      -2.417816     -1.959003      0.401676
  H      -2.560356     -2.396020      1.393552
  C      -2.105191     -0.665409      0.252523
  C      -1.914364      0.296820      1.399032
  H      -0.841342      0.329260      1.669126
  H      -2.453744     -0.065268      2.287308
  C      -2.372904      1.698593      1.004832
  H      -2.156414      2.415109      1.812131
  H      -3.461424      1.700236      0.836109
  C      -1.647379      2.138727     -0.256103
  H      -0.560275      2.190313     -0.050611
  C      -2.107864      3.472901     -0.831418
  C      -1.826143      4.679608      0.065984
  H      -2.382096      4.582413      1.014699
  H      -0.755009      4.689368      0.340767
  C      -2.195846      6.005658     -0.599353
  H      -1.993328      6.861416      0.064229
  H      -3.266343      6.033056     -0.863348
  H      -1.623529      6.159444     -1.529482
  H      -3.187747      3.402282     -1.051313
  H      -1.603037      3.606079     -1.803384
  O      -1.816533      1.178365     -1.327580
  C      -1.976417     -0.147488     -1.152553
  O      -2.058004     -0.853379     -2.131427
  C      -5.210995     -0.757419     -1.264802
  C      -5.368979     -0.676194      0.177563
  O      -5.523460     -1.886820      0.774521
  C      -5.676227     -1.865467      2.186159
  H      -5.795382     -2.910847      2.499825
  H      -4.794637     -1.421610      2.676116
  H      -6.559629     -1.277415      2.481172
  O      -5.358521      0.361122      0.827562
  C      -5.137736     -2.054537     -1.993539
  H      -5.282247     -2.918132     -1.334283
  H      -5.891684     -2.088974     -2.802176
  H      -4.150376     -2.133984     -2.485235
  C      -5.131928      0.511754     -2.041645
  H      -5.078060      1.386029     -1.380835
  H      -6.024744      0.621149     -2.688540
  H      -4.259023      0.498771     -2.716035
  H      -2.528337     -2.607115     -0.468765
41
Coordinates from ORCA-job orca E -847.148960059657
  C      -2.419452     -1.959825      0.404063
  H      -2.559429     -2.397209      1.396182
  C      -2.106080     -0.666425      0.254341
  C      -1.914516      0.296406      1.400212
  H      -0.841191      0.329454      1.669150
  H      -2.452639     -0.065307      2.289367
  C      -2.372962      1.698248      1.006211
  H      -2.154760      2.414652      1.813185
  H      -3.461800      1.701298      0.839141
  C      -1.648624      2.137801     -0.255664
  H      -0.561384      2.189836     -0.050883
  C      -2.109575      3.471412     -0.831633
  C      -1.826716      4.678698      0.064657
  H      -2.381483      4.582067      1.014131
  H      -0.755243      4.688604      0.338106
  C      -2.197203      6.004350     -0.601031
  H      -1.993763      6.860507      0.061753
  H      -3.268042      6.031678     -0.863654
  H      -1.626075      6.157515     -1.531994
  H      -3.189708      3.401128     -1.050472
  H      -1.605598      3.603804     -1.804146
  O      -1.818223      1.176552     -1.326174
  C      -1.977352     -0.149402     -1.150767
  O      -2.058272     -0.855205     -2.129816
  C      -5.209922     -0.755142     -1.264715
  C      -5.368586     -0.674089      0.177506
  O      -5.523450     -1.885181      0.773112
  C      -5.674559     -1.866694      2.184743
  H      -5.793346     -2.912632      2.496654
  H      -4.792237     -1.423748      2.674210
  H      -6.557420     -1.279174      2.482554
  O      -5.358351      0.362628      0.828403
  C      -5.136665     -2.051497     -1.994489
  H      -5.283654     -2.915118     -1.335704
  H      -5.890358     -2.083568     -2.803492
  H      -4.149392     -2.133837     -2.485722
  C      -5.130516      0.514418     -2.041877
  H      -5.077419      1.389270     -1.381756
  H      -6.022801      0.623051     -2.689544
  H      -4.256892      0.502262     -2.715335
  H      -2.529414     -2.608194     -0.466351
41
Coordinates from ORCA-job orca E -847.148963651092
  C      -2.420393     -1.960933      0.406112
  H      -2.558594     -2.398364      1.398386
  C      -2.106702     -0.667520      0.256045
  C      -1.914184      0.295770      1.401175
  H      -0.840660      0.328962      1.669389
  H      -2.451574     -0.065306      2.291035
  C      -2.372275      1.697801      1.007338
  H      -2.152297      2.413961      1.814061
  H      -3.461461      1.702462      0.841848
  C      -1.649309      2.136790     -0.255594
  H      -0.561904      2.189495     -0.051792
  C      -2.111261      3.469867     -0.831869
  C      -1.827512      4.677680      0.063492
  H      -2.380890      4.581256      1.013801
  H      -0.755658      4.688009      0.335421
  C      -2.199311      6.002944     -0.602223
  H      -1.995090      6.859449      0.059878
  H      -3.270546      6.029913     -0.863263
  H      -1.629599      6.155829     -1.534104
  H      -3.191655      3.399569     -1.049452
  H      -1.608388      3.601815     -1.805010
  O      -1.819437      1.174752     -1.325213
  C      -1.977983     -0.151306     -1.149301
  O      -2.058363     -0.857208     -2.128303
  C      -5.208238     -0.752908     -1.264634
  C      -5.368243     -0.671834      0.177436
  O      -5.523666     -1.883289      0.772131
  C      -5.673607     -1.867188      2.183705
  H      -5.792305     -2.913572      2.494071
  H      -4.790529     -1.425146      2.672666
  H      -6.555859     -1.279815      2.483728
  O      -5.358519      0.364488      0.828854
  C      -5.135626     -2.048570     -1.995522
  H      -5.285553     -2.911939     -1.336866
  H      -5.888872     -2.079262     -2.805000
  H      -4.148315     -2.133575     -2.486127
  C      -5.128799      0.516779     -2.042013
  H      -5.075997      1.392105     -1.382477
  H      -6.020582      0.624929     -2.690359
  H      -4.254296      0.505510     -2.714430
  H      -2.531019     -2.609008     -0.464561
41
Coordinates from ORCA-job orca E -847.148966939902
  C      -2.421068     -1.962272      0.408439
  H      -2.557784     -2.399403      1.400952
  C      -2.107286     -0.668800      0.257964
  C      -1.913278      0.294880      1.402226
  H      -0.839559      0.327650      1.669759
  H      -2.450210     -0.065171      2.292804
  C      -2.370818      1.697189      1.008544
  H      -2.148731      2.413087      1.814931
  H      -3.460382      1.703528      0.844915
  C      -1.649727      2.135493     -0.255767
  H      -0.562070      2.189037     -0.053509
  C      -2.113295      3.468019     -0.832009
  C      -1.828549      4.676377      0.062341
  H      -2.379990      4.579930      1.013774
  H      -0.756166      4.687441      0.332158
  C      -2.202455      6.001157     -0.603115
  H      -1.997309      6.858033      0.058209
  H      -3.274247      6.027455     -0.861924
  H      -1.634771      6.153970     -1.536244
  H      -3.194036      3.397318     -1.047742
  H      -1.612098      3.599738     -1.806049
  O      -1.820715      1.172729     -1.324519
  C      -1.978686     -0.153408     -1.147830
  O      -2.058562     -0.859806     -2.126437
  C      -5.205668     -0.750356     -1.264899
  C      -5.367538     -0.669450      0.177030
  O      -5.523911     -1.881203      0.771048
  C      -5.672870     -1.866741      2.182618
  H      -5.791742     -2.913428      2.491825
  H      -4.788926     -1.425627      2.670878
  H      -6.554411     -1.279092      2.484259
  O      -5.358412      0.366572      0.828815
  C      -5.134706     -2.045482     -1.996883
  H      -5.288345     -2.908458     -1.338387
  H      -5.887122     -2.075081     -2.807159
  H      -4.147121     -2.133203     -2.486416
  C      -5.126520      0.519350     -2.042142
  H      -5.073990      1.395014     -1.383001
  H      -6.017766      0.627019     -2.691223
  H      -4.250976      0.509307     -2.713340
  H      -2.533255     -2.609921     -0.462434
41
Coordinates from ORCA-job orca E -847.148970343389
  C      -2.421536     -1.963434      0.410604
  H      -2.557407     -2.400045      1.403403
  C      -2.107752     -0.669966      0.259683
  C      -1.912011      0.293939      1.403252
  H      -0.838116      0.325832      1.670142
  H      -2.448789     -0.064937      2.294444
  C      -2.368988      1.696507      1.009710
  H      -2.144825      2.412216      1.815675
  H      -3.458872      1.704108      0.847978
  C      -1.649935      2.134168     -0.256011
  H      -0.561987      2.188421     -0.055607
  C      -2.115305      3.466249     -0.831945
  C      -1.829487      4.675140      0.061354
  H      -2.378716      4.578586      1.014051
  H      -0.756510      4.687073      0.328767
  C      -2.205893      5.999421     -0.603677
  H      -1.999792      6.856669      0.056872
  H      -3.278311      6.024875     -0.859959
  H      -1.640529      6.152330     -1.538200
  H      -3.196430      3.394836     -1.045485
  H      -1.616108      3.597859     -1.807043
  O      -1.822017      1.170914     -1.324126
  C      -1.979436     -0.155227     -1.146580
  O      -2.058882     -0.862443     -2.124544
  C      -5.202907     -0.747987     -1.265543
  C      -5.366507     -0.667642      0.176296
  O      -5.523978     -1.879586      0.769865
  C      -5.672356     -1.865529      2.181532
  H      -5.791608     -2.912290      2.490298
  H      -4.787675     -1.425159      2.669119
  H      -6.553301     -1.277293      2.483731
  O      -5.357824      0.368160      0.828372
  C      -5.134113     -2.042940     -1.998179
  H      -5.291219     -2.905605     -1.340031
  H      -5.885444     -2.071673     -2.809462
  H      -4.146033     -2.132784     -2.486362
  C      -5.124129      0.521758     -2.042223
  H      -5.072002      1.397490     -1.383144
  H      -6.014843      0.629001     -2.692050
  H      -4.247604      0.513086     -2.712252
  H      -2.535893     -2.610707     -0.460264
41
Coordinates from ORCA-job orca E -847.148974143227
  C      -2.422120     -1.964296      0.412741
  H      -2.557731     -2.400295      1.405858
  C      -2.108094     -0.670992      0.261274
  C      -1.910426      0.293035      1.404366
  H      -0.836329      0.323792      1.670454
  H      -2.447139     -0.064622      2.296125
  C      -2.366931      1.695807      1.010955
  H      -2.140675      2.411514      1.816332
  H      -3.457098      1.704158      0.851323
  C      -1.650145      2.132860     -0.256240
  H      -0.561844      2.187681     -0.057977
  C      -2.117429      3.464566     -0.831669
  C      -1.830271      4.673991      0.060431
  H      -2.377014      4.577424      1.014549
  H      -0.756630      4.686809      0.325113
  C      -2.209391      5.997710     -0.604155
  H      -2.002189      6.855370      0.055511
  H      -3.282502      6.022259     -0.857627
  H      -1.646607      6.150688     -1.540226
  H      -3.199008      3.392250     -1.042562
  H      -1.620623      3.596062     -1.807996
  O      -1.823566      1.169235     -1.323877
  C      -1.980281     -0.156833     -1.145399
  O      -2.059326     -0.865108     -2.122586
  C      -5.200285     -0.745788     -1.266496
  C      -5.365149     -0.666395      0.175306
  O      -5.523802     -1.878455      0.768463
  C      -5.671922     -1.863947      2.180328
  H      -5.791736     -2.910634      2.489141
  H      -4.786650     -1.424236      2.667388
  H      -6.552393     -1.274957      2.482294
  O      -5.356520      0.369198      0.827747
  C      -5.133728     -2.040824     -1.999398
  H      -5.293855     -2.903414     -1.341944
  H      -5.883687     -2.068477     -2.811964
  H      -4.144926     -2.132217     -2.485928
  C      -5.121663      0.524161     -2.042272
  H      -5.070323      1.399725     -1.382919
  H      -6.011753      0.630951     -2.693005
  H      -4.244215      0.516993     -2.711161
  H      -2.539094     -2.611362     -0.457838
41
Coordinates from ORCA-job orca E -847.148978107026
  C      -2.422995     -1.964716      0.414650
  H      -2.559010     -2.400228      1.407995
  C      -2.108241     -0.671752      0.262656
  C      -1.908755      0.292297      1.405541
  H      -0.834414      0.322028      1.670664
  H      -2.445314     -0.064412      2.297791
  C      -2.365061      1.695185      1.012287
  H      -2.136938      2.411113      1.816945
  H      -3.455482      1.703675      0.854806
  C      -1.650527      2.131803     -0.256269
  H      -0.561888      2.186964     -0.060095
  C      -2.119498      3.463170     -0.831245
  C      -1.830694      4.673191      0.059470
  H      -2.374933      4.576909      1.015051
  H      -0.756385      4.686699      0.321385
  C      -2.212244      5.996356     -0.604838
  H      -2.003707      6.854480      0.053809
  H      -3.286045      6.020221     -0.855433
  H      -1.652076      6.149141     -1.542509
  H      -3.201557      3.390010     -1.039341
  H      -1.625152      3.594338     -1.808869
  O      -1.825307      1.167895     -1.323549
  C      -1.981093     -0.158068     -1.144254
  O      -2.059769     -0.867308     -2.120797
  C      -5.198478     -0.744058     -1.267459
  C      -5.363734     -0.665763      0.174377
  O      -5.523419     -1.877894      0.767059
  C      -5.671621     -1.862755      2.179129
  H      -5.792122     -2.909330      2.488085
  H      -4.785985     -1.423683      2.666037
  H      -6.551775     -1.273071      2.480490
  O      -5.354633      0.369589      0.827301
  C      -5.133330     -2.039180     -2.000483
  H      -5.295536     -2.902064     -1.344063
  H      -5.881753     -2.065432     -2.814492
  H      -4.143678     -2.131322     -2.485251
  C      -5.119572      0.526314     -2.042219
  H      -5.069451      1.401520     -1.382320
  H      -6.008943      0.632679     -2.694022
  H      -4.241327      0.520570     -2.710080
  H      -2.542629     -2.611720     -0.455482
41
Coordinates from ORCA-job orca E -847.148983310580
  C      -2.424501     -1.964825      0.416816
  H      -2.561555     -2.399888      1.410296
  C      -2.108158     -0.672428      0.264208
  C      -1.906650      0.291664      1.406932
  H      -0.831972      0.320541      1.670691
  H      -2.442739     -0.064294      2.299761
  C      -2.363078      1.694579      1.013885
  H      -2.133015      2.410986      1.817577
  H      -3.453808      1.702755      0.858966
  C      -1.651139      2.130838     -0.256159
  H      -0.562119      2.186313     -0.062236
  C      -2.121872      3.461777     -0.830724
  C      -1.830839      4.672489      0.058243
  H      -2.372116      4.576736      1.015561
  H      -0.755741      4.686616      0.316864
  C      -2.214999      5.995014     -0.605816
  H      -2.004789      6.853679      0.051586
  H      -3.289583      6.018226     -0.853073
  H      -1.657836      6.147425     -1.545341
  H      -3.204516      3.387876     -1.035490
  H      -1.630389      3.592323     -1.809860
  O      -1.827419      1.166546     -1.322982
  C      -1.981814     -0.159326     -1.142857
  O      -2.060090     -0.869425     -2.118886
  C      -5.197326     -0.742457     -1.268431
  C      -5.362160     -0.665235      0.173481
  O      -5.522884     -1.877424      0.765543
  C      -5.671413     -1.861999      2.177773
  H      -5.792895     -2.908507      2.486611
  H      -4.785507     -1.423835      2.664958
  H      -6.551240     -1.271606      2.478559
  O      -5.351970      0.369806      0.827018
  C      -5.132694     -2.037464     -2.001723
  H      -5.296582     -2.900974     -1.346681
  H      -5.879191     -2.061708     -2.817537
  H      -4.141979     -2.129915     -2.484368
  C      -5.117592      0.528530     -2.042169
  H      -5.069354      1.403239     -1.381496
  H      -6.005961      0.634415     -2.695437
  H      -4.238466      0.524221     -2.708861
  H      -2.547120     -2.611892     -0.452741
41
Coordinates from ORCA-job orca E -847.148988781766
  C      -2.427337     -1.964895      0.420221
  H      -2.566108     -2.399344      1.413798
  C      -2.107791     -0.673470      0.266712
  C      -1.903233      0.290772      1.409009
  H      -0.827983      0.318843      1.670472
  H      -2.438169     -0.064386      2.302819
  C      -2.360122      1.693688      1.016351
  H      -2.127389      2.410837      1.818640
  H      -3.451352      1.701362      0.865164
  C      -1.651914      2.129536     -0.255861
  H      -0.562390      2.185616     -0.064945
  C      -2.125127      3.459757     -0.830094
  C      -1.830576      4.671609      0.056101
  H      -2.366912      4.576519      1.016268
  H      -0.754193      4.686859      0.309262
  C      -2.219302      5.993129     -0.607330
  H      -2.006257      6.852671      0.048013
  H      -3.295224      6.015203     -0.848825
  H      -1.667354      6.144993     -1.550016
  H      -3.208611      3.385170     -1.030090
  H      -1.637769      3.589111     -1.811429
  O      -1.830180      1.164481     -1.321798
  C      -1.982348     -0.161369     -1.140558
  O      -2.060048     -0.872344     -2.116097
  C      -5.196332     -0.740210     -1.269635
  C      -5.360292     -0.664039      0.172383
  O      -5.522533     -1.876351      0.763485
  C      -5.671471     -1.861526      2.175804
  H      -5.794671     -2.908078      2.483860
  H      -4.785104     -1.425087      2.663726
  H      -6.550612     -1.270096      2.476480
  O      -5.348123      0.370491      0.826795
  C      -5.131425     -2.034680     -2.003778
  H      -5.297727     -2.899112     -1.350665
  H      -5.875030     -2.055757     -2.822269
  H      -4.139162     -2.127603     -2.483265
  C      -5.115014      0.531626     -2.042225
  H      -5.069788      1.405704     -1.380514
  H      -6.001733      0.636854     -2.697852
  H      -4.234469      0.529035     -2.707080
  H      -2.553897     -2.612128     -0.448577
41
Coordinates from ORCA-job orca E -847.148996846265
  C      -2.428878     -1.964537      0.421456
  H      -2.568958     -2.398698      1.414939
  C      -2.107244     -0.673633      0.267655
  C      -1.901450      0.290700      1.409667
  H      -0.825902      0.319010      1.669876
  H      -2.435393     -0.064636      2.303970
  C      -2.359068      1.693508      1.017322
  H      -2.125658      2.411036      1.819103
  H      -3.450522      1.700654      0.867515
  C      -1.652233      2.129416     -0.255637
  H      -0.562570      2.185876     -0.065580
  C      -2.126290      3.459306     -0.829843
  C      -1.830091      4.671602      0.055202
  H      -2.364476      4.576907      1.016512
  H      -0.753207      4.687044      0.306188
  C      -2.220243      5.992809     -0.608020
  H      -2.005878      6.852652      0.046497
  H      -3.296664      6.014725     -0.847286
  H      -1.670262      6.144285     -1.551924
  H      -3.210129      3.384870     -1.028001
  H      -1.640446      3.587966     -1.812017
  O      -1.830979      1.163999     -1.321143
  C      -1.981960     -0.161974     -1.139674
  O      -2.059462     -0.872895     -2.115284
  C      -5.196980     -0.739896     -1.269894
  C      -5.360144     -0.663726      0.172165
  O      -5.522674     -1.876111      0.762969
  C      -5.671954     -1.862226      2.175153
  H      -5.796118     -2.908866      2.482494
  H      -4.785512     -1.426751      2.663869
  H      -6.550738     -1.270387      2.476169
  O      -5.347010      0.370627      0.826801
  C      -5.130670     -2.033885     -2.004641
  H      -5.297389     -2.898716     -1.352097
  H      -5.873106     -2.053920     -2.824182
  H      -4.137751     -2.126451     -2.482842
  C      -5.114805      0.532240     -2.042306
  H      -5.071092      1.406056     -1.380135
  H      -6.000708      0.637314     -2.699077
  H      -4.233616      0.529920     -2.706328
  H      -2.556837     -2.611824     -0.447151
41
Coordinates from ORCA-job orca E -847.148987092365
  C      -2.432019     -1.963952      0.424305
  H      -2.574017     -2.397219      1.417807
  C      -2.106180     -0.674088      0.269770
  C      -1.897581      0.290546      1.410858
  H      -0.821373      0.319460      1.668301
  H      -2.429130     -0.065050      2.306456
  C      -2.356697      1.693145      1.019208
  H      -2.121865      2.411210      1.820123
  H      -3.448592      1.699649      0.872045
  C      -1.652606      2.129058     -0.255349
  H      -0.562692      2.186624     -0.066945
  C      -2.128505      3.458263     -0.829448
  C      -1.829057      4.671338      0.053455
  H      -2.359128      4.577007      1.017204
  H      -0.751095      4.687448      0.299682
  C      -2.222769      5.991908     -0.608887
  H      -2.005647      6.852297      0.043991
  H      -3.300307      6.013281     -0.843117
  H      -1.677281      6.142885     -1.555476
  H      -3.213022      3.384287     -1.024029
  H      -1.645674      3.585694     -1.813265
  O      -1.832176      1.162868     -1.319857
  C      -1.980922     -0.163428     -1.137848
  O      -2.057949     -0.874334     -2.113481
  C      -5.197833     -0.739066     -1.270608
  C      -5.360232     -0.662674      0.171471
  O      -5.523420     -1.875243      0.761810
  C      -5.673022     -1.863232      2.173684
  H      -5.799213     -2.910013      2.479672
  H      -4.786180     -1.429826      2.663682
  H      -6.550832     -1.270340      2.475702
  O      -5.345714      0.371386      0.826392
  C      -5.129262     -2.032202     -2.006547
  H      -5.297661     -2.897353     -1.354699
  H      -5.869530     -2.050706     -2.828011
  H      -4.135115     -2.124733     -2.482173
  C      -5.114437      0.533407     -2.042793
  H      -5.073563      1.406892     -1.379976
  H      -5.998679      0.638079     -2.701846
  H      -4.231737      0.531553     -2.704869
  H      -2.562358     -2.611436     -0.443935
41
Coordinates from ORCA-job orca E -847.148996938330
  C      -2.432771     -1.963616      0.424898
  H      -2.574975     -2.396411      1.418534
  C      -2.105766     -0.674034      0.270167
  C      -1.896296      0.290669      1.410883
  H      -0.819842      0.320064      1.667266
  H      -2.426692     -0.065205      2.307065
  C      -2.356090      1.693157      1.019578
  H      -2.121127      2.411183      1.820477
  H      -3.448066      1.699557      0.872833
  C      -1.652537      2.129187     -0.255299
  H      -0.562611      2.187238     -0.067087
  C      -2.128866      3.458281     -0.829297
  C      -1.828680      4.671462      0.053264
  H      -2.357897      4.577134      1.017484
  H      -0.750502      4.687599      0.298551
  C      -2.222936      5.991997     -0.608806
  H      -2.005189      6.852426      0.043820
  H      -3.300680      6.013417     -0.842087
  H      -1.678266      6.142885     -1.555883
  H      -3.213535      3.384628     -1.023169
  H      -1.646631      3.585512     -1.813438
  O      -1.832029      1.162866     -1.319591
  C      -1.980300     -0.163583     -1.137568
  O      -2.057160     -0.874417     -2.113201
  C      -5.198276     -0.739229     -1.270880
  C      -5.360883     -0.662635      0.171172
  O      -5.524005     -1.875269      0.761573
  C      -5.673602     -1.863604      2.173325
  H      -5.800423     -2.910356      2.479151
  H      -4.786584     -1.430783      2.663580
  H      -6.551029     -1.270273      2.475679
  O      -5.346588      0.371437      0.825987
  C      -5.129075     -2.032277     -2.006951
  H      -5.297937     -2.897189     -1.354826
  H      -5.869055     -2.051177     -2.828644
  H      -4.134696     -2.124813     -2.482052
  C      -5.114954      0.533156     -2.043141
  H      -5.074714      1.406650     -1.380295
  H      -5.998744      0.637712     -2.702796
  H      -4.231721      0.531213     -2.704520
  H      -2.563338     -2.611169     -0.443298
41
Coordinates from ORCA-job orca E -847.148990801168
  C      -2.435102     -1.962604      0.427044
  H      -2.577526     -2.393749      1.421304
  C      -2.104627     -0.673974      0.271511
  C      -1.891962      0.290866      1.411168
  H      -0.814661      0.321305      1.663922
  H      -2.418696     -0.065483      2.309356
  C      -2.353633      1.693053      1.020885
  H      -2.117733      2.411006      1.821562
  H      -3.445863      1.699208      0.875852
  C      -1.652225      2.129281     -0.255252
  H      -0.562166      2.188773     -0.068218
  C      -2.130264      3.458018     -0.828699
  C      -1.827533      4.671522      0.052651
  H      -2.353421      4.577017      1.018673
  H      -0.748530      4.688075      0.294284
  C      -2.224490      5.991845     -0.608178
  H      -2.004673      6.852403      0.043591
  H      -3.303050      6.012989     -0.837684
  H      -1.683161      6.142797     -1.557161
  H      -3.215484      3.384931     -1.019707
  H      -1.650496      3.584773     -1.814115
  O      -1.831865      1.162564     -1.318925
  C      -1.978786     -0.164200     -1.136572
  O      -2.054979     -0.875332     -2.111889
  C      -5.198988     -0.739365     -1.272198
  C      -5.362470     -0.662528      0.169766
  O      -5.525729     -1.875276      0.760302
  C      -5.675404     -1.863712      2.171841
  H      -5.804338     -2.910205      2.477690
  H      -4.787678     -1.432726      2.662502
  H      -6.551589     -1.268685      2.474554
  O      -5.348948      0.371612      0.824340
  C      -5.128770     -2.032541     -2.008111
  H      -5.299460     -2.896676     -1.355334
  H      -5.867641     -2.052593     -2.830731
  H      -4.133540     -2.125444     -2.481303
  C      -5.115917      0.532799     -2.044444
  H      -5.077803      1.406282     -1.381468
  H      -5.998123      0.636734     -2.706247
  H      -4.230812      0.531066     -2.703342
  H      -2.566935     -2.610437     -0.440762
41
Coordinates from ORCA-job orca E -847.148998099444
  C      -2.436445     -1.962121      0.428357
  H      -2.578669     -2.392363      1.423069
  C      -2.103964     -0.674101      0.272318
  C      -1.889158      0.290696      1.411533
  H      -0.811312      0.321427      1.661924
  H      -2.413698     -0.065684      2.311014
  C      -2.351749      1.692762      1.021899
  H      -2.114904      2.410683      1.822323
  H      -3.444134      1.698828      0.878228
  C      -1.651993      2.129111     -0.255151
  H      -0.561778      2.189389     -0.069278
  C      -2.131397      3.457582     -0.828121
  C      -1.827122      4.671390      0.052288
  H      -2.350718      4.576838      1.019555
  H      -0.747570      4.688439      0.291403
  C      -2.226176      5.991419     -0.607845
  H      -2.005064      6.852191      0.043204
  H      -3.305306      6.012144     -0.834709
  H      -1.687233      6.142381     -1.558186
  H      -3.216971      3.384376     -1.016953
  H      -1.653547      3.584148     -1.814490
  O      -1.831996      1.162188     -1.318555
  C      -1.978198     -0.164632     -1.135893
  O      -2.053930     -0.876202     -2.110900
  C      -5.199002     -0.739118     -1.273214
  C      -5.362993     -0.662351      0.168722
  O      -5.526664     -1.875079      0.759277
  C      -5.676501     -1.863060      2.170824
  H      -5.806869     -2.909319      2.476900
  H      -4.788206     -1.433275      2.661467
  H      -6.551888     -1.266782      2.473306
  O      -5.349754      0.371840      0.823244
  C      -5.128817     -2.032589     -2.008710
  H      -5.300697     -2.896380     -1.355824
  H      -5.866870     -2.053026     -2.832045
  H      -4.133048     -2.125934     -2.480681
  C      -5.115790      0.533008     -2.045311
  H      -5.079108      1.406457     -1.382237
  H      -5.996840      0.636404     -2.708683
  H      -4.229408      0.531772     -2.702478
  H      -2.569584     -2.610065     -0.439130
41
Coordinates from ORCA-job orca E -847.149001492259
  C      -2.437674     -1.961606      0.429349
  H      -2.579430     -2.391092      1.424521
  C      -2.103119     -0.674243      0.272856
  C      -1.886026      0.290344      1.411839
  H      -0.807572      0.321241      1.659615
  H      -2.408214     -0.066038      2.312695
  C      -2.349527      1.692314      1.022937
  H      -2.111670      2.410232      1.823073
  H      -3.442068      1.698186      0.880700
  C      -1.651555      2.128950     -0.254985
  H      -0.561152      2.189899     -0.070475
  C      -2.132531      3.457128     -0.827315
  C      -1.826800      4.671255      0.052122
  H      -2.347944      4.576608      1.020709
  H      -0.746672      4.689005      0.288557
  C      -2.228339      5.990909     -0.607247
  H      -2.005999      6.851938      0.043036
  H      -3.308075      6.010970     -0.831264
  H      -1.692010      6.141997     -1.559049
  H      -3.218476      3.383411     -1.013726
  H      -1.656841      3.583647     -1.814724
  O      -1.831954      1.161880     -1.318301
  C      -1.977663     -0.164885     -1.135367
  O      -2.052950     -0.876958     -2.110080
  C      -5.199088     -0.738980     -1.274348
  C      -5.363374     -0.662147      0.167573
  O      -5.527714     -1.874674      0.758274
  C      -5.678012     -1.861671      2.169910
  H      -5.810166     -2.907589      2.476413
  H      -4.789006     -1.433283      2.660373
  H      -6.552507     -1.263781      2.471635
  O      -5.350108      0.372201      0.821939
  C      -5.129154     -2.032974     -2.008977
  H      -5.301811     -2.896513     -1.356052
  H      -5.866408     -2.053788     -2.833025
  H      -4.132919     -2.126726     -2.479909
  C      -5.115326      0.533061     -2.046423
  H      -5.080252      1.406505     -1.383293
  H      -5.994974      0.635742     -2.711711
  H      -4.227487      0.532469     -2.701605
  H      -2.572503     -2.609553     -0.437791
41
Coordinates from ORCA-job orca E -847.148204474415
  C      -2.398596     -1.982811      0.469257
  H      -2.537038     -2.409060      1.459600
  C      -2.080774     -0.687060      0.289795
  C      -1.870368      0.286665      1.416424
  H      -0.790899      0.330677      1.658147
  H      -2.388951     -0.066251      2.321739
  C      -2.351812      1.687356      1.021758
  H      -2.115020      2.405605      1.821913
  H      -3.454507      1.697884      0.875790
  C      -1.653590      2.124536     -0.255925
  H      -0.563387      2.187582     -0.070929
  C      -2.135670      3.452655     -0.828505
  C      -1.830019      4.665315      0.052985
  H      -2.352642      4.569887      1.020700
  H      -0.750212      4.681700      0.290991
  C      -2.229330      5.986236     -0.605205
  H      -2.007084      6.846185      0.046542
  H      -3.308725      6.007646     -0.830742
  H      -1.691490      6.138069     -1.556037
  H      -3.221372      3.382725     -1.016806
  H      -1.658394      3.579774     -1.815073
  O      -1.834270      1.157143     -1.318288
  C      -1.974530     -0.170236     -1.130592
  O      -2.053843     -0.879072     -2.104882
  C      -5.232163     -0.711670     -1.299345
  C      -5.394749     -0.644261      0.147735
  O      -5.544251     -1.865632      0.738300
  C      -5.668628     -1.860475      2.156651
  H      -5.801031     -2.906855      2.461472
  H      -4.771906     -1.435689      2.655193
  H      -6.539885     -1.260076      2.462791
  O      -5.377016      0.385743      0.810003
  C      -5.140574     -2.024436     -2.004559
  H      -5.297729     -2.890630     -1.344819
  H      -5.875164     -2.059662     -2.830626
  H      -4.134319     -2.125544     -2.468155
  C      -5.135856      0.547968     -2.057599
  H      -5.098469      1.422388     -1.393546
  H      -6.008757      0.654362     -2.731236
  H      -4.232723      0.538164     -2.703610
  H      -2.549326     -2.623453     -0.418849
41
Coordinates from ORCA-job orca E -847.149130802942
  C      -2.388920     -1.978588      0.458878
  H      -2.524964     -2.408002      1.453891
  C      -2.082133     -0.684722      0.286987
  C      -1.875737      0.290001      1.418428
  H      -0.797611      0.336043      1.664758
  H      -2.395381     -0.063991      2.321586
  C      -2.353107      1.687591      1.024741
  H      -2.118035      2.406514      1.824805
  H      -3.445992      1.695138      0.879613
  C      -1.655071      2.123086     -0.252811
  H      -0.564741      2.184360     -0.068219
  C      -2.134697      3.451033     -0.827187
  C      -1.829754      4.664881      0.053134
  H      -2.353812      4.570898      1.020189
  H      -0.750293      4.681219      0.292711
  C      -2.227661      5.985144     -0.607264
  H      -2.006060      6.845838      0.043714
  H      -3.306734      6.006655     -0.834347
  H      -1.688434      6.135612     -1.557524
  H      -3.220264      3.380367     -1.017009
  H      -1.656028      3.577052     -1.813283
  O      -1.837639      1.153848     -1.313557
  C      -1.979247     -0.173324     -1.127179
  O      -2.063012     -0.883868     -2.101540
  C      -5.237036     -0.718594     -1.294263
  C      -5.383967     -0.648583      0.152762
  O      -5.535553     -1.866054      0.741671
  C      -5.668951     -1.858503      2.155552
  H      -5.800831     -2.904933      2.460158
  H      -4.778092     -1.434615      2.647821
  H      -6.540382     -1.258817      2.462443
  O      -5.366211      0.381337      0.813788
  C      -5.143256     -2.024667     -2.007468
  H      -5.303381     -2.886182     -1.349204
  H      -5.874653     -2.060993     -2.836498
  H      -4.140899     -2.121230     -2.467607
  C      -5.138699      0.548514     -2.059891
  H      -5.099893      1.421403     -1.396197
  H      -6.010605      0.657901     -2.734804
  H      -4.241239      0.538830     -2.702806
  H      -2.536095     -2.614208     -0.416513
41
Coordinates from ORCA-job orca E -847.149321034731
  C      -2.382147     -1.976515      0.453868
  H      -2.515329     -2.407106      1.449874
  C      -2.081838     -0.682182      0.288164
  C      -1.877086      0.292107      1.422385
  H      -0.799691      0.337690      1.672012
  H      -2.397659     -0.063579      2.324237
  C      -2.351669      1.688560      1.028226
  H      -2.118457      2.408712      1.827816
  H      -3.442753      1.692772      0.882211
  C      -1.654012      2.123395     -0.249907
  H      -0.563432      2.184037     -0.066347
  C      -2.133539      3.450448     -0.826015
  C      -1.829619      4.665758      0.052588
  H      -2.354243      4.573114      1.019471
  H      -0.750312      4.682912      0.292791
  C      -2.227613      5.984769     -0.610224
  H      -2.006782      6.846598      0.039504
  H      -3.306541      6.005477     -0.838042
  H      -1.687824      6.133905     -1.560373
  H      -3.219085      3.378140     -1.016243
  H      -1.654694      3.575572     -1.812126
  O      -1.837757      1.152682     -1.309238
  C      -1.980509     -0.174075     -1.122690
  O      -2.067156     -0.885921     -2.096902
  C      -5.238750     -0.724292     -1.291014
  C      -5.378499     -0.651376      0.155236
  O      -5.530284     -1.866349      0.744401
  C      -5.670293     -1.858192      2.156343
  H      -5.802033     -2.904962      2.460276
  H      -4.779572     -1.433785      2.645247
  H      -6.542019     -1.259554      2.464858
  O      -5.359540      0.379818      0.814193
  C      -5.148941     -2.024032     -2.013603
  H      -5.315596     -2.884678     -1.356381
  H      -5.877274     -2.057528     -2.845284
  H      -4.147058     -2.117693     -2.471912
  C      -5.140668      0.547238     -2.060928
  H      -5.102421      1.419239     -1.396370
  H      -6.011361      0.657811     -2.736506
  H      -4.244072      0.539042     -2.703089
  H      -2.526944     -2.614587     -0.418048
41
Coordinates from ORCA-job orca E -847.149372903940
  C      -2.379541     -1.976298      0.453759
  H      -2.510585     -2.406777      1.450104
  C      -2.081384     -0.680973      0.290574
  C      -1.876561      0.292655      1.425365
  H      -0.799375      0.336644      1.676430
  H      -2.397589     -0.064044      2.326667
  C      -2.350054      1.689095      1.030153
  H      -2.118408      2.410452      1.829067
  H      -3.441524      1.690674      0.883018
  C      -1.652873      2.123710     -0.248600
  H      -0.562107      2.184263     -0.065985
  C      -2.133147      3.450161     -0.825246
  C      -1.829954      4.666299      0.052376
  H      -2.354533      4.574193      1.019347
  H      -0.750653      4.684257      0.292557
  C      -2.228666      5.984494     -0.611634
  H      -2.008376      6.847030      0.037345
  H      -3.307589      6.004359     -0.839554
  H      -1.688890      6.133081     -1.561876
  H      -3.218611      3.376372     -1.015172
  H      -1.654719      3.574980     -1.811576
  O      -1.837376      1.152509     -1.307398
  C      -1.980833     -0.173869     -1.119894
  O      -2.069107     -0.886636     -2.093505
  C      -5.237866     -0.727003     -1.290401
  C      -5.375353     -0.652265      0.155158
  O      -5.527120     -1.866117      0.745513
  C      -5.670077     -1.857216      2.157264
  H      -5.802251     -2.903931      2.461194
  H      -4.778336     -1.432396      2.644737
  H      -6.541807     -1.258802      2.466169
  O      -5.354705      0.380269      0.812275
  C      -5.153734     -2.023147     -2.019042
  H      -5.326502     -2.883962     -1.362757
  H      -5.879919     -2.053026     -2.852466
  H      -4.151135     -2.115656     -2.476266
  C      -5.141446      0.545815     -2.061565
  H      -5.104524      1.417172     -1.395901
  H      -6.011639      0.656192     -2.737351
  H      -4.244502      0.539067     -2.703894
  H      -2.521697     -2.618237     -0.416529
41
Coordinates from ORCA-job orca E -847.149400549636
  C      -2.379159     -1.976324      0.456047
  H      -2.507818     -2.406000      1.452886
  C      -2.081452     -0.680387      0.293244
  C      -1.875735      0.292818      1.427610
  H      -0.798513      0.335013      1.678997
  H      -2.396810     -0.064364      2.328784
  C      -2.348999      1.689307      1.031290
  H      -2.118725      2.411907      1.829392
  H      -3.440864      1.688397      0.883162
  C      -1.652227      2.123571     -0.247960
  H      -0.561306      2.184046     -0.066138
  C      -2.133289      3.449759     -0.824490
  C      -1.830558      4.666338      0.052596
  H      -2.354929      4.574425      1.019698
  H      -0.751220      4.684889      0.292577
  C      -2.229992      5.984051     -0.611959
  H      -2.010108      6.846994      0.036617
  H      -3.308934      6.003239     -0.839833
  H      -1.690342      6.132483     -1.562299
  H      -3.218679      3.374691     -1.013879
  H      -1.655420      3.574510     -1.811093
  O      -1.837449      1.152345     -1.306710
  C      -1.981529     -0.173675     -1.117932
  O      -2.071138     -0.887508     -2.090513
  C      -5.236033     -0.728221     -1.291340
  C      -5.372456     -0.652562      0.153745
  O      -5.524195     -1.865802      0.745499
  C      -5.667899     -1.855277      2.157644
  H      -5.800641     -2.901646      2.462400
  H      -4.775315     -1.430036      2.644191
  H      -6.539553     -1.256481      2.465870
  O      -5.350021      0.381065      0.809365
  C      -5.158074     -2.022402     -2.023940
  H      -5.336339     -2.883579     -1.368965
  H      -5.882707     -2.048124     -2.858614
  H      -4.154657     -2.114791     -2.480171
  C      -5.141659      0.544675     -2.062320
  H      -5.106474      1.415421     -1.395573
  H      -6.011692      0.654200     -2.738260
  H      -4.244387      0.539207     -2.704978
  H      -2.517771     -2.622782     -0.412188
41
Coordinates from ORCA-job orca E -847.149415594663
  C      -2.380308     -1.976183      0.459075
  H      -2.506367     -2.404961      1.456568
  C      -2.082178     -0.680291      0.295297
  C      -1.875371      0.292922      1.429033
  H      -0.797953      0.333953      1.679856
  H      -2.396093     -0.064331      2.330439
  C      -2.348942      1.689271      1.032034
  H      -2.119492      2.412845      1.829420
  H      -3.440877      1.686475      0.883390
  C      -1.652387      2.123051     -0.247512
  H      -0.561392      2.183341     -0.066142
  C      -2.133810      3.449271     -0.823807
  C      -1.831173      4.666050      0.052962
  H      -2.355428      4.574337      1.020138
  H      -0.751810      4.684806      0.292823
  C      -2.230871      5.983539     -0.611900
  H      -2.011180      6.846693      0.036462
  H      -3.309808      6.002425     -0.839811
  H      -1.691231      6.131837     -1.562263
  H      -3.219166      3.373468     -1.012743
  H      -1.656355      3.573934     -1.810627
  O      -1.838143      1.151964     -1.306447
  C      -1.982693     -0.173809     -1.116672
  O      -2.073266     -0.888628     -2.088251
  C      -5.234369     -0.728205     -1.292994
  C      -5.370016     -0.652704      0.151995
  O      -5.521658     -1.865740      0.744649
  C      -5.664431     -1.853422      2.157277
  H      -5.797435     -2.899382      2.463241
  H      -4.771509     -1.427731      2.643206
  H      -6.536014     -1.254036      2.464427
  O      -5.346368      0.381416      0.806947
  C      -5.161257     -2.021861     -2.027323
  H      -5.343091     -2.883514     -1.373868
  H      -5.885280     -2.043671     -2.862521
  H      -4.157428     -2.115106     -2.482901
  C      -5.141381      0.544436     -2.063085
  H      -5.107901      1.414761     -1.395653
  H      -6.011353      0.652946     -2.739310
  H      -4.243992      0.539833     -2.705951
  H      -2.515293     -2.626610     -0.407001
41
Coordinates from ORCA-job orca E -847.149425504721
  C      -2.382243     -1.975924      0.462232
  H      -2.505212     -2.404016      1.460441
  C      -2.083424     -0.680490      0.296923
  C      -1.875641      0.293049      1.430172
  H      -0.797961      0.333591      1.679918
  H      -2.395695     -0.064087      2.332030
  C      -2.349717      1.689115      1.032848
  H      -2.120572      2.413443      1.829599
  H      -3.441534      1.684936      0.884165
  C      -1.653288      2.122349     -0.246904
  H      -0.562255      2.182345     -0.065778
  C      -2.134646      3.448683     -0.823185
  C      -1.831780      4.665634      0.053189
  H      -2.356099      4.574414      1.020371
  H      -0.752424      4.684233      0.293084
  C      -2.231169      5.982979     -0.612158
  H      -2.011470      6.846314      0.035960
  H      -3.310062      6.001925     -0.840270
  H      -1.691345      6.130885     -1.562478
  H      -3.220013      3.372609     -1.011774
  H      -1.657451      3.573049     -1.810181
  O      -1.839442      1.151340     -1.305983
  C      -1.984316     -0.174267     -1.115539
  O      -2.075615     -0.889900     -2.086333
  C      -5.233031     -0.727393     -1.294764
  C      -5.367800     -0.652793      0.150377
  O      -5.519195     -1.865895      0.743281
  C      -5.660193     -1.852264      2.156295
  H      -5.793028     -2.897914      2.463372
  H      -4.767241     -1.426088      2.641691
  H      -6.531706     -1.252400      2.462640
  O      -5.343527      0.381336      0.805356
  C      -5.163619     -2.021176     -2.029642
  H      -5.347650     -2.883459     -1.377876
  H      -5.887773     -2.039094     -2.864794
  H      -4.159826     -2.116196     -2.484971
  C      -5.140702      0.545158     -2.063802
  H      -5.108937      1.415294     -1.396083
  H      -6.010530      0.652586     -2.740524
  H      -4.243309      0.541218     -2.706706
  H      -2.513630     -2.629740     -0.401741
41
Coordinates from ORCA-job orca E -847.149431958042
  C      -2.383931     -1.975843      0.464466
  H      -2.504217     -2.403754      1.463173
  C      -2.084594     -0.680889      0.297924
  C      -1.876317      0.293097      1.431009
  H      -0.798422      0.333829      1.679730
  H      -2.395706     -0.063823      2.333327
  C      -2.350760      1.688936      1.033665
  H      -2.121340      2.413651      1.829996
  H      -3.442459      1.684250      0.885424
  C      -1.654471      2.121740     -0.246255
  H      -0.563421      2.181497     -0.065209
  C      -2.135506      3.448104     -0.822850
  C      -1.832206      4.665277      0.053043
  H      -2.356592      4.574678      1.020246
  H      -0.752848      4.683601      0.292965
  C      -2.231113      5.982490     -0.612875
  H      -2.011218      6.846016      0.034919
  H      -3.309977      6.001670     -0.841112
  H      -1.691151      6.129832     -1.563204
  H      -3.220920      3.372203     -1.011223
  H      -1.658426      3.571999     -1.809961
  O      -1.840830      1.150587     -1.305233
  C      -1.985769     -0.174957     -1.114566
  O      -2.077385     -0.890901     -2.085113
  C      -5.232209     -0.726238     -1.295832
  C      -5.366418     -0.652661      0.149520
  O      -5.517521     -1.865979      0.742038
  C      -5.656899     -1.852228      2.155189
  H      -5.789224     -2.897823      2.462680
  H      -4.763981     -1.425745      2.640130
  H      -6.528302     -1.252276      2.461673
  O      -5.342174      0.381137      0.805025
  C      -5.164698     -2.020238     -2.030695
  H      -5.349600     -2.883077     -1.380199
  H      -5.889447     -2.035270     -2.865432
  H      -4.161315     -2.117478     -2.486276
  C      -5.139761      0.546532     -2.064230
  H      -5.109279      1.416794     -1.396673
  H      -6.009346      0.653110     -2.741515
  H      -4.242364      0.543051     -2.706991
  H      -2.512954     -2.631510     -0.398238
41
Coordinates from ORCA-job orca E -847.149438363763
  C      -2.385112     -1.976054      0.466149
  H      -2.503060     -2.404144      1.465142
  C      -2.085551     -0.681408      0.298777
  C      -1.877044      0.293031      1.431796
  H      -0.798982      0.334224      1.679709
  H      -2.395867     -0.063575      2.334535
  C      -2.351640      1.688752      1.034517
  H      -2.121553      2.413639      1.830530
  H      -3.443308      1.684165      0.887056
  C      -1.655669      2.121202     -0.245659
  H      -0.564596      2.180883     -0.064736
  C      -2.136468      3.447402     -0.822773
  C      -1.832639      4.664847      0.052551
  H      -2.356946      4.574854      1.019859
  H      -0.753249      4.682930      0.292342
  C      -2.231193      5.981908     -0.613889
  H      -2.010972      6.845637      0.033519
  H      -3.310072      6.001332     -0.842035
  H      -1.691277      6.128669     -1.564332
  H      -3.221957      3.371835     -1.010905
  H      -1.659517      3.570751     -1.810015
  O      -1.842189      1.149692     -1.304252
  C      -1.987017     -0.175837     -1.113519
  O      -2.078690     -0.891737     -2.084171
  C      -5.231381     -0.724885     -1.296287
  C      -5.365462     -0.652100      0.149187
  O      -5.516426     -1.865683      0.740977
  C      -5.654567     -1.852805      2.154099
  H      -5.786228     -2.898566      2.461323
  H      -4.761539     -1.426237      2.638542
  H      -6.525800     -1.253111      2.461630
  O      -5.341549      0.381259      0.805377
  C      -5.165062     -2.018869     -2.031210
  H      -5.350584     -2.882079     -1.381549
  H      -5.890523     -2.031653     -2.865429
  H      -4.162299     -2.118747     -2.487355
  C      -5.138473      0.548235     -2.064456
  H      -5.109025      1.418847     -1.397352
  H      -6.007748      0.654053     -2.742315
  H      -4.240972      0.545229     -2.706926
  H      -2.512862     -2.632493     -0.395992
41
Coordinates from ORCA-job orca E -847.149443495239
  C      -2.385732     -1.976594      0.467574
  H      -2.501788     -2.405036      1.466689
  C      -2.086206     -0.682043      0.299724
  C      -1.877450      0.292808      1.432582
  H      -0.799263      0.334421      1.679907
  H      -2.395854     -0.063323      2.335726
  C      -2.352022      1.688527      1.035356
  H      -2.120987      2.413445      1.831102
  H      -3.443809      1.684455      0.888929
  C      -1.656667      2.120660     -0.245256
  H      -0.565535      2.180482     -0.064646
  C      -2.137544      3.446576     -0.822853
  C      -1.833209      4.664347      0.051891
  H      -2.357222      4.574817      1.019410
  H      -0.753743      4.682349      0.291331
  C      -2.231737      5.981215     -0.614947
  H      -2.011170      6.845159      0.032059
  H      -3.310684      6.000749     -0.842771
  H      -1.692082      6.127509     -1.565610
  H      -3.223134      3.371306     -1.010608
  H      -1.660866      3.569459     -1.810278
  O      -1.843408      1.148620     -1.303254
  C      -1.988029     -0.176927     -1.112411
  O      -2.079640     -0.892632     -2.083293
  C      -5.230210     -0.723431     -1.296337
  C      -5.364767     -0.651077      0.149118
  O      -5.515914     -1.864915      0.740073
  C      -5.653117     -1.853456      2.153100
  H      -5.784135     -2.899518      2.459570
  H      -4.759725     -1.427034      2.636928
  H      -6.524103     -1.254244      2.462324
  O      -5.341253      0.381862      0.805955
  C      -5.165078     -2.017160     -2.031589
  H      -5.351602     -2.880448     -1.382335
  H      -5.891121     -2.028198     -2.865376
  H      -4.162988     -2.119983     -2.488402
  C      -5.136842      0.549983     -2.064603
  H      -5.108286      1.421091     -1.398116
  H      -6.005787      0.655041     -2.743007
  H      -4.239093      0.547568     -2.706652
  H      -2.513271     -2.633041     -0.394541
41
Coordinates from ORCA-job orca E -847.149448345199
  C      -2.385990     -1.977391      0.469200
  H      -2.500535     -2.406160      1.468365
  C      -2.086653     -0.682777      0.301044
  C      -1.877304      0.292458      1.433472
  H      -0.799002      0.334190      1.680300
  H      -2.395396     -0.062953      2.337060
  C      -2.351688      1.688267      1.036228
  H      -2.119454      2.413164      1.831665
  H      -3.443691      1.684943      0.891074
  C      -1.657364      2.119982     -0.245075
  H      -0.566130      2.180189     -0.065123
  C      -2.138774      3.445476     -0.823009
  C      -1.834007      4.663593      0.051139
  H      -2.357363      4.574265      1.019030
  H      -0.754385      4.681824      0.289861
  C      -2.233164      5.980192     -0.615835
  H      -2.012231      6.844373      0.030731
  H      -3.312275      5.999537     -0.842884
  H      -1.694214      6.126227     -1.566936
  H      -3.224483      3.370298     -1.010110
  H      -1.662637      3.568038     -1.810727
  O      -1.844517      1.147318     -1.302316
  C      -1.988932     -0.178253     -1.111132
  O      -2.080482     -0.893846     -2.082139
  C      -5.228390     -0.721800     -1.296334
  C      -5.363984     -0.649595      0.148977
  O      -5.515833     -1.863638      0.739169
  C      -5.652153     -1.853675      2.152137
  H      -5.782610     -2.900084      2.457651
  H      -4.758132     -1.427590      2.635126
  H      -6.522830     -1.255041      2.463387
  O      -5.340738      0.383001      0.806336
  C      -5.165118     -2.015110     -2.032246
  H      -5.353553     -2.878155     -1.383121
  H      -5.891455     -2.024545     -2.865831
  H      -4.163640     -2.121242     -2.489613
  C      -5.134749      0.551768     -2.064826
  H      -5.107106      1.423446     -1.399014
  H      -6.003350      0.655953     -2.743781
  H      -4.236560      0.550195     -2.706281
  H      -2.514200     -2.633452     -0.393158
41
Coordinates from ORCA-job orca E -847.149450832622
  C      -2.386041     -1.978170      0.470850
  H      -2.499883     -2.407100      1.470022
  C      -2.086838     -0.683442      0.302551
  C      -1.876528      0.292067      1.434379
  H      -0.798127      0.333505      1.680836
  H      -2.394447     -0.062540      2.338392
  C      -2.350658      1.688003      1.037066
  H      -2.117222      2.412845      1.832205
  H      -3.442919      1.685392      0.893174
  C      -1.657628      2.119293     -0.245095
  H      -0.566246      2.180021     -0.066139
  C      -2.139985      3.444382     -0.823088
  C      -1.834873      4.662844      0.050503
  H      -2.357343      4.573524      1.018872
  H      -0.755048      4.681507      0.288269
  C      -2.235079      5.979141     -0.616425
  H      -2.013837      6.843552      0.029724
  H      -3.314409      5.998081     -0.842476
  H      -1.697052      6.125130     -1.568060
  H      -3.225833      3.368980     -1.009294
  H      -1.664672      3.566845     -1.811223
  O      -1.845375      1.146086     -1.301641
  C      -1.989610     -0.179498     -1.109907
  O      -2.081170     -0.895232     -2.080774
  C      -5.226321     -0.720349     -1.296506
  C      -5.363151     -0.648152      0.148614
  O      -5.516081     -1.862333      0.738279
  C      -5.651582     -1.853385      2.151294
  H      -5.781660     -2.900075      2.456031
  H      -4.756862     -1.427687      2.633411
  H      -6.522009     -1.255249      2.464200
  O      -5.339878      0.384225      0.806288
  C      -5.165338     -2.013295     -2.033142
  H      -5.356272     -2.875862     -1.383979
  H      -5.891541     -2.021451     -2.866856
  H      -4.164205     -2.122284     -2.490662
  C      -5.132723      0.553203     -2.065127
  H      -5.105929      1.425340     -1.399828
  H      -6.001018      0.656525     -2.744565
  H      -4.233967      0.552639     -2.705877
  H      -2.515709     -2.633638     -0.391834
41
Coordinates from ORCA-job orca E -847.149452060004
  C      -2.386250     -1.978683      0.472579
  H      -2.500144     -2.407535      1.471754
  C      -2.086886     -0.683938      0.304157
  C      -1.875243      0.291745      1.435314
  H      -0.796718      0.332540      1.681343
  H      -2.393002     -0.062051      2.339765
  C      -2.349140      1.687785      1.037903
  H      -2.114566      2.412619      1.832700
  H      -3.441635      1.685673      0.895213
  C      -1.657546      2.118606     -0.245203
  H      -0.565989      2.179837     -0.067514
  C      -2.141084      3.443356     -0.823003
  C      -1.835668      4.662161      0.050036
  H      -2.357074      4.572742      1.018966
  H      -0.755601      4.681413      0.286667
  C      -2.237245      5.978127     -0.616716
  H      -2.015702      6.842784      0.029008
  H      -3.316836      5.996502     -0.841569
  H      -1.700346      6.124189     -1.568976
  H      -3.227078      3.367420     -1.008093
  H      -1.666829      3.565860     -1.811645
  O      -1.846095      1.144999     -1.301199
  C      -1.990182     -0.180556     -1.108742
  O      -2.081869     -0.896776     -2.079159
  C      -5.224375     -0.719163     -1.297028
  C      -5.362186     -0.647025      0.147942
  O      -5.516412     -1.861276      0.737304
  C      -5.651041     -1.852673      2.150475
  H      -5.780904     -2.899514      2.454802
  H      -4.755696     -1.427295      2.631773
  H      -6.521304     -1.254836      2.464366
  O      -5.338477      0.385219      0.805795
  C      -5.165806     -2.011929     -2.034237
  H      -5.359475     -2.873972     -1.385083
  H      -5.891473     -2.018958     -2.868404
  H      -4.164693     -2.123058     -2.491383
  C      -5.131012      0.554296     -2.065576
  H      -5.105076      1.426694     -1.400555
  H      -5.998976      0.656803     -2.745531
  H      -4.231582      0.554850     -2.705499
  H      -2.517852     -2.633588     -0.390288
41
Coordinates from ORCA-job orca E -847.149452590904
  C      -2.387018     -1.978826      0.474480
  H      -2.501578     -2.407321      1.473716
  C      -2.086902     -0.684280      0.305792
  C      -1.873646      0.291579      1.436303
  H      -0.794959      0.331580      1.681685
  H      -2.391128     -0.061424      2.341264
  C      -2.347339      1.687671      1.038760
  H      -2.111666      2.412629      1.833112
  H      -3.440008      1.685817      0.897231
  C      -1.657234      2.117907     -0.245333
  H      -0.565472      2.179530     -0.069070
  C      -2.142020      3.442380     -0.822802
  C      -1.836229      4.661478      0.049670
  H      -2.356260      4.571816      1.019313
  H      -0.755852      4.681472      0.284825
  C      -2.239627      5.977085     -0.616671
  H      -2.017733      6.841977      0.028617
  H      -3.319550      5.994710     -0.839981
  H      -1.704193      6.123392     -1.569721
  H      -3.228182      3.365719     -1.006571
  H      -1.669020      3.564989     -1.812034
  O      -1.846751      1.143970     -1.300886
  C      -1.990690     -0.181500     -1.107589
  O      -2.082625     -0.898497     -2.077336
  C      -5.222881     -0.718196     -1.297961
  C      -5.360982     -0.646257      0.146988
  O      -5.516506     -1.860503      0.736226
  C      -5.650285     -1.851684      2.149612
  H      -5.780056     -2.898545      2.453932
  H      -4.754504     -1.426500      2.630243
  H      -6.520458     -1.253890      2.463781
  O      -5.336416      0.385887      0.804974
  C      -5.166450     -2.010992     -2.035476
  H      -5.362715     -2.872639     -1.386559
  H      -5.891268     -2.016846     -2.870354
  H      -4.165058     -2.123561     -2.491727
  C      -5.129687      0.555184     -2.066259
  H      -5.104701      1.427665     -1.401297
  H      -5.997181      0.656945     -2.746904
  H      -4.229496      0.556841     -2.705203
  H      -2.520746     -2.633370     -0.388332
41
Coordinates from ORCA-job orca E -847.149453761709
  C      -2.388469     -1.978628      0.476468
  H      -2.504214     -2.406611      1.475784
  C      -2.086848     -0.684522      0.307450
  C      -1.871733      0.291441      1.437463
  H      -0.792799      0.330634      1.681859
  H      -2.388701     -0.060889      2.343012
  C      -2.345338      1.687571      1.039917
  H      -2.108508      2.412729      1.833725
  H      -3.438154      1.685781      0.899655
  C      -1.656875      2.117281     -0.245216
  H      -0.564885      2.179180     -0.070547
  C      -2.142947      3.441480     -0.822378
  C      -1.836597      4.661013      0.049252
  H      -2.355075      4.571339      1.019716
  H      -0.755870      4.681744      0.282736
  C      -2.241874      5.976171     -0.616840
  H      -2.019473      6.841393      0.027833
  H      -3.322167      5.993053     -0.838413
  H      -1.708079      6.122554     -1.570799
  H      -3.229306      3.363964     -1.004563
  H      -1.671432      3.564050     -1.812335
  O      -1.847500      1.143065     -1.300400
  C      -1.991125     -0.182285     -1.106304
  O      -2.083372     -0.900144     -2.075350
  C      -5.222082     -0.717419     -1.299156
  C      -5.359721     -0.645906      0.145890
  O      -5.516385     -1.860127      0.734997
  C      -5.649353     -1.850918      2.148601
  H      -5.779153     -2.897731      2.453095
  H      -4.753307     -1.425859      2.628781
  H      -6.519442     -1.252949      2.462611
  O      -5.333852      0.386078      0.804087
  C      -5.167077     -2.010316     -2.036842
  H      -5.365526     -2.871867     -1.388511
  H      -5.890775     -2.014865     -2.872671
  H      -4.165128     -2.123606     -2.491733
  C      -5.128883      0.556038     -2.067010
  H      -5.105073      1.428415     -1.401876
  H      -5.995667      0.657123     -2.748633
  H      -4.227812      0.558840     -2.704770
  H      -2.524493     -2.632903     -0.386123
41
Coordinates from ORCA-job orca E -847.148723246178
  C      -2.343290     -1.995669      0.512902
  H      -2.457190     -2.419150      1.508452
  C      -2.063252     -0.694341      0.323497
  C      -1.857519      0.289771      1.442002
  H      -0.777786      0.343113      1.680603
  H      -2.370503     -0.061012      2.351160
  C      -2.348795      1.683474      1.039550
  H      -2.114054      2.409130      1.833527
  H      -3.450689      1.685710      0.895281
  C      -1.658667      2.113305     -0.244969
  H      -0.567030      2.177521     -0.068913
  C      -2.145063      3.437022     -0.823251
  C      -1.839689      4.655574      0.050095
  H      -2.360524      4.565563      1.019268
  H      -0.759493      4.675167      0.286132
  C      -2.242250      5.971631     -0.615875
  H      -2.020604      6.836132      0.030026
  H      -3.322008      5.989641     -0.839970
  H      -1.706087      6.118325     -1.568462
  H      -3.230616      3.362827     -1.008254
  H      -1.671059      3.559776     -1.811999
  O      -1.848473      1.137917     -1.299083
  C      -1.986268     -0.186602     -1.099803
  O      -2.081975     -0.902680     -2.067098
  C      -5.255574     -0.692903     -1.322037
  C      -5.392947     -0.629680      0.127205
  O      -5.535252     -1.852843      0.714880
  C      -5.639867     -1.853544      2.134410
  H      -5.769204     -2.901398      2.435520
  H      -4.735202     -1.431215      2.622153
  H      -6.506235     -1.253697      2.455153
  O      -5.360174      0.398847      0.792356
  C      -5.187479     -2.002164     -2.032563
  H      -5.391285     -2.855977     -1.375589
  H      -5.901210     -2.023598     -2.876929
  H      -4.166918     -2.121975     -2.476184
  C      -5.145433      0.568415     -2.077834
  H      -5.119216      1.442333     -1.413043
  H      -6.005583      0.673102     -2.767357
  H      -4.230337      0.562461     -2.706344
  H      -2.490272     -2.644921     -0.366157
41
Coordinates from ORCA-job orca E -847.149511277709
  C      -2.335904     -1.993227      0.505571
  H      -2.445819     -2.418541      1.505795
  C      -2.066487     -0.692872      0.321838
  C      -1.863630      0.292815      1.444712
  H      -0.785119      0.347606      1.687550
  H      -2.377525     -0.058711      2.352200
  C      -2.350516      1.684209      1.042511
  H      -2.117025      2.410656      1.836149
  H      -3.443376      1.683677      0.899108
  C      -1.660846      2.112217     -0.242137
  H      -0.569069      2.174335     -0.066604
  C      -2.144768      3.435944     -0.822225
  C      -1.838942      4.655646      0.049561
  H      -2.360644      4.567515      1.018422
  H      -0.758930      4.674692      0.286476
  C      -2.239804      5.971109     -0.618628
  H      -2.018004      6.836340      0.026234
  H      -3.319353      5.989727     -0.843684
  H      -1.702688      6.116003     -1.570948
  H      -3.230695      3.361532     -1.007910
  H      -1.670048      3.557241     -1.810870
  O      -1.852780      1.135254     -1.294681
  C      -1.992014     -0.189969     -1.096703
  O      -2.092357     -0.907815     -2.064380
  C      -5.259156     -0.698884     -1.317853
  C      -5.379157     -0.634791      0.131750
  O      -5.523898     -1.854059      0.718132
  C      -5.639462     -1.851932      2.133571
  H      -5.768026     -2.899603      2.435271
  H      -4.742160     -1.430401      2.615719
  H      -6.506635     -1.252967      2.453817
  O      -5.348018      0.392804      0.796475
  C      -5.188046     -2.001976     -2.037798
  H      -5.391045     -2.857528     -1.384404
  H      -5.898799     -2.020058     -2.884778
  H      -4.177419     -2.117611     -2.475648
  C      -5.149051      0.570371     -2.078892
  H      -5.121604      1.442428     -1.413576
  H      -6.008525      0.678461     -2.769183
  H      -4.239466      0.564090     -2.705179
  H      -2.478260     -2.640339     -0.362322
41
Coordinates from ORCA-job orca E -847.149648518872
  C      -2.331000     -1.991803      0.502415
  H      -2.436882     -2.417643      1.503762
  C      -2.066952     -0.690974      0.323339
  C      -1.865587      0.294713      1.448655
  H      -0.787745      0.348860      1.694585
  H      -2.380329     -0.058090      2.355122
  C      -2.349714      1.685369      1.045685
  H      -2.117318      2.413037      1.838598
  H      -3.441206      1.682019      0.901886
  C      -1.660696      2.112471     -0.239668
  H      -0.568651      2.173741     -0.065203
  C      -2.144361      3.435476     -0.821400
  C      -1.838314      4.656564      0.048311
  H      -2.360065      4.570237      1.017317
  H      -0.758302      4.675796      0.285204
  C      -2.238798      5.970914     -0.622269
  H      -2.016865      6.837231      0.021083
  H      -3.318312      5.989391     -0.847484
  H      -1.701532      6.113977     -1.574779
  H      -3.230487      3.360154     -1.006718
  H      -1.670046      3.555449     -1.810373
  O      -1.853994      1.134343     -1.290819
  C      -1.993679     -0.190966     -1.092665
  O      -2.096251     -0.909835     -2.060300
  C      -5.260704     -0.703269     -1.314757
  C      -5.373720     -0.637831      0.134213
  O      -5.517942     -1.855209      0.720266
  C      -5.640741     -1.852787      2.133994
  H      -5.768785     -2.900802      2.435147
  H      -4.744200     -1.430421      2.613820
  H      -6.508810     -1.255382      2.455097
  O      -5.341905      0.390285      0.797870
  C      -5.191725     -2.000536     -2.044103
  H      -5.397293     -2.858604     -1.394166
  H      -5.900380     -2.012365     -2.892733
  H      -4.182231     -2.114426     -2.479726
  C      -5.151974      0.570419     -2.078629
  H      -5.125072      1.441330     -1.411995
  H      -6.010329      0.680027     -2.769453
  H      -4.243127      0.565007     -2.704612
  H      -2.469045     -2.642478     -0.362055
41
Coordinates from ORCA-job orca E -847.149681992006
  C      -2.329241     -1.991276      0.503181
  H      -2.431869     -2.416862      1.505045
  C      -2.066702     -0.689837      0.325920
  C      -1.865666      0.295546      1.451744
  H      -0.788068      0.348192      1.699296
  H      -2.380946     -0.058011      2.357691
  C      -2.348640      1.686118      1.047588
  H      -2.117263      2.415072      1.839580
  H      -3.440455      1.680387      0.903177
  C      -1.660286      2.112622     -0.238498
  H      -0.568021      2.173587     -0.065048
  C      -2.144416      3.435097     -0.820867
  C      -1.838062      4.657086      0.047410
  H      -2.359365      4.571801      1.016762
  H      -0.757939      4.676616      0.283776
  C      -2.238864      5.970677     -0.624479
  H      -2.016692      6.837725      0.017811
  H      -3.318463      5.988870     -0.849299
  H      -1.701969      6.112654     -1.577360
  H      -3.230597      3.358854     -1.005286
  H      -1.670938      3.554248     -1.810315
  O      -1.854707      1.134019     -1.288890
  C      -1.994347     -0.191106     -1.089747
  O      -2.098085     -0.910660     -2.056892
  C      -5.260272     -0.705506     -1.313811
  C      -5.370840     -0.639255      0.134496
  O      -5.514330     -1.855932      0.720960
  C      -5.640659     -1.853227      2.134421
  H      -5.768666     -2.901323      2.435350
  H      -4.743627     -1.430056      2.613454
  H      -6.509269     -1.256713      2.455666
  O      -5.337613      0.389721      0.797042
  C      -5.195310     -1.998800     -2.049755
  H      -5.403821     -2.858836     -1.402781
  H      -5.902669     -2.004573     -2.899218
  H      -4.184794     -2.112493     -2.484217
  C      -5.153802      0.569902     -2.078306
  H      -5.128112      1.439825     -1.410187
  H      -6.011553      0.679790     -2.769408
  H      -4.244773      0.565666     -2.704458
  H      -2.463358     -2.646215     -0.359085
41
Coordinates from ORCA-job orca E -847.149706838845
  C      -2.329591     -1.990761      0.506105
  H      -2.429115     -2.415665      1.508493
  C      -2.066618     -0.689144      0.328748
  C      -1.865119      0.296151      1.454089
  H      -0.787517      0.347243      1.702165
  H      -2.380615     -0.057651      2.359873
  C      -2.347937      1.686607      1.048787
  H      -2.117454      2.416860      1.839774
  H      -3.440083      1.678676      0.903926
  C      -1.660206      2.112446     -0.237961
  H      -0.567769      2.173206     -0.065387
  C      -2.144860      3.434699     -0.820334
  C      -1.837944      4.657216      0.046934
  H      -2.358579      4.572603      1.016709
  H      -0.757655      4.676900      0.282541
  C      -2.239188      5.970337     -0.625612
  H      -2.016652      6.837844      0.015927
  H      -3.318915      5.988334     -0.849822
  H      -1.702848      6.111622     -1.578908
  H      -3.231096      3.357729     -1.003644
  H      -1.672345      3.553275     -1.810305
  O      -1.855744      1.133717     -1.288002
  C      -1.995133     -0.191162     -1.087555
  O      -2.099722     -0.911565     -2.053820
  C      -5.259101     -0.706482     -1.314389
  C      -5.368535     -0.640163      0.133463
  O      -5.511446     -1.856656      0.720484
  C      -5.638819     -1.853082      2.134238
  H      -5.766853     -2.901053      2.435511
  H      -4.741481     -1.429156      2.612952
  H      -6.507837     -1.256908      2.454870
  O      -5.333866      0.389484      0.795199
  C      -5.198485     -1.997338     -2.054673
  H      -5.409768     -2.858905     -1.410293
  H      -5.904972     -1.997627     -2.904612
  H      -4.186985     -2.111823     -2.488115
  C      -5.155013      0.569502     -2.078230
  H      -5.130855      1.438438     -1.408630
  H      -6.012458      0.679087     -2.769581
  H      -4.245746      0.566518     -2.704570
  H      -2.460146     -2.649963     -0.353886
41
Coordinates from ORCA-job orca E -847.149709346910
  C      -2.331279     -1.990100      0.509436
  H      -2.428245     -2.414381      1.512317
  C      -2.066894     -0.688828      0.331004
  C      -1.864498      0.296670      1.455640
  H      -0.786744      0.346805      1.703306
  H      -2.379862     -0.056997      2.361577
  C      -2.347760      1.686876      1.049638
  H      -2.117740      2.418135      1.839777
  H      -3.439992      1.677320      0.904733
  C      -1.660574      2.112084     -0.237634
  H      -0.568023      2.172623     -0.065698
  C      -2.145483      3.434375     -0.819842
  C      -1.837818      4.657166      0.046709
  H      -2.357789      4.573060      1.016876
  H      -0.757366      4.676789      0.281568
  C      -2.239342      5.970060     -0.626125
  H      -2.016339      6.837818      0.014914
  H      -3.319201      5.988057     -0.849710
  H      -1.703550      6.110877     -1.579799
  H      -3.231809      3.357095     -1.002187
  H      -1.673774      3.552482     -1.810262
  O      -1.857067      1.133349     -1.287555
  C      -1.996090     -0.191351     -1.086021
  O      -2.101225     -0.912681     -2.051354
  C      -5.258137     -0.706476     -1.315781
  C      -5.366872     -0.640805      0.131970
  O      -5.509411     -1.857423      0.719225
  C      -5.636011     -1.852957      2.133379
  H      -5.763843     -2.900769      2.435231
  H      -4.738725     -1.428393      2.611943
  H      -6.505308     -1.256822      2.453241
  O      -5.331288      0.389035      0.793517
  C      -5.200649     -1.996503     -2.057881
  H      -5.414044     -2.858933     -1.415286
  H      -5.906625     -1.992999     -2.908113
  H      -4.188709     -2.112407     -2.490530
  C      -5.155580      0.569650     -2.078429
  H      -5.132879      1.437820     -1.407747
  H      -6.012834      0.678706     -2.770130
  H      -4.246147      0.567744     -2.704772
  H      -2.459543     -2.652378     -0.348685
41
Coordinates from ORCA-job orca E -847.149714519971
  C      -2.333621     -1.989299      0.512714
  H      -2.428348     -2.413173      1.516009
  C      -2.067467     -0.688654      0.332938
  C      -1.863900      0.297247      1.456949
  H      -0.785904      0.346996      1.703584
  H      -2.378826     -0.056067      2.363287
  C      -2.347870      1.687114      1.050552
  H      -2.117882      2.419196      1.839915
  H      -3.440081      1.676323      0.906044
  C      -1.661366      2.111703     -0.237280
  H      -0.568716      2.171948     -0.065999
  C      -2.146295      3.434108     -0.819400
  C      -1.837625      4.657103      0.046458
  H      -2.356949      4.573597      1.017021
  H      -0.757004      4.676447      0.280569
  C      -2.239169      5.969879     -0.626616
  H      -2.015497      6.837817      0.013948
  H      -3.319159      5.988117     -0.849536
  H      -1.703934      6.110150     -1.580679
  H      -3.232748      3.356861     -1.000830
  H      -1.675329      3.551681     -1.810245
  O      -1.858792      1.132894     -1.287044
  C      -1.997278     -0.191689     -1.084609
  O      -2.102747     -0.913982     -2.049083
  C      -5.257525     -0.705969     -1.317435
  C      -5.365564     -0.641391      0.130449
  O      -5.507850     -1.858287      0.717502
  C      -5.632855     -1.853389      2.131973
  H      -5.760121     -2.901134      2.434266
  H      -4.735789     -1.428234      2.610355
  H      -6.502359     -1.257349      2.451426
  O      -5.329518      0.388257      0.792316
  C      -5.202116     -1.996000     -2.059941
  H      -5.417413     -2.858811     -1.418577
  H      -5.907669     -1.989840     -2.910492
  H      -4.190127     -2.113811     -2.491965
  C      -5.155697      0.570354     -2.078799
  H      -5.134475      1.437953     -1.407353
  H      -6.012687      0.678781     -2.771020
  H      -4.246082      0.569531     -2.704925
  H      -2.460716     -2.653587     -0.343987
41
Coordinates from ORCA-job orca E -847.149717123891
  C      -2.336308     -1.988482      0.515995
  H      -2.429059     -2.412157      1.519615
  C      -2.068256     -0.688557      0.334928
  C      -1.863232      0.297865      1.458414
  H      -0.784922      0.347664      1.703546
  H      -2.377407     -0.054913      2.365388
  C      -2.347992      1.687374      1.051798
  H      -2.117595      2.420170      1.840372
  H      -3.440174      1.675645      0.908175
  C      -1.662498      2.111337     -0.236756
  H      -0.569711      2.171297     -0.066307
  C      -2.147418      3.433739     -0.818995
  C      -1.837445      4.656987      0.045975
  H      -2.356044      4.574285      1.016997
  H      -0.756629      4.675907      0.279219
  C      -2.238867      5.969605     -0.627488
  H      -2.014312      6.837772      0.012453
  H      -3.319016      5.988227     -0.849612
  H      -1.704285      6.109121     -1.582030
  H      -3.234060      3.356788     -0.999420
  H      -1.677272      3.550606     -1.810315
  O      -1.860980      1.132278     -1.286156
  C      -1.998717     -0.192222     -1.082916
  O      -2.104354     -0.915418     -2.046679
  C      -5.257080     -0.705096     -1.319109
  C      -5.364308     -0.641834      0.129040
  O      -5.506430     -1.859102      0.715477
  C      -5.629603     -1.854543      2.130135
  H      -5.755928     -2.902383      2.432489
  H      -4.732746     -1.428844      2.608168
  H      -6.499249     -1.258851      2.449874
  O      -5.328043      0.387346      0.791616
  C      -5.203143     -1.995375     -2.061485
  H      -5.420595     -2.858251     -1.421056
  H      -5.908138     -1.987117     -2.912530
  H      -4.191323     -2.115590     -2.492960
  C      -5.155380      0.571650     -2.079254
  H      -5.135815      1.438826     -1.407259
  H      -6.011933      0.679363     -2.772218
  H      -4.245463      0.572110     -2.704894
  H      -2.463341     -2.653838     -0.339778
41
Coordinates from ORCA-job orca E -847.149722161587
  C      -2.339757     -1.987618      0.520263
  H      -2.430469     -2.411174      1.524189
  C      -2.069316     -0.688547      0.337777
  C      -1.862035      0.298619      1.460554
  H      -0.783245      0.348743      1.703363
  H      -2.374905     -0.053183      2.368630
  C      -2.347756      1.687727      1.053728
  H      -2.116302      2.421380      1.841216
  H      -3.440021      1.675165      0.911814
  C      -1.664084      2.110816     -0.236049
  H      -0.571052      2.170488     -0.067054
  C      -2.149147      3.433053     -0.818596
  C      -1.837263      4.656771      0.045002
  H      -2.354620      4.575174      1.016791
  H      -0.756128      4.675211      0.276802
  C      -2.238795      5.969116     -0.628935
  H      -2.012888      6.837634      0.010044
  H      -3.319226      5.988197     -0.849640
  H      -1.705402      6.107584     -1.584295
  H      -3.236096      3.356640     -0.997475
  H      -1.680279      3.548883     -1.810649
  O      -1.864162      1.131156     -1.284626
  C      -2.000717     -0.193254     -1.080311
  O      -2.106432     -0.917472     -2.043344
  C      -5.256400     -0.703731     -1.321048
  C      -5.362829     -0.642052      0.127421
  O      -5.504934     -1.859823      0.712716
  C      -5.625852     -1.856594      2.127468
  H      -5.750683     -2.904748      2.429328
  H      -4.729028     -1.430345      2.604787
  H      -6.495574     -1.261703      2.448549
  O      -5.326358      0.386366      0.791120
  C      -5.204073     -1.994212     -2.063267
  H      -5.424855     -2.856888     -1.423822
  H      -5.908037     -1.983588     -2.915228
  H      -4.192525     -2.117985     -2.494000
  C      -5.154439      0.573753     -2.079875
  H      -5.137231      1.440564     -1.407386
  H      -6.010207      0.680448     -2.774039
  H      -4.243917      0.576156     -2.704561
  H      -2.468032     -2.653340     -0.334899
41
Coordinates from ORCA-job orca E -847.149731184358
  C      -2.344141     -1.986775      0.526289
  H      -2.432912     -2.410117      1.530527
  C      -2.070602     -0.688695      0.342206
  C      -1.859739      0.299509      1.463777
  H      -0.780233      0.350085      1.703170
  H      -2.370492     -0.050591      2.373675
  C      -2.346564      1.688198      1.056669
  H      -2.113089      2.422916      1.842589
  H      -3.439111      1.674934      0.917728
  C      -1.666099      2.110003     -0.235179
  H      -0.572672      2.169560     -0.068704
  C      -2.151860      3.431729     -0.818191
  C      -1.837162      4.656249      0.043260
  H      -2.352214      4.576053      1.016388
  H      -0.755460      4.674334      0.272430
  C      -2.239610      5.968072     -0.631158
  H      -2.011666      6.837177      0.006303
  H      -3.320570      5.987504     -0.849227
  H      -1.708491      6.105181     -1.587981
  H      -3.239288      3.356026     -0.994529
  H      -1.685156      3.546114     -1.811426
  O      -1.868657      1.129177     -1.282181
  C      -2.003441     -0.195127     -1.076227
  O      -2.109213     -0.920556     -2.038436
  C      -5.254980     -0.701683     -1.323347
  C      -5.360812     -0.641808      0.125407
  O      -5.503417     -1.860229      0.708935
  C      -5.621605     -1.859585      2.123697
  H      -5.744316     -2.908360      2.424262
  H      -4.724424     -1.432842      2.599676
  H      -6.491298     -1.266146      2.447623
  O      -5.323886      0.385558      0.790653
  C      -5.205084     -1.991954     -2.065969
  H      -5.431163     -2.854163     -1.427808
  H      -5.907219     -1.978053     -2.919496
  H      -4.193772     -2.120929     -2.495443
  C      -5.152501      0.576893     -2.080715
  H      -5.138761      1.443377     -1.407730
  H      -6.006956      0.682101     -2.776755
  H      -4.240840      0.582305     -2.703683
  H      -2.475596     -2.652051     -0.328620
41
Coordinates from ORCA-job orca E -847.149743455686
  C      -2.348430     -1.986239      0.533135
  H      -2.436261     -2.409106      1.537655
  C      -2.071665     -0.689030      0.347662
  C      -1.856206      0.300263      1.467485
  H      -0.775846      0.351039      1.702919
  H      -2.364227     -0.047613      2.379750
  C      -2.344026      1.688652      1.060158
  H      -2.107708      2.424375      1.844319
  H      -3.437094      1.675108      0.925130
  C      -1.667908      2.108952     -0.234422
  H      -0.573949      2.168824     -0.071398
  C      -2.155270      3.429827     -0.817815
  C      -1.837468      4.655379      0.041079
  H      -2.349439      4.576556      1.015950
  H      -0.755043      4.673450      0.266774
  C      -2.241674      5.966448     -0.633722
  H      -2.011291      6.836305      0.001828
  H      -3.323355      5.985994     -0.848191
  H      -1.713718      6.102094     -1.592502
  H      -3.243285      3.354615     -0.990802
  H      -1.691492      3.542779     -1.812582
  O      -1.873476      1.126564     -1.279288
  C      -2.006249     -0.197640     -1.071314
  O      -2.112114     -0.924235     -2.032711
  C      -5.252731     -0.699354     -1.325511
  C      -5.358606     -0.640953      0.123324
  O      -5.502527     -1.860007      0.704895
  C      -5.618090     -1.862575      2.119640
  H      -5.738632     -2.912144      2.418287
  H      -4.720030     -1.435656      2.593734
  H      -6.487602     -1.270978      2.447482
  O      -5.320795      0.385360      0.790102
  C      -5.206017     -1.988771     -2.069553
  H      -5.438517     -2.850409     -1.432871
  H      -5.905691     -1.971012     -2.925061
  H      -4.194645     -2.123472     -2.497124
  C      -5.149846      0.580358     -2.081627
  H      -5.140126      1.446619     -1.408241
  H      -6.002613      0.683843     -2.779953
  H      -4.236535      0.589422     -2.702214
  H      -2.484876     -2.650240     -0.321945
41
Coordinates from ORCA-job orca E -847.149756424047
  C      -2.351010     -1.986281      0.538224
  H      -2.439587     -2.408407      1.542963
  C      -2.071896     -0.689535      0.352040
  C      -1.852408      0.300436      1.470140
  H      -0.771369      0.350791      1.702584
  H      -2.358048     -0.045568      2.384455
  C      -2.340597      1.688833      1.062837
  H      -2.101566      2.425006      1.845759
  H      -3.434206      1.675707      0.931238
  C      -1.668402      2.107947     -0.234175
  H      -0.573992      2.168605     -0.074336
  C      -2.157932      3.427946     -0.817582
  C      -1.838105      4.654448      0.039300
  H      -2.347108      4.576175      1.015764
  H      -0.755012      4.673215      0.261729
  C      -2.244956      5.964759     -0.635371
  H      -2.012889      6.835267     -0.001322
  H      -3.327323      5.983714     -0.846408
  H      -1.720111      6.099778     -1.595949
  H      -3.246401      3.352551     -0.987558
  H      -1.696881      3.540147     -1.813703
  O      -1.876338      1.124208     -1.277201
  C      -2.007795     -0.199941     -1.067570
  O      -2.113868     -0.927296     -2.028344
  C      -5.250426     -0.697585     -1.326781
  C      -5.357064     -0.639699      0.121845
  O      -5.503012     -1.859078      0.702137
  C      -5.616979     -1.863837      2.116922
  H      -5.736468     -2.913994      2.413943
  H      -4.717778     -1.437310      2.589311
  H      -6.486161     -1.273510      2.447919
  O      -5.317976      0.386032      0.789434
  C      -5.206626     -1.985859     -2.072759
  H      -5.444062     -2.847137     -1.437238
  H      -5.904140     -1.964976     -2.929878
  H      -4.194746     -2.124375     -2.498226
  C      -5.147464      0.582710     -2.082373
  H      -5.140718      1.448933     -1.408830
  H      -5.998743      0.684916     -2.782608
  H      -4.232518      0.594536     -2.700680
  H      -2.492392     -2.648883     -0.317190
41
Coordinates from ORCA-job orca E -847.149763139897
  C      -2.352158     -1.986561      0.540922
  H      -2.442455     -2.407798      1.545851
  C      -2.071473     -0.690049      0.354489
  C      -1.849153      0.300148      1.471330
  H      -0.767668      0.349636      1.702011
  H      -2.353103     -0.044816      2.387006
  C      -2.337172      1.688756      1.064338
  H      -2.096057      2.424848      1.846688
  H      -3.431177      1.676499      0.935047
  C      -1.667676      2.107164     -0.234326
  H      -0.572997      2.168794     -0.076732
  C      -2.159382      3.426482     -0.817416
  C      -1.838889      4.653615      0.038355
  H      -2.345642      4.575076      1.015966
  H      -0.755321      4.673552      0.258361
  C      -2.248592      5.963292     -0.635801
  H      -2.015858      6.834235     -0.002592
  H      -3.331472      5.981156     -0.844289
  H      -1.726142      6.098511     -1.597658
  H      -3.248115      3.350256     -0.985247
  H      -1.700346      3.538685     -1.814473
  O      -1.876883      1.122618     -1.276267
  C      -2.007950     -0.201506     -1.065673
  O      -2.114306     -0.929290     -2.025989
  C      -5.248874     -0.696562     -1.327377
  C      -5.356309     -0.638521      0.120960
  O      -5.504435     -1.857903      0.700852
  C      -5.617685     -1.863203      2.115789
  H      -5.737376     -2.913556      2.412076
  H      -4.717471     -1.437448      2.587059
  H      -6.486460     -1.273119      2.448237
  O      -5.315722      0.387081      0.788671
  C      -5.206939     -1.983984     -2.074958
  H      -5.446833     -2.845228     -1.440156
  H      -5.903027     -1.961209     -2.933046
  H      -4.194265     -2.123842     -2.498459
  C      -5.145989      0.583739     -2.082995
  H      -5.140761      1.450024     -1.409470
  H      -5.996171      0.685325     -2.784554
  H      -4.229741      0.596908     -2.699513
  H      -2.497027     -2.648413     -0.314559
41
Coordinates from ORCA-job orca E -847.149766930814
  C      -2.353424     -1.986745      0.542853
  H      -2.445564     -2.406948      1.548020
  C      -2.070888     -0.690618      0.356107
  C      -1.845941      0.299596      1.471973
  H      -0.764027      0.348000      1.701013
  H      -2.348266     -0.044799      2.388804
  C      -2.333642      1.688497      1.065548
  H      -2.090541      2.424294      1.847540
  H      -3.427953      1.677315      0.938244
  C      -1.666412      2.106421     -0.234487
  H      -0.571533      2.169085     -0.078804
  C      -2.160370      3.425124     -0.817136
  C      -1.839734      4.652828      0.037766
  H      -2.344381      4.573755      1.016414
  H      -0.755741      4.674231      0.255538
  C      -2.252587      5.961831     -0.635745
  H      -2.019583      6.833194     -0.003213
  H      -3.335940      5.978271     -0.841871
  H      -1.732409      6.097558     -1.598766
  H      -3.249293      3.347636     -0.983026
  H      -1.703186      3.537590     -1.815019
  O      -1.876399      1.121342     -1.275735
  C      -2.007526     -0.202745     -1.064508
  O      -2.114229     -0.930971     -2.024343
  C      -5.247974     -0.695652     -1.328045
  C      -5.355706     -0.637434      0.120091
  O      -5.506085     -1.856694      0.699927
  C      -5.618791     -1.861669      2.115093
  H      -5.739378     -2.911978      2.411217
  H      -4.717713     -1.436907      2.585632
  H      -6.487059     -1.271086      2.447918
  O      -5.313272      0.388138      0.787749
  C      -5.207154     -1.982595     -2.076710
  H      -5.448413     -2.843971     -1.442514
  H      -5.902019     -1.958419     -2.935605
  H      -4.193531     -2.122718     -2.498081
  C      -5.145032      0.584443     -2.083749
  H      -5.140867      1.450769     -1.410251
  H      -5.994090      0.685667     -2.786635
  H      -4.227519      0.598275     -2.698477
  H      -2.500899     -2.648523     -0.312270
41
Coordinates from ORCA-job orca E -847.149771435730
  C      -2.355670     -1.986803      0.544885
  H      -2.449894     -2.405625      1.550419
  C      -2.070133     -0.691432      0.357520
  C      -1.841753      0.298665      1.472450
  H      -0.759239      0.345739      1.699018
  H      -2.341807     -0.045366      2.390712
  C      -2.329051      1.687977      1.067080
  H      -2.083241      2.423290      1.848666
  H      -3.423695      1.678345      0.942351
  C      -1.664549      2.105477     -0.234545
  H      -0.569454      2.169516     -0.081081
  C      -2.161467      3.423399     -0.816590
  C      -1.840899      4.651847      0.037239
  H      -2.342862      4.572033      1.017198
  H      -0.756384      4.675295      0.252186
  C      -2.257947      5.959945     -0.635424
  H      -2.024721      6.831863     -0.003739
  H      -3.341899      5.974417     -0.838528
  H      -1.740709      6.096414     -1.599927
  H      -3.250615      3.343967     -0.979997
  H      -1.706635      3.536260     -1.815504
  O      -1.875168      1.119878     -1.275210
  C      -2.006606     -0.204126     -1.063472
  O      -2.113717     -0.932935     -2.022725
  C      -5.247594     -0.694376     -1.329150
  C      -5.355027     -0.636051      0.118880
  O      -5.508232     -1.855070      0.698776
  C      -5.620275     -1.859210      2.114222
  H      -5.742560     -2.909281      2.410541
  H      -4.718236     -1.435936      2.584191
  H      -6.487688     -1.267269      2.446782
  O      -5.309855      0.389446      0.786486
  C      -5.207247     -1.981200     -2.078360
  H      -5.449624     -2.842728     -1.444763
  H      -5.900544     -1.955823     -2.938331
  H      -4.192379     -2.121082     -2.496908
  C      -5.144137      0.585382     -2.084948
  H      -5.141265      1.451756     -1.411510
  H      -5.991521      0.686243     -2.789819
  H      -4.224917      0.599570     -2.697194
  H      -2.505850     -2.649020     -0.309422
41
Coordinates from ORCA-job orca E -847.149777147449
  C      -2.359680     -1.986688      0.547580
  H      -2.455760     -2.403817      1.553644
  C      -2.069347     -0.692632      0.359128
  C      -1.836114      0.297200      1.473145
  H      -0.752688      0.342808      1.695712
  H      -2.332803     -0.046576      2.393369
  C      -2.323057      1.687085      1.069469
  H      -2.073367      2.421836      1.850366
  H      -3.418106      1.679516      0.948504
  C      -1.662262      2.104228     -0.234259
  H      -0.566889      2.170015     -0.083674
  C      -2.163079      3.421054     -0.815642
  C      -1.842449      4.650594      0.036510
  H      -2.340722      4.570011      1.018287
  H      -0.757228      4.676753      0.247560
  C      -2.265114      5.957379     -0.635193
  H      -2.031623      6.830138     -0.004765
  H      -3.349849      5.969153     -0.834258
  H      -1.751821      6.094705     -1.601686
  H      -3.252542      3.338987     -0.975562
  H      -1.711490      3.534221     -1.815990
  O      -1.873550      1.117963     -1.274271
  C      -2.005369     -0.205886     -1.062076
  O      -2.112861     -0.935407     -2.020715
  C      -5.247796     -0.692350     -1.331005
  C      -5.354009     -0.634112      0.117107
  O      -5.510701     -1.852780      0.697021
  C      -5.621849     -1.856036      2.112737
  H      -5.746684     -2.905711      2.409411
  H      -4.718670     -1.434910      2.582267
  H      -6.487849     -1.261779      2.444797
  O      -5.304992      0.391138      0.784824
  C      -5.207185     -1.979440     -2.080090
  H      -5.451170     -2.840973     -1.447151
  H      -5.898139     -1.952948     -2.941790
  H      -4.190793     -2.119114     -2.494956
  C      -5.143016      0.587092     -2.086795
  H      -5.142297      1.453510     -1.413437
  H      -5.987759      0.687381     -2.794809
  H      -4.221371      0.601562     -2.695412
  H      -2.513020     -2.649779     -0.305441
41
Coordinates from ORCA-job orca E -847.149775628814
  C      -2.364696     -1.986539      0.550202
  H      -2.461729     -2.402109      1.556848
  C      -2.068546     -0.694120      0.360448
  C      -1.829750      0.295287      1.473784
  H      -0.745234      0.339730      1.691278
  H      -2.322453     -0.048384      2.396191
  C      -2.316532      1.685825      1.072291
  H      -2.062287      2.420064      1.852247
  H      -3.412015      1.680534      0.955876
  C      -1.659973      2.102882     -0.233691
  H      -0.564340      2.170620     -0.086137
  C      -2.165118      3.418392     -0.814414
  C      -1.844211      4.649173      0.035736
  H      -2.338221      4.567859      1.019609
  H      -0.758197      4.678289      0.242274
  C      -2.273117      5.954466     -0.634898
  H      -2.039219      6.828182     -0.005951
  H      -3.358717      5.963266     -0.829333
  H      -1.764342      6.092641     -1.603659
  H      -3.254949      3.333468     -0.970273
  H      -1.717231      3.531703     -1.816391
  O      -1.871718      1.115866     -1.273064
  C      -2.003864     -0.207797     -1.060669
  O      -2.111501     -0.937835     -2.018962
  C      -5.248608     -0.689874     -1.333229
  C      -5.352965     -0.631589      0.115095
  O      -5.513257     -1.849738      0.695080
  C      -5.623720     -1.852365      2.110892
  H      -5.751860     -2.901524      2.407946
  H      -4.719319     -1.433930      2.580291
  H      -6.487744     -1.254964      2.442472
  O      -5.299641      0.393370      0.782890
  C      -5.206718     -1.977648     -2.081236
  H      -5.452648     -2.838828     -1.448666
  H      -5.894836     -1.950825     -2.945149
  H      -4.188878     -2.117276     -2.492389
  C      -5.141655      0.589296     -2.089074
  H      -5.143871      1.455823     -1.415906
  H      -5.983039      0.688785     -2.801112
  H      -4.217168      0.603818     -2.693362
  H      -2.521184     -2.650604     -0.301426
41
Coordinates from ORCA-job orca E -847.149781971095
  C      -2.370303     -1.986579      0.552929
  H      -2.467086     -2.400907      1.560149
  C      -2.067688     -0.695959      0.361782
  C      -1.822539      0.292851      1.474499
  H      -0.736790      0.336422      1.686010
  H      -2.310785     -0.050618      2.399300
  C      -2.309442      1.684097      1.075592
  H      -2.050125      2.417926      1.854321
  H      -3.405431      1.681047      0.964546
  C      -1.657811      2.101372     -0.232890
  H      -0.561879      2.171276     -0.088637
  C      -2.167721      3.415366     -0.812949
  C      -1.846175      4.647582      0.034825
  H      -2.335169      4.565533      1.021142
  H      -0.759254      4.679912      0.236055
  C      -2.282108      5.951224     -0.634513
  H      -2.047547      6.826016     -0.007312
  H      -3.368694      5.956781     -0.823493
  H      -1.778626      6.090240     -1.605924
  H      -3.257995      3.327627     -0.964180
  H      -1.724010      3.528593     -1.816768
  O      -1.869989      1.113449     -1.271512
  C      -2.002278     -0.210053     -1.059058
  O      -2.109774     -0.940286     -2.017349
  C      -5.249456     -0.686981     -1.335753
  C      -5.351924     -0.628251      0.112835
  O      -5.515930     -1.845679      0.693028
  C      -5.625972     -1.848046      2.108726
  H      -5.758091     -2.896617      2.406060
  H      -4.720116     -1.432863      2.578115
  H      -6.487424     -1.246888      2.440301
  O      -5.294192      0.396485      0.780552
  C      -5.205952     -1.975642     -2.082036
  H      -5.454692     -2.835972     -1.449509
  H      -5.890795     -1.949118     -2.948600
  H      -4.186890     -2.116030     -2.489749
  C      -5.139588      0.591945     -2.091801
  H      -5.145819      1.458693     -1.418976
  H      -5.976907      0.690230     -2.808695
  H      -4.211877      0.606519     -2.691101
  H      -2.530228     -2.651308     -0.297504
41
Coordinates from ORCA-job orca E -847.149785626532
  C      -2.372511     -1.986979      0.553308
  H      -2.467928     -2.401225      1.560709
  C      -2.066951     -0.697118      0.361708
  C      -1.818638      0.291123      1.474383
  H      -0.732292      0.334581      1.682792
  H      -2.304733     -0.052384      2.400249
  C      -2.305853      1.682771      1.077144
  H      -2.044052      2.416418      1.855271
  H      -3.402134      1.680613      0.968995
  C      -1.656812      2.100676     -0.232469
  H      -0.560765      2.171870     -0.089710
  C      -2.169262      3.413854     -0.812026
  C      -1.847274      4.646716      0.034638
  H      -2.333519      4.564120      1.022270
  H      -0.759869      4.680699      0.232951
  C      -2.286947      5.949585     -0.633753
  H      -2.051971      6.824838     -0.007356
  H      -3.374055      5.953470     -0.819744
  H      -1.786348      6.089166     -1.606570
  H      -3.259774      3.324889     -0.960783
  H      -1.727720      3.527036     -1.816791
  O      -1.868781      1.112385     -1.270864
  C      -2.001128     -0.211117     -1.058794
  O      -2.108198     -0.940898     -2.017574
  C      -5.249881     -0.685668     -1.336911
  C      -5.351853     -0.625907      0.111769
  O      -5.517584     -1.842660      0.692590
  C      -5.628112     -1.844701      2.108027
  H      -5.763117     -2.892795      2.405689
  H      -4.721366     -1.431709      2.577674
  H      -6.487766     -1.240942      2.439645
  O      -5.292393      0.399083      0.778885
  C      -5.205184     -1.975011     -2.081625
  H      -5.455285     -2.834493     -1.448509
  H      -5.888564     -1.949780     -2.949460
  H      -4.185848     -2.116014     -2.488441
  C      -5.138083      0.592974     -2.093512
  H      -5.146997      1.460031     -1.421119
  H      -5.973007      0.690324     -2.813300
  H      -4.208620      0.607263     -2.690061
  H      -2.533895     -2.651693     -0.296868
41
Coordinates from ORCA-job orca E -847.149791583135
  C      -2.373346     -1.987934      0.552568
  H      -2.466367     -2.402714      1.559976
  C      -2.065770     -0.698483      0.360970
  C      -1.814492      0.288953      1.473722
  H      -0.727640      0.332431      1.679410
  H      -2.298761     -0.054676      2.400450
  C      -2.302326      1.681000      1.078383
  H      -2.038483      2.414430      1.856058
  H      -3.398915      1.679210      0.973077
  C      -1.655924      2.100045     -0.232207
  H      -0.559811      2.172787     -0.090774
  C      -2.171010      3.412482     -0.810956
  C      -1.848486      4.645800      0.034886
  H      -2.331868      4.562347      1.023862
  H      -0.760584      4.681400      0.230171
  C      -2.291965      5.948069     -0.632142
  H      -2.056532      6.823621     -0.006331
  H      -3.379596      5.950335     -0.815059
  H      -1.794324      6.088473     -1.606361
  H      -3.261783      3.322591     -0.957218
  H      -1.731641      3.525797     -1.816650
  O      -1.867333      1.111557     -1.270532
  C      -1.999768     -0.212083     -1.059166
  O      -2.106180     -0.940927     -2.018789
  C      -5.249731     -0.684747     -1.337858
  C      -5.352265     -0.622902      0.110745
  O      -5.519547     -1.838664      0.692908
  C      -5.631308     -1.839722      2.107971
  H      -5.770035     -2.887129      2.406300
  H      -4.723457     -1.429439      2.578002
  H      -6.488841     -1.232822      2.439459
  O      -5.292035      0.402895      0.776490
  C      -5.204288     -1.974937     -2.080593
  H      -5.455437     -2.833219     -1.446239
  H      -5.886899     -1.951834     -2.949190
  H      -4.185098     -2.116971     -2.487540
  C      -5.135959      0.593259     -2.095633
  H      -5.148161      1.460883     -1.424035
  H      -5.968335      0.689213     -2.818538
  H      -4.204663      0.607091     -2.689298
  H      -2.536105     -2.652076     -0.297839
41
Coordinates from ORCA-job orca E -847.149796092231
  C      -2.373267     -1.989086      0.551638
  H      -2.464009     -2.404539      1.558973
  C      -2.064282     -0.699858      0.360287
  C      -1.810053      0.286752      1.472931
  H      -0.722762      0.330006      1.676300
  H      -2.292615     -0.056934      2.400516
  C      -2.298709      1.679089      1.079405
  H      -2.033241      2.412252      1.856796
  H      -3.395585      1.677176      0.976772
  C      -1.655046      2.099314     -0.232189
  H      -0.558845      2.173786     -0.092213
  C      -2.172902      3.411116     -0.809824
  C      -1.849786      4.644700      0.035455
  H      -2.330164      4.560085      1.025797
  H      -0.761374      4.681936      0.227581
  C      -2.297259      5.946508     -0.629784
  H      -2.061312      6.822199     -0.004364
  H      -3.385437      5.947161     -0.809451
  H      -1.802742      6.088033     -1.605434
  H      -3.263935      3.320395     -0.953611
  H      -1.735769      3.524853     -1.816440
  O      -1.865996      1.110770     -1.270454
  C      -1.998572     -0.213049     -1.059679
  O      -2.104533     -0.941081     -2.019947
  C      -5.248781     -0.684136     -1.338898
  C      -5.352662     -0.619661      0.109462
  O      -5.521515     -1.834285      0.693457
  C      -5.634558     -1.833414      2.108268
  H      -5.777264     -2.879979      2.407718
  H      -4.725434     -1.425960      2.578444
  H      -6.490016     -1.223245      2.439135
  O      -5.292270      0.407292      0.773398
  C      -5.203758     -1.975218     -2.079785
  H      -5.455655     -2.832287     -1.444020
  H      -5.886314     -1.953898     -2.948517
  H      -4.184872     -2.118703     -2.487146
  C      -5.133407      0.592883     -2.098221
  H      -5.149107      1.461249     -1.427654
  H      -5.963272      0.687075     -2.824229
  H      -4.200182      0.606452     -2.688851
  H      -2.537807     -2.652357     -0.299161
41
Coordinates from ORCA-job orca E -847.149803062783
  C      -2.372970     -1.990925      0.550244
  H      -2.461088     -2.407291      1.557437
  C      -2.061638     -0.702112      0.359356
  C      -1.802429      0.283197      1.471655
  H      -0.714422      0.325716      1.671338
  H      -2.281991     -0.060707      2.400744
  C      -2.292498      1.675912      1.081008
  H      -2.024627      2.408452      1.858150
  H      -3.389766      1.673548      0.982517
  C      -1.653415      2.097978     -0.232279
  H      -0.557079      2.175395     -0.094903
  C      -2.175995      3.408852     -0.807831
  C      -1.852174      4.642804      0.036726
  H      -2.327683      4.556145      1.029245
  H      -0.762979      4.682862      0.223761
  C      -2.306301      5.943850     -0.625439
  H      -2.069569      6.819748     -0.000599
  H      -3.395347      5.941788     -0.799759
  H      -1.816955      6.087329     -1.603413
  H      -3.267389      3.316490     -0.947699
  H      -1.742548      3.523656     -1.815914
  O      -1.863835      1.109435     -1.270494
  C      -1.996801     -0.214619     -1.060500
  O      -2.102571     -0.941737     -2.021376
  C      -5.246860     -0.683272     -1.340894
  C      -5.352952     -0.614437      0.107031
  O      -5.524440     -1.827159      0.694311
  C      -5.639355     -1.822098      2.108925
  H      -5.788652     -2.867091      2.410725
  H      -4.728105     -1.419269      2.579086
  H      -6.491567     -1.206406      2.437852
  O      -5.292358      0.414516      0.767886
  C      -5.203420     -1.975969     -2.078871
  H      -5.455964     -2.831233     -1.440834
  H      -5.886495     -1.956812     -2.947241
  H      -4.184954     -2.121807     -2.486637
  C      -5.129135      0.591816     -2.103005
  H      -5.150314      1.461558     -1.434382
  H      -5.954870      0.682945     -2.834047
  H      -4.192577      0.605103     -2.688378
  H      -2.540981     -2.652763     -0.301040
41
Coordinates from ORCA-job orca E -847.149808122864
  C      -2.372621     -1.992909      0.548614
  H      -2.458800     -2.410213      1.555579
  C      -2.058424     -0.704685      0.358275
  C      -1.793566      0.279200      1.470157
  H      -0.704744      0.320816      1.665565
  H      -2.269373     -0.065253      2.401023
  C      -2.285536      1.672166      1.082695
  H      -2.015408      2.403906      1.859793
  H      -3.383160      1.668828      0.988455
  C      -1.651543      2.096318     -0.232417
  H      -0.555069      2.177042     -0.098069
  C      -2.179470      3.406268     -0.805366
  C      -1.855174      4.640450      0.038711
  H      -2.325350      4.551271      1.033547
  H      -0.765166      4.683774      0.220217
  C      -2.316805      5.940702     -0.619755
  H      -2.079396      6.816710      0.004675
  H      -3.406757      5.935500     -0.788244
  H      -1.833141      6.086681     -1.600192
  H      -3.271202      3.311784     -0.941054
  H      -1.750075      3.522696     -1.814995
  O      -1.861526      1.107946     -1.270726
  C      -1.995060     -0.216293     -1.061521
  O      -2.101334     -0.942768     -2.022701
  C      -5.244530     -0.682436     -1.343580
  C      -5.352783     -0.608437      0.103846
  O      -5.526912     -1.818863      0.695326
  C      -5.643829     -1.807955      2.109891
  H      -5.800853     -2.850894      2.414978
  H      -4.730174     -1.410411      2.579911
  H      -6.492351     -1.185539      2.435500
  O      -5.292109      0.422960      0.760943
  C      -5.203583     -1.977349     -2.077908
  H      -5.456181     -2.830561     -1.437080
  H      -5.887983     -1.960127     -2.945232
  H      -4.185671     -2.125914     -2.486133
  C      -5.124230      0.590053     -2.109336
  H      -5.151384      1.461663     -1.443387
  H      -5.945141      0.677363     -2.846176
  H      -4.183690      0.603058     -2.688338
  H      -2.544963     -2.653157     -0.303033
41
Coordinates from ORCA-job orca E -847.149807498671
  C      -2.372539     -1.995100      0.546589
  H      -2.457619     -2.413433      1.553220
  C      -2.054510     -0.707777      0.356873
  C      -1.783127      0.274479      1.468383
  H      -0.693309      0.315334      1.658340
  H      -2.253933     -0.071141      2.401426
  C      -2.277796      1.667521      1.084615
  H      -2.005629      2.398313      1.861868
  H      -3.375720      1.662476      0.994719
  C      -1.649550      2.094231     -0.232433
  H      -0.552934      2.178578     -0.101665
  C      -2.183535      3.403258     -0.802137
  C      -1.859075      4.637503      0.041774
  H      -2.323434      4.545284      1.039062
  H      -0.768237      4.684597      0.217295
  C      -2.329146      5.936914     -0.612324
  H      -2.091195      6.812951      0.011860
  H      -3.420041      5.928074     -0.774449
  H      -1.851742      6.085970     -1.595374
  H      -3.275568      3.306035     -0.933344
  H      -1.758599      3.521944     -1.813398
  O      -1.859240      1.106226     -1.271083
  C      -1.993446     -0.218100     -1.062783
  O      -2.101276     -0.944113     -2.024041
  C      -5.241950     -0.681556     -1.347266
  C      -5.351765     -0.601224      0.099647
  O      -5.528310     -1.808769      0.696585
  C      -5.647554     -1.790037      2.111172
  H      -5.814013     -2.830232      2.420706
  H      -4.731148     -1.398759      2.581059
  H      -6.491536     -1.159033      2.431699
  O      -5.291034      0.433211      0.752038
  C      -5.204301     -1.979599     -2.076586
  H      -5.456312     -2.830216     -1.432065
  H      -5.890926     -1.964356     -2.942120
  H      -4.187220     -2.131415     -2.485552
  C      -5.118549      0.587431     -2.117960
  H      -5.152422      1.461721     -1.455840
  H      -5.933527      0.669748     -2.861807
  H      -4.173092      0.600022     -2.688959
  H      -2.550213     -2.653572     -0.305283
41
Coordinates from ORCA-job orca E -847.149816570975
  C      -2.373124     -1.996921      0.544669
  H      -2.458440     -2.416037      1.550939
  C      -2.050880     -0.710699      0.355431
  C      -1.773799      0.270120      1.466798
  H      -0.683012      0.310970      1.651096
  H      -2.239291     -0.077161      2.401926
  C      -2.271529      1.662995      1.086452
  H      -1.998109      2.393003      1.863969
  H      -3.369637      1.655946      0.999797
  C      -1.648127      2.092245     -0.232069
  H      -0.551369      2.179430     -0.104489
  C      -2.187277      3.400548     -0.798808
  C      -1.863096      4.634728      0.045267
  H      -2.322967      4.539922      1.044388
  H      -0.771670      4.685000      0.216230
  C      -2.339954      5.933494     -0.605194
  H      -2.101822      6.809488      0.018996
  H      -3.431531      5.921580     -0.762447
  H      -1.867397      6.085234     -1.590177
  H      -3.279484      3.300607     -0.926466
  H      -1.765979      3.521470     -1.811325
  O      -1.857784      1.104697     -1.271288
  C      -1.992381     -0.219605     -1.063894
  O      -2.102682     -0.945263     -2.025158
  C      -5.240073     -0.680766     -1.351099
  C      -5.350017     -0.594447      0.095463
  O      -5.527881     -1.799210      0.697783
  C      -5.649091     -1.773003      2.112376
  H      -5.824360     -2.810450      2.426263
  H      -4.730256     -1.387442      2.582216
  H      -6.488553     -1.133540      2.427670
  O      -5.288996      0.442825      0.743379
  C      -5.205338     -1.982140     -2.075050
  H      -5.456490     -2.830086     -1.426725
  H      -5.894266     -1.968705     -2.938739
  H      -4.189188     -2.136855     -2.485003
  C      -5.113685      0.584688     -2.126913
  H      -5.153324      1.461964     -1.469036
  H      -5.922971      0.661912     -2.877338
  H      -4.163552      0.596764     -2.690196
  H      -2.555688     -2.653909     -0.307233
41
Coordinates from ORCA-job orca E -847.149821357759
  C      -2.374499     -1.998406      0.543101
  H      -2.461039     -2.417936      1.549076
  C      -2.047755     -0.713421      0.354131
  C      -1.765871      0.266176      1.465533
  H      -0.674137      0.307932      1.644006
  H      -2.225860     -0.083113      2.402652
  C      -2.266906      1.658726      1.088282
  H      -1.992901      2.388299      1.865994
  H      -3.365123      1.649585      1.003773
  C      -1.647422      2.090392     -0.231254
  H      -0.550529      2.179447     -0.106436
  C      -2.190692      3.398107     -0.795453
  C      -1.867133      4.632136      0.049023
  H      -2.323973      4.535317      1.049347
  H      -0.775350      4.684867      0.216952
  C      -2.348921      5.930430     -0.598750
  H      -2.110948      6.806355      0.025601
  H      -3.440926      5.916104     -0.752719
  H      -1.879676      6.084281     -1.584988
  H      -3.282978      3.295639     -0.920488
  H      -1.772126      3.521019     -1.808857
  O      -1.857426      1.103332     -1.271157
  C      -1.991924     -0.220900     -1.064675
  O      -2.105425     -0.946058     -2.026075
  C      -5.238918     -0.679983     -1.354916
  C      -5.347518     -0.588098      0.091431
  O      -5.525678     -1.790249      0.698824
  C      -5.648375     -1.757536      2.113309
  H      -5.831565     -2.792401      2.431118
  H      -4.727405     -1.376994      2.583128
  H      -6.483320     -1.110085      2.424037
  O      -5.285796      0.451720      0.735228
  C      -5.206508     -1.984626     -2.073416
  H      -5.457057     -2.829771     -1.421285
  H      -5.897371     -1.973068     -2.935595
  H      -4.191386     -2.141935     -2.484658
  C      -5.109827      0.582082     -2.135852
  H      -5.154344      1.462563     -1.482498
  H      -5.913822      0.654154     -2.892283
  H      -4.155436      0.593556     -2.692021
  H      -2.561205     -2.654249     -0.308711
41
Coordinates from ORCA-job orca E -847.149821202675
  C      -2.375932     -1.999337      0.542065
  H      -2.463912     -2.418811      1.547920
  C      -2.045910     -0.715240      0.353171
  C      -1.761333      0.263579      1.464709
  H      -0.668963      0.306781      1.638960
  H      -2.217316     -0.087358      2.403138
  C      -2.264851      1.655822      1.089572
  H      -1.990865      2.385362      1.867341
  H      -3.363111      1.645331      1.005728
  C      -1.647411      2.089196     -0.230339
  H      -0.550396      2.178839     -0.107119
  C      -2.192843      3.396600     -0.793036
  C      -1.870045      4.630435      0.051976
  H      -2.326005      4.532539      1.052590
  H      -0.778189      4.684312      0.219095
  C      -2.353805      5.928597     -0.594633
  H      -2.116422      6.804397      0.030120
  H      -3.445907      5.913049     -0.747830
  H      -1.885429      6.083621     -1.581098
  H      -3.285114      3.292539     -0.916912
  H      -1.775497      3.520735     -1.806787
  O      -1.857971      1.102518     -1.270812
  C      -1.991908     -0.221706     -1.065097
  O      -2.108106     -0.946131     -2.026889
  C      -5.238662     -0.679496     -1.357512
  C      -5.345411     -0.583718      0.088729
  O      -5.523268     -1.784070      0.699591
  C      -5.646433     -1.747641      2.113865
  H      -5.834592     -2.780836      2.434100
  H      -4.724016     -1.370177      2.583532
  H      -6.478050     -1.094930      2.422464
  O      -5.282718      0.457781      0.729726
  C      -5.207225     -1.986369     -2.072036
  H      -5.457615     -2.829326     -1.417082
  H      -5.899000     -1.976757     -2.933562
  H      -4.192904     -2.145162     -2.484575
  C      -5.108028      0.580237     -2.142193
  H      -5.155435      1.463223     -1.492346
  H      -5.908672      0.648484     -2.902404
  H      -4.151002      0.591090     -2.693982
  H      -2.564799     -2.654614     -0.309689
41
Coordinates from ORCA-job orca E -847.149824929293
  C      -2.376539     -1.999889      0.541091
  H      -2.465540     -2.419102      1.546940
  C      -2.045247     -0.716069      0.352327
  C      -1.760198      0.262356      1.464106
  H      -0.667582      0.306976      1.636520
  H      -2.214302     -0.089657      2.403019
  C      -2.265048      1.654424      1.090032
  H      -1.991652      2.384137      1.867870
  H      -3.363302      1.643345      1.005494
  C      -1.647814      2.088767     -0.229663
  H      -0.550739      2.178014     -0.106806
  C      -2.193540      3.396220     -0.791722
  C      -1.871461      4.629723      0.054041
  H      -2.328247      4.531383      1.054233
  H      -0.779746      4.683579      0.222092
  C      -2.354760      5.928136     -0.592433
  H      -2.118136      6.803676      0.032964
  H      -3.446705      5.912472     -0.746724
  H      -1.885412      6.083641     -1.578355
  H      -3.285743      3.291642     -0.915764
  H      -1.776054      3.520942     -1.805338
  O      -1.858896      1.102465     -1.270609
  C      -1.992105     -0.221899     -1.065562
  O      -2.109949     -0.945426     -2.027925
  C      -5.238935     -0.679643     -1.358709
  C      -5.344338     -0.581480      0.087443
  O      -5.521596     -1.780818      0.700328
  C      -5.644382     -1.742864      2.114376
  H      -5.834574     -2.775281      2.435843
  H      -4.721183     -1.366539      2.583650
  H      -6.474195     -1.087802      2.422956
  O      -5.280951      0.460994      0.726770
  C      -5.207390     -1.987683     -2.070910
  H      -5.457461     -2.829286     -1.414118
  H      -5.899568     -1.980175     -2.932206
  H      -4.193642     -2.146755     -2.484805
  C      -5.108144      0.578788     -2.145716
  H      -5.156592      1.463410     -1.498097
  H      -5.907631      0.644698     -2.907290
  H      -4.150241      0.589004     -2.696119
  H      -2.565528     -2.655032     -0.310764
41
Coordinates from ORCA-job orca E -847.149828926677
  C      -2.377155     -2.000476      0.540421
  H      -2.466455     -2.419367      1.546373
  C      -2.044691     -0.716870      0.351787
  C      -1.758592      0.261032      1.463617
  H      -0.665756      0.306412      1.634511
  H      -2.211113     -0.091688      2.403021
  C      -2.264191      1.653174      1.090736
  H      -1.990622      2.382875      1.868531
  H      -3.362430      1.642083      1.006131
  C      -1.647746      2.088326     -0.229164
  H      -0.550598      2.177665     -0.106931
  C      -2.194262      3.395661     -0.790595
  C      -1.872627      4.628992      0.055598
  H      -2.329420      4.530016      1.055721
  H      -0.780937      4.683205      0.223725
  C      -2.356452      5.927465     -0.590352
  H      -2.120397      6.802828      0.035504
  H      -3.448359      5.911314     -0.744871
  H      -1.886986      6.083630     -1.576113
  H      -3.286446      3.290466     -0.914297
  H      -1.777121      3.520898     -1.804286
  O      -1.859427      1.102291     -1.270333
  C      -1.992018     -0.222284     -1.065874
  O      -2.110687     -0.944926     -2.028780
  C      -5.238980     -0.679657     -1.359841
  C      -5.343854     -0.579251      0.086172
  O      -5.521625     -1.777604      0.700785
  C      -5.643465     -1.738196      2.114643
  H      -5.835421     -2.769905      2.437330
  H      -4.719255     -1.363028      2.583017
  H      -6.471616     -1.081293      2.423883
  O      -5.279366      0.464087      0.724006
  C      -5.207293     -1.988596     -2.070128
  H      -5.457226     -2.829064     -1.411816
  H      -5.899563     -1.983274     -2.931410
  H      -4.193833     -2.147921     -2.484825
  C      -5.108238      0.577610     -2.148872
  H      -5.158204      1.463548     -1.503174
  H      -5.906635      0.641309     -2.911752
  H      -4.149555      0.587333     -2.698078
  H      -2.566453     -2.655430     -0.311562
41
Coordinates from ORCA-job orca E -847.149832202987
  C      -2.376900     -2.001060      0.539027
  H      -2.466150     -2.419802      1.545035
  C      -2.044429     -0.717299      0.350819
  C      -1.758286      0.260125      1.462851
  H      -0.665423      0.306044      1.633495
  H      -2.210203     -0.093208      2.402330
  C      -2.264196      1.652395      1.090877
  H      -1.990935      2.381971      1.868876
  H      -3.362425      1.641428      1.005357
  C      -1.647699      2.088205     -0.228881
  H      -0.550502      2.177273     -0.106786
  C      -2.194239      3.395805     -0.789567
  C      -1.873117      4.628640      0.057580
  H      -2.330587      4.528900      1.057324
  H      -0.781547      4.682770      0.226491
  C      -2.356585      5.927521     -0.587798
  H      -2.121233      6.802446      0.038936
  H      -3.448350      5.911306     -0.743307
  H      -1.886276      6.084482     -1.573029
  H      -3.286357      3.290441     -0.913520
  H      -1.776894      3.521682     -1.803099
  O      -1.860042      1.102712     -1.270406
  C      -1.992027     -0.222191     -1.066688
  O      -2.111067     -0.943903     -2.030187
  C      -5.239154     -0.680497     -1.360768
  C      -5.344082     -0.577619      0.084997
  O      -5.522353     -1.774929      0.701563
  C      -5.642484     -1.733709      2.115323
  H      -5.835232     -2.764777      2.439641
  H      -4.717243     -1.358954      2.582133
  H      -6.469485     -1.075790      2.425585
  O      -5.278951      0.466715      0.721098
  C      -5.207071     -1.990396     -2.069032
  H      -5.455740     -2.829895     -1.408968
  H      -5.900108     -1.987993     -2.929747
  H      -4.194023     -2.149405     -2.484987
  C      -5.109345      0.575491     -2.152030
  H      -5.160411      1.462842     -1.508328
  H      -5.907603      0.636838     -2.915252
  H      -4.150621      0.584629     -2.701258
  H      -2.565697     -2.655845     -0.313241
41
Coordinates from ORCA-job orca E -847.149043871038
  C      -2.333468     -2.017521      0.575915
  H      -2.420648     -2.432028      1.577371
  C      -2.021410     -0.726911      0.367809
  C      -1.743029      0.257149      1.470001
  H      -0.649827      0.316103      1.634969
  H      -2.190545     -0.095844      2.412801
  C      -2.265706      1.646282      1.093815
  H      -1.995256      2.377534      1.871230
  H      -3.369802      1.633743      1.006050
  C      -1.649156      2.084236     -0.226353
  H      -0.552534      2.177181     -0.101912
  C      -2.197077      3.390410     -0.791227
  C      -1.878317      4.622893      0.057327
  H      -2.340298      4.523665      1.055059
  H      -0.787430      4.675814      0.231041
  C      -2.357506      5.922307     -0.590184
  H      -2.123942      6.796974      0.037581
  H      -3.448604      5.907301     -0.750498
  H      -1.882687      6.078741     -1.573347
  H      -3.289388      3.289431     -0.920981
  H      -1.774886      3.515685     -1.802838
  O      -1.860877      1.098277     -1.267844
  C      -1.987432     -0.225476     -1.059462
  O      -2.109920     -0.944521     -2.021444
  C      -5.272596     -0.653775     -1.384382
  C      -5.376831     -0.560624      0.067893
  O      -5.540725     -1.767818      0.681291
  C      -5.632031     -1.737581      2.101153
  H      -5.824061     -2.769937      2.421802
  H      -4.698362     -1.365660      2.576402
  H      -6.455209     -1.078255      2.418621
  O      -5.303390      0.477865      0.716417
  C      -5.227678     -1.979340     -2.065631
  H      -5.481452     -2.811217     -1.397797
  H      -5.910988     -1.993899     -2.934226
  H      -4.196393     -2.145254     -2.469961
  C      -5.126293      0.590215     -2.165108
  H      -5.177668      1.479318     -1.524470
  H      -5.915145      0.655505     -2.937851
  H      -4.152766      0.589592     -2.703325
  H      -2.533737     -2.667169     -0.293250
41
Coordinates from ORCA-job orca E -847.149811305330
  C      -2.324660     -2.015613      0.568440
  H      -2.407569     -2.431769      1.575006
  C      -2.023389     -0.725258      0.365786
  C      -1.747660      0.261957      1.471022
  H      -0.655315      0.322281      1.640311
  H      -2.196513     -0.090417      2.412251
  C      -2.267598      1.648632      1.093827
  H      -1.999456      2.381497      1.870530
  H      -3.365618      1.633389      1.004870
  C      -1.650762      2.083106     -0.225617
  H      -0.553891      2.173386     -0.102241
  C      -2.195697      3.390036     -0.789829
  C      -1.876190      4.622833      0.058352
  H      -2.338054      4.523956      1.056150
  H      -0.785271      4.675370      0.231941
  C      -2.354889      5.922435     -0.589184
  H      -2.120838      6.797093      0.038419
  H      -3.446020      5.907924     -0.749287
  H      -1.880196      6.078580     -1.572449
  H      -3.287539      3.288573     -0.919252
  H      -1.773573      3.514972     -1.801527
  O      -1.864721      1.094973     -1.264469
  C      -1.992937     -0.229538     -1.056496
  O      -2.120618     -0.951331     -2.018076
  C      -5.275950     -0.661180     -1.380006
  C      -5.364395     -0.565942      0.070290
  O      -5.531353     -1.768731      0.683838
  C      -5.632963     -1.734311      2.099753
  H      -5.823986     -2.766323      2.421861
  H      -4.706583     -1.362536      2.568325
  H      -6.457154     -1.075810      2.416155
  O      -5.294257      0.473178      0.714508
  C      -5.228616     -1.981641     -2.069493
  H      -5.481734     -2.814692     -1.404335
  H      -5.909201     -1.993767     -2.940294
  H      -4.207615     -2.143282     -2.468218
  C      -5.130086      0.589735     -2.165472
  H      -5.180285      1.478643     -1.523649
  H      -5.918317      0.657305     -2.938956
  H      -4.163128      0.589006     -2.701662
  H      -2.520473     -2.663325     -0.288660
41
Coordinates from ORCA-job orca E -847.149950768970
  C      -2.318331     -2.014488      0.564610
  H      -2.396561     -2.431401      1.572328
  C      -2.023265     -0.723117      0.366953
  C      -1.749341      0.264703      1.474124
  H      -0.657535      0.324369      1.646706
  H      -2.199495     -0.088199      2.414464
  C      -2.267208      1.650524      1.095658
  H      -2.000976      2.384350      1.872072
  H      -3.364322      1.633363      1.005189
  C      -1.650243      2.083406     -0.224104
  H      -0.553032      2.172266     -0.102072
  C      -2.194356      3.390190     -0.788772
  C      -1.874710      4.623879      0.057984
  H      -2.336374      4.526162      1.055974
  H      -0.783755      4.676667      0.231272
  C      -2.353530      5.922650     -0.591043
  H      -2.119329      6.798046      0.035457
  H      -3.444693      5.907971     -0.750889
  H      -1.879054      6.077627     -1.574595
  H      -3.286167      3.287420     -0.917518
  H      -1.772896      3.514606     -1.800845
  O      -1.865364      1.094074     -1.261133
  C      -1.994391     -0.230566     -1.052615
  O      -2.124439     -0.953966     -2.013690
  C      -5.277264     -0.666661     -1.376813
  C      -5.360152     -0.569178      0.072040
  O      -5.526924     -1.769768      0.686312
  C      -5.635187     -1.734058      2.100610
  H      -5.825000     -2.766367      2.422874
  H      -4.709252     -1.361033      2.565415
  H      -6.460670     -1.077395      2.417852
  O      -5.290155      0.471583      0.712902
  C      -5.232649     -1.981743     -2.075656
  H      -5.488409     -2.816940     -1.413610
  H      -5.911428     -1.987931     -2.947713
  H      -4.213046     -2.141745     -2.472266
  C      -5.133131      0.588275     -2.164890
  H      -5.183932      1.476190     -1.521842
  H      -5.920966      0.656480     -2.938286
  H      -4.167369      0.588986     -2.701001
  H      -2.510170     -2.665842     -0.288983
41
Coordinates from ORCA-job orca E -847.149983386883
  C      -2.315581     -2.014119      0.564734
  H      -2.389798     -2.431155      1.572793
  C      -2.023052     -0.721773      0.369347
  C      -1.750021      0.265769      1.477019
  H      -0.658428      0.323950      1.651539
  H      -2.201116     -0.087560      2.416872
  C      -2.266667      1.651524      1.097266
  H      -2.001840      2.385975      1.873514
  H      -3.363964      1.633144      1.005580
  C      -1.649679      2.083696     -0.223062
  H      -0.552250      2.171861     -0.101974
  C      -2.193784      3.390283     -0.788090
  C      -1.873946      4.624656      0.057444
  H      -2.335257      4.527938      1.055692
  H      -0.782928      4.677653      0.230281
  C      -2.353018      5.922722     -0.592784
  H      -2.118616      6.798767      0.032743
  H      -3.444229      5.907858     -0.752262
  H      -1.878869      6.076698     -1.576650
  H      -3.285589      3.286372     -0.916023
  H      -1.773144      3.514241     -1.800554
  O      -1.865722      1.094083     -1.259364
  C      -1.995124     -0.230371     -1.049845
  O      -2.126185     -0.954688     -2.010227
  C      -5.276604     -0.669644     -1.375825
  C      -5.357976     -0.570947      0.072250
  O      -5.524039     -1.770639      0.687340
  C      -5.635308     -1.734002      2.101454
  H      -5.824269     -2.766399      2.423982
  H      -4.708509     -1.359728      2.564296
  H      -6.461703     -1.078673      2.419028
  O      -5.287117      0.471160      0.711161
  C      -5.236489     -1.980842     -2.081496
  H      -5.495104     -2.817823     -1.422221
  H      -5.914371     -1.981049     -2.953946
  H      -4.216053     -2.140847     -2.477256
  C      -5.135191      0.586962     -2.164568
  H      -5.187075      1.473793     -1.520198
  H      -5.923388      0.654745     -2.937313
  H      -4.169491      0.589461     -2.701254
  H      -2.503575     -2.669661     -0.286962
41
Coordinates from ORCA-job orca E -847.150009256893
  C      -2.315322     -2.013820      0.567092
  H      -2.385783     -2.430612      1.575413
  C      -2.023500     -0.721018      0.371963
  C      -1.750721      0.266304      1.479308
  H      -0.659160      0.323009      1.654755
  H      -2.202409     -0.087097      2.418940
  C      -2.266702      1.652107      1.098440
  H      -2.002769      2.387072      1.874454
  H      -3.364213      1.632891      1.005940
  C      -1.649599      2.083650     -0.222312
  H      -0.552060      2.171302     -0.101671
  C      -2.193702      3.390210     -0.787541
  C      -1.873496      4.625017      0.057099
  H      -2.334414      4.529068      1.055608
  H      -0.782405      4.678033      0.229463
  C      -2.352727      5.922671     -0.593870
  H      -2.118036      6.799137      0.030961
  H      -3.443991      5.907765     -0.752959
  H      -1.878915      6.075924     -1.578010
  H      -3.285498      3.285585     -0.914774
  H      -1.773704      3.513655     -1.800319
  O      -1.866551      1.094105     -1.258497
  C      -1.996241     -0.230062     -1.047862
  O      -2.127862     -0.955236     -2.007325
  C      -5.275168     -0.670928     -1.376355
  C      -5.356043     -0.572075      0.071371
  O      -5.521387     -1.771517      0.687021
  C      -5.633029     -1.733750      2.101524
  H      -5.821139     -2.766091      2.424674
  H      -4.705647     -1.358240      2.563121
  H      -6.460124     -1.079259      2.418813
  O      -5.284270      0.470758      0.709448
  C      -5.239687     -1.979829     -2.086259
  H      -5.500754     -2.818111     -1.429246
  H      -5.917245     -1.974839     -2.958687
  H      -4.218606     -2.140952     -2.481545
  C      -5.136540      0.586231     -2.164775
  H      -5.189439      1.472133     -1.519235
  H      -5.925537      0.653117     -2.936644
  H      -4.170941      0.590359     -2.702231
  H      -2.499733     -2.673277     -0.282830
41
Coordinates from ORCA-job orca E -847.150014235852
  C      -2.316578     -2.013389      0.570210
  H      -2.383602     -2.429936      1.578821
  C      -2.024644     -0.720646      0.374274
  C      -1.751843      0.266764      1.481077
  H      -0.660250      0.322467      1.656811
  H      -2.203872     -0.086439      2.420667
  C      -2.267480      1.652562      1.099392
  H      -2.003853      2.387963      1.875074
  H      -3.365061      1.632866      1.006563
  C      -1.650192      2.083373     -0.221601
  H      -0.552607      2.170451     -0.101066
  C      -2.193977      3.390064     -0.787048
  C      -1.873145      4.625133      0.056879
  H      -2.333794      4.529914      1.055581
  H      -0.781979      4.677848      0.228892
  C      -2.352133      5.922618     -0.594646
  H      -2.116998      6.799349      0.029650
  H      -3.443441      5.907967     -0.753461
  H      -1.878523      6.075181     -1.578991
  H      -3.285781      3.285274     -0.913772
  H      -1.774355      3.512844     -1.800057
  O      -1.867998      1.093921     -1.257874
  C      -1.997881     -0.229981     -1.046287
  O      -2.129866     -0.956064     -2.004800
  C      -5.273779     -0.671032     -1.377629
  C      -5.354089     -0.572901      0.070039
  O      -5.518796     -1.772498      0.685750
  C      -5.629082     -1.733835      2.100738
  H      -5.816039     -2.766157      2.424552
  H      -4.701586     -1.357034      2.561399
  H      -6.456777     -1.079992      2.417638
  O      -5.281730      0.470027      0.708183
  C      -5.242043     -1.979002     -2.089526
  H      -5.505047     -2.818069     -1.434189
  H      -5.919610     -1.970036     -2.961786
  H      -4.220887     -2.141984     -2.484623
  C      -5.137358      0.586287     -2.165329
  H      -5.190968      1.471556     -1.518982
  H      -5.927296      0.652178     -2.936308
  H      -4.172087      0.591726     -2.703632
  H      -2.498046     -2.675950     -0.278123
41
Coordinates from ORCA-job orca E -847.150020081440
  C      -2.318773     -2.012823      0.573716
  H      -2.382470     -2.429251      1.582621
  C      -2.026450     -0.720439      0.376493
  C      -1.753487      0.267393      1.482773
  H      -0.661850      0.322486      1.658481
  H      -2.205777     -0.085352      2.422424
  C      -2.268786      1.653158      1.100416
  H      -2.004862      2.388999      1.875581
  H      -3.366338      1.633368      1.007690
  C      -1.651385      2.082973     -0.220797
  H      -0.553750      2.169268     -0.100342
  C      -2.194495      3.389865     -0.786596
  C      -1.872716      4.625122      0.056630
  H      -2.333124      4.530707      1.055522
  H      -0.781471      4.677267      0.228295
  C      -2.351140      5.922582     -0.595385
  H      -2.115345      6.799493      0.028405
  H      -3.442494      5.908453     -0.753904
  H      -1.877708      6.074373     -1.579933
  H      -3.286356      3.285395     -0.912891
  H      -1.775083      3.511778     -1.799801
  O      -1.870165      1.093459     -1.257046
  C      -2.000131     -0.230203     -1.044601
  O      -2.132389     -0.957280     -2.002203
  C      -5.272554     -0.670479     -1.379315
  C      -5.351999     -0.573616      0.068479
  O      -5.516098     -1.773597      0.683845
  C      -5.623896     -1.734552      2.099271
  H      -5.809075     -2.767012      2.423633
  H      -4.696536     -1.356200      2.558885
  H      -6.452198     -1.081538      2.416233
  O      -5.279308      0.468975      0.707263
  C      -5.243878     -1.978301     -2.091880
  H      -5.508780     -2.817746     -1.437842
  H      -5.921545     -1.966121     -2.964008
  H      -4.223134     -2.143864     -2.487028
  C      -5.137841      0.587008     -2.166214
  H      -5.191954      1.471904     -1.519396
  H      -5.928776      0.651856     -2.936303
  H      -4.173114      0.593683     -2.705508
  H      -2.497841     -2.677801     -0.273205
41
Coordinates from ORCA-job orca E -847.150024615727
  C      -2.321222     -2.012309      0.577037
  H      -2.382287     -2.428849      1.586135
  C      -2.028607     -0.720332      0.378590
  C      -1.755459      0.268121      1.484486
  H      -0.663794      0.322962      1.660075
  H      -2.208043     -0.083942      2.424242
  C      -2.270265      1.653897      1.101587
  H      -2.005418      2.390092      1.876106
  H      -3.367767      1.634534      1.009400
  C      -1.652992      2.082584     -0.219937
  H      -0.555280      2.167976     -0.099763
  C      -2.195237      3.389644     -0.786216
  C      -1.872179      4.625076      0.056218
  H      -2.332296      4.531564      1.055321
  H      -0.780831      4.676434      0.227457
  C      -2.349806      5.922575     -0.596304
  H      -2.113107      6.799628      0.026938
  H      -3.441231      5.909204     -0.754433
  H      -1.876602      6.073460     -1.581104
  H      -3.287215      3.285918     -0.912039
  H      -1.776050      3.510557     -1.799633
  O      -1.872887      1.092807     -1.255867
  C      -2.002739     -0.230676     -1.042713
  O      -2.135160     -0.958594     -1.999659
  C      -5.271555     -0.669625     -1.380965
  C      -5.350001     -0.574144      0.067027
  O      -5.513589     -1.774610      0.681710
  C      -5.618493     -1.736041      2.097399
  H      -5.801286     -2.768866      2.421925
  H      -4.691350     -1.355995      2.555765
  H      -6.447403     -1.084249      2.415300
  O      -5.277187      0.467856      0.706737
  C      -5.244988     -1.977670     -2.093410
  H      -5.511803     -2.817086     -1.440241
  H      -5.922659     -1.963242     -2.965564
  H      -4.224965     -2.146118     -2.488813
  C      -5.138037      0.588194     -2.167153
  H      -5.192463      1.472967     -1.520190
  H      -5.929917      0.652135     -2.936407
  H      -4.174000      0.596127     -2.707552
  H      -2.498899     -2.678572     -0.269028
41
Coordinates from ORCA-job orca E -847.150031728372
  C      -2.323801     -2.011925      0.580430
  H      -2.382986     -2.428766      1.589599
  C      -2.031084     -0.720282      0.380954
  C      -1.757667      0.268949      1.486486
  H      -0.666000      0.323563      1.662035
  H      -2.210759     -0.082025      2.426381
  C      -2.271545      1.654896      1.103023
  H      -2.005038      2.391380      1.876724
  H      -3.369035      1.636673      1.011851
  C      -1.654831      2.082172     -0.219099
  H      -0.556962      2.166542     -0.099670
  C      -2.196170      3.389330     -0.785913
  C      -1.871444      4.624970      0.055586
  H      -2.330974      4.532389      1.055053
  H      -0.779938      4.675485      0.226067
  C      -2.348418      5.922525     -0.597313
  H      -2.110567      6.799722      0.025292
  H      -3.439963      5.909964     -0.754680
  H      -1.875779      6.072473     -1.582527
  H      -3.288342      3.286678     -0.911003
  H      -1.777420      3.509145     -1.799640
  O      -1.876271      1.091863     -1.254263
  C      -2.005754     -0.231472     -1.040361
  O      -2.138267     -0.960096     -1.996855
  C      -5.270523     -0.668705     -1.382636
  C      -5.348080     -0.574442      0.065558
  O      -5.511373     -1.775381      0.679381
  C      -5.612907     -1.738086      2.095194
  H      -5.792497     -2.771522      2.419538
  H      -4.685843     -1.356051      2.551736
  H      -6.442468     -1.088131      2.415253
  O      -5.275134      0.466869      0.706260
  C      -5.245579     -1.977015     -2.094682
  H      -5.514717     -2.816039     -1.442073
  H      -5.923039     -1.960929     -2.967082
  H      -4.226461     -2.148794     -2.490454
  C      -5.137984      0.589610     -2.168265
  H      -5.192656      1.474439     -1.521397
  H      -5.930842      0.652717     -2.936656
  H      -4.174789      0.599118     -2.710024
  H      -2.501162     -2.678420     -0.265349
41
Coordinates from ORCA-job orca E -847.150039646537
  C      -2.326576     -2.011646      0.584506
  H      -2.384696     -2.428880      1.593637
  C      -2.034107     -0.720151      0.384230
  C      -1.760157      0.269981      1.489217
  H      -0.668515      0.324055      1.664908
  H      -2.214094     -0.079292      2.429305
  C      -2.272454      1.656308      1.105040
  H      -2.003393      2.393012      1.877672
  H      -3.370020      1.640092      1.015477
  C      -1.657001      2.081727     -0.218201
  H      -0.558864      2.164912     -0.100315
  C      -2.197497      3.388926     -0.785539
  C      -1.870394      4.624879      0.054657
  H      -2.328809      4.533466      1.054743
  H      -0.778631      4.674369      0.223777
  C      -2.346777      5.922467     -0.598589
  H      -2.107166      6.799854      0.023062
  H      -3.438543      5.910989     -0.754521
  H      -1.875265      6.071167     -1.584530
  H      -3.289976      3.287683     -0.909301
  H      -1.779740      3.507484     -1.799828
  O      -1.880813      1.090610     -1.252014
  C      -2.009580     -0.232596     -1.037094
  O      -2.142144     -0.961842     -1.993241
  C      -5.269097     -0.667977     -1.384545
  C      -5.345923     -0.574666      0.063809
  O      -5.509136     -1.776040      0.676636
  C      -5.606639     -1.740781      2.092493
  H      -5.781748     -2.775142      2.416316
  H      -4.679406     -1.356126      2.546252
  H      -6.437104     -1.093727      2.416237
  O      -5.272668      0.465939      0.705467
  C      -5.245935     -1.976271     -2.096507
  H      -5.518201     -2.814620     -1.444374
  H      -5.922847     -1.958590     -2.969424
  H      -4.227751     -2.151979     -2.492562
  C      -5.137911      0.591050     -2.169669
  H      -5.192964      1.475984     -1.522976
  H      -5.931967      0.653277     -2.936966
  H      -4.175792      0.602908     -2.713232
  H      -2.504767     -2.677420     -0.261552
41
Coordinates from ORCA-job orca E -847.150047589355
  C      -2.328278     -2.011514      0.587527
  H      -2.387015     -2.428918      1.596553
  C      -2.036190     -0.719889      0.387096
  C      -1.761475      0.270821      1.491442
  H      -0.669845      0.323997      1.667394
  H      -2.216217     -0.076793      2.431751
  C      -2.272174      1.657593      1.106676
  H      -2.000824      2.394361      1.878460
  H      -3.369903      1.643350      1.018637
  C      -1.658247      2.081479     -0.217783
  H      -0.559840      2.163968     -0.101680
  C      -2.198567      3.388629     -0.785224
  C      -1.869441      4.624789      0.053943
  H      -2.326569      4.534106      1.054673
  H      -0.777419      4.673603      0.221565
  C      -2.345804      5.922401     -0.599256
  H      -2.104684      6.799901      0.021656
  H      -3.437799      5.911658     -0.753642
  H      -1.875568      6.070306     -1.585926
  H      -3.291328      3.288363     -0.907469
  H      -1.782094      3.506467     -1.800124
  O      -1.884377      1.089688     -1.250249
  C      -2.012370     -0.233471     -1.034389
  O      -2.144974     -0.963047     -1.990332
  C      -5.267910     -0.668028     -1.385959
  C      -5.344630     -0.574784      0.062397
  O      -5.508186     -1.776271      0.674727
  C      -5.602682     -1.742571      2.090613
  H      -5.774041     -2.777712      2.413962
  H      -4.675026     -1.355797      2.541701
  H      -6.433952     -1.098253      2.417851
  O      -5.270836      0.465541      0.704362
  C      -5.246057     -1.975964     -2.098354
  H      -5.520748     -2.813703     -1.446378
  H      -5.922303     -1.957435     -2.971800
  H      -4.228216     -2.154195     -2.494206
  C      -5.138024      0.591492     -2.170928
  H      -5.193527      1.476480     -1.524335
  H      -5.932943      0.653166     -2.937409
  H      -4.176662      0.605512     -2.715873
  H      -2.508321     -2.675937     -0.259212
41
Coordinates from ORCA-job orca E -847.150050706028
  C      -2.329137     -2.011342      0.589374
  H      -2.389567     -2.428640      1.598294
  C      -2.037212     -0.719495      0.389258
  C      -1.761574      0.271368      1.492995
  H      -0.669922      0.323437      1.669151
  H      -2.216807     -0.075038      2.433544
  C      -2.271068      1.658526      1.107917
  H      -1.998164      2.395214      1.879221
  H      -3.368980      1.645646      1.021056
  C      -1.658560      2.081474     -0.217588
  H      -0.559953      2.163739     -0.103089
  C      -2.199205      3.388590     -0.784785
  C      -1.868630      4.624957      0.053555
  H      -2.324604      4.534796      1.054859
  H      -0.776388      4.673451      0.219850
  C      -2.345307      5.922477     -0.599578
  H      -2.103049      6.800140      0.020665
  H      -3.437500      5.912129     -0.752579
  H      -1.876255      6.069793     -1.586899
  H      -3.292167      3.288724     -0.905585
  H      -1.784068      3.506126     -1.800266
  O      -1.886559      1.089358     -1.249111
  C      -2.013874     -0.233825     -1.032563
  O      -2.146552     -0.963566     -1.988318
  C      -5.267277     -0.668707     -1.386913
  C      -5.344170     -0.575082      0.061342
  O      -5.508255     -1.776494      0.673585
  C      -5.600884     -1.743484      2.089575
  H      -5.769717     -2.779127      2.412671
  H      -4.672760     -1.355284      2.538600
  H      -6.432852     -1.101276      2.419198
  O      -5.269658      0.465293      0.703152
  C      -5.246251     -1.976124     -2.100129
  H      -5.522189     -2.813577     -1.448176
  H      -5.921899     -1.957228     -2.973965
  H      -4.228116     -2.155155     -2.495224
  C      -5.138578      0.591023     -2.171908
  H      -5.194557      1.475930     -1.525222
  H      -5.933983      0.652451     -2.937902
  H      -4.177556      0.606663     -2.717594
  H      -2.511269     -2.674475     -0.258008
41
Coordinates from ORCA-job orca E -847.150052073961
  C      -2.329685     -2.010958      0.590216
  H      -2.391686     -2.427941      1.599129
  C      -2.037438     -0.719061      0.390374
  C      -1.760985      0.271724      1.493697
  H      -0.669278      0.322922      1.669789
  H      -2.216243     -0.074116      2.434478
  C      -2.269960      1.659067      1.108548
  H      -1.996419      2.395709      1.879662
  H      -3.367991      1.646616      1.022346
  C      -1.658322      2.081625     -0.217543
  H      -0.559617      2.163900     -0.103965
  C      -2.199368      3.388771     -0.784360
  C      -1.867966      4.625218      0.053532
  H      -2.323095      4.535263      1.055242
  H      -0.775575      4.673641      0.218881
  C      -2.345101      5.922664     -0.599412
  H      -2.102175      6.800430      0.020428
  H      -3.437432      5.912420     -0.751414
  H      -1.876934      6.069736     -1.587193
  H      -3.292437      3.288878     -0.904135
  H      -1.785199      3.506260     -1.800244
  O      -1.887379      1.089510     -1.248711
  C      -2.014271     -0.233704     -1.031789
  O      -2.147035     -0.963637     -1.987291
  C      -5.267378     -0.669546     -1.387564
  C      -5.344241     -0.575553      0.060610
  O      -5.508725     -1.776831      0.673058
  C      -5.600444     -1.743618      2.089214
  H      -5.768166     -2.779418      2.412420
  H      -4.672054     -1.354702      2.537153
  H      -6.432875     -1.102422      2.419589
  O      -5.269044      0.464992      0.702117
  C      -5.246549     -1.976686     -2.101343
  H      -5.522566     -2.814165     -1.449371
  H      -5.921801     -1.957751     -2.975382
  H      -4.227832     -2.155252     -2.495444
  C      -5.139441      0.590120     -2.172680
  H      -5.195810      1.474893     -1.525827
  H      -5.934942      0.651443     -2.938567
  H      -4.178392      0.606481     -2.718420
  H      -2.513216     -2.673531     -0.257367
41
Coordinates from ORCA-job orca E -847.150053263799
  C      -2.330605     -2.010281      0.590946
  H      -2.393929     -2.426840      1.599923
  C      -2.037602     -0.718517      0.391218
  C      -1.760270      0.272139      1.494225
  H      -0.668463      0.322624      1.669945
  H      -2.215210     -0.073396      2.435303
  C      -2.269068      1.659567      1.109141
  H      -1.995126      2.396215      1.880095
  H      -3.367186      1.647102      1.023570
  C      -1.658129      2.081895     -0.217368
  H      -0.559358      2.164110     -0.104449
  C      -2.199452      3.389150     -0.783787
  C      -1.867140      4.625660      0.053618
  H      -2.321441      4.536015      1.055727
  H      -0.774604      4.673906      0.218045
  C      -2.344579      5.923068     -0.599181
  H      -2.100939      6.800921      0.020255
  H      -3.437042      5.913011     -0.750242
  H      -1.877232      6.069833     -1.587396
  H      -3.292614      3.289197     -0.902537
  H      -1.786201      3.506478     -1.800066
  O      -1.888027      1.089914     -1.248422
  C      -2.014502     -0.233312     -1.031240
  O      -2.147337     -0.963552     -1.986412
  C      -5.268014     -0.670465     -1.388336
  C      -5.344406     -0.576296      0.059803
  O      -5.509102     -1.777484      0.672487
  C      -5.599958     -1.743818      2.088853
  H      -5.766834     -2.779690      2.412303
  H      -4.671470     -1.354246      2.536013
  H      -6.432846     -1.103317      2.419375
  O      -5.268461      0.464374      0.701070
  C      -5.246947     -1.977548     -2.102388
  H      -5.522571     -2.815190     -1.450418
  H      -5.921793     -1.958697     -2.976646
  H      -4.227533     -2.155161     -2.495283
  C      -5.140727      0.589056     -2.173582
  H      -5.197495      1.473694     -1.526561
  H      -5.936169      0.650212     -2.939520
  H      -4.179518      0.605783     -2.719077
  H      -2.515168     -2.672723     -0.256541
41
Coordinates from ORCA-job orca E -847.149122526980
  C      -2.287804     -2.026429      0.628615
  H      -2.349498     -2.437743      1.632958
  C      -2.014928     -0.727933      0.408386
  C      -1.745381      0.269284      1.501320
  H      -0.653266      0.332447      1.671477
  H      -2.196065     -0.075904      2.445566
  C      -2.270532      1.653568      1.111870
  H      -1.999382      2.391866      1.882239
  H      -3.374407      1.639652      1.023869
  C      -1.659545      2.077900     -0.215010
  H      -0.561295      2.163948     -0.099806
  C      -2.202323      3.383670     -0.785503
  C      -1.872305      4.619760      0.053434
  H      -2.331072      4.530544      1.053557
  H      -0.780433      4.666797      0.222627
  C      -2.345476      5.917735     -0.601358
  H      -2.103573      6.795279      0.019200
  H      -3.437292      5.908887     -0.757181
  H      -1.873661      6.064055     -1.587526
  H      -3.295763      3.288082     -0.910060
  H      -1.784256      3.500502     -1.799881
  O      -1.888858      1.085469     -1.245943
  C      -2.009962     -0.236492     -1.024020
  O      -2.146160     -0.964115     -1.977643
  C      -5.301364     -0.644061     -1.412632
  C      -5.376817     -0.559421      0.042558
  O      -5.526871     -1.770310      0.652561
  C      -5.589160     -1.747637      2.074775
  H      -5.755131     -2.784958      2.394049
  H      -4.652588     -1.360470      2.531405
  H      -6.418650     -1.106208      2.412062
  O      -5.292603      0.475401      0.696200
  C      -5.267261     -1.966680     -2.099370
  H      -5.547739     -2.796802     -1.439791
  H      -5.932309     -1.965161     -2.981564
  H      -4.229657     -2.151117     -2.480091
  C      -5.157732      0.603789     -2.186800
  H      -5.214757      1.490286     -1.542840
  H      -5.943798      0.669027     -2.962149
  H      -4.181640      0.610710     -2.721114
  H      -2.483756     -2.683825     -0.235984
41
Coordinates from ORCA-job orca E -847.149931887977
  C      -2.278465     -2.023603      0.620474
  H      -2.335756     -2.436659      1.630115
  C      -2.016337     -0.726281      0.406172
  C      -1.750004      0.274079      1.502465
  H      -0.658759      0.339390      1.676660
  H      -2.201847     -0.070747      2.445178
  C      -2.273008      1.655735      1.112178
  H      -2.004478      2.395986      1.881614
  H      -3.370929      1.638646      1.022990
  C      -1.661385      2.076730     -0.213772
  H      -0.562932      2.159987     -0.099283
  C      -2.200975      3.383166     -0.784003
  C      -1.870118      4.619782      0.054217
  H      -2.328970      4.531308      1.054351
  H      -0.778240      4.666258      0.223481
  C      -2.342414      5.917864     -0.601054
  H      -2.100023      6.795508      0.019173
  H      -3.434222      5.909657     -0.756936
  H      -1.870448      6.063523     -1.587235
  H      -3.293893      3.287197     -0.908180
  H      -1.782898      3.499190     -1.798483
  O      -1.892623      1.081985     -1.242098
  C      -2.015141     -0.240758     -1.020674
  O      -2.157101     -0.970948     -1.973872
  C      -5.305438     -0.651021     -1.407487
  C      -5.364695     -0.564630      0.045037
  O      -5.517144     -1.771412      0.654360
  C      -5.590092     -1.745302      2.072438
  H      -5.755178     -2.782361      2.392689
  H      -4.661180     -1.358468      2.522931
  H      -6.420463     -1.104568      2.408790
  O      -5.283544      0.470537      0.694603
  C      -5.268598     -1.968831     -2.102401
  H      -5.548934     -2.799961     -1.445528
  H      -5.930302     -1.965020     -2.987193
  H      -4.241436     -2.148793     -2.477628
  C      -5.161595      0.603743     -2.186596
  H      -5.217178      1.490080     -1.541538
  H      -5.946652      0.671425     -2.963043
  H      -4.191854      0.610107     -2.718591
  H      -2.469824     -2.679131     -0.231861
41
Coordinates from ORCA-job orca E -847.150010857286
  C      -2.272047     -2.021960      0.616527
  H      -2.324728     -2.435593      1.627342
  C      -2.015710     -0.724087      0.407309
  C      -1.751330      0.276876      1.505660
  H      -0.660603      0.342243      1.682638
  H      -2.204030     -0.068720      2.447605
  C      -2.272959      1.657470      1.114209
  H      -2.006639      2.399045      1.883112
  H      -3.369991      1.637923      1.023590
  C      -1.661098      2.077036     -0.211983
  H      -0.562355      2.158848     -0.098587
  C      -2.199832      3.383196     -0.782941
  C      -1.868735      4.620811      0.053617
  H      -2.327505      4.533726      1.053897
  H      -0.776835      4.667403      0.222703
  C      -2.340904      5.917997     -0.603416
  H      -2.098380      6.796424      0.015627
  H      -3.432714      5.909710     -0.759240
  H      -1.868954      6.062267     -1.589807
  H      -3.292732      3.285945     -0.906310
  H      -1.782408      3.498359     -1.797817
  O      -1.893177      1.080978     -1.238543
  C      -2.016317     -0.241907     -1.016564
  O      -2.161186     -0.973619     -1.969226
  C      -5.307088     -0.656164     -1.403944
  C      -5.360440     -0.567886      0.046938
  O      -5.512448     -1.772642      0.656598
  C      -5.592470     -1.745832      2.072978
  H      -5.756609     -2.783201      2.393104
  H      -4.664249     -1.357854      2.520133
  H      -6.423872     -1.106688      2.410273
  O      -5.279283      0.468812      0.693277
  C      -5.272950     -1.968571     -2.108445
  H      -5.556633     -2.801676     -1.454964
  H      -5.932205     -1.958596     -2.994821
  H      -4.247234     -2.146936     -2.481432
  C      -5.164442      0.602622     -2.185690
  H      -5.220448      1.487929     -1.539362
  H      -5.948684      0.671142     -2.962434
  H      -4.195676      0.610038     -2.717140
  H      -2.459172     -2.681480     -0.232010
41
Coordinates from ORCA-job orca E -847.150112245037
  C      -2.269370     -2.021379      0.616871
  H      -2.318153     -2.434794      1.628057
  C      -2.015116     -0.722744      0.409750
  C      -1.751416      0.277969      1.508568
  H      -0.660821      0.342401      1.686888
  H      -2.204488     -0.068258      2.450229
  C      -2.272482      1.658286      1.115920
  H      -2.007786      2.400761      1.884456
  H      -3.369676      1.636994      1.024221
  C      -1.660708      2.077303     -0.210849
  H      -0.561776      2.158489     -0.098292
  C      -2.199586      3.383144     -0.782276
  C      -1.868154      4.621533      0.052849
  H      -2.326502      4.535603      1.053428
  H      -0.776174      4.668271      0.221404
  C      -2.340533      5.917955     -0.605527
  H      -2.097743      6.797083      0.012423
  H      -3.432394      5.909524     -0.760953
  H      -1.868931      6.061050     -1.592249
  H      -3.292505      3.284714     -0.904574
  H      -1.783145      3.497631     -1.797623
  O      -1.893466      1.080867     -1.236741
  C      -2.016899     -0.241867     -1.013719
  O      -2.163287     -0.974468     -1.965610
  C      -5.306452     -0.658915     -1.402780
  C      -5.358084     -0.569748      0.047269
  O      -5.509371     -1.773680      0.657557
  C      -5.592917     -1.746276      2.073715
  H      -5.756611     -2.783683      2.393968
  H      -4.664018     -1.357241      2.519348
  H      -6.425002     -1.108160      2.411271
  O      -5.275989      0.468254      0.691714
  C      -5.276972     -1.967202     -2.114475
  H      -5.564183     -2.802031     -1.464170
  H      -5.934799     -1.950769     -3.001472
  H      -4.250447     -2.145706     -2.486405
  C      -5.166120      0.601638     -2.185040
  H      -5.223068      1.485774     -1.537214
  H      -5.950368      0.670013     -2.961487
  H      -4.197167      0.610499     -2.716588
  H      -2.452391     -2.685445     -0.229403
41
Coordinates from ORCA-job orca E -847.150139941415
  C      -2.269327     -2.020988      0.619568
  H      -2.314532     -2.433738      1.631086
  C      -2.015118     -0.722026      0.412398
  C      -1.751207      0.278432      1.510735
  H      -0.660576      0.341785      1.689281
  H      -2.204180     -0.068046      2.452405
  C      -2.272244      1.658598      1.117146
  H      -2.008543      2.401783      1.885304
  H      -3.369641      1.635999      1.024881
  C      -1.660686      2.077157     -0.210156
  H      -0.561671      2.158051     -0.098096
  C      -2.199894      3.382832     -0.781779
  C      -1.868028      4.621736      0.052284
  H      -2.325769      4.536570      1.053210
  H      -0.775949      4.668597      0.220142
  C      -2.340833      5.917656     -0.606804
  H      -2.097770      6.797257      0.010375
  H      -3.432770      5.909039     -0.761685
  H      -1.869732      6.060027     -1.593871
  H      -3.292829      3.283577     -0.903057
  H      -1.784352      3.496730     -1.797539
  O      -1.894133      1.080720     -1.235931
  C      -2.017799     -0.241693     -1.011693
  O      -2.165164     -0.975188     -1.962552
  C      -5.304906     -0.659871     -1.403250
  C      -5.355961     -0.570802      0.046453
  O      -5.506724     -1.774543      0.657157
  C      -5.591129     -1.746149      2.073678
  H      -5.754583     -2.783407      2.394458
  H      -4.661740     -1.356246      2.518579
  H      -6.423671     -1.108446      2.410747
  O      -5.272872      0.467883      0.690184
  C      -5.280352     -1.965675     -2.119410
  H      -5.570648     -2.801759     -1.471680
  H      -5.937460     -1.943575     -3.006575
  H      -4.253161     -2.145608     -2.490657
  C      -5.166779      0.601263     -2.184937
  H      -5.224609      1.484295     -1.535783
  H      -5.951371      0.669109     -2.960878
  H      -4.197638      0.611364     -2.716655
  H      -2.448718     -2.689311     -0.224624
41
Coordinates from ORCA-job orca E -847.150144810842
  C      -2.270783     -2.020519      0.622976
  H      -2.312770     -2.432566      1.634864
  C      -2.015775     -0.721779      0.414679
  C      -1.751191      0.278775      1.512274
  H      -0.660407      0.341426      1.690318
  H      -2.203737     -0.067640      2.454218
  C      -2.272464      1.658769      1.118071
  H      -2.009075      2.402521      1.885760
  H      -3.369940      1.635279      1.025805
  C      -1.661173      2.076742     -0.209635
  H      -0.562125      2.157412     -0.097833
  C      -2.200542      3.382385     -0.781386
  C      -1.868047      4.621627      0.051849
  H      -2.325109      4.537016      1.053134
  H      -0.775850      4.668476      0.218941
  C      -2.341234      5.917266     -0.607559
  H      -2.097756      6.797166      0.009030
  H      -3.433266      5.908588     -0.761756
  H      -1.870750      6.059132     -1.594996
  H      -3.293515      3.282800     -0.901791
  H      -1.785696      3.495651     -1.797496
  O      -1.895258      1.080279     -1.235445
  C      -2.019120     -0.241846     -1.010153
  O      -2.167202     -0.976321     -1.959933
  C      -5.303370     -0.659625     -1.404476
  C      -5.353949     -0.571436      0.045154
  O      -5.504366     -1.775348      0.655822
  C      -5.587971     -1.746082      2.072781
  H      -5.751008     -2.783209      2.394138
  H      -4.658551     -1.355408      2.517317
  H      -6.420878     -1.108556      2.409136
  O      -5.270176      0.467284      0.689055
  C      -5.282878     -1.964393     -2.122700
  H      -5.575653     -2.801153     -1.476860
  H      -5.939692     -1.937951     -3.009833
  H      -4.255660     -2.146593     -2.493555
  C      -5.166618      0.601704     -2.185206
  H      -5.225015      1.483984     -1.535078
  H      -5.951631      0.669032     -2.960737
  H      -4.197418      0.612626     -2.717083
  H      -2.447450     -2.692125     -0.219355
41
Coordinates from ORCA-job orca E -847.150150152542
  C      -2.272934     -2.020041      0.626470
  H      -2.311988     -2.431563      1.638711
  C      -2.016844     -0.721829      0.416698
  C      -1.751381      0.279125      1.513604
  H      -0.660415      0.341476      1.690734
  H      -2.203294     -0.067014      2.455975
  C      -2.272929      1.658952      1.119069
  H      -2.009169      2.403170      1.886178
  H      -3.370406      1.634997      1.027364
  C      -1.662102      2.076195     -0.209056
  H      -0.563023      2.156616     -0.097585
  C      -2.201480      3.381800     -0.781055
  C      -1.868118      4.621382      0.051295
  H      -2.324375      4.537368      1.052997
  H      -0.775779      4.668132      0.217475
  C      -2.341659      5.916783     -0.608351
  H      -2.097600      6.796954      0.007618
  H      -3.433811      5.908141     -0.761689
  H      -1.871939      6.058113     -1.596229
  H      -3.294525      3.282276     -0.900614
  H      -1.787269      3.494279     -1.797516
  O      -1.896840      1.079549     -1.234770
  C      -2.020792     -0.242337     -1.008626
  O      -2.169451     -0.977780     -1.957456
  C      -5.301973     -0.658610     -1.405920
  C      -5.351975     -0.571779      0.043802
  O      -5.502252     -1.776083      0.653979
  C      -5.584257     -1.746533      2.071266
  H      -5.746530     -2.783678      2.392925
  H      -4.655053     -1.355107      2.515509
  H      -6.417488     -1.109271      2.407242
  O      -5.267797      0.466526      0.688443
  C      -5.284750     -1.963159     -2.124844
  H      -5.579851     -2.800165     -1.480434
  H      -5.941409     -1.933303     -3.011975
  H      -4.258011     -2.148297     -2.495578
  C      -5.165722      0.602939     -2.185589
  H      -5.224407      1.484723     -1.534815
  H      -5.951069      0.669935     -2.960844
  H      -4.196587      0.614453     -2.717597
  H      -2.447818     -2.693943     -0.214354
41
Coordinates from ORCA-job orca E -847.150154628537
  C      -2.275377     -2.019628      0.630009
  H      -2.311837     -2.430844      1.642546
  C      -2.018182     -0.722041      0.418763
  C      -1.751589      0.279517      1.515023
  H      -0.660425      0.341821      1.690931
  H      -2.202709     -0.066083      2.457967
  C      -2.273295      1.659219      1.120292
  H      -2.008490      2.403846      1.886648
  H      -3.370767      1.635252      1.029724
  C      -1.663364      2.075577     -0.208431
  H      -0.564222      2.155774     -0.097629
  C      -2.202802      3.381035     -0.780773
  C      -1.868293      4.621005      0.050515
  H      -2.323540      4.537668      1.052728
  H      -0.775771      4.667594      0.215545
  C      -2.342220      5.916150     -0.609369
  H      -2.097340      6.796622      0.005836
  H      -3.434534      5.907652     -0.761577
  H      -1.873497      6.056803     -1.597815
  H      -3.295980      3.281831     -0.899307
  H      -1.789369      3.492625     -1.797645
  O      -1.898906      1.078481     -1.233698
  C      -2.022783     -0.243198     -1.006767
  O      -2.171911     -0.979540     -1.954829
  C      -5.300582     -0.657141     -1.407376
  C      -5.349890     -0.571834      0.042513
  O      -5.500279     -1.776626      0.651825
  C      -5.580438     -1.747563      2.069274
  H      -5.741518     -2.784921      2.390824
  H      -4.651503     -1.355353      2.513093
  H      -6.413969     -1.110853      2.405566
  O      -5.265391      0.465781      0.688210
  C      -5.286212     -1.961783     -2.126385
  H      -5.583967     -2.798635     -1.483106
  H      -5.942612     -1.929065     -3.013671
  H      -4.260296     -2.150535     -2.497182
  C      -5.164093      0.604800     -2.186001
  H      -5.222902      1.486261     -1.534813
  H      -5.949618      0.671717     -2.961125
  H      -4.195085      0.616876     -2.718118
  H      -2.449513     -2.694874     -0.209755
41
Coordinates from ORCA-job orca E -847.150161125053
  C      -2.278085     -2.019368      0.634092
  H      -2.312226     -2.430427      1.646861
  C      -2.019722     -0.722426      0.421376
  C      -1.751510      0.279961      1.516835
  H      -0.660102      0.342247      1.691158
  H      -2.201660     -0.064650      2.460582
  C      -2.273147      1.659630      1.121963
  H      -2.006407      2.404665      1.887268
  H      -3.370676      1.636242      1.033306
  C      -1.664893      2.074805     -0.207786
  H      -0.565612      2.154837     -0.098328
  C      -2.204685      3.379930     -0.780515
  C      -1.868636      4.620433      0.049353
  H      -2.322355      4.537871      1.052323
  H      -0.775850      4.666947      0.212655
  C      -2.343358      5.915184     -0.610715
  H      -2.097376      6.796052      0.003481
  H      -3.435912      5.906752     -0.761207
  H      -1.876159      6.055051     -1.599996
  H      -3.298080      3.281195     -0.897493
  H      -1.792501      3.490507     -1.798010
  O      -1.901651      1.076895     -1.232076
  C      -2.025221     -0.244582     -1.004212
  O      -2.174790     -0.981783     -1.951624
  C      -5.298750     -0.655261     -1.408937
  C      -5.347477     -0.571516      0.041136
  O      -5.498452     -1.776834      0.649260
  C      -5.576545     -1.749118      2.066740
  H      -5.735860     -2.786925      2.387721
  H      -4.647768     -1.356014      2.509758
  H      -6.410364     -1.113434      2.404333
  O      -5.262496      0.465226      0.688073
  C      -5.287587     -1.959956     -2.127952
  H      -5.589003     -2.796206     -1.485702
  H      -5.943446     -1.924312     -3.015632
  H      -4.262796     -2.153454     -2.498900
  C      -5.161411      0.607284     -2.186468
  H      -5.220290      1.488487     -1.534948
  H      -5.946964      0.674417     -2.961597
  H      -4.192545      0.620137     -2.718695
  H      -2.452699     -2.695101     -0.205021
41
Coordinates from ORCA-job orca E -847.150169760193
  C      -2.281128     -2.019259      0.639263
  H      -2.313462     -2.430233      1.652197
  C      -2.021405     -0.722932      0.425101
  C      -1.750675      0.280481      1.519360
  H      -0.658928      0.342497      1.691593
  H      -2.199600     -0.062466      2.464269
  C      -2.271903      1.660275      1.124351
  H      -2.002079      2.405747      1.888185
  H      -3.369612      1.638194      1.038701
  C      -1.666590      2.073833     -0.207177
  H      -0.567065      2.153906     -0.100198
  C      -2.207374      3.378324     -0.780256
  C      -1.869177      4.619611      0.047622
  H      -2.320426      4.537925      1.051778
  H      -0.775994      4.666240      0.208169
  C      -2.345479      5.913787     -0.612422
  H      -2.097850      6.795194      0.000338
  H      -3.438420      5.905315     -0.760093
  H      -1.880817      6.052710     -1.603027
  H      -3.301092      3.280075     -0.894698
  H      -1.797347      3.487737     -1.798748
  O      -1.905319      1.074637     -1.229731
  C      -2.028228     -0.246630     -1.000548
  O      -2.178286     -0.984697     -1.947343
  C      -5.296119     -0.653082     -1.410753
  C      -5.344580     -0.570812      0.039478
  O      -5.496925     -1.776626      0.646112
  C      -5.572675     -1.751140      2.063524
  H      -5.729492     -2.789660      2.383396
  H      -4.643790     -1.356959      2.505102
  H      -6.406811     -1.117201      2.403745
  O      -5.258643      0.464927      0.687748
  C      -5.289115     -1.957486     -2.130210
  H      -5.595780     -2.792663     -1.489075
  H      -5.943909     -1.918382     -3.018649
  H      -4.265655     -2.157199     -2.501140
  C      -5.157438      0.610306     -2.187053
  H      -5.216458      1.491207     -1.535146
  H      -5.942844      0.678012     -2.962323
  H      -4.188676      0.624430     -2.719354
  H      -2.457901     -2.694554     -0.199629
41
Coordinates from ORCA-job orca E -847.150180998905
  C      -2.283665     -2.019284      0.644344
  H      -2.315601     -2.430181      1.657335
  C      -2.022590     -0.723344      0.429268
  C      -1.748753      0.280890      1.522065
  H      -0.656638      0.342131      1.692166
  H      -2.196456     -0.060072      2.468269
  C      -2.269279      1.660981      1.127015
  H      -1.995949      2.406751      1.889325
  H      -3.367288      1.640622      1.044844
  C      -1.667706      2.072912     -0.206739
  H      -0.567874      2.153355     -0.102991
  C      -2.210201      3.376599     -0.779884
  C      -1.869846      4.618817      0.045803
  H      -2.318167      4.537935      1.051328
  H      -0.776212      4.665879      0.203126
  C      -2.348368      5.912235     -0.614106
  H      -2.099007      6.794297     -0.002991
  H      -3.441755      5.903468     -0.758419
  H      -1.886757      6.050234     -1.606269
  H      -3.304279      3.278490     -0.891201
  H      -1.802952      3.485079     -1.799584
  O      -1.908870      1.072368     -1.227234
  C      -2.030864     -0.248755     -0.996606
  O      -2.181392     -0.987482     -1.942887
  C      -5.293255     -0.651389     -1.412450
  C      -5.341982     -0.569997      0.037822
  O      -5.496417     -1.776071      0.643181
  C      -5.570119     -1.752869      2.060516
  H      -5.724414     -2.792153      2.379133
  H      -4.640765     -1.357726      2.500202
  H      -6.404533     -1.120994      2.403999
  O      -5.254557      0.464975      0.687026
  C      -5.290651     -1.955000     -2.133096
  H      -5.602913     -2.788957     -1.492986
  H      -5.943997     -1.912531     -3.022492
  H      -4.268158     -2.160613     -2.503483
  C      -5.153287      0.612816     -2.187677
  H      -5.212598      1.493340     -1.535285
  H      -5.938378      0.681361     -2.963206
  H      -4.184463      0.628532     -2.719914
  H      -2.464113     -2.693258     -0.194805
41
Coordinates from ORCA-job orca E -847.150184156480
  C      -2.285278     -2.019186      0.648048
  H      -2.318376     -2.429824      1.661058
  C      -2.022914     -0.723414      0.432664
  C      -1.746133      0.281202      1.524073
  H      -0.653698      0.341301      1.692514
  H      -2.192837     -0.058096      2.471366
  C      -2.265999      1.661595      1.129051
  H      -1.989936      2.407525      1.890227
  H      -3.364297      1.642609      1.049732
  C      -1.667799      2.072331     -0.206683
  H      -0.567720      2.153347     -0.105873
  C      -2.212221      3.375353     -0.779477
  C      -1.870260      4.618278      0.044545
  H      -2.315899      4.537761      1.051290
  H      -0.776233      4.665995      0.198946
  C      -2.351171      5.911036     -0.614902
  H      -2.100535      6.793606     -0.005043
  H      -3.444945      5.901704     -0.756221
  H      -1.892324      6.048601     -1.608406
  H      -3.306566      3.276903     -0.887929
  H      -1.807621      3.483425     -1.800272
  O      -1.911146      1.070846     -1.225521
  C      -2.032289     -0.250221     -0.993665
  O      -2.183202     -0.989414     -1.939468
  C      -5.291208     -0.650786     -1.413757
  C      -5.340406     -0.569498      0.036416
  O      -5.497105     -1.775511      0.641177
  C      -5.569461     -1.753555      2.058550
  H      -5.722095     -2.793336      2.376376
  H      -4.639480     -1.357833      2.496516
  H      -6.404087     -1.123297      2.404512
  O      -5.251212      0.465188      0.685843
  C      -5.291899     -1.953490     -2.135840
  H      -5.608186     -2.786573     -1.496401
  H      -5.943835     -1.908683     -3.026087
  H      -4.269544     -2.162672     -2.504989
  C      -5.150550      0.613856     -2.188388
  H      -5.210263      1.494001     -1.535497
  H      -5.935260      0.683163     -2.964221
  H      -4.181474      0.630903     -2.720336
  H      -2.469605     -2.691750     -0.191466
41
Coordinates from ORCA-job orca E -847.150188131612
  C      -2.286246     -2.018798      0.649888
  H      -2.321092     -2.429026      1.662962
  C      -2.022642     -0.723155      0.434518
  C      -1.743706      0.281434      1.525005
  H      -0.651042      0.340515      1.692334
  H      -2.189612     -0.057008      2.473011
  C      -2.263308      1.661996      1.130144
  H      -1.985873      2.407981      1.890753
  H      -3.361804      1.643536      1.052492
  C      -1.667244      2.072204     -0.206786
  H      -0.567034      2.153705     -0.107803
  C      -2.213103      3.374899     -0.779034
  C      -1.870317      4.618164      0.044124
  H      -2.314300      4.537706      1.051604
  H      -0.776062      4.666376      0.196743
  C      -2.352845      5.910554     -0.614857
  H      -2.101559      6.793383     -0.005638
  H      -3.446846      5.900745     -0.754368
  H      -1.895685      6.048060     -1.609147
  H      -3.307577      3.275869     -0.885582
  H      -1.810292      3.482952     -1.800533
  O      -1.911963      1.070389     -1.224832
  C      -2.032519     -0.250693     -0.992278
  O      -2.183680     -0.990234     -1.937648
  C      -5.290636     -0.651117     -1.414636
  C      -5.339938     -0.569585      0.035435
  O      -5.498254     -1.775380      0.640227
  C      -5.569924     -1.753401      2.057750
  H      -5.721997     -2.793303      2.375476
  H      -4.639484     -1.357491      2.494651
  H      -6.404689     -1.123848      2.404628
  O      -5.249161      0.465136      0.684651
  C      -5.292699     -1.953279     -2.137718
  H      -5.610562     -2.786100     -1.498588
  H      -5.943614     -1.907477     -3.028545
  H      -4.269793     -2.163229     -2.505280
  C      -5.149903      0.613554     -2.189145
  H      -5.209993      1.493428     -1.535905
  H      -5.934254      0.683257     -2.965270
  H      -4.180491      0.631242     -2.720609
  H      -2.473325     -2.690570     -0.189736
41
Coordinates from ORCA-job orca E -847.150190502421
  C      -2.287769     -2.018032      0.651550
  H      -2.324533     -2.427633      1.664762
  C      -2.022222     -0.722747      0.436066
  C      -1.740958      0.281691      1.525731
  H      -0.648017      0.339798      1.691612
  H      -2.185680     -0.056203      2.474532
  C      -2.260602      1.662354      1.131213
  H      -1.982072      2.408423      1.891326
  H      -3.359266      1.643967      1.055174
  C      -1.666493      2.072229     -0.206758
  H      -0.566174      2.154141     -0.109385
  C      -2.213705      3.374724     -0.778360
  C      -1.870111      4.618315      0.043931
  H      -2.312461      4.537960      1.052135
  H      -0.775633      4.667017      0.194793
  C      -2.354231      5.910332     -0.614612
  H      -2.102370      6.793429     -0.006012
  H      -3.448443      5.900012     -0.752410
  H      -1.898680      6.047791     -1.609648
  H      -3.308278      3.274997     -0.882987
  H      -1.812681      3.482716     -1.800569
  O      -1.912439      1.070297     -1.224321
  C      -2.032406     -0.250793     -0.991203
  O      -2.183824     -0.990822     -1.936019
  C      -5.290878     -0.651659     -1.415704
  C      -5.339677     -0.569986      0.034291
  O      -5.499510     -1.775568      0.639231
  C      -5.570427     -1.753161      2.056985
  H      -5.722305     -2.793064      2.374841
  H      -4.639640     -1.357175      2.493083
  H      -6.405319     -1.123937      2.404095
  O      -5.246991      0.464757      0.683280
  C      -5.293505     -1.953562     -2.139441
  H      -5.612197     -2.786359     -1.500608
  H      -5.943269     -1.907092     -3.030935
  H      -4.269684     -2.163324     -2.504854
  C      -5.150189      0.612872     -2.190204
  H      -5.210692      1.492501     -1.536657
  H      -5.934069      0.682803     -2.966740
  H      -4.180313      0.630818     -2.720901
  H      -2.477357     -2.689437     -0.187838
41
Coordinates from ORCA-job orca E -847.149390966987
  C      -2.243918     -2.036030      0.708435
  H      -2.279583     -2.422606      1.724348
  C      -2.002872     -0.735987      0.450352
  C      -1.731371      0.282498      1.527538
  H      -0.638283      0.354346      1.687638
  H      -2.172752     -0.048556      2.480715
  C      -2.263027      1.657447      1.128386
  H      -1.986038      2.405579      1.887038
  H      -3.364538      1.637089      1.051181
  C      -1.668155      2.067378     -0.208173
  H      -0.568159      2.152369     -0.109739
  C      -2.216750      3.369304     -0.780212
  C      -1.873983      4.611543      0.044470
  H      -2.318156      4.529965      1.051777
  H      -0.779748      4.659479      0.197335
  C      -2.356292      5.904748     -0.613075
  H      -2.105062      6.786845     -0.002764
  H      -3.450265      5.895175     -0.752821
  H      -1.898913      6.043405     -1.607109
  H      -3.310725      3.272614     -0.887044
  H      -1.813803      3.478391     -1.801551
  O      -1.914336      1.065614     -1.226075
  C      -2.029760     -0.256716     -0.991033
  O      -2.187915     -0.990781     -1.943585
  C      -5.315254     -0.635823     -1.437798
  C      -5.359002     -0.566858      0.019853
  O      -5.508522     -1.778310      0.627781
  C      -5.559523     -1.753961      2.051122
  H      -5.711011     -2.792505      2.373612
  H      -4.624515     -1.354990      2.494541
  H      -6.393017     -1.121687      2.396068
  O      -5.259211      0.464115      0.677109
  C      -5.317002     -1.936968     -2.161840
  H      -5.638683     -2.771050     -1.526175
  H      -5.963585     -1.887897     -3.055517
  H      -4.286225     -2.148291     -2.522506
  C      -5.164687      0.624484     -2.198958
  H      -5.222602      1.503448     -1.545611
  H      -5.945181      0.700895     -2.978329
  H      -4.185397      0.637058     -2.723712
  H      -2.427248     -2.731385     -0.113210
41
Coordinates from ORCA-job orca E -847.150113132820
  C      -2.229802     -2.028540      0.687736
  H      -2.261573     -2.425550      1.705240
  C      -2.001525     -0.729579      0.449847
  C      -1.735994      0.286293      1.533691
  H      -0.643953      0.359036      1.699963
  H      -2.179640     -0.050317      2.483355
  C      -2.266231      1.661299      1.134294
  H      -1.991864      2.410500      1.892894
  H      -3.364691      1.639169      1.055269
  C      -1.669336      2.068509     -0.202211
  H      -0.569335      2.151099     -0.102538
  C      -2.214120      3.370046     -0.778868
  C      -1.871295      4.614634      0.042561
  H      -2.317823      4.536949      1.049107
  H      -0.777335      4.661557      0.197753
  C      -2.350278      5.906487     -0.620089
  H      -2.099221      6.790137     -0.011960
  H      -3.443947      5.898012     -0.762289
  H      -1.890454      6.041419     -1.613500
  H      -3.308545      3.273879     -0.887821
  H      -1.808908      3.475719     -1.799720
  O      -1.914873      1.062842     -1.216523
  C      -2.030976     -0.258196     -0.979905
  O      -2.192697     -0.997301     -1.924253
  C      -5.324020     -0.636242     -1.430594
  C      -5.356161     -0.565412      0.022015
  O      -5.504336     -1.777141      0.621320
  C      -5.562166     -1.761913      2.040724
  H      -5.710820     -2.803224      2.355110
  H      -4.633332     -1.365270      2.481804
  H      -6.397234     -1.134644      2.390777
  O      -5.257260      0.463934      0.678834
  C      -5.325113     -1.940463     -2.150071
  H      -5.650312     -2.770761     -1.511386
  H      -5.967369     -1.895121     -3.047083
  H      -4.297696     -2.154715     -2.503723
  C      -5.167301      0.626299     -2.198203
  H      -5.224831      1.507793     -1.546745
  H      -5.943765      0.703114     -2.981696
  H      -4.190693      0.634971     -2.718284
  H      -2.408243     -2.715916     -0.142370
41
Coordinates from ORCA-job orca E -847.150203553840
  C      -2.224646     -2.026547      0.680808
  H      -2.250201     -2.427948      1.697629
  C      -2.000994     -0.726263      0.452503
  C      -1.737064      0.288505      1.538617
  H      -0.645507      0.360418      1.707899
  H      -2.181529     -0.050283      2.487037
  C      -2.266641      1.663204      1.137370
  H      -1.994464      2.413773      1.895384
  H      -3.364627      1.639344      1.056837
  C      -1.669329      2.068811     -0.199967
  H      -0.569186      2.150370     -0.100430
  C      -2.213112      3.369625     -0.778374
  C      -1.870242      4.615285      0.041316
  H      -2.317048      4.539150      1.047878
  H      -0.776319      4.662225      0.196705
  C      -2.348811      5.906207     -0.623410
  H      -2.097766      6.790700     -0.016516
  H      -3.442441      5.897714     -0.765909
  H      -1.888680      6.039570     -1.616893
  H      -3.307587      3.272783     -0.887328
  H      -1.807773      3.473852     -1.799310
  O      -1.915270      1.061887     -1.212705
  C      -2.032129     -0.258687     -0.974609
  O      -2.195503     -1.000561     -1.915909
  C      -5.326560     -0.637647     -1.428478
  C      -5.352793     -0.565616      0.023170
  O      -5.500698     -1.776411      0.621550
  C      -5.563784     -1.764093      2.039548
  H      -5.711183     -2.806473      2.351312
  H      -4.635331     -1.367372      2.479099
  H      -6.399882     -1.139222      2.392038
  O      -5.253615      0.463989      0.678966
  C      -5.329224     -1.940667     -2.150929
  H      -5.658187     -2.770728     -1.514238
  H      -5.968111     -1.892783     -3.050132
  H      -4.301740     -2.156268     -2.501633
  C      -5.169621      0.626770     -2.198188
  H      -5.227676      1.507781     -1.546133
  H      -5.944328      0.704036     -2.983101
  H      -4.193307      0.634843     -2.716916
  H      -2.402159     -2.709883     -0.152099
41
Coordinates from ORCA-job orca E -847.150219912793
  C      -2.223678     -2.026460      0.680642
  H      -2.243995     -2.429289      1.697118
  C      -2.000746     -0.725081      0.455582
  C      -1.736740      0.289487      1.541619
  H      -0.645314      0.360406      1.712173
  H      -2.181571     -0.049710      2.489775
  C      -2.266278      1.663671      1.138616
  H      -1.995645      2.415378      1.895996
  H      -3.364235      1.638378      1.057068
  C      -1.669285      2.068483     -0.199418
  H      -0.569005      2.149460     -0.100486
  C      -2.213179      3.369041     -0.777993
  C      -1.869960      4.615227      0.040692
  H      -2.316254      4.539786      1.047532
  H      -0.775960      4.662261      0.195497
  C      -2.348815      5.905685     -0.624745
  H      -2.097464      6.790617     -0.018611
  H      -3.442505      5.897115     -0.766739
  H      -1.889143      6.038301     -1.618540
  H      -3.307639      3.271368     -0.885999
  H      -1.808682      3.472701     -1.799304
  O      -1.916259      1.061461     -1.211636
  C      -2.033640     -0.258835     -0.972203
  O      -2.197931     -1.002069     -1.912376
  C      -5.326268     -0.638787     -1.428457
  C      -5.350160     -0.566316      0.023010
  O      -5.497714     -1.776380      0.622003
  C      -5.563586     -1.763724      2.039667
  H      -5.710669     -2.806165      2.351397
  H      -4.634789     -1.366505      2.478385
  H      -6.400211     -1.139657      2.392400
  O      -5.250139      0.463834      0.677928
  C      -5.330847     -1.939846     -2.154334
  H      -5.662735     -2.770799     -1.520076
  H      -5.967592     -1.888333     -3.054688
  H      -4.302949     -2.156152     -2.503769
  C      -5.171369      0.626858     -2.198086
  H      -5.230116      1.506649     -1.544489
  H      -5.945672      0.704370     -2.983167
  H      -4.195012      0.635566     -2.716674
  H      -2.401319     -2.708604     -0.152851
41
Coordinates from ORCA-job orca E -847.150234068158
  C      -2.224426     -2.026535      0.682808
  H      -2.239243     -2.430117      1.699031
  C      -2.000647     -0.724612      0.458925
  C      -1.735705      0.290091      1.544044
  H      -0.644266      0.360036      1.715056
  H      -2.180635     -0.048887      2.492320
  C      -2.265622      1.663625      1.139540
  H      -1.996259      2.416457      1.896199
  H      -3.363607      1.636832      1.057204
  C      -1.669362      2.067810     -0.199143
  H      -0.568938      2.148212     -0.101142
  C      -2.213707      3.368352     -0.777391
  C      -1.869819      4.614984      0.040249
  H      -2.315120      4.540141      1.047561
  H      -0.775668      4.662139      0.193950
  C      -2.349357      5.904998     -0.625555
  H      -2.097464      6.790334     -0.020238
  H      -3.443175      5.896282     -0.766532
  H      -1.890618      6.036960     -1.619863
  H      -3.308169      3.269790     -0.883988
  H      -1.810504      3.471532     -1.799250
  O      -1.917869      1.060939     -1.211089
  C      -2.035685     -0.259019     -0.970114
  O      -2.200915     -1.003466     -1.909273
  C      -5.325256     -0.639616     -1.429373
  C      -5.348037     -0.567114      0.021958
  O      -5.495232     -1.776653      0.621714
  C      -5.562153     -1.762534      2.039470
  H      -5.709118     -2.804725      2.352086
  H      -4.632952     -1.364721      2.477309
  H      -6.399067     -1.138681      2.391789
  O      -5.246797      0.463589      0.676122
  C      -5.331655     -1.938766     -2.158238
  H      -5.666511     -2.770724     -1.526550
  H      -5.966354     -1.883305     -3.059651
  H      -4.303300     -2.155967     -2.506397
  C      -5.172943      0.627076     -2.198102
  H      -5.232512      1.505262     -1.542482
  H      -5.947205      0.704767     -2.983057
  H      -4.196426      0.636903     -2.716748
  H      -2.402768     -2.708281     -0.150697
41
Coordinates from ORCA-job orca E -847.150233742990
  C      -2.225963     -2.026404      0.685226
  H      -2.237396     -2.430312      1.701329
  C      -2.000735     -0.724681      0.461009
  C      -1.734508      0.290286      1.545268
  H      -0.642961      0.359840      1.715788
  H      -2.179118     -0.048222      2.493913
  C      -2.264993      1.663386      1.140256
  H      -1.996048      2.416854      1.896414
  H      -3.362986      1.635628      1.057792
  C      -1.669578      2.067235     -0.198890
  H      -0.569050      2.147254     -0.101806
  C      -2.214342      3.367840     -0.776820
  C      -1.869793      4.614767      0.039986
  H      -2.314155      4.540346      1.047742
  H      -0.775500      4.662042      0.192639
  C      -2.350049      5.904440     -0.625954
  H      -2.097684      6.790080     -0.021279
  H      -3.443995      5.895548     -0.765941
  H      -1.892222      6.035970     -1.620744
  H      -3.308837      3.268792     -0.882302
  H      -1.812164      3.470614     -1.799128
  O      -1.919373      1.060422     -1.210678
  C      -2.037335     -0.259277     -0.968649
  O      -2.203335     -1.004544     -1.907037
  C      -5.324454     -0.639683     -1.430515
  C      -5.347026     -0.567542      0.020744
  O      -5.494309     -1.776953      0.620764
  C      -5.560471     -1.761700      2.038776
  H      -5.707346     -2.803651      2.352236
  H      -4.631023     -1.363523      2.475878
  H      -6.397354     -1.137671      2.390747
  O      -5.244932      0.463349      0.674701
  C      -5.331777     -1.938044     -2.160525
  H      -5.668608     -2.770427     -1.530329
  H      -5.965158     -1.880263     -3.062667
  H      -4.303181     -2.156217     -2.507618
  C      -5.173545      0.627584     -2.198349
  H      -5.233633      1.504644     -1.541305
  H      -5.947895      0.705381     -2.983159
  H      -4.196903      0.638325     -2.716980
  H      -2.405335     -2.708124     -0.148072
41
Coordinates from ORCA-job orca E -847.150241130255
  C      -2.228985     -2.025963      0.689259
  H      -2.236402     -2.430250      1.705234
  C      -2.001132     -0.724989      0.463771
  C      -1.732350      0.290463      1.546796
  H      -0.640528      0.359866      1.715638
  H      -2.175889     -0.047191      2.496300
  C      -2.263936      1.663057      1.141603
  H      -1.994986      2.417291      1.896989
  H      -3.361935      1.634027      1.059592
  C      -1.670214      2.066436     -0.198375
  H      -0.569527      2.145961     -0.102971
  C      -2.215622      3.367063     -0.775974
  C      -1.869811      4.614453      0.039466
  H      -2.312570      4.540702      1.047981
  H      -0.775273      4.661844      0.190337
  C      -2.351210      5.903663     -0.626573
  H      -2.097978      6.789732     -0.022886
  H      -3.445370      5.894568     -0.764862
  H      -1.894941      6.034554     -1.622165
  H      -3.310218      3.267567     -0.879721
  H      -1.815012      3.469060     -1.798981
  O      -1.921993      1.059451     -1.209744
  C      -2.039916     -0.259867     -0.966303
  O      -2.207187     -1.006291     -1.903541
  C      -5.323347     -0.639195     -1.432486
  C      -5.345774     -0.567910      0.018741
  O      -5.493605     -1.777382      0.618677
  C      -5.557602     -1.761071      2.037085
  H      -5.704165     -2.802771      2.351512
  H      -4.627809     -1.362453      2.472932
  H      -6.394255     -1.136727      2.388926
  O      -5.242637      0.462928      0.672849
  C      -5.331740     -1.937063     -2.163204
  H      -5.671440     -2.769584     -1.534667
  H      -5.963269     -1.876619     -3.066459
  H      -4.302913     -2.157153     -2.508510
  C      -5.173648      0.628796     -2.199001
  H      -5.234380      1.504385     -1.540097
  H      -5.948125      0.706786     -2.983642
  H      -4.196840      0.640916     -2.717462
  H      -2.410535     -2.707701     -0.143604
41
Coordinates from ORCA-job orca E -847.150250260212
  C      -2.232456     -2.025315      0.693663
  H      -2.237076     -2.429834      1.709580
  C      -2.001707     -0.725333      0.466483
  C      -1.729678      0.290658      1.548312
  H      -0.637476      0.360269      1.714441
  H      -2.171368     -0.046000      2.499047
  C      -2.262538      1.662896      1.143384
  H      -1.992869      2.417749      1.897883
  H      -3.360568      1.632822      1.062635
  C      -1.671143      2.065735     -0.197732
  H      -0.570270      2.144956     -0.104473
  C      -2.217359      3.366171     -0.775170
  C      -1.869967      4.614072      0.038706
  H      -2.310828      4.541081      1.048113
  H      -0.775145      4.661537      0.187475
  C      -2.352595      5.902818     -0.627365
  H      -2.098221      6.789320     -0.024805
  H      -3.447011      5.893619     -0.763597
  H      -1.898194      6.032966     -1.623906
  H      -3.312113      3.266506     -0.876964
  H      -1.818488      3.467220     -1.798954
  O      -1.925012      1.058219     -1.208330
  C      -2.042579     -0.260743     -0.963618
  O      -2.211305     -1.008232     -1.899745
  C      -5.322170     -0.638169     -1.434597
  C      -5.344553     -0.567905      0.016657
  O      -5.493354     -1.777619      0.616020
  C      -5.554743     -1.761273      2.034728
  H      -5.700704     -2.802944      2.349504
  H      -4.624530     -1.362344      2.469130
  H      -6.391040     -1.136811      2.387162
  O      -5.240543      0.462553      0.671335
  C      -5.331729     -1.936001     -2.165396
  H      -5.674570     -2.768098     -1.538026
  H      -5.961360     -1.873480     -3.069844
  H      -4.302801     -2.158656     -2.508668
  C      -5.172816      0.630467     -2.199930
  H      -5.234121      1.504835     -1.539473
  H      -5.947351      0.708699     -2.984493
  H      -4.195840      0.644016     -2.718071
  H      -2.416880     -2.707039     -0.138642
41
Coordinates from ORCA-job orca E -847.150260603152
  C      -2.237459     -2.024330      0.700096
  H      -2.240112     -2.428653      1.716138
  C      -2.002666     -0.725768      0.470307
  C      -1.725432      0.291018      1.550367
  H      -0.632566      0.361107      1.711677
  H      -2.163638     -0.044060      2.503263
  C      -2.259991      1.662963      1.146079
  H      -1.988438      2.418548      1.899161
  H      -3.358138      1.631954      1.068100
  C      -1.672491      2.064808     -0.196998
  H      -0.571346      2.143955     -0.107149
  C      -2.220124      3.364688     -0.774375
  C      -1.870293      4.613276      0.037302
  H      -2.307937      4.541036      1.048162
  H      -0.775015      4.661036      0.182551
  C      -2.355284      5.901392     -0.628261
  H      -2.099151      6.788426     -0.027235
  H      -3.450127      5.891846     -0.760962
  H      -1.904110      6.030809     -1.626360
  H      -3.315170      3.265133     -0.873183
  H      -1.823890      3.464443     -1.799317
  O      -1.929226      1.056094     -1.205984
  C      -2.046049     -0.262443     -0.959645
  O      -2.216869     -1.011157     -1.894430
  C      -5.320317     -0.636246     -1.437475
  C      -5.342753     -0.567272      0.013877
  O      -5.493320     -1.777393      0.612071
  C      -5.551320     -1.762249      2.030991
  H      -5.696171     -2.804178      2.345371
  H      -4.620387     -1.363116      2.463283
  H      -6.387038     -1.138013      2.385228
  O      -5.237639      0.462383      0.669647
  C      -5.331964     -1.934296     -2.168048
  H      -5.679590     -2.765145     -1.541723
  H      -5.958908     -1.869482     -3.074225
  H      -4.303047     -2.161226     -2.508320
  C      -5.170348      0.633102     -2.201540
  H      -5.232342      1.506278     -1.539550
  H      -5.944769      0.711742     -2.986180
  H      -4.193102      0.648492     -2.719070
  H      -2.426537     -2.706112     -0.131182
41
Coordinates from ORCA-job orca E -847.150271333790
  C      -2.242559     -2.023373      0.706973
  H      -2.245214     -2.426785      1.723423
  C      -2.003590     -0.726184      0.474571
  C      -1.720313      0.291393      1.552558
  H      -0.626630      0.361869      1.707889
  H      -2.153881     -0.041919      2.508152
  C      -2.256470      1.663225      1.149223
  H      -1.981984      2.419391      1.900666
  H      -3.354841      1.631887      1.075297
  C      -1.673875      2.063846     -0.196354
  H      -0.572451      2.143436     -0.110495
  C      -2.223544      3.362807     -0.773735
  C      -1.871099      4.612261      0.035558
  H      -2.305089      4.540722      1.048043
  H      -0.775322      4.660480      0.176841
  C      -2.358831      5.899721     -0.629299
  H      -2.100688      6.787314     -0.029954
  H      -3.454159      5.889819     -0.757939
  H      -1.911373      6.028411     -1.629166
  H      -3.318944      3.263547     -0.869059
  H      -1.830405      3.461321     -1.799985
  O      -1.933456      1.053534     -1.203138
  C      -2.049216     -0.264703     -0.955284
  O      -2.222175     -1.014328     -1.888970
  C      -5.318044     -0.633887     -1.440286
  C      -5.340710     -0.566003      0.011175
  O      -5.493613     -1.776541      0.607881
  C      -5.548585     -1.763862      2.026805
  H      -5.692041     -2.806384      2.339797
  H      -4.616675     -1.364840      2.456806
  H      -6.383634     -1.140400      2.384072
  O      -5.234310      0.462632      0.668236
  C      -5.332694     -1.932102     -2.170751
  H      -5.685912     -2.761094     -1.545128
  H      -5.956716     -1.865122     -3.078789
  H      -4.303921     -2.164208     -2.507760
  C      -5.166502      0.636003     -2.203391
  H      -5.229186      1.508491     -1.540523
  H      -5.940537      0.715147     -2.988379
  H      -4.188899      0.653158     -2.720134
  H      -2.436984     -2.705290     -0.122985
41
Coordinates from ORCA-job orca E -847.150277735332
  C      -2.246649     -2.022770      0.712818
  H      -2.251323     -2.424471      1.729988
  C      -2.004095     -0.726555      0.478489
  C      -1.715245      0.291652      1.554349
  H      -0.620748      0.361994      1.703957
  H      -2.143986     -0.040084      2.512628
  C      -2.252348      1.663596      1.152030
  H      -1.974345      2.420050      1.901894
  H      -3.351030      1.632819      1.082765
  C      -1.674725      2.062966     -0.196103
  H      -0.573085      2.143642     -0.113921
  C      -2.226877      3.360845     -0.773345
  C      -1.872333      4.611116      0.033941
  H      -2.302896      4.539901      1.047906
  H      -0.776115      4.660060      0.171520
  C      -2.362970      5.897919     -0.630031
  H      -2.103164      6.785988     -0.032116
  H      -3.458734      5.887444     -0.754844
  H      -1.919045      6.026225     -1.631521
  H      -3.322601      3.261834     -0.865294
  H      -1.836779      3.458668     -1.800806
  O      -1.936424      1.051048     -1.200564
  C      -2.051093     -0.267120     -0.951578
  O      -2.225588     -1.017139     -1.884659
  C      -5.315809     -0.631684     -1.442440
  C      -5.338843     -0.564290      0.009081
  O      -5.494331     -1.775052      0.604519
  C      -5.547368     -1.765204      2.023283
  H      -5.689613     -2.808467      2.334354
  H      -4.614374     -1.366711      2.451319
  H      -6.381784     -1.142867      2.384071
  O      -5.230922      0.463452      0.667130
  C      -5.333921     -1.929794     -2.173162
  H      -5.692463     -2.756815     -1.547918
  H      -5.955309     -1.860935     -3.082817
  H      -4.305357     -2.166864     -2.507301
  C      -5.162096      0.638366     -2.205144
  H      -5.225382      1.510943     -1.542409
  H      -5.935402      0.717990     -2.990817
  H      -4.184053      0.656655     -2.721040
  H      -2.445842     -2.704962     -0.115748
41
Coordinates from ORCA-job orca E -847.150282515965
  C      -2.249204     -2.022621      0.716561
  H      -2.256286     -2.422349      1.734518
  C      -2.004013     -0.726911      0.481326
  C      -1.711200      0.291696      1.555376
  H      -0.616074      0.361239      1.700961
  H      -2.136221     -0.038974      2.515675
  C      -2.248470      1.663822      1.153834
  H      -1.967331      2.420349      1.902471
  H      -3.347453      1.634184      1.088583
  C      -1.674726      2.062162     -0.196308
  H      -0.572984      2.144203     -0.116684
  C      -2.229279      3.359141     -0.773103
  C      -1.873636      4.610000      0.032970
  H      -2.301539      4.538578      1.048037
  H      -0.777106      4.659923      0.167697
  C      -2.367092      5.896233     -0.629984
  H      -2.106323      6.784645     -0.032996
  H      -3.463193      5.884912     -0.751766
  H      -1.926027      6.024656     -1.632722
  H      -3.325211      3.260003     -0.862435
  H      -1.841611      3.457002     -1.801475
  O      -1.937499      1.049154     -1.199018
  C      -2.051430     -0.269122     -0.949295
  O      -2.226480     -1.019241     -1.882127
  C      -5.314204     -0.630224     -1.443764
  C      -5.337498     -0.562635      0.007718
  O      -5.495366     -1.773271      0.602658
  C      -5.547556     -1.765101      2.021270
  H      -5.689337     -2.808857      2.330952
  H      -4.613597     -1.367426      2.448028
  H      -6.381451     -1.143573      2.384686
  O      -5.227775      0.464683      0.666026
  C      -5.335224     -1.927979     -2.175042
  H      -5.697751     -2.753596     -1.550142
  H      -5.954603     -1.857539     -3.085874
  H      -4.306773     -2.168617     -2.507092
  C      -5.158620      0.639605     -2.206595
  H      -5.222367      1.512821     -1.544716
  H      -5.930975      0.719508     -2.993180
  H      -4.180113      0.658086     -2.721691
  H      -2.451472     -2.705178     -0.110878
41
Coordinates from ORCA-job orca E -847.150287672257
  C      -2.250575     -2.022801      0.718248
  H      -2.259328     -2.420879      1.736847
  C      -2.003588     -0.727324      0.482818
  C      -1.708396      0.291393      1.555677
  H      -0.612849      0.359797      1.699009
  H      -2.131075     -0.038840      2.517192
  C      -2.245352      1.663730      1.154841
  H      -1.961777      2.420104      1.902719
  H      -3.344576      1.635385      1.092562
  C      -1.674177      2.061528     -0.196612
  H      -0.572413      2.144885     -0.118414
  C      -2.230751      3.357934     -0.772753
  C      -1.874954      4.609183      0.032764
  H      -2.301350      4.537421      1.048435
  H      -0.778270      4.660064      0.165889
  C      -2.370476      5.894931     -0.629554
  H      -2.109527      6.783611     -0.033036
  H      -3.466752      5.882728     -0.749672
  H      -1.931035      6.023649     -1.632966
  H      -3.326763      3.258224     -0.860362
  H      -1.844739      3.456305     -1.801700
  O      -1.937136      1.048061     -1.198441
  C      -2.050700     -0.270402     -0.948399
  O      -2.225385     -1.020535     -1.881204
  C      -5.313459     -0.629465     -1.444471
  C      -5.336645     -0.561367      0.006913
  O      -5.496521     -1.771646      0.602029
  C      -5.548416     -1.763718      2.020607
  H      -5.690557     -2.807586      2.329829
  H      -4.613740     -1.366995      2.446769
  H      -6.381862     -1.142297      2.385232
  O      -5.224983      0.465929      0.664901
  C      -5.336305     -1.926875     -2.176213
  H      -5.701182     -2.751825     -1.551696
  H      -5.954363     -1.855235     -3.087782
  H      -4.307835     -2.169456     -2.506946
  C      -5.156635      0.639898     -2.207731
  H      -5.220690      1.513977     -1.547025
  H      -5.928015      0.719816     -2.995271
  H      -4.177682      0.657802     -2.722100
  H      -2.454233     -2.705716     -0.108474
41
Coordinates from ORCA-job orca E -847.150294813032
  C      -2.252561     -2.023148      0.719839
  H      -2.262499     -2.419373      1.739136
  C      -2.002820     -0.728125      0.484189
  C      -1.704563      0.290525      1.555770
  H      -0.608512      0.357178      1.696500
  H      -2.124586     -0.039364      2.518632
  C      -2.240984      1.663201      1.156093
  H      -1.954158      2.419296      1.903024
  H      -3.340489      1.636603      1.097656
  C      -1.673017      2.060589     -0.196911
  H      -0.571249      2.145713     -0.120403
  C      -2.232437      3.356320     -0.771940
  C      -1.876935      4.608094      0.032950
  H      -2.301506      4.535767      1.049341
  H      -0.780089      4.660531      0.164151
  C      -2.375450      5.893080     -0.628576
  H      -2.114720      6.782181     -0.032578
  H      -3.471917      5.879331     -0.746775
  H      -1.937948      6.022382     -1.632765
  H      -3.328475      3.255275     -0.857355
  H      -1.848587      3.455563     -1.801617
  O      -1.936006      1.046830     -1.198053
  C      -2.049269     -0.271831     -0.947683
  O      -2.222968     -1.022191     -1.880383
  C      -5.312975     -0.628554     -1.445565
  C      -5.335573     -0.559629      0.005671
  O      -5.498411     -1.769198      0.601506
  C      -5.549671     -1.760395      2.020164
  H      -5.693140     -2.804020      2.329697
  H      -4.614027     -1.365198      2.445690
  H      -6.382258     -1.138151      2.385315
  O      -5.220682      0.467823      0.662859
  C      -5.337527     -1.925763     -2.177478
  H      -5.705059     -2.750099     -1.553603
  H      -5.953783     -1.852653     -3.090074
  H      -4.308885     -2.170372     -2.506366
  C      -5.154732      0.640003     -2.209593
  H      -5.219181      1.515288     -1.550550
  H      -5.924665      0.719708     -2.998569
  H      -4.175069      0.656628     -2.722763
  H      -2.457688     -2.706453     -0.106122
41
Coordinates from ORCA-job orca E -847.150305638641
  C      -2.255961     -2.023539      0.721995
  H      -2.266226     -2.417947      1.741972
  C      -2.001755     -0.729494      0.485665
  C      -1.698769      0.288850      1.555848
  H      -0.602041      0.353302      1.692729
  H      -2.115281     -0.040649      2.520439
  C      -2.234695      1.662070      1.158096
  H      -1.943299      2.417834      1.903625
  H      -3.334523      1.637558      1.105010
  C      -1.671376      2.059178     -0.197022
  H      -0.569607      2.146588     -0.123145
  C      -2.234881      3.353944     -0.770426
  C      -1.879901      4.606487      0.033488
  H      -2.301773      4.533396      1.050946
  H      -0.782832      4.661269      0.161884
  C      -2.382870      5.890309     -0.626906
  H      -2.122584      6.780052     -0.031673
  H      -3.479598      5.874163     -0.742347
  H      -1.948176      6.020478     -1.632202
  H      -3.330915      3.250525     -0.852678
  H      -1.854113      3.454237     -1.801145
  O      -1.934536      1.045101     -1.197526
  C      -2.047406     -0.273650     -0.946717
  O      -2.219645     -1.024629     -1.879116
  C      -5.312570     -0.627090     -1.447583
  C      -5.333824     -0.556955      0.003484
  O      -5.501025     -1.765365      0.600604
  C      -5.551046     -1.754582      2.019452
  H      -5.697177     -2.797505      2.330205
  H      -4.614038     -1.361718      2.444090
  H      -6.382015     -1.130060      2.384365
  O      -5.213993      0.470742      0.659414
  C      -5.338847     -1.924528     -2.178936
  H      -5.709977     -2.747961     -1.555919
  H      -5.952379     -1.849711     -3.093159
  H      -4.309872     -2.171818     -2.504897
  C      -5.152476      0.640268     -2.212794
  H      -5.217477      1.517038     -1.555824
  H      -5.920385      0.719432     -3.003774
  H      -4.171741      0.654900     -2.723989
  H      -2.463464     -2.707126     -0.103072
41
Coordinates from ORCA-job orca E -847.150315826355
  C      -2.260209     -2.023972      0.724007
  H      -2.269883     -2.417385      1.744362
  C      -2.000410     -0.731332      0.486613
  C      -1.691556      0.286293      1.555765
  H      -0.594110      0.348729      1.687918
  H      -2.104263     -0.042952      2.522106
  C      -2.227270      1.660271      1.160679
  H      -1.930638      2.415608      1.904614
  H      -3.327396      1.637740      1.113716
  C      -1.669421      2.057548     -0.196730
  H      -0.567639      2.147378     -0.126148
  C      -2.237753      3.351104     -0.768294
  C      -1.883661      4.604579      0.034455
  H      -2.302400      4.530563      1.053140
  H      -0.786374      4.662262      0.159648
  C      -2.391969      5.886977     -0.624634
  H      -2.132485      6.777497     -0.030213
  H      -3.488965      5.867780     -0.737030
  H      -1.960431      6.018268     -1.631149
  H      -3.333714      3.244426     -0.846900
  H      -1.860503      3.452405     -1.800212
  O      -1.932818      1.043142     -1.196864
  C      -2.045210     -0.275528     -0.945828
  O      -2.215733     -1.027334     -1.877891
  C      -5.312364     -0.625139     -1.450301
  C      -5.331615     -0.553321      0.000620
  O      -5.503974     -1.760188      0.599528
  C      -5.552583     -1.746627      2.018579
  H      -5.702824     -2.788369      2.331359
  H      -4.613959     -1.356831      2.442303
  H      -6.381083     -1.118157      2.382304
  O      -5.205861      0.474717      0.654892
  C      -5.339987     -1.923555     -2.179859
  H      -5.714960     -2.745631     -1.557336
  H      -5.950362     -1.847707     -3.096068
  H      -4.310571     -2.173726     -2.502248
  C      -5.150029      0.640668     -2.217254
  H      -5.215593      1.519023     -1.562506
  H      -5.915652      0.718878     -3.010504
  H      -4.167938      0.652729     -2.725834
  H      -2.470901     -2.707438     -0.100346
41
Coordinates from ORCA-job orca E -847.150322698674
  C      -2.264231     -2.024580      0.725084
  H      -2.272837     -2.418312      1.745331
  C      -1.998737     -0.733479      0.486528
  C      -1.683795      0.282978      1.555312
  H      -0.585716      0.344122      1.682549
  H      -2.093076     -0.046253      2.523076
  C      -2.219689      1.657889      1.163374
  H      -1.918034      2.412662      1.905919
  H      -3.320023      1.636905      1.122249
  C      -1.667370      2.055950     -0.196096
  H      -0.565577      2.147988     -0.129099
  C      -2.240661      3.348164     -0.765856
  C      -1.887789      4.602574      0.035842
  H      -2.303336      4.527411      1.055761
  H      -0.790301      4.663434      0.157828
  C      -2.401740      5.883537     -0.621722
  H      -2.143312      6.774790     -0.027939
  H      -3.498978      5.861000     -0.731101
  H      -1.973376      6.016209     -1.629409
  H      -3.336487      3.237795     -0.840900
  H      -1.866809      3.450302     -1.798917
  O      -1.930976      1.041198     -1.196217
  C      -2.042816     -0.277261     -0.945441
  O      -2.211800     -1.029716     -1.877376
  C      -5.312240     -0.622995     -1.453263
  C      -5.329411     -0.548780     -0.002450
  O      -5.506830     -1.753786      0.598750
  C      -5.554586     -1.737070      2.017891
  H      -5.710212     -2.777245      2.333175
  H      -4.614238     -1.350907      2.440895
  H      -6.379862     -1.103210      2.379615
  O      -5.197940      0.479819      0.649752
  C      -5.340549     -1.923196     -2.179709
  H      -5.718785     -2.743404     -1.556760
  H      -5.948016     -1.847819     -3.097891
  H      -4.310670     -2.175890     -2.498552
  C      -5.147431      0.640993     -2.222602
  H      -5.213462      1.520860     -1.569948
  H      -5.910875      0.717836     -3.018009
  H      -4.163887      0.650214     -2.728260
  H      -2.478611     -2.707340     -0.098955
41
Coordinates from ORCA-job orca E -847.150326952835
  C      -2.268364     -2.025356      0.726393
  H      -2.275852     -2.420211      1.746217
  C      -1.996828     -0.735926      0.486492
  C      -1.674761      0.279139      1.554852
  H      -0.576027      0.339618      1.676191
  H      -2.080117     -0.049991      2.524224
  C      -2.211480      1.654997      1.166410
  H      -1.904971      2.409209      1.907574
  H      -3.311979      1.634953      1.131150
  C      -1.665419      2.054148     -0.195246
  H      -0.563587      2.148342     -0.132656
  C      -2.244132      3.344759     -0.763158
  C      -1.892305      4.600137      0.037307
  H      -2.303808      4.523514      1.058760
  H      -0.794568      4.664560      0.155218
  C      -2.412878      5.879541     -0.618118
  H      -2.155331      6.771513     -0.025039
  H      -3.510415      5.853279     -0.723561
  H      -1.988585      6.013867     -1.627306
  H      -3.339814      3.230532     -0.834158
  H      -1.874103      3.447534     -1.797512
  O      -1.929740      1.038802     -1.195156
  C      -2.040927     -0.279374     -0.944812
  O      -2.209242     -1.032205     -1.876745
  C      -5.311376     -0.620479     -1.456814
  C      -5.326881     -0.543078     -0.006100
  O      -5.509315     -1.745903      0.597814
  C      -5.556706     -1.725937      2.016897
  H      -5.718580     -2.764320      2.334797
  H      -4.614305     -1.343980      2.439004
  H      -6.378001     -1.085762      2.376636
  O      -5.190225      0.486319      0.643684
  C      -5.340785     -1.922929     -2.179290
  H      -5.722722     -2.740411     -1.555081
  H      -5.945255     -1.848964     -3.099570
  H      -4.310539     -2.178755     -2.494315
  C      -5.143650      0.641522     -2.229012
  H      -5.210246      1.522673     -1.578148
  H      -5.904978      0.716783     -3.026503
  H      -4.158551      0.648138     -2.731451
  H      -2.487722     -2.706907     -0.097407
41
Coordinates from ORCA-job orca E -847.150330176139
  C      -2.271485     -2.026696      0.726656
  H      -2.278278     -2.423372      1.745794
  C      -1.994366     -0.738716      0.485825
  C      -1.665213      0.274721      1.553842
  H      -0.565886      0.335105      1.669174
  H      -2.066583     -0.054552      2.524717
  C      -2.203250      1.651484      1.169170
  H      -1.892620      2.404958      1.909403
  H      -3.303869      1.631894      1.139064
  C      -1.663458      2.052243     -0.194453
  H      -0.561605      2.148639     -0.136460
  C      -2.247817      3.341195     -0.760280
  C      -1.897162      4.597393      0.039284
  H      -2.304348      4.518817      1.062320
  H      -0.799197      4.665608      0.152877
  C      -2.424765      5.875320     -0.613409
  H      -2.168121      6.767847     -0.020778
  H      -3.522596      5.845146     -0.714651
  H      -2.004825      6.011712     -1.624137
  H      -3.343349      3.223068     -0.827203
  H      -1.881662      3.444785     -1.795907
  O      -1.928501      1.036333     -1.194219
  C      -2.039080     -0.281667     -0.944765
  O      -2.207494     -1.034235     -1.877066
  C      -5.309930     -0.618053     -1.460483
  C      -5.324646     -0.536200     -0.009925
  O      -5.511432     -1.736450      0.597533
  C      -5.559457     -1.712611      2.016405
  H      -5.728650     -2.748889      2.337218
  H      -4.614762     -1.335583      2.437774
  H      -6.376125     -1.065235      2.373855
  O      -5.184036      0.494615      0.636676
  C      -5.340518     -1.923220     -2.178064
  H      -5.725581     -2.737329     -1.551420
  H      -5.942596     -1.852088     -3.100132
  H      -4.310006     -2.182062     -2.489675
  C      -5.138956      0.641558     -2.236340
  H      -5.206188      1.524050     -1.587335
  H      -5.898202      0.714881     -3.035881
  H      -4.152205      0.645564     -2.735405
  H      -2.496252     -2.706587     -0.097140
41
Coordinates from ORCA-job orca E -847.150343203927
  C      -2.275759     -2.029726      0.726418
  H      -2.282071     -2.429056      1.744530
  C      -1.989718     -0.743919      0.484642
  C      -1.648755      0.266773      1.551634
  H      -0.548475      0.327036      1.656719
  H      -2.042664     -0.063080      2.525234
  C      -2.189419      1.644834      1.173544
  H      -1.872650      2.396877      1.912666
  H      -3.290196      1.625554      1.151592
  C      -1.660263      2.048720     -0.193286
  H      -0.558456      2.149359     -0.142989
  C      -2.254544      3.334874     -0.755156
  C      -1.905906      4.592395      0.043097
  H      -2.305649      4.510286      1.068789
  H      -0.807608      4.667116      0.149259
  C      -2.445527      5.867823     -0.604680
  H      -2.190251      6.761227     -0.012782
  H      -3.543812      5.831101     -0.698563
  H      -2.033212      6.007759     -1.618055
  H      -3.349756      3.210305     -0.815056
  H      -1.895163      3.440271     -1.792933
  O      -1.926492      1.032068     -1.192720
  C      -2.036216     -0.285926     -0.945044
  O      -2.205745     -1.037326     -1.878278
  C      -5.306586     -0.614054     -1.466745
  C      -5.321146     -0.523592     -0.016577
  O      -5.514514     -1.719153      0.597681
  C      -5.564155     -1.687832      2.016110
  H      -5.746250     -2.720246      2.342116
  H      -4.615312     -1.319832      2.436260
  H      -6.372636     -1.028137      2.369684
  O      -5.175250      0.510236      0.623956
  C      -5.339895     -1.923782     -2.175856
  H      -5.729947     -2.731831     -1.544481
  H      -5.938557     -1.857826     -3.100507
  H      -4.309140     -2.187946     -2.482199
  C      -5.129810      0.641059     -2.249328
  H      -5.198281      1.526038     -1.603836
  H      -5.885334      0.710957     -3.052522
  H      -4.140229      0.640761     -2.742631
  H      -2.509723     -2.706777     -0.097246
41
Coordinates from ORCA-job orca E -847.150357031164
  C      -2.278821     -2.034171      0.724520
  H      -2.284986     -2.436025      1.741640
  C      -1.983984     -0.750331      0.482603
  C      -1.630825      0.257319      1.548183
  H      -0.529605      0.317724      1.642242
  H      -2.015802     -0.073961      2.524775
  C      -2.175071      1.636393      1.177618
  H      -1.853141      2.386614      1.916376
  H      -3.275946      1.616724      1.163170
  C      -1.657075      2.044458     -0.192236
  H      -0.555465      2.150330     -0.149813
  C      -2.262392      3.327726     -0.749017
  C      -1.916064      4.586398      0.048363
  H      -2.307658      4.500019      1.076841
  H      -0.817520      4.668303      0.146451
  C      -2.468853      5.859154     -0.593515
  H      -2.215029      6.753349     -0.002183
  H      -3.567536      5.815305     -0.679283
  H      -2.064984      6.003205     -1.609706
  H      -3.357175      3.196228     -0.801277
  H      -1.910527      3.435763     -1.789066
  O      -1.924161      1.027486     -1.191546
  C      -2.033328     -0.290847     -0.946291
  O      -2.205229     -1.040056     -1.880936
  C      -5.301990     -0.609982     -1.473693
  C      -5.317707     -0.508322     -0.024191
  O      -5.516873     -1.698193      0.598977
  C      -5.569047     -1.656747      2.016829
  H      -5.766421     -2.684230      2.349421
  H      -4.615441     -1.299699      2.435919
  H      -6.367951     -0.982868      2.365308
  O      -5.168182      0.529936      0.608341
  C      -5.338835     -1.925020     -2.172645
  H      -5.733298     -2.726001     -1.534985
  H      -5.935016     -1.865619     -3.099299
  H      -4.308112     -2.194961     -2.474203
  C      -5.118553      0.639339     -2.264700
  H      -5.188586      1.527555     -1.623815
  H      -5.869666      0.705024     -3.072207
  H      -4.125783      0.634141     -2.751537
  H      -2.522433     -2.708071     -0.098973
41
Coordinates from ORCA-job orca E -847.150374313965
  C      -2.277423     -2.038714      0.719899
  H      -2.283878     -2.441773      1.736514
  C      -1.979654     -0.755079      0.479591
  C      -1.621421      0.250834      1.544402
  H      -0.519757      0.312101      1.632799
  H      -2.000394     -0.082677      2.522616
  C      -2.169015      1.629788      1.178672
  H      -1.847113      2.378467      1.918967
  H      -3.269926      1.608764      1.165505
  C      -1.656010      2.041629     -0.191966
  H      -0.554625      2.151064     -0.152890
  C      -2.267528      3.323822     -0.744550
  C      -1.922334      4.582425      0.053523
  H      -2.309708      4.492956      1.083340
  H      -0.823701      4.667941      0.147489
  C      -2.481835      5.854285     -0.584270
  H      -2.228526      6.748450      0.007343
  H      -3.580702      5.807029     -0.665752
  H      -2.082422      6.001063     -1.601829
  H      -3.362130      3.189068     -0.792739
  H      -1.919854      3.434530     -1.785726
  O      -1.922700      1.025396     -1.191885
  C      -2.032216     -0.293685     -0.948982
  O      -2.207420     -1.040098     -1.885090
  C      -5.298228     -0.608669     -1.477762
  C      -5.316870     -0.497393     -0.028987
  O      -5.516116     -1.683213      0.601981
  C      -5.571343     -1.632717      2.019367
  H      -5.779400     -2.656372      2.357346
  H      -4.614691     -1.283534      2.438597
  H      -6.364070     -0.949334      2.363151
  O      -5.169869      0.545587      0.596505
  C      -5.337233     -1.927656     -2.168947
  H      -5.731660     -2.724013     -1.525403
  H      -5.934563     -1.874068     -3.095183
  H      -4.307032     -2.200347     -2.469916
  C      -5.110856      0.635824     -2.275703
  H      -5.182262      1.526962     -1.639030
  H      -5.859072      0.697955     -3.086117
  H      -4.116079      0.627544     -2.758663
  H      -2.525434     -2.710754     -0.103758
41
Coordinates from ORCA-job orca E -847.150406517865
  C      -2.276851     -2.045064      0.714347
  H      -2.283146     -2.447886      1.731023
  C      -1.973922     -0.762110      0.476139
  C      -1.607943      0.241485      1.539436
  H      -0.505517      0.303221      1.618832
  H      -1.976531     -0.095604      2.520559
  C      -2.160402      1.619949      1.180770
  H      -1.838072      2.366765      1.922693
  H      -3.261312      1.596729      1.170548
  C      -1.654868      2.037135     -0.191259
  H      -0.553916      2.152541     -0.156483
  C      -2.275587      3.317823     -0.737544
  C      -1.931565      4.576524      0.061022
  H      -2.312574      4.483170      1.092873
  H      -0.832816      4.667148      0.148734
  C      -2.500842      5.846823     -0.571169
  H      -2.248087      6.741193      0.020387
  H      -3.599949      5.794669     -0.646139
  H      -2.108167      5.997103     -1.590838
  H      -3.369838      3.178448     -0.779341
  H      -1.934567      3.432576     -1.780491
  O      -1.920758      1.022330     -1.192048
  C      -2.030905     -0.297820     -0.951991
  O      -2.210553     -1.040813     -1.889728
  C      -5.293029     -0.606544     -1.484136
  C      -5.314834     -0.481879     -0.036548
  O      -5.514369     -1.661836      0.605534
  C      -5.572329     -1.597379      2.022320
  H      -5.795259     -2.615185      2.368684
  H      -4.611271     -1.259499      2.441335
  H      -6.356315     -0.900714      2.358908
  O      -5.170327      0.567433      0.579222
  C      -5.336070     -1.930902     -2.164584
  H      -5.731505     -2.720941     -1.513781
  H      -5.934597     -1.883524     -3.090340
  H      -4.306801     -2.208786     -2.464411
  C      -5.099946      0.630505     -2.291981
  H      -5.173575      1.526635     -1.662722
  H      -5.843149      0.687327     -3.107334
  H      -4.102212      0.617504     -2.769070
  H      -2.530791     -2.715158     -0.108968
41
Coordinates from ORCA-job orca E -847.150445641990
  C      -2.279375     -2.051517      0.709968
  H      -2.284849     -2.453405      1.727009
  C      -1.967356     -0.770561      0.472716
  C      -1.589731      0.229884      1.534197
  H      -0.486363      0.291437      1.601016
  H      -1.944876     -0.111283      2.519005
  C      -2.147395      1.608268      1.184647
  H      -1.821696      2.353258      1.926923
  H      -3.248242      1.583046      1.181137
  C      -1.652805      2.031395     -0.189781
  H      -0.552540      2.154695     -0.160954
  C      -2.285860      3.309496     -0.728567
  C      -1.943884      4.568998      0.069655
  H      -2.316477      4.471370      1.104199
  H      -0.845116      4.666779      0.149177
  C      -2.526393      5.836513     -0.556022
  H      -2.274983      6.731644      0.034975
  H      -3.625670      5.777241     -0.622644
  H      -2.142500      5.990944     -1.578411
  H      -3.379413      3.162880     -0.761752
  H      -1.953702      3.428755     -1.773869
  O      -1.917648      1.017950     -1.191583
  C      -2.028114     -0.303034     -0.954463
  O      -2.211343     -1.043242     -1.893624
  C      -5.287654     -0.602771     -1.492621
  C      -5.310631     -0.463185     -0.046516
  O      -5.513835     -1.635803      0.608109
  C      -5.572876     -1.555050      2.024183
  H      -5.813867     -2.565255      2.380813
  H      -4.606471     -1.230876      2.442136
  H      -6.345395     -0.841835      2.352008
  O      -5.164181      0.592401      0.558284
  C      -5.336214     -1.933523     -2.160063
  H      -5.735274     -2.715747     -1.501990
  H      -5.934197     -1.891934     -3.086407
  H      -4.307964     -2.219079     -2.456620
  C      -5.086938      0.625156     -2.311979
  H      -5.162941      1.527663     -1.692286
  H      -5.823307      0.675587     -3.133866
  H      -4.085466      0.605518     -2.781216
  H      -2.541528     -2.719386     -0.112466
41
Coordinates from ORCA-job orca E -847.150497302661
  C      -2.286175     -2.061266      0.704096
  H      -2.289931     -2.460970      1.722004
  C      -1.956334     -0.784893      0.466981
  C      -1.557530      0.209689      1.525656
  H      -0.452848      0.270619      1.569957
  H      -1.889383     -0.138598      2.516267
  C      -2.123396      1.588346      1.192196
  H      -1.789986      2.330683      1.933737
  H      -3.223957      1.559890      1.202337
  C      -1.648630      2.021331     -0.186527
  H      -0.549825      2.158726     -0.167933
  C      -2.303708      3.294089     -0.712586
  C      -1.966582      4.555551      0.084539
  H      -2.324949      4.451119      1.123479
  H      -0.868146      4.666444      0.150475
  C      -2.572256      5.817327     -0.530678
  H      -2.324298      6.714211      0.059143
  H      -3.671473      5.744828     -0.583652
  H      -2.203060      5.978592     -1.557415
  H      -3.395502      3.133163     -0.730825
  H      -1.986952      3.420711     -1.761791
  O      -1.911010      1.010015     -1.190411
  C      -2.021811     -0.311929     -0.958073
  O      -2.209569     -1.048513     -1.899263
  C      -5.279299     -0.595107     -1.507597
  C      -5.301624     -0.430909     -0.064231
  O      -5.514145     -1.590429      0.611101
  C      -5.572478     -1.482505      2.025763
  H      -5.844145     -2.478585      2.399947
  H      -4.597221     -1.181856      2.441180
  H      -6.323959     -0.740909      2.338370
  O      -5.147175      0.634039      0.522306
  C      -5.338423     -1.936629     -2.152364
  H      -5.745506     -2.704993     -1.482945
  H      -5.934286     -1.903584     -3.080377
  H      -4.312171     -2.236668     -2.442166
  C      -5.064682      0.616642     -2.346393
  H      -5.144013      1.530428     -1.744101
  H      -5.788675      0.655946     -3.179692
  H      -4.056958      0.584668     -2.801598
  H      -2.563000     -2.725324     -0.116453
41
Coordinates from ORCA-job orca E -847.150547733704
  C      -2.293793     -2.069209      0.698569
  H      -2.295544     -2.466369      1.717444
  C      -1.945722     -0.798115      0.460444
  C      -1.526743      0.190441      1.517044
  H      -0.421241      0.250843      1.539141
  H      -1.836436     -0.164853      2.512481
  C      -2.100153      1.569445      1.199582
  H      -1.758363      2.309924      1.939206
  H      -3.200186      1.537247      1.224888
  C      -1.644616      2.011908     -0.183070
  H      -0.547565      2.163329     -0.173538
  C      -2.321367      3.278748     -0.696527
  C      -1.989936      4.541763      0.100316
  H      -2.336156      4.431062      1.142775
  H      -0.892167      4.664830      0.155057
  C      -2.616198      5.798067     -0.505478
  H      -2.372350      6.696446      0.083798
  H      -3.714989      5.713118     -0.547297
  H      -2.259422      5.965712     -1.535575
  H      -3.410873      3.102880     -0.700943
  H      -2.018940      3.412788     -1.749022
  O      -1.902787      1.002695     -1.189923
  C      -2.013961     -0.319680     -0.962049
  O      -2.204426     -1.053902     -1.904679
  C      -5.272429     -0.587336     -1.522193
  C      -5.291711     -0.399306     -0.081856
  O      -5.515220     -1.545450      0.613151
  C      -5.570451     -1.411911      2.026232
  H      -5.871089     -2.393069      2.417409
  H      -4.587137     -1.133725      2.438751
  H      -6.300327     -0.643202      2.323464
  O      -5.126251      0.673508      0.487344
  C      -5.342477     -1.939545     -2.143465
  H      -5.757698     -2.693765     -1.463139
  H      -5.936328     -1.914535     -3.073034
  H      -4.318896     -2.254484     -2.426808
  C      -5.044100      0.607184     -2.380755
  H      -5.126185      1.533353     -1.798205
  H      -5.755646      0.634117     -3.225093
  H      -4.030587      0.561987     -2.821955
  H      -2.584606     -2.729547     -0.120029
41
Coordinates from ORCA-job orca E -847.150602723207
  C      -2.307090     -2.079358      0.694507
  H      -2.307565     -2.477794      1.712937
  C      -1.929527     -0.817538      0.453621
  C      -1.476810      0.160419      1.506421
  H      -0.371153      0.221202      1.496799
  H      -1.757973     -0.203440      2.507084
  C      -2.060327      1.540948      1.211977
  H      -1.705343      2.278297      1.948563
  H      -3.159255      1.502471      1.259433
  C      -1.635776      1.997271     -0.176515
  H      -0.541716      2.168306     -0.183874
  C      -2.345649      3.252695     -0.674096
  C      -2.027074      4.520748      0.119774
  H      -2.353911      4.401158      1.167521
  H      -0.931273      4.666215      0.156960
  C      -2.688614      5.765078     -0.473194
  H      -2.453875      6.667244      0.114005
  H      -3.785932      5.657460     -0.497686
  H      -2.351767      5.941674     -1.508486
  H      -3.429867      3.050072     -0.658220
  H      -2.064490      3.394360     -1.731431
  O      -1.890832      0.989484     -1.186260
  C      -2.002330     -0.333054     -0.965350
  O      -2.197768     -1.062847     -1.911220
  C      -5.260289     -0.572000     -1.543012
  C      -5.274748     -0.351218     -0.107181
  O      -5.518799     -1.476878      0.613981
  C      -5.569617     -1.310601      2.023608
  H      -5.912107     -2.268989      2.436095
  H      -4.575387     -1.065930      2.431022
  H      -6.264951     -0.503927      2.302013
  O      -5.087788      0.731381      0.436839
  C      -5.348441     -1.937393     -2.132387
  H      -5.778985     -2.668923     -1.437057
  H      -5.936629     -1.925181     -3.065784
  H      -4.327875     -2.274580     -2.402734
  C      -5.010365      0.599822     -2.426759
  H      -5.094063      1.538921     -1.865858
  H      -5.705990      0.611824     -3.284299
  H      -3.989338      0.536973     -2.847811
  H      -2.623784     -2.730983     -0.121487
41
Coordinates from ORCA-job orca E -847.150677836223
  C      -2.320530     -2.086353      0.683879
  H      -2.316161     -2.482438      1.702847
  C      -1.910428     -0.836606      0.437671
  C      -1.426159      0.129858      1.489326
  H      -0.321414      0.190696      1.442854
  H      -1.675660     -0.243213      2.494996
  C      -2.021982      1.510067      1.222136
  H      -1.653496      2.248088      1.951500
  H      -3.118127      1.457723      1.301277
  C      -1.629294      1.983134     -0.171158
  H      -0.539607      2.178179     -0.190494
  C      -2.377223      3.225496     -0.644721
  C      -2.072004      4.492505      0.155390
  H      -2.385757      4.360645      1.205761
  H      -0.978357      4.655684      0.182861
  C      -2.760072      5.730029     -0.421718
  H      -2.535353      6.631790      0.170002
  H      -3.855517      5.603514     -0.437031
  H      -2.435841      5.919576     -1.458740
  H      -3.455434      2.994576     -0.609395
  H      -2.117152      3.382662     -1.705226
  O      -1.868646      0.978528     -1.190359
  C      -1.982800     -0.342719     -0.975822
  O      -2.178579     -1.073076     -1.921622
  C      -5.251793     -0.558666     -1.568646
  C      -5.255076     -0.292007     -0.140808
  O      -5.522244     -1.390475      0.614604
  C      -5.559312     -1.184482      2.020339
  H      -5.946905     -2.112515      2.460827
  H      -4.553621     -0.976471      2.421139
  H      -6.212600     -0.334805      2.270712
  O      -5.041823      0.801331      0.371606
  C      -5.362163     -1.943824     -2.107579
  H      -5.805273     -2.645204     -1.390067
  H      -5.950405     -1.949041     -3.041279
  H      -4.350234     -2.310081     -2.369468
  C      -4.978851      0.573555     -2.493874
  H      -5.063953      1.540670     -1.983256
  H      -5.654189      0.553452     -3.367188
  H      -3.950258      0.483236     -2.889552
  H      -2.660776     -2.729631     -0.129259
41
Coordinates from ORCA-job orca E -847.150754941011
  C      -2.322775     -2.091322      0.681734
  H      -2.320147     -2.493433      1.698475
  C      -1.902818     -0.844463      0.435335
  C      -1.406194      0.117344      1.484637
  H      -0.302031      0.179430      1.430648
  H      -1.651220     -0.256660      2.490734
  C      -2.005521      1.498700      1.224676
  H      -1.635324      2.233626      1.956232
  H      -3.101870      1.446091      1.305202
  C      -1.624223      1.977273     -0.169726
  H      -0.535904      2.178382     -0.197212
  C      -2.384546      3.213624     -0.638351
  C      -2.087544      4.481885      0.162902
  H      -2.394310      4.343941      1.214541
  H      -0.995458      4.656175      0.184819
  C      -2.791241      5.713711     -0.407396
  H      -2.572245      6.616235      0.185325
  H      -3.885418      5.576169     -0.416969
  H      -2.474690      5.908886     -1.445742
  H      -3.460016      2.971627     -0.598846
  H      -2.130019      3.374060     -1.699700
  O      -1.863153      0.971890     -1.189208
  C      -1.979102     -0.349508     -0.977868
  O      -2.179552     -1.075819     -1.926147
  C      -5.244423     -0.552177     -1.575478
  C      -5.248763     -0.270527     -0.150478
  O      -5.521752     -1.359064      0.616477
  C      -5.559867     -1.141177      2.019560
  H      -5.963084     -2.059421      2.466440
  H      -4.551369     -0.946668      2.418746
  H      -6.198561     -0.278906      2.264714
  O      -5.030447      0.828567      0.346711
  C      -5.361922     -1.941174     -2.102044
  H      -5.808375     -2.631841     -1.376101
  H      -5.950292     -1.956033     -3.035462
  H      -4.350893     -2.313813     -2.359697
  C      -4.964215      0.571962     -2.510076
  H      -5.049648      1.541648     -2.003462
  H      -5.637454      0.546295     -3.384639
  H      -3.933246      0.476108     -2.899607
  H      -2.675437     -2.728230     -0.131239
41
Coordinates from ORCA-job orca E -847.150760837349
  C      -2.313894     -2.084095      0.688328
  H      -2.312134     -2.495936      1.701097
  C      -1.908090     -0.831479      0.440580
  C      -1.423230      0.137669      1.485516
  H      -0.318903      0.199287      1.445582
  H      -1.690699     -0.218146      2.492458
  C      -2.017660      1.519957      1.212067
  H      -1.650455      2.253286      1.946416
  H      -3.116114      1.482001      1.283794
  C      -1.629354      1.988717     -0.183072
  H      -0.538728      2.175681     -0.212918
  C      -2.375452      3.230127     -0.655581
  C      -2.066862      4.485810      0.161760
  H      -2.384555      4.340065      1.208977
  H      -0.972652      4.644502      0.194701
  C      -2.748527      5.733704     -0.400029
  H      -2.521559      6.626137      0.204874
  H      -3.844408      5.611729     -0.419798
  H      -2.421130      5.936184     -1.433604
  H      -3.457414      3.011824     -0.631396
  H      -2.106055      3.396415     -1.712445
  O      -1.867032      0.975369     -1.198156
  C      -1.986424     -0.344648     -0.977758
  O      -2.185513     -1.074923     -1.921104
  C      -5.248055     -0.567335     -1.567807
  C      -5.263427     -0.289843     -0.142230
  O      -5.523886     -1.384893      0.617229
  C      -5.569155     -1.184597      2.021134
  H      -5.947884     -2.118748      2.456130
  H      -4.563954     -0.970327      2.418000
  H      -6.228309     -0.342520      2.283400
  O      -5.067310      0.810650      0.357841
  C      -5.352936     -1.953743     -2.102647
  H      -5.789425     -2.648442     -1.374213
  H      -5.946172     -1.976507     -3.032733
  H      -4.341911     -2.315226     -2.367629
  C      -4.984477      0.561981     -2.502748
  H      -5.079155      1.533056     -1.996717
  H      -5.672811      0.527712     -3.365138
  H      -3.955547      0.473954     -2.903587
  H      -2.663809     -2.721019     -0.126114
41
Coordinates from ORCA-job orca E -847.150867702714
  C      -2.330697     -2.091460      0.689691
  H      -2.328101     -2.499893      1.704116
  C      -1.896204     -0.849906      0.439353
  C      -1.377923      0.108537      1.478103
  H      -0.274765      0.167557      1.410064
  H      -1.617510     -0.254925      2.489347
  C      -1.979415      1.490557      1.224289
  H      -1.601065      2.222975      1.953891
  H      -3.074486      1.440084      1.319572
  C      -1.619740      1.972301     -0.174901
  H      -0.533692      2.181844     -0.217568
  C      -2.397115      3.200655     -0.633935
  C      -2.106434      4.464015      0.178775
  H      -2.408442      4.312573      1.229784
  H      -1.015721      4.646997      0.198530
  C      -2.822119      5.695933     -0.376021
  H      -2.607836      6.594003      0.225183
  H      -3.915178      5.549693     -0.382710
  H      -2.511449      5.904223     -1.413589
  H      -3.471303      2.954389     -0.593012
  H      -2.147495      3.373497     -1.694606
  O      -1.855197      0.961309     -1.191836
  C      -1.977932     -0.359080     -0.977039
  O      -2.182904     -1.085255     -1.923350
  C      -5.235074     -0.547886     -1.586704
  C      -5.241865     -0.242159     -0.166640
  O      -5.522707     -1.317125      0.613935
  C      -5.556377     -1.088679      2.013932
  H      -5.967690     -2.000142      2.467328
  H      -4.541819     -0.905427      2.403961
  H      -6.183476     -0.218561      2.262045
  O      -5.019367      0.863647      0.313961
  C      -5.363406     -1.941982     -2.096389
  H      -5.816502     -2.615619     -1.358218
  H      -5.951873     -1.969982     -3.029246
  H      -4.356324     -2.327636     -2.348911
  C      -4.951636      0.558577     -2.541869
  H      -5.042987      1.538812     -2.057337
  H      -5.626730      0.511616     -3.413986
  H      -3.918974      0.455463     -2.925638
  H      -2.705542     -2.720149     -0.119896
41
Coordinates from ORCA-job orca E -847.150891304038
  C      -2.332069     -2.096922      0.681585
  H      -2.327987     -2.504872      1.696313
  C      -1.893001     -0.856782      0.432605
  C      -1.370792      0.098818      1.472340
  H      -0.267836      0.157729      1.399365
  H      -1.603870     -0.269389      2.483091
  C      -1.974225      1.480822      1.225471
  H      -1.595477      2.211482      1.956786
  H      -3.069228      1.428562      1.323022
  C      -1.618370      1.968428     -0.172561
  H      -0.533762      2.185340     -0.214340
  C      -2.402890      3.195205     -0.624844
  C      -2.117829      4.457981      0.191106
  H      -2.419533      4.303108      1.241734
  H      -1.027943      4.645762      0.211641
  C      -2.838767      5.687985     -0.361217
  H      -2.628870      6.585741      0.242003
  H      -3.931153      5.536839     -0.368806
  H      -2.528485      5.900000     -1.398159
  H      -3.475707      2.942233     -0.581879
  H      -2.156895      3.374051     -1.685380
  O      -1.847360      0.959833     -1.193081
  C      -1.973615     -0.361477     -0.982465
  O      -2.179193     -1.085742     -1.930855
  C      -5.233660     -0.545789     -1.593224
  C      -5.238021     -0.226099     -0.176343
  O      -5.519447     -1.292965      0.616491
  C      -5.548783     -1.049559      2.014890
  H      -5.972043     -1.950727      2.477973
  H      -4.532397     -0.876739      2.404672
  H      -6.164958     -0.169062      2.252483
  O      -5.012500      0.884178      0.292154
  C      -5.365882     -1.945568     -2.086425
  H      -5.814651     -2.612455     -1.339616
  H      -5.960170     -1.980896     -3.015404
  H      -4.360228     -2.334767     -2.341237
  C      -4.945627      0.548398     -2.561285
  H      -5.034618      1.536366     -2.092721
  H      -5.616522      0.490902     -3.436062
  H      -3.912122      0.437801     -2.939273
  H      -2.708580     -2.724365     -0.128088
41
Coordinates from ORCA-job orca E -847.150915441448
  C      -2.334606     -2.097225      0.682342
  H      -2.328300     -2.504159      1.697500
  C      -1.895883     -0.856961      0.433513
  C      -1.372499      0.099178      1.471618
  H      -0.269478      0.156451      1.397790
  H      -1.603891     -0.268019      2.483361
  C      -1.974196      1.481440      1.224978
  H      -1.593314      2.211224      1.956137
  H      -3.069056      1.431671      1.325283
  C      -1.619262      1.968603     -0.173326
  H      -0.535013      2.187515     -0.215104
  C      -2.403074      3.196417     -0.623839
  C      -2.116911      4.457358      0.194894
  H      -2.419960      4.300988      1.244925
  H      -1.026845      4.644009      0.216785
  C      -2.836037      5.689050     -0.355944
  H      -2.625753      6.585556      0.249005
  H      -3.928583      5.539117     -0.364775
  H      -2.524630      5.902719     -1.392224
  H      -3.476601      2.946720     -0.581937
  H      -2.156704      3.378737     -1.683737
  O      -1.846830      0.959899     -1.193290
  C      -1.976040     -0.361525     -0.981974
  O      -2.181200     -1.085663     -1.930035
  C      -5.234721     -0.547647     -1.595407
  C      -5.240060     -0.225143     -0.179378
  O      -5.518758     -1.291331      0.615590
  C      -5.544235     -1.044752      2.013799
  H      -5.964812     -1.945859      2.479680
  H      -4.526722     -0.871212      2.400904
  H      -6.162128     -0.165657      2.251677
  O      -5.017570      0.886035      0.288489
  C      -5.364510     -1.948855     -2.085334
  H      -5.809291     -2.616063     -1.336424
  H      -5.961261     -1.986775     -3.012610
  H      -4.358765     -2.335994     -2.341909
  C      -4.949562      0.543190     -2.567853
  H      -5.039510      1.534202     -2.105880
  H      -5.621418      0.479122     -3.441442
  H      -3.916139      0.432798     -2.946907
  H      -2.710942     -2.725770     -0.126480
41
Coordinates from ORCA-job orca E -847.150948114535
  C      -2.341785     -2.100020      0.682834
  H      -2.332633     -2.509388      1.697049
  C      -1.895367     -0.862640      0.433193
  C      -1.361052      0.090503      1.467712
  H      -0.258527      0.145617      1.386247
  H      -1.586181     -0.275796      2.481360
  C      -1.961998      1.474014      1.226917
  H      -1.575215      2.201250      1.957490
  H      -3.056170      1.426349      1.335415
  C      -1.616983      1.964039     -0.172834
  H      -0.534539      2.190700     -0.220240
  C      -2.409617      3.188159     -0.616949
  C      -2.127756      4.447116      0.206612
  H      -2.427084      4.284341      1.256745
  H      -1.038759      4.640317      0.226229
  C      -2.855858      5.676761     -0.336843
  H      -2.649089      6.571960      0.271284
  H      -3.947495      5.520323     -0.343042
  H      -2.548932      5.896827     -1.373134
  H      -3.481952      2.934239     -0.573159
  H      -2.167085      3.377724     -1.676495
  O      -1.841930      0.954989     -1.192579
  C      -1.976883     -0.366136     -0.982204
  O      -2.184128     -1.088000     -1.931015
  C      -5.231206     -0.544486     -1.604428
  C      -5.236163     -0.206257     -0.192370
  O      -5.517268     -1.263402      0.613822
  C      -5.535016     -1.004081      2.009654
  H      -5.962551     -1.897145      2.484828
  H      -4.513601     -0.839425      2.390340
  H      -6.143562     -0.117574      2.243737
  O      -5.011472      0.909416      0.263856
  C      -5.362665     -1.950881     -2.078893
  H      -5.803874     -2.610132     -1.320915
  H      -5.963079     -1.999692     -3.003264
  H      -4.357649     -2.339659     -2.334707
  C      -4.946140      0.533643     -2.591028
  H      -5.036948      1.531528     -2.143958
  H      -5.618285      0.454448     -3.463001
  H      -3.911833      0.419278     -2.967466
  H      -2.726743     -2.725440     -0.124341
41
Coordinates from ORCA-job orca E -847.150947013884
  C      -2.342085     -2.100437      0.682416
  H      -2.330615     -2.511086      1.696109
  C      -1.900838     -0.860951      0.433719
  C      -1.370937      0.093490      1.469146
  H      -0.268067      0.147774      1.391612
  H      -1.599252     -0.272177      2.482391
  C      -1.967794      1.478599      1.226505
  H      -1.578882      2.203959      1.957769
  H      -3.062598      1.437848      1.333586
  C      -1.618934      1.966219     -0.173102
  H      -0.535759      2.189870     -0.219322
  C      -2.405840      3.193600     -0.618557
  C      -2.119884      4.450932      0.206096
  H      -2.420553      4.288676      1.255921
  H      -1.030239      4.640332      0.226589
  C      -2.843198      5.683485     -0.337212
  H      -2.633478      6.577675      0.271410
  H      -3.935392      5.531064     -0.344044
  H      -2.534978      5.903019     -1.373230
  H      -3.479793      2.945531     -0.577128
  H      -2.160418      3.383069     -1.677455
  O      -1.845152      0.957230     -1.191912
  C      -1.981591     -0.363883     -0.981407
  O      -2.187896     -1.085119     -1.930598
  C      -5.234230     -0.549050     -1.604219
  C      -5.241127     -0.212635     -0.191828
  O      -5.517630     -1.271962      0.613454
  C      -5.533425     -1.013394      2.009563
  H      -5.954857     -1.909089      2.485332
  H      -4.511970     -0.843749      2.387850
  H      -6.146724     -0.130707      2.245526
  O      -5.022580      0.903234      0.266244
  C      -5.356153     -1.956188     -2.079233
  H      -5.788801     -2.619962     -1.320362
  H      -5.959322     -2.009337     -3.001602
  H      -4.348482     -2.335044     -2.338239
  C      -4.956886      0.531280     -2.590677
  H      -5.049762      1.528237     -2.141556
  H      -5.632528      0.449394     -3.459689
  H      -3.923745      0.421334     -2.971987
  H      -2.722672     -2.727691     -0.125421
41
Coordinates from ORCA-job orca E -847.150969400482
  C      -2.345657     -2.101772      0.682216
  H      -2.332344     -2.514113      1.695218
  C      -1.903789     -0.862573      0.433799
  C      -1.371997      0.090345      1.469998
  H      -0.269141      0.143554      1.391167
  H      -1.599217     -0.276411      2.483136
  C      -1.965858      1.477285      1.229356
  H      -1.572220      2.201022      1.959673
  H      -3.060425      1.440640      1.339753
  C      -1.618699      1.964828     -0.170994
  H      -0.535595      2.188443     -0.218789
  C      -2.406472      3.192129     -0.615605
  C      -2.119943      4.449754      0.208215
  H      -2.417289      4.287190      1.258944
  H      -1.030509      4.640712      0.225613
  C      -2.846480      5.681352     -0.333035
  H      -2.636030      6.575912      0.274797
  H      -3.938489      5.527508     -0.336524
  H      -2.541721      5.901140     -1.370020
  H      -3.479938      2.942591     -0.572450
  H      -2.162437      3.381004     -1.674915
  O      -1.846758      0.956501     -1.189608
  C      -1.984484     -0.364218     -0.980301
  O      -2.191361     -1.084203     -1.930429
  C      -5.234429     -0.549317     -1.607954
  C      -5.240578     -0.208530     -0.196637
  O      -5.518006     -1.265208      0.611950
  C      -5.529088     -1.002886      2.007296
  H      -5.951275     -1.896064      2.487036
  H      -4.505847     -0.834600      2.381058
  H      -6.139038     -0.117638      2.242392
  O      -5.020776      0.908404      0.258285
  C      -5.350779     -1.958668     -2.078099
  H      -5.777911     -2.622287     -1.316082
  H      -5.955532     -2.018323     -2.999033
  H      -4.340928     -2.331296     -2.337603
  C      -4.961989      0.529116     -2.597836
  H      -5.056288      1.526072     -2.149050
  H      -5.639376      0.442973     -3.465048
  H      -3.929520      0.421399     -2.981542
  H      -2.726857     -2.728378     -0.125885
41
Coordinates from ORCA-job orca E -847.150984673728
  C      -2.348235     -2.103870      0.679941
  H      -2.334155     -2.518385      1.692075
  C      -1.907265     -0.864087      0.433006
  C      -1.375427      0.086563      1.472035
  H      -0.272478      0.138854      1.392958
  H      -1.602613     -0.282668      2.484179
  C      -1.965731      1.475650      1.233821
  H      -1.567059      2.197549      1.963248
  H      -3.060156      1.444315      1.346647
  C      -1.619033      1.963620     -0.166968
  H      -0.535521      2.184856     -0.215429
  C      -2.407129      3.191268     -0.610808
  C      -2.118973      4.449774      0.210725
  H      -2.411971      4.288035      1.262814
  H      -1.029616      4.641538      0.223890
  C      -2.848398      5.680496     -0.328751
  H      -2.636072      6.575770      0.277363
  H      -3.940301      5.525904     -0.327801
  H      -2.547845      5.899339     -1.367158
  H      -3.479831      2.938925     -0.564678
  H      -2.165113      3.377468     -1.671019
  O      -1.849829      0.956868     -1.186587
  C      -1.987821     -0.363454     -0.979615
  O      -2.195693     -1.082197     -1.931087
  C      -5.235100     -0.551296     -1.612552
  C      -5.238987     -0.204636     -0.202564
  O      -5.517474     -1.257477      0.610705
  C      -5.523332     -0.990523      2.005064
  H      -5.946786     -1.880306      2.489720
  H      -4.498114     -0.823444      2.373278
  H      -6.128372     -0.101385      2.238356
  O      -5.016288      0.913884      0.246895
  C      -5.343972     -1.963338     -2.076612
  H      -5.762817     -2.626861     -1.310042
  H      -5.951901     -2.031437     -2.994893
  H      -4.331387     -2.327222     -2.338540
  C      -4.970182      0.525557     -2.606458
  H      -5.066946      1.522186     -2.157521
  H      -5.650000      0.435365     -3.471401
  H      -3.938982      0.421576     -2.994137
  H      -2.728167     -2.729386     -0.129639
41
Coordinates from ORCA-job orca E -847.150992682620
  C      -2.348431     -2.104176      0.678916
  H      -2.335674     -2.518707      1.691031
  C      -1.909023     -0.863538      0.433324
  C      -1.378478      0.086320      1.473982
  H      -0.275395      0.137963      1.395947
  H      -1.606694     -0.283838      2.485545
  C      -1.967286      1.475976      1.235976
  H      -1.567158      2.197597      1.964950
  H      -3.061659      1.446670      1.349217
  C      -1.619753      1.964045     -0.164713
  H      -0.535776      2.182972     -0.212512
  C      -2.406942      3.192235     -0.608765
  C      -2.117194      4.451171      0.211323
  H      -2.409270      4.290597      1.263862
  H      -1.027630      4.641813      0.223331
  C      -2.845925      5.682169     -0.328434
  H      -2.632178      6.577690      0.276796
  H      -3.937975      5.528601     -0.326408
  H      -2.546039      5.899792     -1.367286
  H      -3.479440      2.939330     -0.561380
  H      -2.165574      3.376440     -1.669456
  O      -1.852104      0.958179     -1.185164
  C      -1.989262     -0.362067     -0.979000
  O      -2.197374     -1.080784     -1.930684
  C      -5.235918     -0.553667     -1.614190
  C      -5.237761     -0.205575     -0.204437
  O      -5.516318     -1.257198      0.610137
  C      -5.520278     -0.989206      2.004293
  H      -5.942613     -1.878715      2.490299
  H      -4.494440     -0.820960      2.370227
  H      -6.124760     -0.099663      2.237628
  O      -5.012918      0.913187      0.243365
  C      -5.342285     -1.966207     -2.077253
  H      -5.757292     -2.630212     -1.309015
  H      -5.952509     -2.036543     -2.993848
  H      -4.329145     -2.326856     -2.341859
  C      -4.975156      0.523461     -2.609009
  H      -5.073790      1.519985     -2.160287
  H      -5.656353      0.432422     -3.472857
  H      -3.944736      0.422060     -2.999395
  H      -2.726561     -2.729374     -0.131738
41
Coordinates from ORCA-job orca E -847.151004738267
  C      -2.347680     -2.104617      0.676660
  H      -2.338439     -2.518906      1.688870
  C      -1.911435     -0.862149      0.433943
  C      -1.383974      0.086817      1.477000
  H      -0.280599      0.137248      1.402112
  H      -1.615172     -0.284278      2.487538
  C      -1.970747      1.476999      1.238759
  H      -1.569882      2.198192      1.967884
  H      -3.065286      1.450487      1.351137
  C      -1.621068      1.965524     -0.161242
  H      -0.536343      2.180976     -0.207359
  C      -2.406189      3.194865     -0.605503
  C      -2.114207      4.453912      0.213419
  H      -2.406743      4.294753      1.266068
  H      -1.024209      4.642028      0.225441
  C      -2.840184      5.686053     -0.327365
  H      -2.624724      6.581485      0.277367
  H      -3.932560      5.534776     -0.325626
  H      -2.539429      5.902198     -1.366274
  H      -3.478681      2.942105     -0.557215
  H      -2.165133      3.376975     -1.666606
  O      -1.855133      0.961036     -1.183348
  C      -1.991010     -0.359363     -0.978352
  O      -2.199383     -1.078028     -1.930189
  C      -5.237346     -0.558582     -1.616723
  C      -5.235028     -0.208297     -0.207372
  O      -5.512516     -1.257941      0.609645
  C      -5.514126     -0.987691      2.003453
  H      -5.933825     -1.877281      2.491485
  H      -4.487767     -0.816675      2.366749
  H      -6.119369     -0.098622      2.236723
  O      -5.006824      0.910991      0.237366
  C      -5.342151     -1.971678     -2.078137
  H      -5.750243     -2.635955     -1.306400
  H      -5.958347     -2.044627     -2.990545
  H      -4.329660     -2.329316     -2.349500
  C      -4.982802      0.518182     -2.613647
  H      -5.084580      1.515782     -2.167949
  H      -5.666326      0.424915     -3.475567
  H      -3.953610      0.420347     -3.008244
  H      -2.722338     -2.729250     -0.135994
41
Coordinates from ORCA-job orca E -847.151017083785
  C      -2.347021     -2.104235      0.675867
  H      -2.340482     -2.518414      1.688113
  C      -1.912772     -0.860645      0.435034
  C      -1.387663      0.088210      1.479159
  H      -0.284050      0.137611      1.407509
  H      -1.622019     -0.282692      2.489085
  C      -1.973081      1.478617      1.239940
  H      -1.572748      2.199654      1.969582
  H      -3.067842      1.453282      1.350796
  C      -1.621582      1.967055     -0.159507
  H      -0.536446      2.180734     -0.204693
  C      -2.404794      3.197284     -0.604222
  C      -2.111904      4.456058      0.214785
  H      -2.405972      4.297315      1.267082
  H      -1.021636      4.642511      0.228057
  C      -2.835491      5.689166     -0.326952
  H      -2.619656      6.584266      0.278145
  H      -3.928073      5.539365     -0.326716
  H      -2.533020      5.904928     -1.365442
  H      -3.477537      2.945540     -0.556454
  H      -2.163137      3.378910     -1.665269
  O      -1.856762      0.963138     -1.182284
  C      -1.991900     -0.357451     -0.977539
  O      -2.200289     -1.076091     -1.929244
  C      -5.238342     -0.562161     -1.618097
  C      -5.232801     -0.211654     -0.208791
  O      -5.509037     -1.260553      0.609315
  C      -5.509655     -0.989017      2.002975
  H      -5.926517     -1.879470      2.491888
  H      -4.483454     -0.815036      2.365505
  H      -6.117327     -0.101650      2.236440
  O      -5.002434      0.907651      0.234806
  C      -5.344430     -1.975114     -2.079456
  H      -5.748194     -2.639670     -1.305640
  H      -5.965685     -2.048147     -2.988455
  H      -4.333586     -2.332829     -2.356621
  C      -4.987032      0.514408     -2.615934
  H      -5.090653      1.513037     -2.172810
  H      -5.672070      0.419548     -3.476556
  H      -3.958509      0.418522     -3.012967
  H      -2.719467     -2.728593     -0.137974
41
Coordinates from ORCA-job orca E -847.151018663786
  C      -2.346086     -2.103725      0.674901
  H      -2.341869     -2.518632      1.686852
  C      -1.913985     -0.858995      0.436016
  C      -1.391846      0.089949      1.481287
  H      -0.287948      0.138202      1.414201
  H      -1.630750     -0.280428      2.490372
  C      -1.975371      1.480868      1.240716
  H      -1.575997      2.201343      1.971438
  H      -3.070464      1.456730      1.349073
  C      -1.621536      1.968927     -0.158073
  H      -0.536089      2.181379     -0.202633
  C      -2.402494      3.200255     -0.603384
  C      -2.109699      4.458407      0.216694
  H      -2.406558      4.299579      1.268193
  H      -1.019238      4.643473      0.232586
  C      -2.830414      5.692584     -0.326397
  H      -2.615169      6.587145      0.279717
  H      -3.923170      5.544075     -0.329147
  H      -2.524946      5.908536     -1.363964
  H      -3.475651      2.949889     -0.557366
  H      -2.159275      3.382390     -1.663988
  O      -1.857842      0.965473     -1.181138
  C      -1.992584     -0.355365     -0.976703
  O      -2.200916     -1.073620     -1.928501
  C      -5.239447     -0.565994     -1.619405
  C      -5.230143     -0.215714     -0.210130
  O      -5.504780     -1.264071      0.609129
  C      -5.504785     -0.990869      2.002550
  H      -5.918389     -1.882322      2.492505
  H      -4.479181     -0.813206      2.365126
  H      -6.115983     -0.105855      2.235764
  O      -4.997746      0.903564      0.232435
  C      -5.348349     -1.978739     -2.080610
  H      -5.746638     -2.643641     -1.304236
  H      -5.976425     -2.051492     -2.984996
  H      -4.340042     -2.337393     -2.365407
  C      -4.990899      0.510100     -2.618262
  H      -5.095814      1.509848     -2.177784
  H      -5.677488      0.412985     -3.477437
  H      -3.962965      0.415664     -3.017351
  H      -2.716095     -2.727912     -0.140185
41
Coordinates from ORCA-job orca E -847.151013100796
  C      -2.346164     -2.103037      0.675393
  H      -2.342229     -2.518683      1.687038
  C      -1.914036     -0.858352      0.436748
  C      -1.392337      0.090696      1.482104
  H      -0.288305      0.138247      1.416908
  H      -1.633429     -0.278984      2.490945
  C      -1.974832      1.482032      1.240800
  H      -1.575732      2.202201      1.971927
  H      -3.070009      1.457725      1.348301
  C      -1.620548      1.969511     -0.158007
  H      -0.535175      2.182297     -0.203148
  C      -2.401019      3.201071     -0.603564
  C      -2.109508      4.458916      0.217542
  H      -2.407489      4.299347      1.268610
  H      -1.019170      4.644639      0.234721
  C      -2.830306      5.692976     -0.325728
  H      -2.616266      6.587360      0.281085
  H      -3.922975      5.543860     -0.329752
  H      -2.523866      5.909721     -1.362847
  H      -3.474266      2.950934     -0.558929
  H      -2.156768      3.384244     -1.663751
  O      -1.857585      0.965928     -1.180526
  C      -1.992561     -0.354934     -0.975964
  O      -2.201066     -1.072895     -1.927818
  C      -5.239498     -0.566999     -1.620082
  C      -5.228574     -0.217032     -0.210850
  O      -5.503141     -1.265181      0.608800
  C      -5.503003     -0.991247      2.002034
  H      -5.915301     -1.883067      2.492509
  H      -4.477842     -0.811930      2.365087
  H      -6.115993     -0.107388      2.234987
  O      -4.994927      0.902074      0.231559
  C      -5.351817     -1.979462     -2.081346
  H      -5.748304     -2.644208     -1.303916
  H      -5.983415     -2.051135     -2.983406
  H      -4.345424     -2.340264     -2.370011
  C      -4.990678      0.508600     -2.619285
  H      -5.095349      1.508696     -2.179486
  H      -5.677464      0.410344     -3.478141
  H      -3.962712      0.413949     -3.018273
  H      -2.715987     -2.727181     -0.139811
41
Coordinates from ORCA-job orca E -847.151028589226
  C      -2.346021     -2.102195      0.675834
  H      -2.341485     -2.519115      1.686970
  C      -1.914354     -0.857420      0.437286
  C      -1.393479      0.091741      1.483090
  H      -0.289280      0.138409      1.420291
  H      -1.637440     -0.277250      2.491482
  C      -1.974250      1.483869      1.240855
  H      -1.574956      2.203381      1.972424
  H      -3.069514      1.459866      1.347327
  C      -1.619164      1.970323     -0.158076
  H      -0.533813      2.183114     -0.203926
  C      -2.398744      3.202420     -0.604057
  C      -2.109024      4.459737      0.218550
  H      -2.408395      4.299197      1.269056
  H      -1.018857      4.646317      0.237428
  C      -2.829887      5.693731     -0.324848
  H      -2.617321      6.587863      0.282868
  H      -3.922453      5.543881     -0.330479
  H      -2.522216      5.911508     -1.361386
  H      -3.472139      2.952433     -0.561627
  H      -2.152679      3.386877     -1.663611
  O      -1.857357      0.966654     -1.179687
  C      -1.992845     -0.354151     -0.975146
  O      -2.201730     -1.071648     -1.927252
  C      -5.239673     -0.568513     -1.620814
  C      -5.227052     -0.218856     -0.211641
  O      -5.501723     -1.266852      0.608412
  C      -5.501550     -0.992225      2.001373
  H      -5.912036     -1.884496      2.492613
  H      -4.477019     -0.810432      2.364871
  H      -6.116728     -0.109735      2.233903
  O      -4.992229      0.900060      0.230595
  C      -5.355901     -1.980676     -2.082018
  H      -5.748975     -2.645568     -1.303015
  H      -5.992678     -2.051364     -2.980585
  H      -4.351853     -2.343268     -2.376495
  C      -4.990554      0.506713     -2.620376
  H      -5.094530      1.506736     -2.180234
  H      -5.677406      0.407168     -3.478962
  H      -3.962518      0.411730     -3.019029
  H      -2.715243     -2.726576     -0.139505
41
Coordinates from ORCA-job orca E -847.151029502533
  C      -2.345879     -2.101826      0.675992
  H      -2.340272     -2.519393      1.686871
  C      -1.914667     -0.856937      0.437377
  C      -1.393863      0.092092      1.483526
  H      -0.289602      0.138217      1.421306
  H      -1.638706     -0.276818      2.491702
  C      -1.973675      1.484725      1.241145
  H      -1.573690      2.203799      1.972719
  H      -3.068909      1.460980      1.347689
  C      -1.618454      1.970680     -0.157990
  H      -0.533074      2.183294     -0.204185
  C      -2.397700      3.203098     -0.604042
  C      -2.109043      4.460122      0.219349
  H      -2.408964      4.299137      1.269617
  H      -1.018973      4.647223      0.238995
  C      -2.830036      5.694035     -0.324081
  H      -2.618062      6.588111      0.283923
  H      -3.922549      5.543823     -0.330264
  H      -2.521966      5.912176     -1.360424
  H      -3.471057      2.952774     -0.562853
  H      -2.150648      3.388217     -1.663255
  O      -1.857417      0.967111     -1.179113
  C      -1.993382     -0.353582     -0.974742
  O      -2.202779     -1.070756     -1.927053
  C      -5.239664     -0.569519     -1.621408
  C      -5.226430     -0.219420     -0.212394
  O      -5.501533     -1.267058      0.608112
  C      -5.501122     -0.991908      2.000843
  H      -5.910648     -1.884209      2.492819
  H      -4.476769     -0.808757      2.364076
  H      -6.117042     -0.109823      2.233105
  O      -4.990970      0.899503      0.229466
  C      -5.358019     -1.981612     -2.082282
  H      -5.748365     -2.646623     -1.302054
  H      -5.998394     -2.052011     -2.978369
  H      -4.355367     -2.344722     -2.380905
  C      -4.990200      0.505359     -2.621361
  H      -5.093538      1.505144     -2.180601
  H      -5.676757      0.405168     -3.480045
  H      -3.962012      0.410004     -3.019446
  H      -2.714873     -2.726427     -0.139306
41
Coordinates from ORCA-job orca E -847.151034631196
  C      -2.345345     -2.101482      0.675617
  H      -2.337685     -2.519857      1.686170
  C      -1.915242     -0.856186      0.437060
  C      -1.394095      0.092315      1.483847
  H      -0.289781      0.137539      1.421579
  H      -1.639381     -0.276888      2.491756
  C      -1.972652      1.485669      1.241874
  H      -1.571144      2.204019      1.973274
  H      -3.067770      1.462506      1.349263
  C      -1.617605      1.971314     -0.157545
  H      -0.532123      2.183366     -0.203949
  C      -2.396568      3.204200     -0.603298
  C      -2.109630      4.460482      0.221669
  H      -2.410610      4.298608      1.271480
  H      -1.019669      4.648114      0.242778
  C      -2.830459      5.694580     -0.321595
  H      -2.619247      6.588360      0.287099
  H      -3.922930      5.544077     -0.328830
  H      -2.521537      5.913414     -1.357539
  H      -3.469787      2.952884     -0.564234
  H      -2.147920      3.390531     -1.661941
  O      -1.857588      0.968199     -1.178321
  C      -1.994628     -0.352289     -0.974494
  O      -2.205302     -1.068880     -1.927135
  C      -5.239670     -0.571875     -1.622901
  C      -5.225547     -0.219572     -0.214447
  O      -5.501609     -1.265791      0.607703
  C      -5.500430     -0.988882      1.999891
  H      -5.908536     -1.880746      2.493767
  H      -4.476066     -0.803595      2.361903
  H      -6.116870     -0.106896      2.231395
  O      -4.988811      0.899710      0.225735
  C      -5.361406     -1.984184     -2.082157
  H      -5.745374     -2.649107     -1.298760
  H      -6.009420     -2.054993     -2.972828
  H      -4.361411     -2.347430     -2.389552
  C      -4.989449      0.501669     -2.624363
  H      -5.091714      1.501418     -2.183381
  H      -5.675161      0.400163     -3.483471
  H      -3.960839      0.405227     -3.020996
  H      -2.714059     -2.726319     -0.139665
41
Coordinates from ORCA-job orca E -847.151039051793
  C      -2.344198     -2.101240      0.674579
  H      -2.334799     -2.519963      1.684981
  C      -1.915818     -0.855227      0.436419
  C      -1.394507      0.092760      1.483795
  H      -0.290180      0.137364      1.420981
  H      -1.639500     -0.276995      2.491551
  C      -1.972412      1.486514      1.242491
  H      -1.569621      2.204359      1.973687
  H      -3.067431      1.464064      1.350909
  C      -1.617412      1.972346     -0.156982
  H      -0.531708      2.183359     -0.202897
  C      -2.395709      3.205864     -0.602396
  C      -2.109984      4.461197      0.224308
  H      -2.412784      4.298595      1.273477
  H      -1.019974      4.648343      0.247512
  C      -2.829274      5.696155     -0.319072
  H      -2.618472      6.589324      0.290650
  H      -3.921820      5.546295     -0.328136
  H      -2.518569      5.915593     -1.354354
  H      -3.468885      2.953974     -0.565626
  H      -2.145329      3.393245     -1.660455
  O      -1.858020      0.969854     -1.177967
  C      -1.996119     -0.350481     -0.974679
  O      -2.208264     -1.066587     -1.927472
  C      -5.240136     -0.575126     -1.624229
  C      -5.225476     -0.220360     -0.216361
  O      -5.502316     -1.264990      0.607545
  C      -5.500356     -0.986072      1.999220
  H      -5.906532     -1.877714      2.495011
  H      -4.475899     -0.798194      2.359595
  H      -6.117582     -0.104404      2.230051
  O      -4.987707      0.899396      0.221967
  C      -5.364281     -1.987716     -2.081835
  H      -5.740257     -2.652862     -1.294821
  H      -6.020957     -2.059464     -2.966202
  H      -4.367055     -2.349880     -2.399385
  C      -4.989063      0.497057     -2.627144
  H      -5.090506      1.496953     -2.186376
  H      -5.673794      0.394880     -3.486885
  H      -3.959932      0.399354     -3.022148
  H      -2.712432     -2.726181     -0.140847
41
Coordinates from ORCA-job orca E -847.151043244304
  C      -2.342951     -2.100956      0.673172
  H      -2.332173     -2.519691      1.683549
  C      -1.916145     -0.854201      0.435687
  C      -1.394109      0.093205      1.483252
  H      -0.289847      0.137565      1.418963
  H      -1.637610     -0.277271      2.491127
  C      -1.972272      1.486925      1.243123
  H      -1.568561      2.204587      1.974045
  H      -3.067161      1.464957      1.353047
  C      -1.617655      1.973617     -0.156203
  H      -0.531711      2.183581     -0.201259
  C      -2.395274      3.207705     -0.601077
  C      -2.110622      4.461826      0.227727
  H      -2.415990      4.298280      1.276006
  H      -1.020484      4.647897      0.253687
  C      -2.827561      5.698080     -0.315816
  H      -2.617278      6.590306      0.295466
  H      -3.920221      5.549251     -0.327545
  H      -2.514247      5.918404     -1.350122
  H      -3.468467      2.955544     -0.566796
  H      -2.143111      3.396295     -1.658514
  O      -1.858386      0.971875     -1.178012
  C      -1.997803     -0.348332     -0.975132
  O      -2.211910     -1.064010     -1.927818
  C      -5.240985     -0.579142     -1.625845
  C      -5.225794     -0.221290     -0.218696
  O      -5.503584     -1.263722      0.607511
  C      -5.500459     -0.981843      1.998601
  H      -5.904229     -1.873237      2.496727
  H      -4.475751     -0.791011      2.356698
  H      -6.118742     -0.100666      2.228571
  O      -4.986578      0.899086      0.217249
  C      -5.367239     -1.992158     -2.081367
  H      -5.733029     -2.657589     -1.289866
  H      -6.034386     -2.065485     -2.957896
  H      -4.373318     -2.352304     -2.411183
  C      -4.988419      0.491086     -2.630523
  H      -5.089274      1.491625     -2.191091
  H      -5.671907      0.388693     -3.491192
  H      -3.958584      0.391449     -3.023317
  H      -2.711243     -2.725542     -0.142477
41
Coordinates from ORCA-job orca E -847.151047802396
  C      -2.342420     -2.100493      0.672192
  H      -2.331278     -2.519130      1.682592
  C      -1.916033     -0.853444      0.435289
  C      -1.393127      0.093657      1.482481
  H      -0.288983      0.138522      1.416613
  H      -1.634675     -0.277340      2.490691
  C      -1.972407      1.486915      1.243427
  H      -1.568747      2.204821      1.974220
  H      -3.067246      1.464991      1.354423
  C      -1.618209      1.974645     -0.155583
  H      -0.532136      2.184079     -0.199932
  C      -2.395211      3.209071     -0.600047
  C      -2.110939      4.462228      0.230372
  H      -2.418647      4.297891      1.277849
  H      -1.020653      4.647057      0.258685
  C      -2.825584      5.699720     -0.313351
  H      -2.615805      6.591016      0.299458
  H      -3.918347      5.551904     -0.327631
  H      -2.509779      5.920923     -1.346707
  H      -3.468561      2.957376     -0.567382
  H      -2.141909      3.398512     -1.657067
  O      -1.858494      0.973395     -1.178430
  C      -1.998949     -0.346737     -0.975529
  O      -2.214664     -1.062278     -1.927858
  C      -5.242165     -0.582270     -1.627043
  C      -5.226584     -0.222422     -0.220377
  O      -5.505024     -1.263139      0.607578
  C      -5.500697     -0.978650      1.998299
  H      -5.902226     -1.870082      2.498154
  H      -4.475776     -0.785386      2.354494
  H      -6.120340     -0.098276      2.227603
  O      -4.986005      0.898370      0.213810
  C      -5.368911     -1.995683     -2.081082
  H      -5.726229     -2.661618     -1.286171
  H      -6.043980     -2.070746     -2.951492
  H      -4.377251     -2.353275     -2.420078
  C      -4.988127      0.486397     -2.632873
  H      -5.088983      1.487749     -2.195200
  H      -5.670779      0.384445     -3.494282
  H      -3.957768      0.385008     -3.023965
  H      -2.711421     -2.724333     -0.143688
41
Coordinates from ORCA-job orca E -847.151048716116
  C      -2.342923     -2.099982      0.672208
  H      -2.332217     -2.518562      1.682615
  C      -1.915224     -0.853400      0.435322
  C      -1.391163      0.093611      1.481710
  H      -0.287158      0.139463      1.414422
  H      -1.630830     -0.277609      2.490343
  C      -1.971944      1.486296      1.243412
  H      -1.569040      2.204656      1.974225
  H      -3.066769      1.463639      1.354895
  C      -1.618401      1.974858     -0.155385
  H      -0.532430      2.184825     -0.199753
  C      -2.395566      3.209107     -0.599636
  C      -2.111467      4.461998      0.231389
  H      -2.420167      4.297157      1.278509
  H      -1.021157      4.646519      0.260649
  C      -2.825437      5.699851     -0.312361
  H      -2.616285      6.590725      0.301284
  H      -3.918189      5.552094     -0.327915
  H      -2.508508      5.921719     -1.345231
  H      -3.469025      2.957906     -0.567235
  H      -2.142163      3.398965     -1.656556
  O      -1.857869      0.973621     -1.178880
  C      -1.998854     -0.346485     -0.975640
  O      -2.215421     -1.062127     -1.927598
  C      -5.242939     -0.583023     -1.627518
  C      -5.227074     -0.222741     -0.220993
  O      -5.506255     -1.262640      0.607628
  C      -5.501289     -0.976776      1.998243
  H      -5.901816     -1.868328      2.498729
  H      -4.476314     -0.782543      2.353732
  H      -6.121891     -0.097002      2.227122
  O      -4.985229      0.898079      0.212551
  C      -5.369448     -1.996627     -2.081051
  H      -5.723043     -2.662914     -1.284769
  H      -6.047612     -2.072680     -2.949003
  H      -4.378447     -2.352648     -2.423387
  C      -4.987374      0.484825     -2.633613
  H      -5.088369      1.486740     -2.197178
  H      -5.669600      0.383767     -3.495514
  H      -3.956761      0.382028     -3.023680
  H      -2.713399     -2.722970     -0.143633
