41
Coordinates from ORCA-job orca E -847.138935076368
  C          -2.70006872835060     -1.63317225685061     -0.55008971822821
  H          -2.96304974917459     -2.24682950382711      0.31379938890283
  C          -2.24717570855672     -0.36362343968766     -0.38676626375231
  C          -2.22284722367073      0.35145719917511      0.93671968800268
  H          -1.21708379785184      0.24789006548325      1.38954513995116
  H          -2.93077945302345     -0.11738830859867      1.63594095580283
  C          -2.53218068231175      1.83346111351560      0.74258700240810
  H          -2.43867470150406      2.37606540738335      1.69600677060288
  H          -3.57077956310895      1.95179107961845      0.39313037102681
  C          -1.56313773005041      2.42942243973738     -0.26680573415022
  H          -0.53398432490761      2.35593337926077      0.13688372283148
  C          -1.84141344243348      3.87971489591336     -0.64550481530543
  C          -1.64790845821010      4.88011225434288      0.49591695190680
  H          -2.35712106222742      4.66287601390950      1.31376834086543
  H          -0.63800267594826      4.75154293082685      0.92780867321480
  C          -1.83024337553794      6.32973133138078      0.04535295657838
  H          -1.68876387211378      7.03380190887850      0.88087625769888
  H          -2.84101325363360      6.49544737515444     -0.36380746312624
  H          -1.10787723991853      6.59647685754247     -0.74425955393422
  H          -2.87023185262151      3.94498366490693     -1.04209201372081
  H          -1.17044882869808      4.13585965135230     -1.48287097133635
  O          -1.57145915390059      1.69401751253214     -1.51197758607211
  C          -1.83815923691184      0.37429373997375     -1.61993352335192
  O          -1.77020918378734     -0.14378617505817     -2.71162978647510
  C          -5.02520277926170     -1.48464498767062     -1.13500938786483
  C          -5.36346252735424     -0.92005417553687      0.17380144774511
  O          -5.57303070921797     -1.87142045644872      1.12049425162005
  C          -5.88765012338272     -1.39705408855055      2.42412218091918
  H          -6.05865827911688     -2.28744316368765      3.04290041566523
  H          -5.05962059096119     -0.80136255401925      2.84107728067993
  H          -6.78864230887653     -0.76439819134916      2.40847210396142
  O          -5.41932202746539      0.26985021447925      0.43162614264503
  C          -5.24660942054062     -2.93950206280519     -1.41174989881361
  H          -5.01303497964564     -3.57260190098733     -0.54547024357781
  H          -6.30965805652566     -3.11980756836335     -1.66767829868229
  H          -4.65086306066072     -3.27102692654364     -2.27693693258951
  C          -4.99068995001776     -0.53607034433712     -2.28896906044878
  H          -4.77535856467975      0.48800171348634     -1.95908206633378
  H          -5.97743447173441     -0.52304667782210     -2.79326224166902
  H          -4.24144432508895     -0.83450486947167     -3.03727180910612
  H          -2.58177452701574     -2.12160309723818     -1.51720267449031
