41
Coordinates from ORCA-job orca E -847.141914888520
  C          -2.61497933759654     -1.66378934350258     -0.48253482804178
  H          -2.92874094178656     -2.25845872291210      0.37800814652953
  C          -2.19075743947859     -0.39478531119700     -0.33696288300449
  C          -2.16195922814480      0.33903575765413      0.97747530934088
  H          -1.14902045713036      0.25846825017127      1.41762842643030
  H          -2.85419442635281     -0.13288755554249      1.69026059291187
  C          -2.49948940319822      1.81269039311501      0.76788677959561
  H          -2.40687787710394      2.36816312668556      1.71395073664292
  H          -3.54311162029849      1.90850324170982      0.42697751267375
  C          -1.54988511353897      2.41386578876048     -0.25621913830423
  H          -0.51622097328076      2.36479425533739      0.13925375301984
  C          -1.85894971722236      3.85329349388110     -0.65183697399929
  C          -1.67733519809671      4.87166281896454      0.47558977903689
  H          -2.37701768758377      4.65120726894810      1.30069941156200
  H          -0.66238486312065      4.76794650246640      0.90230611013556
  C          -1.89067331518891      6.31162897020767      0.00797967378737
  H          -1.75892831264261      7.02876011988607      0.83391747672677
  H          -2.90664151039186      6.45196156719316     -0.39775104557361
  H          -1.17788342348997      6.58273893898902     -0.78881171561148
  H          -2.89160523292833      3.89330049917885     -1.04166246573136
  H          -1.19894522681450      4.11181941275325     -1.49715489199727
  O          -1.55371827066914      1.66197346276876     -1.49253826299194
  C          -1.79668262631241      0.33808388850111     -1.58528680674207
  O          -1.72804156190989     -0.19042457194147     -2.67058288806025
  C          -5.12916513224372     -1.43890086592066     -1.16638949702294
  C          -5.38718380382293     -0.89616720441728      0.16247142100903
  O          -5.60360990382857     -1.86119111462902      1.09591184850946
  C          -5.85888867749263     -1.40456332094280      2.41791880921395
  H          -6.04440667441118     -2.30129012642384      3.02335364881084
  H          -4.99646120095660     -0.84955141134056      2.82121879186199
  H          -6.73527712497022     -0.73837196612067      2.44519496049542
  O          -5.38591723773391      0.28971507238649      0.45140009883934
  C          -5.32486740265266     -2.89027533550530     -1.46174637689681
  H          -5.11368638478397     -3.52713207028135     -0.59267500638901
  H          -6.37651119867197     -3.08216386897377     -1.75621514225900
  H          -4.69944145007500     -3.20792815146452     -2.31159578803308
  C          -5.00255693020478     -0.47677797307049     -2.29800340733208
  H          -4.81162714431789      0.54173040590494     -1.93722392986598
  H          -5.94171034660186     -0.45613282143339     -2.88647812093406
  H          -4.19564530569566     -0.76871631928311     -2.98833732436763
  H          -2.55407031725412     -2.14844518056101     -1.45693679397492
