41
Coordinates from ORCA-job orca E -847.150053263799
  C          -2.33060471556299     -2.01028133928870      0.59094583844557
  H          -2.39392887482182     -2.42683977015404      1.59992268635706
  C          -2.03760165582930     -0.71851749910281      0.39121754018989
  C          -1.76027007739120      0.27213871583038      1.49422458640732
  H          -0.66846314132688      0.32262409219085      1.66994466026691
  H          -2.21521012786125     -0.07339597450565      2.43530267000856
  C          -2.26906812614274      1.65956685029806      1.10914132913215
  H          -1.99512634316644      2.39621450948972      1.88009510452908
  H          -3.36718557042747      1.64710246237220      1.02356985607214
  C          -1.65812917104768      2.08189509414229     -0.21736756714331
  H          -0.55935792633859      2.16410985650768     -0.10444934479240
  C          -2.19945206909433      3.38914950213998     -0.78378702736233
  C          -1.86713972883101      4.62566034454608      0.05361803147821
  H          -2.32144136076101      4.53601457732401      1.05572654253703
  H          -0.77460429219551      4.67390627565615      0.21804540106984
  C          -2.34457874492787      5.92306779550067     -0.59918143436561
  H          -2.10093870652060      6.80092056858647      0.02025454695673
  H          -3.43704196210936      5.91301128744401     -0.75024241838975
  H          -1.87723166955605      6.06983334317981     -1.58739595244283
  H          -3.29261438393451      3.28919732676611     -0.90253705727737
  H          -1.78620144676414      3.50647817590957     -1.80006562783792
  O          -1.88802698547397      1.08991377030825     -1.24842237569329
  C          -2.01450184975069     -0.23331236785526     -1.03124005091879
  O          -2.14733715077025     -0.96355158747060     -1.98641215968473
  C          -5.26801431545860     -0.67046462841109     -1.38833588054809
  C          -5.34440620108076     -0.57629605786423      0.05980307424672
  O          -5.50910201265511     -1.77748354147937      0.67248674905140
  C          -5.59995833272511     -1.74381829677228      2.08885261047350
  H          -5.76683361977513     -2.77968996938729      2.41230281980368
  H          -4.67147047699871     -1.35424638057237      2.53601331683505
  H          -6.43284622698888     -1.10331728195032      2.41937521831400
  O          -5.26846138120205      0.46437423981338      0.70107010570175
  C          -5.24694673079236     -1.97754784191930     -2.10238849761437
  H          -5.52257138306095     -2.81519021987814     -1.45041790039908
  H          -5.92179294623955     -1.95869727516457     -2.97664576937806
  H          -4.22753307808933     -2.15516117824254     -2.49528263414443
  C          -5.14072663014930      0.58905626666220     -2.17358237995735
  H          -5.19749452771114      1.47369435193796     -1.52656076004018
  H          -5.93616943838687      0.65021188982507     -2.93952043040975
  H          -4.17951847084097      0.60578332922869     -2.71907672910216
  H          -2.51516814723693     -2.67272341564161     -0.25654069037469
