41
Coordinates from ORCA-job orca E -847.143240436283
  C          -2.57254073158172     -1.67922967455784     -0.44857301534378
  H          -2.89124084462950     -2.26751241087362      0.41492229601926
  C          -2.17017146075679     -0.40459336118677     -0.31424367032555
  C          -2.14328745291572      0.33804780876189      0.99595064668874
  H          -1.12868831571586      0.26707573144813      1.43359626099374
  H          -2.83063297830802     -0.13489711681731      1.71278616653362
  C          -2.49170582396087      1.80796628358813      0.77892168615298
  H          -2.40039102981116      2.36930809436357      1.72161381306865
  H          -3.53668318899824      1.89484151689620      0.43988549884038
  C          -1.54913107382195      2.40942370271260     -0.25127444131927
  H          -0.51337350020751      2.36610360368402      0.13929732643461
  C          -1.86594835386358      3.84576746399514     -0.65163458229089
  C          -1.68182904540895      4.86957193324168      0.47047805086799
  H          -2.37614929435931      4.65006362856229      1.30035198981020
  H          -0.66417289820356      4.77131784553303      0.89200161313130
  C          -1.90293420228665      6.30678247223607     -0.00197868832926
  H          -1.76937177899894      7.02781317054811      0.82026534587765
  H          -2.92155564604180      6.44174884552083     -0.40283951945796
  H          -1.19538081928593      6.57713487194354     -0.80367874500090
  H          -2.90088657671392      3.88024793509499     -1.03584437556100
  H          -1.21153693924786      4.10314417326991     -1.50164572589769
  O          -1.55623240052016      1.65195456574281     -1.48445125466575
  C          -1.79025359877931      0.32664813822498     -1.56976348871577
  O          -1.72671098590193     -0.20610871133374     -2.65313457720585
  C          -5.18015429103326     -1.42279745551005     -1.18509028497476
  C          -5.40052150904906     -0.88723861025888      0.15163389758701
  O          -5.61296644196196     -1.85573153182457      1.08288871030454
  C          -5.83918221725814     -1.40448761717921      2.41171076070504
  H          -6.02902492194239     -2.30233445619945      3.01418128471687
  H          -4.96154291895572     -0.86613065710222      2.80475760463767
  H          -6.70416192264704     -0.72452702456175      2.45820826491979
  O          -5.37765063956636      0.29682317728006      0.44957612827701
  C          -5.35670096389271     -2.87525129507443     -1.48224423423430
  H          -5.15048001023108     -3.50930485304927     -0.61008699781378
  H          -6.40143933985214     -3.07938962022933     -1.79297216392323
  H          -4.71558508381043     -3.18589934997106     -2.32329503272603
  C          -5.02517380065371     -0.45992754538611     -2.31124697683542
  H          -4.88494999662264      0.56473800509884     -1.94472960545114
  H          -5.92739236204238     -0.47447072052918     -2.95454233707669
  H          -4.17080702715101     -0.72717993576782     -2.95431626518070
  H          -2.52652761300954     -2.16612102033443     -1.42298136323731
