41
Coordinates from ORCA-job orca E -847.163105170987
  C          -3.04365106708433     -1.40213879389864     -0.59611685006966
  H          -2.86415105760323     -1.93483842599578      0.34944273846811
  C          -2.71610342922958      0.02973486536173     -0.50451777792685
  C          -2.88826170325810      0.78673084574125      0.77495631373569
  H          -2.07240257721555      0.49892770975666      1.47159788367406
  H          -3.82461723808184      0.48590278360568      1.27079563317941
  C          -2.86694004713039      2.29625977060038      0.54474105175665
  H          -2.77141770525365      2.83155237977977      1.50139013285600
  H          -3.81378571659978      2.62113394810293      0.07971636558663
  C          -1.71605561296169      2.66451832192129     -0.38034517308646
  H          -0.76533100528846      2.31717945643696      0.07264550715484
  C          -1.59594405706232      4.14857964754068     -0.70398874093849
  C          -1.20027327149550      5.02598653976357      0.48558274246844
  H          -1.96769915557343      4.95870638080870      1.27665355367342
  H          -0.26806755757082      4.63504650658648      0.93380935004424
  C          -1.00552141892234      6.49205980760678      0.09802914101536
  H          -0.72420417960163      7.10651246690078      0.96810687976899
  H          -1.92984277720268      6.91781801368667     -0.32727958393463
  H          -0.21301632117788      6.60261468414506     -0.66096326000475
  H          -2.55449840086849      4.49190821091509     -1.13242748651760
  H          -0.84656315491609      4.24955806589909     -1.50721544792428
  O          -1.86548093280948      1.99507082303120     -1.64623257890094
  C          -2.24158338026590      0.69244650409007     -1.72105814298194
  O          -2.18722519633158      0.13343938402158     -2.80164740544024
  C          -4.73446105648637     -1.72605317296292     -0.97633174755815
  C          -5.46980802941936     -1.37543697631638      0.30051425070913
  O          -5.40930578791938     -2.36310006914222      1.21609247487204
  C          -6.02513925805999     -2.09806589337760      2.47457842772009
  H          -5.92404582603450     -3.01737163817347      3.06517051628363
  H          -5.52576066210132     -1.26099621762286      2.98769312666357
  H          -7.08696461947566     -1.83937186219171      2.34549353744817
  O          -6.01270564964608     -0.31699171233514      0.52409692493896
  C          -4.81097040544539     -3.21014792219132     -1.32503429827321
  H          -4.39749589594064     -3.84181033516053     -0.52696729669689
  H          -5.85803015383384     -3.51646800557029     -1.48819018698127
  H          -4.25498371066222     -3.40610231127370     -2.25479827619486
  C          -5.18374589183028     -0.83402768722594     -2.12477102395089
  H          -5.18740686697459      0.22390179184289     -1.83119063920478
  H          -6.21112749468978     -1.09746414955007     -2.42714616685478
  H          -4.51562298427798     -0.95288836315709     -2.98838168283691
  H          -2.50485874369742     -1.87892537199968     -1.42404278573981
