41
Coordinates from ORCA-job orca E -848.342204976190
  C          -3.17271413530178     -1.34202747608955     -0.76694125772137
  H          -2.80850100476060     -1.83070240193858      0.14193869747510
  C          -2.90689172387335      0.12046139270481     -0.67615426545294
  C          -3.25899761548434      0.88520835795418      0.55391650673798
  H          -2.62291767951579      0.52949820327762      1.37728510431320
  H          -4.28407807935493      0.65733071583368      0.86176640623387
  C          -3.08781559795542      2.38550805570397      0.36709618290059
  H          -3.06977621342319      2.88902335499990      1.33449995700191
  H          -3.92651767316185      2.79759555239194     -0.20186924190164
  C          -1.80810837140026      2.66283436454500     -0.39413843903774
  H          -0.96082180072428      2.20998905474108      0.14046341480886
  C          -1.51505841045785      4.13157336091925     -0.63799435989835
  C          -1.18571700599700      4.91769882148447      0.62609533390395
  H          -2.04158404613340      4.90952710808589      1.30745807729696
  H          -0.36466588373533      4.42443917655812      1.15756178526265
  C          -0.80220960755261      6.36043077751263      0.32331290411050
  H          -0.57782797011354      6.91315780195240      1.23695578809248
  H          -1.61275312643228      6.88183353489966     -0.19100432060162
  H           0.08015098578722      6.40576247736545     -0.31898988198013
  H          -2.37294982715776      4.58007173413591     -1.14961035114609
  H          -0.67417780017917      4.18864131322323     -1.33468376144493
  O          -1.87665603090585      2.05498218527117     -1.69237379095603
  C          -2.28962656676421      0.77493041337254     -1.82130860485554
  O          -2.15029852030443      0.23038199250737     -2.89427851879080
  C          -4.65907588350297     -1.74748606220352     -0.97256181183287
  C          -5.47587914640264     -1.45443904555827      0.28089256173829
  O          -4.95090747527448     -2.03674799151496      1.37105582043788
  C          -5.66749819064021     -1.83621466772454      2.58599407754667
  H          -5.11590742202627     -2.37824206960004      3.34976543271609
  H          -5.71506295948930     -0.77503298648727      2.83316913699593
  H          -6.68283288001343     -2.22292946730298      2.50154586799480
  O          -6.48232365137160     -0.79779193339465      0.32204150498060
  C          -4.71070951553458     -3.26189203724614     -1.21977966351019
  H          -4.22590606828170     -3.81386159475957     -0.41422413646799
  H          -5.74334356259114     -3.60727833666671     -1.30173322577847
  H          -4.20133520568710     -3.49512202554656     -2.15625008944018
  C          -5.26648935829905     -1.00147405410529     -2.15605785371209
  H          -5.31477877814036      0.07193937095794     -1.96979051558206
  H          -6.28211741516992     -1.34574973502533     -2.35106527827405
  H          -4.65541545940375     -1.16219115060478     -3.04481436961905
  H          -2.61497332326932     -1.74024608462948     -1.61473082254416
