60
Coordinates from ORCA-job orca E -1383.247507879550
  C       1.590360      0.170320     -1.226670
  H       1.863120      1.091900     -0.693500
  H       2.470940     -0.200550     -1.767520
  C       1.065930     -0.869360     -0.235550
  C       2.128190     -1.240790      0.839450
  H       1.701770     -2.039480      1.466030
  H       2.242700     -0.361780      1.490610
  C       3.548650     -1.695820      0.431880
  C       0.660490     -2.121990     -1.012950
  O       0.747590     -2.265190     -2.204740
  O       0.180490     -3.080950     -0.209080
  C       4.358700     -0.557420     -0.186720
  O       5.045210     -0.645570     -1.170870
  O       4.267980      0.572480      0.529340
  C       3.553360     -2.886920     -0.528660
  H       4.576560     -3.259700     -0.674200
  H       2.940920     -3.701570     -0.113610
  H       3.161470     -2.622800     -1.518720
  C       4.286940     -2.088200      1.730050
  H       3.798280     -2.962290      2.186630
  H       5.333440     -2.356090      1.519400
  H       4.279570     -1.265540      2.459190
  C      -0.235240     -4.277010     -0.844600
  H      -0.587650     -4.942530     -0.048640
  H      -1.045820     -4.074790     -1.559970
  H       0.600690     -4.740780     -1.388030
  C       4.989860      1.686770      0.035610
  H       4.627170      1.971520     -0.963250
  H       4.820470      2.503360      0.746450
  H       6.063220      1.460420     -0.036190
  H       0.841560      0.406780     -1.992160
  C      -0.142340     -0.347330      0.593080
  C      -1.431900      0.206710     -0.077120
  H       0.246460      0.445820      1.249110
  H      -0.459760     -1.168540      1.252980
  C      -2.370770      0.529850      1.121240
  C      -1.109920      1.492080     -0.839980
  C      -2.062920     -0.791140     -1.048910
  C      -3.631800      0.936090      0.920300
  H      -2.416290     -0.376260      1.743090
  O      -1.324960      1.685490     -2.008220
  O      -0.543410      2.417090     -0.052800
  H      -1.401890     -0.993220     -1.900260
  H      -2.278600     -1.735130     -0.528960
  H      -2.995960     -0.399620     -1.475120
  C      -4.555250      0.135870      0.002860
  C      -0.195880      3.639920     -0.678270
  O      -5.045990      0.542050     -1.017820
  O      -4.815680     -1.085390      0.491100
  H      -1.084530      4.124540     -1.107950
  H       0.242200      4.271810      0.102390
  H       0.532070      3.469940     -1.485040
  C      -5.668490     -1.903550     -0.289820
  H      -5.786650     -2.842090      0.263350
  H      -6.646140     -1.423680     -0.439550
  H      -5.222020     -2.097890     -1.276350
  C      -4.080030      1.375310      2.104260
  H      -5.089690      1.713890      2.000080
  H      -3.465510      2.184130      2.440530
  H      -4.042800      0.578630      2.817570
60
Coordinates from ORCA-job orca E -1383.289425081594
  C       1.606783      0.148079     -1.231269
  H       1.883983      1.067724     -0.706114
  H       2.478804     -0.225001     -1.774652
  C       1.088194     -0.885203     -0.232892
  C       2.156884     -1.248059      0.837176
  H       1.739111     -2.041873      1.467928
  H       2.269466     -0.368368      1.479819
  C       3.578563     -1.693995      0.427772
  C       0.670041     -2.138266     -1.001388
  O       0.742830     -2.286082     -2.192235
  O       0.180879     -3.086527     -0.189042
  C       4.376177     -0.551937     -0.198010
  O       5.060086     -0.638370     -1.182852
  O       4.275406      0.580548      0.513275
  C       3.592281     -2.888960     -0.524985
  H       4.614138     -3.251237     -0.669543
  H       2.991113     -3.703782     -0.105534
  H       3.198223     -2.635368     -1.511671
  C       4.323247     -2.073182      1.723605
  H       3.845698     -2.945596      2.183644
  H       5.366818     -2.331650      1.511339
  H       4.310868     -1.250897      2.445867
  C      -0.270933     -4.273330     -0.821320
  H      -0.622739     -4.929185     -0.023558
  H      -1.087586     -4.050390     -1.518289
  H       0.541595     -4.752094     -1.377269
  C       4.983705      1.700949      0.008144
  H       4.612802      1.975168     -0.985597
  H       4.809255      2.515065      0.713271
  H       6.054257      1.486715     -0.067746
  H       0.856202      0.381659     -1.989051
  C      -0.118179     -0.367901      0.596311
  C      -1.407961      0.168562     -0.081665
  H       0.259963      0.426794      1.249016
  H      -0.429398     -1.186728      1.255120
  C      -2.356848      0.491582      1.110096
  C      -1.108837      1.457408     -0.842853
  C      -1.994745     -0.840221     -1.071898
  C      -3.647635      0.928739      0.940663
  H      -2.361236     -0.385232      1.769567
  O      -1.321901      1.643950     -2.010811
  O      -0.561156      2.390830     -0.051919
  H      -1.309914     -1.021128     -1.903386
  H      -2.200374     -1.789317     -0.565378
  H      -2.913583     -0.468754     -1.525320
  C      -4.580594      0.202837     -0.009888
  C      -0.227402      3.618758     -0.679238
  O      -5.067180      0.637434     -1.019482
  O      -4.843193     -1.019475      0.463352
  H      -1.115867      4.087049     -1.114554
  H       0.193479      4.255100      0.100675
  H       0.506914      3.458040     -1.476126
  C      -5.696687     -1.822870     -0.336503
  H      -5.820415     -2.762763      0.202936
  H      -6.666372     -1.338395     -0.486200
  H      -5.240732     -2.005549     -1.316400
  C      -4.186065      1.369925      2.183630
  H      -5.201706      1.731856      2.059516
  H      -3.586819      2.170604      2.585497
  H      -4.193238      0.554121      2.901198
60
Coordinates from ORCA-job orca E -1383.312084882026
  C       1.595944      0.116193     -1.237599
  H       1.867994      1.041222     -0.725065
  H       2.464393     -0.253224     -1.783084
  C       1.096109     -0.911231     -0.225317
  C       2.176139     -1.253203      0.838061
  H       1.773463     -2.042876      1.479010
  H       2.284993     -0.368315      1.469121
  C       3.597130     -1.687619      0.419108
  C       0.682948     -2.176479     -0.977179
  O       0.747090     -2.336945     -2.166026
  O       0.204275     -3.118559     -0.150071
  C       4.376774     -0.543455     -0.224446
  O       5.051192     -0.631781     -1.214873
  O       4.270989      0.594410      0.478413
  C       3.612449     -2.890432     -0.521729
  H       4.633384     -3.243276     -0.672985
  H       3.025326     -3.704937     -0.088993
  H       3.206608     -2.650787     -1.504164
  C       4.358323     -2.047645      1.709136
  H       3.895554     -2.918509      2.179988
  H       5.399252     -2.296612      1.488136
  H       4.345059     -1.221717      2.422691
  C      -0.260366     -4.308647     -0.771774
  H      -0.598228     -4.958122      0.033252
  H      -1.088046     -4.084900     -1.451647
  H       0.539163     -4.789375     -1.338292
  C       4.960871      1.718853     -0.049018
  H       4.572315      1.978044     -1.036755
  H       4.786602      2.534508      0.649841
  H       6.029394      1.515810     -0.137268
  H       0.839248      0.335097     -1.989448
  C      -0.103394     -0.393478      0.614572
  C      -1.409584      0.132621     -0.041592
  H       0.277417      0.406383      1.254522
  H      -0.398227     -1.206975      1.282646
  C      -2.333393      0.459062      1.154489
  C      -1.139163      1.422811     -0.811474
  C      -2.026689     -0.875759     -1.015292
  C      -3.618678      0.922184      0.984745
  H      -2.295943     -0.372033      1.866739
  O      -1.384821      1.605685     -1.972277
  O      -0.580520      2.360218     -0.032952
  H      -1.367014     -1.059130     -1.861315
  H      -2.223888     -1.821178     -0.504462
  H      -2.953020     -0.499215     -1.444645
  C      -4.531243      0.298826     -0.040965
  C      -0.268859      3.590015     -0.672688
  O      -4.974639      0.784686     -1.045161
  O      -4.821010     -0.936500      0.376925
  H      -1.167252      4.048816     -1.089098
  H       0.162400      4.228992      0.095248
  H       0.448847      3.431208     -1.481173
  C      -5.652018     -1.699767     -0.489730
  H      -5.805700     -2.654003      0.009194
  H      -6.606239     -1.199221     -0.660200
  H      -5.153776     -1.851073     -1.451001
  C      -4.251845      1.337120      2.249023
  H      -5.256557      1.730836      2.088990
  H      -3.662318      2.111166      2.726650
  H      -4.320749      0.494024      2.944042
60
Coordinates from ORCA-job orca E -1383.336006325323
  C       1.578179      0.099022     -1.224030
  H       1.857432      1.028403     -0.726652
  H       2.431499     -0.267583     -1.791514
  C       1.115288     -0.923839     -0.191048
  C       2.220744     -1.247305      0.851834
  H       1.840646     -2.035212      1.506074
  H       2.332370     -0.357854      1.473115
  C       3.637469     -1.670085      0.408552
  C       0.682739     -2.193353     -0.923619
  O       0.711792     -2.359237     -2.112492
  O       0.202932     -3.120848     -0.079511
  C       4.394963     -0.523852     -0.257181
  O       5.051653     -0.613743     -1.258926
  O       4.292183      0.618327      0.440108
  C       3.646297     -2.879544     -0.522771
  H       4.666063     -3.223497     -0.690097
  H       3.076489     -3.694953     -0.072660
  H       3.220214     -2.652256     -1.497875
  C       4.426104     -2.014394      1.685421
  H       3.980767     -2.885346      2.169022
  H       5.463262     -2.254675      1.445884
  H       4.418532     -1.185517      2.393224
  C      -0.330179     -4.289787     -0.691857
  H      -0.654848     -4.932188      0.122166
  H      -1.179076     -4.025963     -1.328846
  H       0.424984     -4.791581     -1.295859
  C       4.960192      1.745745     -0.115092
  H       4.543981      1.991159     -1.093026
  H       4.794001      2.563205      0.581219
  H       6.026137      1.550836     -0.226406
  H       0.798677      0.307596     -1.953841
  C      -0.074598     -0.416589      0.661933
  C      -1.390518      0.062923      0.000059
  H       0.293187      0.398088      1.287802
  H      -0.347186     -1.226414      1.341448
  C      -2.325426      0.387196      1.182538
  C      -1.157451      1.351467     -0.788397
  C      -1.950096     -0.981268     -0.972597
  C      -3.595853      0.866318      1.032749
  H      -2.211575     -0.351013      1.978800
  O      -1.405908      1.508031     -1.951407
  O      -0.618654      2.311502     -0.023509
  H      -1.259392     -1.149586     -1.795857
  H      -2.127727     -1.925663     -0.456601
  H      -2.867438     -0.641246     -1.439491
  C      -4.513405      0.404895     -0.063535
  C      -0.332349      3.537603     -0.687101
  O      -4.923674      0.985316     -1.028565
  O      -4.864352     -0.844927      0.264992
  H      -1.238873      3.967189     -1.111878
  H       0.082577      4.197329      0.070045
  H       0.390275      3.378140     -1.488689
  C      -5.696909     -1.520031     -0.676731
  H      -5.906967     -2.491365     -0.238393
  H      -6.619767     -0.968970     -0.850804
  H      -5.162621     -1.640041     -1.621599
  C      -4.312008      1.235427      2.316025
  H      -5.296151      1.672842      2.132689
  H      -3.724981      1.963324      2.873003
  H      -4.445179      0.359650      2.964534
60
Coordinates from ORCA-job orca E -1383.358952427253
  C       1.587812      0.043204     -1.238066
  H       1.846885      0.985933     -0.755111
  H       2.453156     -0.319740     -1.789755
  C       1.131488     -0.967849     -0.190899
  C       2.238604     -1.253523      0.857678
  H       1.874218     -2.037540      1.525545
  H       2.333936     -0.351527      1.463432
  C       3.659206     -1.658801      0.415081
  C       0.729178     -2.260840     -0.902800
  O       0.791778     -2.454937     -2.086079
  O       0.247230     -3.178979     -0.049040
  C       4.391155     -0.511433     -0.276341
  O       5.041248     -0.607744     -1.281769
  O       4.267182      0.642798      0.397905
  C       3.680102     -2.883903     -0.495250
  H       4.703731     -3.214316     -0.665529
  H       3.128016     -3.700259     -0.025390
  H       3.240923     -2.681277     -1.470060
  C       4.461401     -1.968605      1.692515
  H       4.032934     -2.838952      2.191818
  H       5.500785     -2.195441      1.450320
  H       4.443904     -1.128879      2.387025
  C      -0.313902     -4.339215     -0.658266
  H      -0.628072     -4.980877      0.160314
  H      -1.176119     -4.054760     -1.270612
  H       0.420444     -4.845595     -1.282492
  C       4.898544      1.774617     -0.195089
  H       4.456835      1.985884     -1.169423
  H       4.722699      2.601579      0.487243
  H       5.966351      1.601962     -0.320237
  H       0.814208      0.226562     -1.979800
  C      -0.059642     -0.454384      0.666256
  C      -1.404670      0.013295      0.044170
  H       0.314553      0.370431      1.274631
  H      -0.310447     -1.254401      1.365128
  C      -2.300003      0.346059      1.245851
  C      -1.219419      1.301495     -0.764241
  C      -2.024911     -1.030017     -0.890149
  C      -3.549487      0.821512      1.139803
  H      -2.055307     -0.246012      2.124580
  O      -1.535747      1.449822     -1.911373
  O      -0.651244      2.269840     -0.032317
  H      -1.379965     -1.209914     -1.744215
  H      -2.195569     -1.965748     -0.359813
  H      -2.956429     -0.675242     -1.316075
  C      -4.455923      0.540535     -0.023544
  C      -0.406913      3.493087     -0.721729
  O      -4.807051      1.228215     -0.937489
  O      -4.859362     -0.729913      0.161578
  H      -1.336537      3.908191     -1.108127
  H       0.034972      4.162948      0.010645
  H       0.281510      3.329752     -1.551730
  C      -5.622713     -1.304680     -0.900636
  H      -5.903802     -2.294130     -0.551936
  H      -6.504806     -0.706414     -1.120721
  H      -4.995599     -1.386208     -1.791496
  C      -4.355797      1.134622      2.423959
  H      -5.313750      1.612916      2.208094
  H      -3.785762      1.810382      3.062176
  H      -4.557571      0.228223      3.006633
60
Coordinates from ORCA-job orca E -1383.374961406805
  C       1.579448      0.059625     -1.226835
  H       1.836902      1.000070     -0.738429
  H       2.434562     -0.284255     -1.805489
  C       1.161505     -0.969984     -0.181832
  C       2.281740     -1.255374      0.856026
  H       1.930715     -2.055499      1.512515
  H       2.364883     -0.362579      1.477212
  C       3.709911     -1.635134      0.410077
  C       0.757605     -2.255382     -0.905837
  O       0.807829     -2.429649     -2.092982
  O       0.255080     -3.174977     -0.065674
  C       4.438803     -0.466909     -0.249026
  O       5.100926     -0.536828     -1.248908
  O       4.309590      0.668431      0.455693
  C       3.749337     -2.840948     -0.525368
  H       4.777684     -3.157946     -0.694000
  H       3.201871     -3.672402     -0.076505
  H       3.316056     -2.623121     -1.499195
  C       4.505500     -1.967873      1.686008
  H       4.080204     -2.853675      2.160512
  H       5.548685     -2.180309      1.446491
  H       4.475600     -1.144860      2.400245
  C      -0.374767     -4.289755     -0.695595
  H      -0.691251     -4.944839      0.111578
  H      -1.242153     -3.944989     -1.267539
  H       0.316431     -4.804214     -1.360581
  C       4.936011      1.818501     -0.108511
  H       4.488289      2.053209     -1.074957
  H       4.759033      2.625498      0.597267
  H       6.003809      1.651844     -0.241559
  H       0.783649      0.242840     -1.946419
  C      -0.025460     -0.471537      0.685783
  C      -1.384300     -0.056113      0.065689
  H       0.338011      0.376386      1.268996
  H      -0.246938     -1.261628      1.406259
  C      -2.282019      0.303274      1.256240
  C      -1.222999      1.204111     -0.794848
  C      -1.991641     -1.147340     -0.816137
  C      -3.531490      0.725667      1.166375
  H      -1.913007     -0.067881      2.207714
  O      -1.550158      1.301498     -1.944316
  O      -0.646989      2.201618     -0.110681
  H      -1.338577     -1.364565     -1.657493
  H      -2.165140     -2.054793     -0.240099
  H      -2.921632     -0.815562     -1.263928
  C      -4.429923      0.531030     -0.023319
  C      -0.412882      3.395959     -0.853951
  O      -4.727302      1.277132     -0.908290
  O      -5.013637     -0.672879      0.166968
  H      -1.347821      3.789048     -1.250548
  H       0.030730      4.097842     -0.153064
  H       0.271526      3.198658     -1.679921
  C      -5.829604     -1.154003     -0.902060
  H      -6.281902     -2.069694     -0.531710
  H      -6.592495     -0.427704     -1.175430
  H      -5.195767     -1.376981     -1.763527
  C      -4.385275      1.051074      2.426965
  H      -5.328503      1.532224      2.164892
  H      -3.834179      1.729495      3.079687
  H      -4.615642      0.148957      3.000149
60
Coordinates from ORCA-job orca E -1383.383605753894
  C       1.538331      0.054729     -1.198324
  H       1.802649      0.996076     -0.713879
  H       2.384785     -0.287002     -1.792975
  C       1.140643     -0.976123     -0.145875
  C       2.281712     -1.259582      0.868600
  H       1.946189     -2.063491      1.529773
  H       2.375939     -0.367772      1.490914
  C       3.699472     -1.636071      0.389400
  C       0.727409     -2.260935     -0.863871
  O       0.773365     -2.436352     -2.051420
  O       0.280689     -3.199468     -0.013425
  C       4.408326     -0.466708     -0.288444
  O       5.044797     -0.535765     -1.305103
  O       4.286772      0.671028      0.413287
  C       3.718736     -2.842138     -0.546814
  H       4.744106     -3.156550     -0.741042
  H       3.184554     -3.675504     -0.084143
  H       3.260161     -2.625854     -1.510025
  C       4.526533     -1.965550      1.646675
  H       4.115335     -2.853358      2.131336
  H       5.565140     -2.174780      1.382623
  H       4.510726     -1.142029      2.361817
  C      -0.323186     -4.338771     -0.625303
  H      -0.590234     -5.005953      0.190612
  H      -1.219233     -4.030047     -1.172111
  H       0.368123     -4.826501     -1.310933
  C       4.896218      1.821581     -0.166817
  H       4.429454      2.050153     -1.126205
  H       4.729034      2.631376      0.539171
  H       5.962738      1.659130     -0.319602
  H       0.728330      0.236381     -1.903722
  C      -0.033158     -0.475411      0.734573
  C      -1.395669     -0.081390      0.117870
  H       0.334516      0.384174      1.298943
  H      -0.243114     -1.256977      1.469629
  C      -2.294614      0.293323      1.306403
  C      -1.247577      1.161419     -0.770088
  C      -1.998594     -1.200377     -0.728839
  C      -3.548375      0.695333      1.245961
  H      -1.862321      0.074267      2.278980
  O      -1.584635      1.232373     -1.918865
  O      -0.691377      2.182055     -0.105082
  H      -1.345944     -1.444757     -1.566819
  H      -2.170852     -2.087518     -0.120620
  H      -2.933684     -0.885884     -1.181238
  C      -4.428141      0.598277      0.030967
  C      -0.488963      3.370524     -0.865872
  O      -4.630498      1.406925     -0.826589
  O      -4.999621     -0.627447      0.050317
  H      -1.435212      3.734090     -1.265687
  H      -0.061393      4.093870     -0.175895
  H       0.198308      3.178244     -1.691141
  C      -5.693230     -1.015237     -1.132837
  H      -6.178419     -1.958114     -0.892658
  H      -6.426759     -0.265622     -1.425876
  H      -4.969711     -1.168199     -1.938930
  C      -4.382152      1.004383      2.500309
  H      -5.311039      1.507299      2.237119
  H      -3.818379      1.657344      3.165742
  H      -4.628534      0.090689      3.040827
60
Coordinates from ORCA-job orca E -1383.388032216259
  C       1.607344      0.034474     -1.209033
  H       1.856409      0.975660     -0.715923
  H       2.476087     -0.310607     -1.769632
  C       1.166293     -0.994374     -0.170504
  C       2.278972     -1.276684      0.871374
  H       1.933008     -2.085003      1.521585
  H       2.352458     -0.385708      1.498088
  C       3.708623     -1.636571      0.419574
  C       0.779430     -2.280998     -0.898517
  O       0.862890     -2.456596     -2.084197
  O       0.267459     -3.202702     -0.068279
  C       4.409439     -0.455258     -0.244884
  O       5.063943     -0.512170     -1.250817
  O       4.249874      0.680932      0.451346
  C       3.762000     -2.840217     -0.518414
  H       4.795299     -3.138946     -0.695247
  H       3.232101     -3.682314     -0.066775
  H       3.316634     -2.628665     -1.489115
  C       4.517465     -1.954710      1.691800
  H       4.110766     -2.849035      2.168465
  H       5.563933     -2.148430      1.447099
  H       4.476199     -1.132070      2.407008
  C      -0.340367     -4.324722     -0.705340
  H      -0.663390     -4.983284      0.097258
  H      -1.201017     -3.992256     -1.294253
  H       0.367674     -4.832777     -1.359016
  C       4.842511      1.843976     -0.119203
  H       4.387288      2.062493     -1.086721
  H       4.646423      2.650743      0.582965
  H       5.914984      1.705462     -0.254604
  H       0.827897      0.216400     -1.946227
  C      -0.023126     -0.488650      0.692902
  C      -1.394502     -0.099496      0.084125
  H       0.343482      0.376637      1.249549
  H      -0.231596     -1.262942      1.436845
  C      -2.273739      0.286765      1.282875
  C      -1.267693      1.133316     -0.818577
  C      -2.024549     -1.226910     -0.730392
  C      -3.543779      0.664714      1.275443
  H      -1.789071      0.181928      2.250524
  O      -1.622918      1.190274     -1.962765
  O      -0.704898      2.161587     -0.172351
  H      -1.400050     -1.495217     -1.580283
  H      -2.191772     -2.098802     -0.098764
  H      -2.970929     -0.913628     -1.157672
  C      -4.433756      0.579849      0.072013
  C      -0.520129      3.345018     -0.943906
  O      -4.617228      1.418618     -0.762627
  O      -5.068481     -0.611072      0.088810
  H      -1.473935      3.699961     -1.333843
  H      -0.088198      4.076081     -0.264735
  H       0.157799      3.151489     -1.776998
  C      -5.779152     -0.959422     -1.094476
  H      -6.333848     -1.863050     -0.852813
  H      -6.454657     -0.162302     -1.401791
  H      -5.062905     -1.170872     -1.894881
  C      -4.301400      0.990263      2.545812
  H      -5.236818      1.496522      2.315022
  H      -3.704387      1.645370      3.178497
  H      -4.527922      0.079739      3.099379
60
Coordinates from ORCA-job orca E -1383.391100971369
  C       1.543149      0.039436     -1.234497
  H       1.800999      0.982434     -0.751062
  H       2.395347     -0.303526     -1.818620
  C       1.133015     -0.988573     -0.182034
  C       2.263967     -1.267849      0.846190
  H       1.925609     -2.079858      1.495333
  H       2.338928     -0.381232      1.478037
  C       3.694834     -1.625245      0.390014
  C       0.734324     -2.278415     -0.896375
  O       0.793596     -2.460357     -2.082526
  O       0.319910     -3.224984     -0.040999
  C       4.413102     -0.438297     -0.246623
  O       5.082652     -0.485115     -1.243083
  O       4.284157      0.679283      0.485212
  C       3.745122     -2.813081     -0.567589
  H       4.777065     -3.115813     -0.743133
  H       3.206726     -3.658663     -0.133399
  H       3.307286     -2.582269     -1.536707
  C       4.494028     -1.975222      1.659615
  H       4.077953     -2.875494      2.115739
  H       5.539984     -2.172328      1.417019
  H       4.455041     -1.167150      2.390843
  C      -0.247352     -4.385713     -0.643631
  H      -0.484302     -5.060341      0.174949
  H      -1.157822     -4.111589     -1.186244
  H       0.455832     -4.850053     -1.333711
  C       4.908748      1.842964     -0.047801
  H       4.458375      2.106929     -1.006190
  H       4.737725      2.631239      0.680876
  H       5.976249      1.678821     -0.191113
  H       0.742289      0.215958     -1.950240
  C      -0.043715     -0.479230      0.692915
  C      -1.409702     -0.077523      0.083158
  H       0.333325      0.386812      1.240773
  H      -0.255736     -1.250614      1.437907
  C      -2.285159      0.317928      1.273784
  C      -1.264009      1.147265     -0.825397
  C      -2.059121     -1.199749     -0.723069
  C      -3.575336      0.629405      1.293542
  H      -1.764105      0.374161      2.226102
  O      -1.591526      1.193835     -1.977980
  O      -0.691467      2.170419     -0.180327
  H      -1.444515     -1.488916     -1.572066
  H      -2.243401     -2.060316     -0.081492
  H      -3.003049     -0.873231     -1.145307
  C      -4.432746      0.530086      0.073601
  C      -0.478224      3.345571     -0.956779
  O      -4.563065      1.375769     -0.765722
  O      -5.114713     -0.630002      0.088145
  H      -1.420116      3.709527     -1.365932
  H      -0.049536      4.075760     -0.275186
  H       0.212456      3.137886     -1.775714
  C      -5.808081     -0.968400     -1.108726
  H      -6.431533     -1.824576     -0.863618
  H      -6.416758     -0.139138     -1.465044
  H      -5.080649     -1.251021     -1.876382
  C      -4.311039      0.975318      2.556120
  H      -5.254901      1.470203      2.328360
  H      -3.714556      1.647025      3.173036
  H      -4.527090      0.071656      3.127826
60
Coordinates from ORCA-job orca E -1383.392945732023
  C       1.593440      0.049137     -1.214762
  H       1.844358      0.987196     -0.718454
  H       2.457189     -0.293469     -1.781424
  C       1.156189     -0.984544     -0.179780
  C       2.269510     -1.283668      0.863011
  H       1.914996     -2.098501      1.499062
  H       2.344332     -0.403926      1.503909
  C       3.701730     -1.653714      0.421856
  C       0.763718     -2.267634     -0.909097
  O       0.820543     -2.436191     -2.097126
  O       0.299355     -3.204541     -0.068263
  C       4.431441     -0.479708     -0.225953
  O       5.095159     -0.540997     -1.225428
  O       4.257201      0.662644      0.457114
  C       3.750490     -2.853062     -0.521258
  H       4.781586     -3.160638     -0.691451
  H       3.209180     -3.691457     -0.077672
  H       3.314085     -2.633209     -1.493440
  C       4.492374     -1.991240      1.699903
  H       4.071935     -2.885696      2.162718
  H       5.539165     -2.192703      1.465868
  H       4.450042     -1.175742      2.422228
  C      -0.235300     -4.372013     -0.688013
  H      -0.526105     -5.033477      0.123577
  H      -1.106294     -4.104682     -1.291117
  H       0.507839     -4.848569     -1.325320
  C       4.867718      1.818947     -0.108375
  H       4.435292      2.033943     -1.086417
  H       4.661378      2.631192      0.583533
  H       5.941510      1.674704     -0.220259
  H       0.809511      0.234551     -1.947163
  C      -0.029684     -0.472731      0.679798
  C      -1.381143     -0.054984      0.049277
  H       0.344070      0.390481      1.233430
  H      -0.259989     -1.244984      1.417265
  C      -2.260452      0.342589      1.230915
  C      -1.206243      1.175347     -0.847905
  C      -2.021364     -1.170722     -0.775681
  C      -3.563469      0.581614      1.279517
  H      -1.716111      0.537216      2.151519
  O      -1.502726      1.229848     -2.007985
  O      -0.721235      2.217018     -0.161709
  H      -1.388933     -1.463919     -1.610705
  H      -2.228658     -2.031393     -0.140636
  H      -2.952504     -0.834821     -1.220634
  C      -4.438162      0.460523      0.073348
  C      -0.542708      3.415866     -0.911323
  O      -4.492800      1.257957     -0.820334
  O      -5.166084     -0.667202      0.125038
  H      -1.484064      3.728767     -1.360938
  H      -0.192819      4.159274     -0.200015
  H       0.197633      3.263641     -1.697740
  C      -5.912454     -0.990335     -1.046875
  H      -6.576498     -1.804059     -0.768067
  H      -6.482464     -0.134073     -1.402135
  H      -5.226723     -1.324073     -1.829470
  C      -4.279841      0.959161      2.546790
  H      -5.232007      1.445219      2.329678
  H      -3.678445      1.647315      3.142259
  H      -4.489222      0.070337      3.146089
60
Coordinates from ORCA-job orca E -1383.393931455731
  C       1.622801      0.070135     -1.232149
  H       1.862839      1.011469     -0.735777
  H       2.505642     -0.283887     -1.763048
  C       1.143259     -0.950559     -0.203901
  C       2.233327     -1.257353      0.858751
  H       1.859805     -2.063859      1.494369
  H       2.312818     -0.374026      1.494312
  C       3.661617     -1.651774      0.432008
  C       0.755283     -2.235578     -0.931912
  O       0.842319     -2.418801     -2.115801
  O       0.271250     -3.163026     -0.091307
  C       4.404447     -0.497016     -0.234133
  O       5.089177     -0.588788     -1.216912
  O       4.293353      0.643807      0.464591
  C       3.696636     -2.865690     -0.493214
  H       4.724102     -3.186569     -0.661131
  H       3.147659     -3.691601     -0.035771
  H       3.259905     -2.655774     -1.467974
  C       4.444644     -1.975525      1.718634
  H       4.013942     -2.857381      2.196308
  H       5.490047     -2.191648      1.491141
  H       4.408814     -1.146855      2.426473
  C      -0.211260     -4.355075     -0.706734
  H      -0.530077     -5.001853      0.106303
  H      -1.053935     -4.121770     -1.360008
  H       0.572338     -4.832401     -1.293445
  C       4.971276      1.770619     -0.084120
  H       4.555789      2.022564     -1.060428
  H       4.809289      2.584333      0.617965
  H       6.035522      1.566653     -0.194965
  H       0.867971      0.253026     -1.994100
  C      -0.052664     -0.425455      0.634876
  C      -1.393435      0.015288     -0.009572
  H       0.321800      0.431332      1.198376
  H      -0.303929     -1.197142      1.365824
  C      -2.275754      0.393082      1.176471
  C      -1.199917      1.269056     -0.871397
  C      -2.013349     -1.083101     -0.875461
  C      -3.592285      0.539744      1.257134
  H      -1.721273      0.662395      2.073021
  O      -1.432781      1.342633     -2.044522
  O      -0.665927      2.272275     -0.163139
  H      -1.359290     -1.354758     -1.701275
  H      -2.230072     -1.961327     -0.266773
  H      -2.933678     -0.739020     -1.339336
  C      -4.500207      0.338610      0.084381
  C      -0.422211      3.473076     -0.891781
  O      -4.603363      1.094680     -0.841035
  O      -5.191952     -0.803707      0.203047
  H      -1.344188      3.840178     -1.340604
  H      -0.039156      4.186314     -0.166648
  H       0.313443      3.296773     -1.677365
  C      -6.015154     -1.154583     -0.909388
  H      -6.636057     -1.981768     -0.576442
  H      -6.630044     -0.313076     -1.223299
  H      -5.382935     -1.472288     -1.740869
  C      -4.293261      0.920224      2.539474
  H      -5.268441      1.368880      2.343755
  H      -3.702952      1.638426      3.110053
  H      -4.463096      0.039276      3.163247
60
Coordinates from ORCA-job orca E -1383.395098655868
  C       1.637386      0.032115     -1.288660
  H       1.896454      0.979336     -0.812419
  H       2.513972     -0.351754     -1.809860
  C       1.135814     -0.955730     -0.239548
  C       2.214474     -1.255215      0.838357
  H       1.827262     -2.047221      1.484263
  H       2.294919     -0.361510      1.459862
  C       3.645729     -1.667246      0.437147
  C       0.727324     -2.250989     -0.937511
  O       0.819076     -2.469308     -2.115088
  O       0.259988     -3.160872     -0.068923
  C       4.415743     -0.523568     -0.216117
  O       5.114923     -0.623790     -1.188008
  O       4.284554      0.625443      0.465483
  C       3.686701     -2.885384     -0.482748
  H       4.714046     -3.218651     -0.627124
  H       3.118530     -3.703583     -0.034238
  H       3.275180     -2.673800     -1.468159
  C       4.401624     -1.996395      1.738387
  H       3.952369     -2.871791      2.211556
  H       5.448512     -2.225319      1.529604
  H       4.363468     -1.164678      2.442794
  C      -0.198748     -4.380238     -0.646218
  H      -0.506085     -5.006456      0.187424
  H      -1.043902     -4.186561     -1.309153
  H       0.596579     -4.861011     -1.215361
  C       4.978700      1.745677     -0.076145
  H       4.593481      1.985947     -1.067926
  H       4.795506      2.567857      0.611128
  H       6.046107      1.540604     -0.152212
  H       0.887335      0.213496     -2.055226
  C      -0.056426     -0.396200      0.581421
  C      -1.374989      0.096899     -0.079285
  H       0.335616      0.443364      1.159435
  H      -0.345874     -1.164985      1.301492
  C      -2.264382      0.464139      1.106618
  C      -1.135307      1.374927     -0.892012
  C      -1.991347     -0.960003     -0.998153
  C      -3.588707      0.531540      1.206172
  H      -1.710020      0.765762      1.993773
  O      -1.354918      1.502217     -2.063014
  O      -0.636178      2.355945     -0.127084
  H      -1.315332     -1.216483     -1.810717
  H      -2.237433     -1.855986     -0.426737
  H      -2.888697     -0.583418     -1.483387
  C      -4.511558      0.243039      0.062583
  C      -0.384169      3.587427     -0.799922
  O      -4.723291      0.988015     -0.854441
  O      -5.150303     -0.918662      0.244239
  H      -1.296339      3.962346     -1.262775
  H      -0.031889      4.276105     -0.036101
  H       0.376796      3.450397     -1.569320
  C      -6.058206     -1.293273     -0.792030
  H      -6.610485     -2.148578     -0.412106
  H      -6.732668     -0.472882     -1.032756
  H      -5.496262     -1.571804     -1.685613
  C      -4.283196      0.901688      2.499409
  H      -5.274025      1.321196      2.319102
  H      -3.705068      1.637409      3.058468
  H      -4.423890      0.022264      3.132164
60
Coordinates from ORCA-job orca E -1383.395690168574
  C       1.586520      0.005669     -1.344180
  H       1.845410      0.964713     -0.891490
  H       2.455837     -0.379498     -1.875290
  C       1.114575     -0.966242     -0.267074
  C       2.201961     -1.227588      0.816154
  H       1.817527     -2.000305      1.486490
  H       2.278580     -0.315723      1.411088
  C       3.637967     -1.649745      0.435843
  C       0.721379     -2.285028     -0.930807
  O       0.787957     -2.523841     -2.106179
  O       0.219249     -3.159472     -0.045870
  C       4.433333     -0.518975     -0.210136
  O       5.151157     -0.633710     -1.166845
  O       4.293624      0.638782      0.454454
  C       3.688714     -2.877713     -0.470699
  H       4.716639     -3.219251     -0.590861
  H       3.106437     -3.687860     -0.025305
  H       3.299735     -2.673337     -1.466507
  C       4.370708     -1.975119      1.751073
  H       3.907885     -2.843638      2.224093
  H       5.419115     -2.213073      1.559752
  H       4.328371     -1.137559      2.448431
  C      -0.230576     -4.395531     -0.592268
  H      -0.576774     -4.985038      0.253013
  H      -1.044971     -4.224289     -1.297650
  H       0.583071     -4.905902     -1.108267
  C       5.024059      1.742899     -0.071656
  H       4.686795      1.974129     -1.082956
  H       4.821942      2.576873      0.596024
  H       6.091262      1.523581     -0.098154
  H       0.817781      0.166363     -2.097803
  C      -0.079839     -0.400369      0.544965
  C      -1.375862      0.140663     -0.130046
  H       0.319445      0.420030      1.145448
  H      -0.399038     -1.175832      1.245262
  C      -2.271389      0.507860      1.050171
  C      -1.088018      1.436763     -0.894534
  C      -1.992508     -0.870564     -1.094498
  C      -3.595839      0.515563      1.170356
  H      -1.716838      0.838074      1.925937
  O      -1.308649      1.619579     -2.058126
  O      -0.559898      2.373705     -0.092612
  H      -1.295979     -1.119043     -1.891816
  H      -2.270044     -1.779154     -0.558035
  H      -2.865191     -0.458776     -1.596135
  C      -4.539203      0.176439      0.058556
  C      -0.278963      3.624532     -0.716412
  O      -4.821604      0.912863     -0.847676
  O      -5.109261     -1.016959      0.252247
  H      -1.185145      4.045638     -1.151071
  H       0.102994      4.270609      0.070133
  H       0.466827      3.498466     -1.502261
  C      -6.078134     -1.401614     -0.723655
  H      -6.540230     -2.308166     -0.341962
  H      -6.820138     -0.615736     -0.859683
  H      -5.586442     -1.596400     -1.677856
  C      -4.273596      0.873670      2.473587
  H      -5.264546      1.298856      2.307617
  H      -3.685420      1.598837      3.034075
  H      -4.414288     -0.012296      3.096387
60
Coordinates from ORCA-job orca E -1383.396424641989
  C       1.582287      0.047258     -1.304504
  H       1.853316      0.997278     -0.840251
  H       2.447244     -0.340137     -1.840634
  C       1.101744     -0.932410     -0.238509
  C       2.186285     -1.208696      0.842446
  H       1.787571     -1.963409      1.524669
  H       2.291315     -0.292432      1.425079
  C       3.605967     -1.671539      0.451665
  C       0.706711     -2.243776     -0.917929
  O       0.796228     -2.476839     -2.092965
  O       0.222866     -3.138066     -0.042902
  C       4.409604     -0.576244     -0.243422
  O       5.109805     -0.734592     -1.206859
  O       4.276452      0.612037      0.366255
  C       3.617991     -2.926883     -0.417928
  H       4.637071     -3.290540     -0.546375
  H       3.030715     -3.712679      0.062716
  H       3.213474     -2.745902     -1.411889
  C       4.357766     -1.969130      1.763099
  H       3.890462     -2.814952      2.270794
  H       5.398352     -2.229594      1.559835
  H       4.341893     -1.110393      2.435092
  C      -0.177989     -4.386182     -0.599691
  H      -0.523706     -4.987015      0.237500
  H      -0.980054     -4.241013     -1.323869
  H       0.662428     -4.870559     -1.097321
  C       5.019670      1.684605     -0.205168
  H       4.699511      1.865678     -1.231881
  H       4.813005      2.552300      0.416116
  H       6.085723      1.458728     -0.204357
  H       0.813191      0.228392     -2.053649
  C      -0.096205     -0.366069      0.566032
  C      -1.370311      0.194688     -0.133362
  H       0.300011      0.442180      1.183558
  H      -0.435962     -1.145231      1.251702
  C      -2.292329      0.557376      1.023786
  C      -1.056211      1.503680     -0.863922
  C      -1.961642     -0.794139     -1.130842
  C      -3.613788      0.504777      1.137690
  H      -1.757442      0.923235      1.895665
  O      -1.283804      1.725727     -2.019532
  O      -0.506442      2.409596     -0.039918
  H      -1.235582     -1.036933     -1.903644
  H      -2.259075     -1.710119     -0.618376
  H      -2.813589     -0.369592     -1.655212
  C      -4.550130      0.121222      0.036255
  C      -0.211598      3.673501     -0.629616
  O      -4.876848      0.845782     -0.865072
  O      -5.065614     -1.096459      0.234271
  H      -1.116121      4.124623     -1.036532
  H       0.194445      4.288157      0.169579
  H       0.518365      3.558524     -1.431548
  C      -6.056448     -1.509127     -0.708464
  H      -6.441564     -2.454001     -0.335002
  H      -6.850967     -0.767282     -0.778767
  H      -5.608519     -1.641530     -1.693331
  C      -4.310905      0.844320      2.434509
  H      -5.297676      1.275816      2.256249
  H      -3.727845      1.558225      3.014432
  H      -4.464634     -0.052427      3.039025
60
Coordinates from ORCA-job orca E -1383.396798576022
  C       1.580956      0.037872     -1.295847
  H       1.868641      0.980231     -0.827515
  H       2.439940     -0.360592     -1.834194
  C       1.086672     -0.939470     -0.233332
  C       2.170897     -1.225447      0.842589
  H       1.775075     -1.984686      1.521866
  H       2.275412     -0.311769      1.428953
  C       3.592499     -1.675076      0.443682
  C       0.679109     -2.244767     -0.917663
  O       0.767362     -2.472555     -2.093984
  O       0.214532     -3.149771     -0.043462
  C       4.375435     -0.570796     -0.260851
  O       5.085351     -0.728715     -1.217102
  O       4.268958      0.608007      0.371544
  C       3.618352     -2.931436     -0.423653
  H       4.641616     -3.282737     -0.551893
  H       3.041860     -3.723569      0.059207
  H       3.211220     -2.757126     -1.417526
  C       4.357043     -1.956349      1.752055
  H       3.904733     -2.806026      2.266486
  H       5.399667     -2.203103      1.543040
  H       4.333843     -1.094665      2.420193
  C      -0.164945     -4.404214     -0.601925
  H      -0.507785     -5.009332      0.233185
  H      -0.962159     -4.272506     -1.333213
  H       0.686185     -4.876734     -1.092502
  C       5.025149      1.677482     -0.188544
  H       4.706682      1.875666     -1.212336
  H       4.832001      2.540199      0.443667
  H       6.087907      1.436501     -0.191987
  H       0.814820      0.236917     -2.043072
  C      -0.106494     -0.364341      0.573077
  C      -1.367927      0.209949     -0.134933
  H       0.295470      0.435083      1.197164
  H      -0.457898     -1.141691      1.254849
  C      -2.295394      0.589365      1.009479
  C      -1.045471      1.519920     -0.863226
  C      -1.969426     -0.771813     -1.130620
  C      -3.612960      0.516344      1.126634
  H      -1.765297      0.982140      1.872072
  O      -1.322967      1.765710     -2.003287
  O      -0.470102      2.414976     -0.044598
  H      -1.245784     -1.022975     -1.903655
  H      -2.270813     -1.686360     -0.617663
  H      -2.822775     -0.341608     -1.647018
  C      -4.557718      0.113518      0.039674
  C      -0.184425      3.683246     -0.628385
  O      -4.899648      0.827640     -0.863711
  O      -5.048178     -1.115489      0.240399
  H      -1.097113      4.144575     -1.004504
  H       0.248145      4.285827      0.165951
  H       0.521142      3.573302     -1.452301
  C      -6.038681     -1.547266     -0.694192
  H      -6.376530     -2.515835     -0.336123
  H      -6.865270     -0.838546     -0.730050
  H      -5.609922     -1.637468     -1.692001
  C      -4.314117      0.862317      2.415910
  H      -5.279272      1.336539      2.225916
  H      -3.709634      1.543233      3.014016
  H      -4.509499     -0.039914      3.000043
60
Coordinates from ORCA-job orca E -1383.397257128256
  C       1.576127      0.051294     -1.297717
  H       1.872533      0.989981     -0.828597
  H       2.431761     -0.354394     -1.836834
  C       1.074201     -0.923833     -0.235795
  C       2.156638     -1.213751      0.838783
  H       1.755197     -1.968720      1.519872
  H       2.267464     -0.298918      1.422788
  C       3.575460     -1.672906      0.440571
  C       0.666956     -2.228837     -0.920328
  O       0.750675     -2.452604     -2.097957
  O       0.220750     -3.141041     -0.044323
  C       4.379028     -0.566970     -0.238286
  O       5.077433     -0.714727     -1.204657
  O       4.270871      0.607865      0.401034
  C       3.592036     -2.912885     -0.449704
  H       4.611544     -3.276404     -0.573514
  H       2.999510     -3.705514      0.012512
  H       3.197861     -2.714048     -1.444470
  C       4.327006     -1.989533      1.748676
  H       3.858746     -2.842675      2.242798
  H       5.367573     -2.246734      1.542074
  H       4.310893     -1.140621      2.433183
  C      -0.137688     -4.403423     -0.599982
  H      -0.478939     -5.009406      0.235157
  H      -0.929394     -4.286845     -1.339266
  H       0.724061     -4.866536     -1.081094
  C       5.030393      1.679691     -0.150040
  H       4.728503      1.874277     -1.179277
  H       4.823864      2.543119      0.477018
  H       6.094128      1.442791     -0.135425
  H       0.813053      0.258760     -2.045503
  C      -0.118344     -0.348512      0.573718
  C      -1.375770      0.227458     -0.135241
  H       0.284902      0.446444      1.202303
  H      -0.471408     -1.126800      1.254131
  C      -2.303834      0.616559      1.004966
  C      -1.063874      1.539817     -0.868058
  C      -1.991714     -0.754525     -1.122084
  C      -3.618074      0.520931      1.131094
  H      -1.775709      1.033330      1.858399
  O      -1.373524      1.792039     -1.998595
  O      -0.412057      2.410238     -0.080917
  H      -1.282154     -1.006721     -1.908087
  H      -2.281459     -1.670666     -0.604469
  H      -2.859928     -0.326784     -1.615795
  C      -4.572281      0.096158      0.059703
  C      -0.112318      3.668844     -0.677348
  O      -4.953146      0.806362     -0.830088
  O      -5.020887     -1.150568      0.256067
  H      -1.026856      4.167262     -0.997878
  H       0.390186      4.249332      0.092034
  H       0.537949      3.535926     -1.542218
  C      -6.004155     -1.605413     -0.674344
  H      -6.281305     -2.602893     -0.344316
  H      -6.870051     -0.943756     -0.668799
  H      -5.594551     -1.637329     -1.683930
  C      -4.319620      0.871000      2.415367
  H      -5.256986      1.395831      2.219095
  H      -3.690318      1.508477      3.035955
  H      -4.562489     -0.036684      2.972417
60
Coordinates from ORCA-job orca E -1383.397629324658
  C       1.559036      0.054021     -1.305915
  H       1.855001      0.996053     -0.842984
  H       2.414310     -0.355399     -1.842784
  C       1.059460     -0.915275     -0.237679
  C       2.143382     -1.191863      0.839133
  H       1.739554     -1.932045      1.534385
  H       2.263518     -0.267612      1.406951
  C       3.555549     -1.669995      0.441675
  C       0.663692     -2.229051     -0.912315
  O       0.738529     -2.457004     -2.089776
  O       0.213794     -3.133861     -0.030737
  C       4.367593     -0.579705     -0.252499
  O       5.057238     -0.744648     -1.222577
  O       4.281814      0.600503      0.380290
  C       3.553882     -2.919781     -0.435179
  H       4.568914     -3.295226     -0.561693
  H       2.956489     -3.701262      0.039893
  H       3.154099     -2.727843     -1.429431
  C       4.308879     -1.980480      1.750310
  H       3.834331     -2.824603      2.254290
  H       5.346565     -2.249126      1.542807
  H       4.302442     -1.124747      2.426493
  C      -0.134447     -4.403803     -0.575710
  H      -0.490319     -4.998658      0.261476
  H      -0.911856     -4.298639     -1.331535
  H       0.736912     -4.872565     -1.034340
  C       5.051222      1.658419     -0.183975
  H       4.752722      1.842174     -1.216307
  H       4.851536      2.531841      0.431681
  H       6.112998      1.412371     -0.164359
  H       0.795865      0.255953     -2.056009
  C      -0.136750     -0.340819      0.567478
  C      -1.376235      0.257017     -0.148853
  H       0.266892      0.441534      1.211957
  H      -0.505301     -1.125609      1.232542
  C      -2.314394      0.645110      0.986610
  C      -1.044190      1.577805     -0.857432
  C      -1.993906     -0.702332     -1.158481
  C      -3.626479      0.517491      1.118807
  H      -1.794006      1.080825      1.836415
  O      -1.359435      1.858440     -1.979614
  O      -0.370805      2.419292     -0.057238
  H      -1.282085     -0.949395     -1.943806
  H      -2.296785     -1.624868     -0.659271
  H      -2.856078     -0.257155     -1.649164
  C      -4.581925      0.061073      0.059597
  C      -0.056172      3.686618     -0.626852
  O      -5.039006      0.772981     -0.791743
  O      -4.961021     -1.210245      0.242444
  H      -0.965302      4.211161     -0.920355
  H       0.470368      4.236851      0.148912
  H       0.577649      3.563123     -1.505481
  C      -5.952178     -1.688540     -0.666650
  H      -6.139328     -2.720587     -0.382411
  H      -6.863930     -1.096742     -0.583334
  H      -5.592613     -1.633633     -1.694179
  C      -4.332217      0.869918      2.398892
  H      -5.238430      1.445420      2.199606
  H      -3.683224      1.458677      3.046453
  H      -4.627348     -0.039741      2.926352
60
Coordinates from ORCA-job orca E -1383.397940873793
  C       1.558734      0.055006     -1.312987
  H       1.858670      0.992434     -0.842803
  H       2.411524     -0.356276     -1.851513
  C       1.052943     -0.919866     -0.253110
  C       2.131521     -1.202491      0.830829
  H       1.723562     -1.947267      1.518234
  H       2.243953     -0.281653      1.405895
  C       3.551021     -1.674469      0.447891
  C       0.656583     -2.227974     -0.938614
  O       0.727597     -2.445532     -2.118153
  O       0.205790     -3.139355     -0.064442
  C       4.365964     -0.578373     -0.233755
  O       5.065934     -0.736039     -1.197777
  O       4.269071      0.597967      0.404397
  C       3.568568     -2.923450     -0.430254
  H       4.587741     -3.291388     -0.545563
  H       2.971751     -3.709682      0.037509
  H       3.178838     -2.733824     -1.428612
  C       4.289833     -1.983008      1.764796
  H       3.815443     -2.832694      2.259631
  H       5.332433     -2.242572      1.570455
  H       4.266904     -1.129726      2.443515
  C      -0.146297     -4.402992     -0.621509
  H      -0.510842     -5.002187      0.208795
  H      -0.918023     -4.287242     -1.381598
  H       0.725896     -4.872579     -1.078064
  C       5.034550      1.663861     -0.150505
  H       4.747718      1.843015     -1.186985
  H       4.816668      2.535409      0.461677
  H       6.098683      1.429992     -0.116078
  H       0.798821      0.265014     -2.064632
  C      -0.146004     -0.348276      0.551814
  C      -1.380468      0.261164     -0.159540
  H       0.259509      0.426286      1.204874
  H      -0.518231     -1.138782      1.207720
  C      -2.310461      0.663923      0.980661
  C      -1.039545      1.576709     -0.872459
  C      -2.015814     -0.691770     -1.166072
  C      -3.622597      0.535728      1.127937
  H      -1.783660      1.112033      1.820027
  O      -1.364182      1.858746     -1.991433
  O      -0.351052      2.410588     -0.078255
  H      -1.315284     -0.945555     -1.958533
  H      -2.327137     -1.610624     -0.665903
  H      -2.876974     -0.235132     -1.649575
  C      -4.589626      0.051529      0.089661
  C      -0.034320      3.678075     -0.647325
  O      -5.097479      0.754030     -0.740183
  O      -4.911386     -1.236086      0.268040
  H      -0.942968      4.214697     -0.919396
  H       0.513888      4.217519      0.120950
  H       0.580516      3.552872     -1.539186
  C      -5.901407     -1.742803     -0.626891
  H      -6.014983     -2.795022     -0.380026
  H      -6.845613     -1.215118     -0.490872
  H      -5.580450     -1.624540     -1.661801
  C      -4.322415      0.928612      2.400835
  H      -5.186884      1.561716      2.191423
  H      -3.647100      1.471905      3.060883
  H      -4.680955      0.037326      2.920732
60
Coordinates from ORCA-job orca E -1383.398243240502
  C       1.561120      0.061617     -1.309891
  H       1.865211      0.995829     -0.836647
  H       2.410631     -0.353927     -1.850201
  C       1.050218     -0.915100     -0.254567
  C       2.126269     -1.206024      0.830631
  H       1.714839     -1.953580      1.512955
  H       2.240996     -0.288992      1.410729
  C       3.543874     -1.682781      0.447153
  C       0.651873     -2.217567     -0.947953
  O       0.718329     -2.426806     -2.129173
  O       0.204990     -3.135090     -0.078062
  C       4.363199     -0.585966     -0.228275
  O       5.057495     -0.737632     -1.197301
  O       4.280073      0.582550      0.425886
  C       3.552463     -2.925793     -0.439398
  H       4.569344     -3.297475     -0.561879
  H       2.953643     -3.712147      0.025466
  H       3.159424     -2.727448     -1.434954
  C       4.279041     -2.004886      1.762497
  H       3.799932     -2.856013      2.250233
  H       5.320601     -2.268242      1.568176
  H       4.259122     -1.156781      2.447581
  C      -0.155621     -4.392449     -0.643943
  H      -0.524266     -4.994836      0.182119
  H      -0.926856     -4.265396     -1.402868
  H       0.713634     -4.864162     -1.103668
  C       5.035171      1.655118     -0.130536
  H       4.731920      1.841757     -1.161094
  H       4.823298      2.520579      0.492206
  H       6.100390      1.424785     -0.113214
  H       0.803664      0.275652     -2.062603
  C      -0.150557     -0.346257      0.551342
  C      -1.384961      0.265910     -0.155333
  H       0.255865      0.424572      1.208190
  H      -0.521897     -1.141755      1.201365
  C      -2.310851      0.677866      0.985462
  C      -1.041946      1.576317     -0.875804
  C      -2.026933     -0.688099     -1.157185
  C      -3.623657      0.552490      1.139834
  H      -1.784097      1.144720      1.813920
  O      -1.366581      1.851029     -1.996554
  O      -0.366173      2.418386     -0.080849
  H      -1.335793     -0.937340     -1.959126
  H      -2.334276     -1.606746     -0.655896
  H      -2.892964     -0.230816     -1.632560
  C      -4.589868      0.036481      0.114920
  C      -0.045603      3.682525     -0.656349
  O      -5.143666      0.728878     -0.693804
  O      -4.846191     -1.267489      0.278356
  H      -0.952265      4.217506     -0.937713
  H       0.496780      4.227206      0.112226
  H       0.576028      3.551388     -1.542665
  C      -5.818385     -1.809331     -0.616370
  H      -5.848727     -2.876982     -0.416077
  H      -6.795759     -1.361638     -0.435924
  H      -5.531694     -1.620879     -1.650944
  C      -4.328938      1.001490      2.392042
  H      -5.130213      1.704411      2.154820
  H      -3.634787      1.486070      3.077644
  H      -4.777441      0.143101      2.898407
60
Coordinates from ORCA-job orca E -1383.398403380846
  C       1.562062      0.062901     -1.304697
  H       1.869728      0.995171     -0.829901
  H       2.409617     -0.355688     -1.846108
  C       1.046609     -0.913848     -0.251660
  C       2.120830     -1.211551      0.832750
  H       1.707012     -1.959722      1.513201
  H       2.237340     -0.296137      1.414703
  C       3.538106     -1.690469      0.449193
  C       0.636934     -2.211382     -0.947830
  O       0.696517     -2.417433     -2.129984
  O       0.190680     -3.130122     -0.078528
  C       4.353737     -0.598832     -0.238844
  O       5.043357     -0.756638     -1.210021
  O       4.270141      0.575346      0.405138
  C       3.546303     -2.940846     -0.426920
  H       4.563573     -3.311205     -0.550090
  H       2.950540     -3.724439      0.046179
  H       3.150634     -2.751272     -1.423054
  C       4.277276     -2.000144      1.764941
  H       3.801414     -2.847620      2.261973
  H       5.318627     -2.263659      1.569899
  H       4.258557     -1.146008      2.442553
  C      -0.183796     -4.382355     -0.646631
  H      -0.553691     -4.984077      0.179351
  H      -0.958058     -4.245727     -1.400859
  H       0.678872     -4.860309     -1.112069
  C       5.021082      1.644520     -0.163233
  H       4.717444      1.817039     -1.196061
  H       4.804742      2.516396      0.448878
  H       6.087335      1.419603     -0.142459
  H       0.805296      0.280059     -2.056960
  C      -0.151378     -0.341430      0.555193
  C      -1.385473      0.275534     -0.150326
  H       0.258080      0.426304      1.213752
  H      -0.525036     -1.138017      1.202336
  C      -2.313040      0.680599      0.988850
  C      -1.039360      1.590784     -0.860941
  C      -2.016452     -0.672503     -1.163180
  C      -3.625174      0.552851      1.144222
  H      -1.789823      1.160106      1.811883
  O      -1.350940      1.869622     -1.984571
  O      -0.372988      2.430548     -0.056037
  H      -1.322342     -0.899414     -1.969568
  H      -2.312053     -1.601057     -0.674542
  H      -2.887105     -0.219108     -1.634233
  C      -4.587002      0.017840      0.125202
  C      -0.043678      3.695525     -0.625167
  O      -5.177237      0.706336     -0.661402
  O      -4.793199     -1.296744      0.266538
  H      -0.946828      4.234061     -0.911026
  H       0.494225      4.236764      0.148914
  H       0.584009      3.564895     -1.507025
  C      -5.754072     -1.860150     -0.627779
  H      -5.722715     -2.933877     -0.463785
  H      -6.749698     -1.472471     -0.411237
  H      -5.500661     -1.620316     -1.660150
  C      -4.336158      1.034002      2.381197
  H      -5.079141      1.792653      2.125481
  H      -3.633905      1.461563      3.095760
  H      -4.861210      0.205354      2.863570
60
Coordinates from ORCA-job orca E -1383.398493794952
  C       1.566236      0.080828     -1.295338
  H       1.868006      1.010127     -0.810999
  H       2.418553     -0.329154     -1.835949
  C       1.048123     -0.906208     -0.253008
  C       2.116430     -1.214663      0.832782
  H       1.699252     -1.969728      1.503561
  H       2.231177     -0.305268      1.424410
  C       3.533869     -1.691884      0.449129
  C       0.640111     -2.197762     -0.961840
  O       0.715726     -2.398442     -2.143986
  O       0.183171     -3.121347     -0.102996
  C       4.355060     -0.595012     -0.223498
  O       5.047840     -0.743767     -1.193720
  O       4.273019      0.572231      0.433486
  C       3.540171     -2.931743     -0.441919
  H       4.556513     -3.303823     -0.567364
  H       2.940476     -3.718996      0.019865
  H       3.148050     -2.728553     -1.436877
  C       4.267315     -2.019510      1.763683
  H       3.786050     -2.869753      2.250484
  H       5.307854     -2.286184      1.568697
  H       4.251484     -1.172544      2.450335
  C      -0.194801     -4.366850     -0.683282
  H      -0.568964     -4.974538      0.136385
  H      -0.967378     -4.220175     -1.437334
  H       0.666456     -4.844445     -1.151356
  C       5.031036      1.644521     -0.119276
  H       4.728979      1.833678     -1.149584
  H       4.820095      2.509050      0.504943
  H       6.095754      1.412415     -0.101459
  H       0.811515      0.302156     -2.048242
  C      -0.152596     -0.338713      0.552288
  C      -1.391809      0.270938     -0.155080
  H       0.252463      0.433004      1.208713
  H      -0.522600     -1.134915      1.201895
  C      -2.314218      0.681567      0.984242
  C      -1.044445      1.580806     -0.875898
  C      -2.018453     -0.685810     -1.161413
  C      -3.626112      0.561648      1.144824
  H      -1.786038      1.169356      1.799291
  O      -1.351212      1.850403     -2.003268
  O      -0.380101      2.428547     -0.077136
  H      -1.322470     -0.908293     -1.967472
  H      -2.304382     -1.615063     -0.668600
  H      -2.892392     -0.242325     -1.634996
  C      -4.591986      0.006877      0.141471
  C      -0.042202      3.684733     -0.660343
  O      -5.191552      0.679507     -0.652335
  O      -4.785113     -1.307144      0.299552
  H      -0.941744      4.221644     -0.960263
  H       0.490837      4.235194      0.110546
  H       0.591939      3.540226     -1.535213
  C      -5.742791     -1.893848     -0.583425
  H      -5.702700     -2.963478     -0.396738
  H      -6.740372     -1.508046     -0.372788
  H      -5.491663     -1.673447     -1.620558
  C      -4.330990      1.070325      2.375475
  H      -5.062847      1.835249      2.105981
  H      -3.622599      1.498343      3.083780
  H      -4.870563      0.259871      2.872519
60
Coordinates from ORCA-job orca E -1383.398553775218
  C       1.570433      0.082633     -1.292660
  H       1.871485      1.012202     -0.808345
  H       2.424442     -0.326542     -1.831220
  C       1.049843     -0.902807     -0.249846
  C       2.117550     -1.216591      0.833996
  H       1.699635     -1.973057      1.502753
  H       2.234365     -0.309150      1.428478
  C       3.533583     -1.694205      0.446961
  C       0.636069     -2.192515     -0.958758
  O       0.712045     -2.393594     -2.140824
  O       0.168587     -3.111717     -0.100957
  C       4.354941     -0.596568     -0.223785
  O       5.048897     -0.744621     -1.193272
  O       4.270569      0.570992      0.432728
  C       3.537039     -2.931975     -0.447152
  H       4.552601     -3.306106     -0.573296
  H       2.935258     -3.719124      0.012251
  H       3.145908     -2.725146     -1.441721
  C       4.269325     -2.025288      1.759520
  H       3.787499     -2.875060      2.246625
  H       5.308847     -2.293982      1.561516
  H       4.257332     -1.179134      2.447352
  C      -0.217508     -4.354451     -0.681371
  H      -0.593686     -4.960659      0.138549
  H      -0.991157     -4.202709     -1.433517
  H       0.639472     -4.837265     -1.151887
  C       5.032102      1.642592     -0.116242
  H       4.729721      1.838193     -1.145313
  H       4.825934      2.505275      0.512166
  H       6.095843      1.405571     -0.101147
  H       0.816098      0.304125     -2.045907
  C      -0.147508     -0.330162      0.556063
  C      -1.390483      0.274275     -0.152333
  H       0.258445      0.446315      1.206196
  H      -0.516642     -1.121142      1.212680
  C      -2.315040      0.679682      0.985615
  C      -1.046903      1.585169     -0.873666
  C      -2.010154     -0.685568     -1.159460
  C      -3.626628      0.559637      1.142136
  H      -1.789274      1.172813      1.799194
  O      -1.348300      1.851153     -2.003446
  O      -0.385880      2.436758     -0.075539
  H      -1.310212     -0.900375     -1.964635
  H      -2.286874     -1.618491     -0.667843
  H      -2.887984     -0.250149     -1.633114
  C      -4.586780     -0.001012      0.137654
  C      -0.044532      3.689648     -0.663048
  O      -5.190390      0.667130     -0.657298
  O      -4.775654     -1.315033      0.298171
  H      -0.942256      4.223993     -0.973038
  H       0.482101      4.244955      0.108832
  H       0.596548      3.540374     -1.532170
  C      -5.732476     -1.908218     -0.581018
  H      -5.697938     -2.974990     -0.377470
  H      -6.728474     -1.513233     -0.380321
  H      -5.475338     -1.705222     -1.620329
  C      -4.332897      1.067352      2.371103
  H      -5.068730      1.826870      2.097151
  H      -3.625232      1.501926      3.076046
  H      -4.869119      0.258034      2.872991
60
Coordinates from ORCA-job orca E -1383.398596441472
  C       1.571225      0.084273     -1.295532
  H       1.872726      1.013663     -0.810997
  H       2.426342     -0.325424     -1.831756
  C       1.046688     -0.899111     -0.252576
  C       2.112344     -1.216895      0.831899
  H       1.691951     -1.973258      1.499145
  H       2.230833     -0.310750      1.428168
  C       3.527477     -1.696574      0.445030
  C       0.630155     -2.188086     -0.961239
  O       0.712466     -2.391881     -2.142419
  O       0.153153     -3.102974     -0.104365
  C       4.353227     -0.598677     -0.219723
  O       5.051874     -0.746439     -1.185943
  O       4.266577      0.568431      0.437479
  C       3.529197     -2.931249     -0.453356
  H       4.543593     -3.309701     -0.576141
  H       2.921743     -3.717365      0.000502
  H       3.143266     -2.719025     -1.448782
  C       4.261262     -2.033785      1.757344
  H       3.776820     -2.883767      2.241548
  H       5.300258     -2.304483      1.559207
  H       4.250833     -1.189758      2.447824
  C      -0.234606     -4.345129     -0.684527
  H      -0.613400     -4.950099      0.135132
  H      -1.006932     -4.192288     -1.437996
  H       0.621695     -4.830399     -1.153822
  C       5.035358      1.638614     -0.103875
  H       4.736626      1.842497     -1.132459
  H       4.833214      2.498933      0.529086
  H       6.097597      1.394844     -0.088117
  H       0.818235      0.307178     -2.049787
  C      -0.148246     -0.321254      0.552215
  C      -1.389191      0.285606     -0.158376
  H       0.259303      0.455866      1.200587
  H      -0.521349     -1.108369      1.211381
  C      -2.316076      0.689994      0.978021
  C      -1.043294      1.598260     -0.875417
  C      -2.007847     -0.670264     -1.170069
  C      -3.626531      0.561503      1.135403
  H      -1.793593      1.197323      1.785098
  O      -1.346037      1.869048     -2.003696
  O      -0.377361      2.445354     -0.076100
  H      -1.305609     -0.881599     -1.974151
  H      -2.282969     -1.606040     -0.682619
  H      -2.886239     -0.234829     -1.642303
  C      -4.583473     -0.019407      0.139668
  C      -0.031648      3.698014     -0.660955
  O      -5.197883      0.632813     -0.660300
  O      -4.757717     -1.333709      0.314514
  H      -0.927098      4.236115     -0.971069
  H       0.496530      4.249775      0.112444
  H       0.609751      3.547894     -1.529836
  C      -5.712499     -1.945727     -0.553470
  H      -5.676183     -3.007843     -0.326961
  H      -6.709092     -1.547357     -0.362764
  H      -5.454395     -1.764921     -1.596700
  C      -4.334946      1.071559      2.360908
  H      -5.073938      1.825805      2.080729
  H      -3.627965      1.513601      3.061798
  H      -4.867734      0.263283      2.867847
60
Coordinates from ORCA-job orca E -1383.398657765531
  C       1.571550      0.092499     -1.291105
  H       1.875581      1.019062     -0.802431
  H       2.426212     -0.316456     -1.828457
  C       1.043373     -0.892949     -0.251715
  C       2.107765     -1.218681      0.832223
  H       1.684572     -1.976818      1.495631
  H       2.228490     -0.316055      1.433431
  C       3.521641     -1.700074      0.443810
  C       0.623468     -2.178306     -0.964848
  O       0.709314     -2.379333     -2.146242
  O       0.133286     -3.090288     -0.112679
  C       4.351355     -0.601421     -0.214737
  O       5.056090     -0.748991     -1.176654
  O       4.261948      0.565027      0.443256
  C       3.521120     -2.931104     -0.459472
  H       4.533867     -3.315417     -0.577856
  H       2.906407     -3.715497     -0.012140
  H       3.141156     -2.712604     -1.455784
  C       4.255064     -2.043748      1.754982
  H       3.769554     -2.895166      2.235773
  H       5.293775     -2.314672      1.555641
  H       4.245070     -1.202615      2.449056
  C      -0.266626     -4.325639     -0.698761
  H      -0.645647     -4.933332      0.118833
  H      -1.042489     -4.161459     -1.446810
  H       0.582878     -4.814363     -1.176810
  C       5.037504      1.634154     -0.090164
  H       4.738124      1.850266     -1.116200
  H       4.843324      2.490248      0.551039
  H       6.097864      1.382022     -0.079401
  H       0.819168      0.321466     -2.044343
  C      -0.149009     -0.313351      0.553800
  C      -1.387732      0.293768     -0.158646
  H       0.259208      0.464600      1.200887
  H      -0.524582     -1.097884      1.214774
  C      -2.315780      0.702759      0.976171
  C      -1.040890      1.604538     -0.878578
  C      -2.011342     -0.661906     -1.168348
  C      -3.625812      0.569575      1.132016
  H      -1.795737      1.222620      1.776962
  O      -1.349570      1.874804     -2.005311
  O      -0.366931      2.450218     -0.084400
  H      -1.312117     -0.875200     -1.974353
  H      -2.284255     -1.597837     -0.679680
  H      -2.892656     -0.226947     -1.635203
  C      -4.576396     -0.034175      0.143547
  C      -0.020140      3.700726     -0.672844
  O      -5.207776      0.599106     -0.658152
  O      -4.725867     -1.350572      0.330980
  H      -0.914569      4.240608     -0.982822
  H       0.511584      4.252467      0.098208
  H       0.619263      3.546838     -1.542746
  C      -5.668025     -1.988209     -0.531572
  H      -5.633907     -3.043390     -0.273960
  H      -6.667587     -1.585183     -0.368446
  H      -5.393916     -1.838192     -1.575946
  C      -4.339059      1.080639      2.352680
  H      -5.081365      1.828799      2.065318
  H      -3.634268      1.531089      3.050265
  H      -4.867055      0.271748      2.863112
60
Coordinates from ORCA-job orca E -1383.398710630450
  C       1.573688      0.090384     -1.302775
  H       1.881452      1.016864     -0.816265
  H       2.427537     -0.325064     -1.836405
  C       1.037175     -0.888599     -0.261728
  C       2.097490     -1.217521      0.826510
  H       1.668807     -1.973665      1.488725
  H       2.219203     -0.315377      1.428118
  C       3.511041     -1.704199      0.443910
  C       0.612685     -2.174152     -0.971710
  O       0.702645     -2.380688     -2.151817
  O       0.114062     -3.079653     -0.117662
  C       4.349304     -0.608836     -0.209346
  O       5.061450     -0.760122     -1.165262
  O       4.259100      0.558353      0.447019
  C       3.509985     -2.934972     -0.459646
  H       4.520750     -3.327113     -0.568529
  H       2.885283     -3.714842     -0.018116
  H       3.140020     -2.713524     -1.459014
  C       4.237941     -2.051114      1.758053
  H       3.748440     -2.901973      2.235890
  H       5.276873     -2.323976      1.562844
  H       4.226208     -1.210713      2.453012
  C      -0.293762     -4.313760     -0.700772
  H      -0.669664     -4.919992      0.119330
  H      -1.074114     -4.146747     -1.443590
  H       0.550630     -4.805399     -1.184790
  C       5.043545      1.623947     -0.080310
  H       4.743743      1.850337     -1.104097
  H       4.858263      2.477198      0.567299
  H       6.101548      1.362228     -0.074002
  H       0.824951      0.320878     -2.059127
  C      -0.153576     -0.300462      0.539593
  C      -1.384669      0.317343     -0.176148
  H       0.257894      0.473918      1.189049
  H      -0.538081     -1.082595      1.198047
  C      -2.316693      0.723417      0.957954
  C      -1.030072      1.632957     -0.882945
  C      -2.006429     -0.626885     -1.198258
  C      -3.624288      0.569994      1.121091
  H      -1.802108      1.261992      1.749803
  O      -1.335958      1.915127     -2.007418
  O      -0.355367      2.468502     -0.078828
  H      -1.304089     -0.836927     -2.002131
  H      -2.285224     -1.566261     -0.719766
  H      -2.883634     -0.183796     -1.665293
  C      -4.569699     -0.066877      0.147900
  C      -0.004269      3.724193     -0.653873
  O      -5.216219      0.539629     -0.662118
  O      -4.694609     -1.382344      0.361269
  H      -0.895980      4.267835     -0.964921
  H       0.523497      4.268375      0.125221
  H       0.640533      3.577592     -1.521114
  C      -5.631180     -2.051007     -0.483640
  H      -5.605152     -3.095135     -0.183521
  H      -6.630524     -1.637091     -0.349914
  H      -5.344165     -1.945135     -1.530044
  C      -4.340277      1.081964      2.339848
  H      -5.098146      1.813066      2.049422
  H      -3.639773      1.553549      3.027684
  H      -4.849561      0.268685      2.862082
60
Coordinates from ORCA-job orca E -1383.398768288082
  C       1.575867      0.101185     -1.300835
  H       1.889106      1.023171     -0.809564
  H       2.427149     -0.318211     -1.835619
  C       1.031585     -0.879703     -0.265817
  C       2.087099     -1.217183      0.824890
  H       1.652682     -1.974222      1.482383
  H       2.210069     -0.317895      1.430395
  C       3.499885     -1.708439      0.445559
  C       0.603143     -2.160271     -0.982575
  O       0.694422     -2.362092     -2.163384
  O       0.099487     -3.067767     -0.133435
  C       4.345680     -0.614546     -0.200515
  O       5.060234     -0.765473     -1.154667
  O       4.259413      0.550074      0.460663
  C       3.496897     -2.935686     -0.462825
  H       4.505683     -3.334012     -0.567015
  H       2.864454     -3.713150     -0.028205
  H       3.134128     -2.708043     -1.463439
  C       4.220358     -2.063612      1.761057
  H       3.726605     -2.915318      2.232943
  H       5.259277     -2.338408      1.568759
  H       4.207913     -1.226376      2.459795
  C      -0.315023     -4.296705     -0.722925
  H      -0.690132     -4.906682      0.094704
  H      -1.097667     -4.121727     -1.461468
  H       0.525649     -4.788138     -1.213408
  C       5.050340      1.614207     -0.060027
  H       4.749035      1.850470     -1.081163
  H       4.872337      2.463585      0.594646
  H       6.106492      1.345406     -0.058774
  H       0.830198      0.339859     -2.057738
  C      -0.160519     -0.290848      0.533210
  C      -1.385311      0.332898     -0.187006
  H       0.250946      0.479237      1.187703
  H      -0.549802     -1.075001      1.186172
  C      -2.318956      0.746027      0.943208
  C      -1.023288      1.646873     -0.893377
  C      -2.007933     -0.609213     -1.210095
  C      -3.623089      0.574396      1.116683
  H      -1.808160      1.302989      1.724540
  O      -1.330974      1.932523     -2.016506
  O      -0.342011      2.477306     -0.089819
  H      -1.306693     -0.820770     -2.014457
  H      -2.288752     -1.548387     -0.732488
  H      -2.884309     -0.163142     -1.676191
  C      -4.563544     -0.094032      0.159517
  C       0.012994      3.732869     -0.663273
  O      -5.229206      0.488136     -0.652504
  O      -4.657332     -1.409437      0.390667
  H      -0.877140      4.280448     -0.971779
  H       0.544228      4.273703      0.115740
  H       0.655665      3.585544     -1.531877
  C      -5.586013     -2.108812     -0.438075
  H      -5.553695     -3.144345     -0.110263
  H      -6.589128     -1.699435     -0.320619
  H      -5.294639     -2.029577     -1.485767
  C      -4.342023      1.095712      2.330413
  H      -5.105454      1.818692      2.034198
  H      -3.645269      1.579771      3.013487
  H      -4.844486      0.283384      2.860942
60
Coordinates from ORCA-job orca E -1383.398833753198
  C       1.584219      0.122473     -1.298006
  H       1.902062      1.037466     -0.797241
  H       2.434159     -0.301486     -1.831491
  C       1.025042     -0.863351     -0.275931
  C       2.067718     -1.214828      0.822302
  H       1.621082     -1.972247      1.471086
  H       2.191578     -0.319514      1.433373
  C       3.479580     -1.716034      0.452942
  C       0.595109     -2.135388     -1.007189
  O       0.692926     -2.327425     -2.189088
  O       0.082511     -3.048915     -0.169485
  C       4.339353     -0.626677     -0.182395
  O       5.057356     -0.778459     -1.133735
  O       4.260221      0.534557      0.485367
  C       3.473597     -2.939327     -0.460972
  H       4.479243     -3.347228     -0.557713
  H       2.829159     -3.712190     -0.036081
  H       3.122435     -2.703594     -1.463883
  C       4.185626     -2.082628      1.772951
  H       3.682899     -2.933985      2.235736
  H       5.224652     -2.362441      1.588714
  H       4.171682     -1.249013      2.475894
  C      -0.339975     -4.268273     -0.773387
  H      -0.716764     -4.885998      0.037562
  H      -1.123235     -4.079715     -1.507580
  H       0.496995     -4.758006     -1.271562
  C       5.061893      1.595389     -0.025967
  H       4.760760      1.843642     -1.044309
  H       4.892977      2.440267      0.636811
  H       6.115242      1.316348     -0.029025
  H       0.846182      0.372868     -2.058766
  C      -0.172637     -0.274388      0.516835
  C      -1.388643      0.358517     -0.210143
  H       0.237337      0.488013      1.181102
  H      -0.569268     -1.063434      1.159042
  C      -2.324637      0.780500      0.914243
  C      -1.013418      1.670011     -0.914817
  C      -2.010886     -0.579525     -1.236237
  C      -3.621221      0.577216      1.110988
  H      -1.819382      1.365982      1.678063
  O      -1.318658      1.960302     -2.037529
  O      -0.324666      2.492813     -0.110238
  H      -1.313765     -0.783186     -2.046266
  H      -2.285131     -1.522850     -0.763477
  H      -2.891626     -0.133341     -1.694302
  C      -4.556646     -0.142292      0.186025
  C       0.041145      3.746508     -0.681596
  O      -5.254644      0.400565     -0.625730
  O      -4.602388     -1.454970      0.446191
  H      -0.844621      4.300813     -0.990558
  H       0.574730      4.282807      0.098865
  H       0.684058      3.595622     -1.549235
  C      -5.522472     -2.201583     -0.350800
  H      -5.480003     -3.221415      0.021858
  H      -6.530200     -1.798854     -0.253938
  H      -5.228584     -2.166320     -1.400334
  C      -4.340118      1.117835      2.317872
  H      -5.117682      1.822094      2.013428
  H      -3.648649      1.629111      2.986534
  H      -4.825141      0.308971      2.870004
60
Coordinates from ORCA-job orca E -1383.398895379982
  C       1.598438      0.154208     -1.294968
  H       1.919456      1.058294     -0.777355
  H       2.449893     -0.274344     -1.822641
  C       1.013069     -0.839848     -0.295952
  C       2.032332     -1.215944      0.815172
  H       1.566090     -1.976451      1.446229
  H       2.154682     -0.328976      1.438499
  C       3.444817     -1.728478      0.463856
  C       0.583543     -2.096831     -1.053126
  O       0.694472     -2.270347     -2.236711
  O       0.055884     -3.021704     -0.237056
  C       4.326526     -0.641144     -0.144382
  O       5.054029     -0.787264     -1.089269
  O       4.253099      0.510680      0.540013
  C       3.440698     -2.940194     -0.465557
  H       4.442926     -3.358954     -0.550282
  H       2.779346     -3.710224     -0.062379
  H       3.110490     -2.687231     -1.471461
  C       4.123508     -2.119133      1.791023
  H       3.605578     -2.972167      2.233325
  H       5.163239     -2.405714      1.621672
  H       4.104536     -1.294798      2.504621
  C      -0.364617     -4.228945     -0.866434
  H      -0.753794     -4.858196     -0.070367
  H      -1.137797     -4.024984     -1.606621
  H       0.476382     -4.713948     -1.362231
  C       5.072698      1.569912      0.053915
  H       4.782214      1.838895     -0.962232
  H       4.908743      2.405160      0.729936
  H       6.122429      1.277910      0.054194
  H       0.875073      0.422515     -2.063820
  C      -0.193599     -0.249930      0.485595
  C      -1.396532      0.395903     -0.252130
  H       0.213241      0.502005      1.163418
  H      -0.602278     -1.044365      1.113210
  C      -2.333667      0.835462      0.862928
  C      -1.000992      1.701318     -0.957773
  C      -2.021739     -0.537655     -1.279393
  C      -3.614922      0.585225      1.101636
  H      -1.837131      1.469794      1.592716
  O      -1.302316      1.995648     -2.080648
  O      -0.299132      2.514060     -0.154598
  H      -1.330057     -0.733747     -2.096122
  H      -2.288330     -1.485194     -0.810908
  H      -2.907863     -0.091437     -1.727370
  C      -4.543119     -0.215110      0.237554
  C       0.087116      3.760937     -0.727821
  O      -5.300915      0.263065     -0.561035
  O      -4.507050     -1.519192      0.538885
  H      -0.789992      4.327734     -1.038786
  H       0.627057      4.291048      0.052440
  H       0.728869      3.598641     -1.594083
  C      -5.423512     -2.337262     -0.189922
  H      -5.336625     -3.333937      0.234094
  H      -6.440977     -1.962713     -0.085002
  H      -5.159480     -2.349191     -1.247899
  C      -4.331000      1.159713      2.296293
  H      -5.127032      1.836279      1.977006
  H      -3.644998      1.710839      2.938561
  H      -4.792537      0.362116      2.884319
60
Coordinates from ORCA-job orca E -1383.398838362973
  C       1.615212      0.183923     -1.290625
  H       1.934715      1.078101     -0.755586
  H       2.471242     -0.246504     -1.809413
  C       1.003305     -0.818436     -0.316250
  C       1.997148     -1.220085      0.808410
  H       1.510930     -1.984600      1.419076
  H       2.116159     -0.342904      1.446051
  C       3.410503     -1.742818      0.476329
  C       0.577375     -2.059743     -1.100672
  O       0.706859     -2.214442     -2.284961
  O       0.029484     -2.994739     -0.309706
  C       4.313101     -0.657603     -0.104562
  O       5.052924     -0.799010     -1.040497
  O       4.240984      0.486043      0.593513
  C       3.410154     -2.943758     -0.467135
  H       4.408791     -3.373470     -0.538187
  H       2.731944     -3.710197     -0.085945
  H       3.101987     -2.675050     -1.476015
  C       4.061389     -2.155422      1.810597
  H       3.529111     -3.009760      2.232783
  H       5.101834     -2.448216      1.656839
  H       4.035791     -1.339822      2.533898
  C      -0.390049     -4.186467     -0.968697
  H      -0.792909     -4.829369     -0.190550
  H      -1.152414     -3.962897     -1.714032
  H       0.454167     -4.666305     -1.463847
  C       5.076067      1.544121      0.131581
  H       4.792048      1.836022     -0.880134
  H       4.919476      2.367980      0.823115
  H       6.122073      1.239410      0.129699
  H       0.908187      0.467684     -2.069253
  C      -0.211873     -0.226897      0.453493
  C      -1.404462      0.428601     -0.293021
  H       0.191736      0.517637      1.141414
  H      -0.631168     -1.024626      1.069703
  C      -2.342974      0.882794      0.814532
  C      -0.992359      1.727913     -1.000752
  C      -2.033590     -0.501151     -1.320953
  C      -3.608090      0.594046      1.094085
  H      -1.857029      1.563768      1.508666
  O      -1.286911      2.022065     -2.125585
  O      -0.284085      2.535271     -0.198126
  H      -1.349454     -0.686906     -2.146516
  H      -2.288871     -1.453938     -0.857151
  H      -2.927870     -0.057184     -1.754913
  C      -4.524612     -0.282815      0.293990
  C       0.120851      3.774528     -0.775184
  O      -5.336043      0.128592     -0.488843
  O      -4.410049     -1.572565      0.635055
  H      -0.747473      4.348734     -1.096937
  H       0.659429      4.303666      0.006649
  H       0.768450      3.599896     -1.634635
  C      -5.315087     -2.457536     -0.027236
  H      -5.197406     -3.423403      0.456514
  H      -6.340197     -2.102424      0.067604
  H      -5.063254     -2.529720     -1.085831
  C      -4.321512      1.201834      2.274802
  H      -5.140313      1.843378      1.941293
  H      -3.642563      1.798402      2.883170
  H      -4.752337      0.418185      2.903669
60
Coordinates from ORCA-job orca E -1383.398987078876
  C       1.602449      0.175966     -1.286478
  H       1.933157      1.071591     -0.760623
  H       2.449594     -0.260261     -1.814895
  C       1.000490     -0.818740     -0.298138
  C       2.009893     -1.214542      0.814903
  H       1.531779     -1.974558      1.437556
  H       2.138930     -0.333581      1.445318
  C       3.417971     -1.740425      0.466065
  C       0.557609     -2.063599     -1.067387
  O       0.668758     -2.228574     -2.252156
  O       0.014449     -2.987514     -0.260015
  C       4.313837     -0.659004     -0.131997
  O       5.042078     -0.806320     -1.076090
  O       4.251259      0.488497      0.560633
  C       3.403957     -2.945995     -0.471326
  H       4.401160     -3.377059     -0.553355
  H       2.730316     -3.709965     -0.077186
  H       3.082587     -2.682109     -1.477315
  C       4.086829     -2.147101      1.793337
  H       3.559195     -2.998466      2.227235
  H       5.124613     -2.442127      1.626566
  H       4.072310     -1.327754      2.512723
  C      -0.427598     -4.181435     -0.899855
  H      -0.822413     -4.812891     -0.108340
  H      -1.202313     -3.956766     -1.633117
  H       0.402892     -4.674123     -1.405528
  C       5.082659      1.542799      0.083773
  H       4.790180      1.827761     -0.927500
  H       4.932593      2.371690      0.770727
  H       6.128469      1.237462      0.075002
  H       0.885680      0.459072     -2.056321
  C      -0.206024     -0.224700      0.480203
  C      -1.399122      0.427920     -0.265885
  H       0.200457      0.521336      1.164730
  H      -0.623217     -1.020565      1.100199
  C      -2.340588      0.877608      0.840147
  C      -0.991435      1.728577     -0.973700
  C      -2.023320     -0.504937     -1.294014
  C      -3.611042      0.592152      1.093330
  H      -1.858281      1.546141      1.548661
  O      -1.287687      2.022315     -2.098151
  O      -0.285268      2.537872     -0.171026
  H      -1.333916     -0.695824     -2.113946
  H      -2.283860     -1.455166     -0.827797
  H      -2.913300     -0.060859     -1.736619
  C      -4.507765     -0.269748      0.255898
  C       0.113526      3.779667     -0.746914
  O      -5.293728      0.152566     -0.546808
  O      -4.404155     -1.563339      0.587406
  H      -0.757674      4.351439     -1.065220
  H       0.652552      4.309166      0.034365
  H       0.759261      3.609119     -1.608596
  C      -5.282935     -2.445553     -0.112065
  H      -5.167801     -3.418116      0.358645
  H      -6.313879     -2.102350     -0.037946
  H      -5.001966     -2.497620     -1.164849
  C      -4.346603      1.180779      2.269884
  H      -5.157686      1.829326      1.930971
  H      -3.678419      1.765479      2.901240
  H      -4.791025      0.387197      2.876419
60
Coordinates from ORCA-job orca E -1383.399067266219
  C       1.600222      0.167261     -1.291765
  H       1.930516      1.066940     -0.772347
  H       2.447939     -0.270946     -1.817515
  C       1.000427     -0.820723     -0.295227
  C       2.012535     -1.210234      0.817294
  H       1.535356     -1.964803      1.447228
  H       2.145463     -0.324971      1.440962
  C       3.418916     -1.740773      0.468042
  C       0.555534     -2.070509     -1.055182
  O       0.663239     -2.242412     -2.239262
  O       0.014785     -2.989505     -0.240805
  C       4.313076     -0.665469     -0.143469
  O       5.037144     -0.821863     -1.089338
  O       4.253468      0.488936      0.538048
  C       3.400363     -2.954976     -0.457887
  H       4.398173     -3.384046     -0.543570
  H       2.731986     -3.716968     -0.051198
  H       3.070810     -2.701642     -1.463979
  C       4.091785     -2.136324      1.796642
  H       3.563039     -2.981879      2.240455
  H       5.128099     -2.436188      1.629105
  H       4.082511     -1.310131      2.508279
  C      -0.430693     -4.185878     -0.873321
  H      -0.827736     -4.811483     -0.078204
  H      -1.204310     -3.963450     -1.608439
  H       0.398494     -4.684333     -1.375630
  C       5.081448      1.538787      0.045867
  H       4.788598      1.808549     -0.969445
  H       4.929257      2.377002      0.720980
  H       6.128143      1.236046      0.041756
  H       0.882110      0.444682     -2.062338
  C      -0.202614     -0.220698      0.484107
  C      -1.397847      0.433452     -0.258141
  H       0.207426      0.526487      1.165383
  H      -0.620954     -1.013135      1.107905
  C      -2.340849      0.873473      0.851545
  C      -0.991801      1.737692     -0.960040
  C      -2.022521     -0.493659     -1.292075
  C      -3.612571      0.586686      1.096469
  H      -1.860918      1.535295      1.567869
  O      -1.284975      2.034303     -2.084532
  O      -0.289321      2.545944     -0.152872
  H      -1.332709     -0.678073     -2.113043
  H      -2.281936     -1.447256     -0.832184
  H      -2.913356     -0.048582     -1.731219
  C      -4.506298     -0.265251      0.246051
  C       0.110388      3.789220     -0.724415
  O      -5.291037      0.166742     -0.552935
  O      -4.403066     -1.563057      0.560515
  H      -0.760172      4.362099     -1.042606
  H       0.648163      4.316208      0.059466
  H       0.757652      3.620860     -1.585471
  C      -5.275067     -2.437872     -0.156060
  H      -5.142625     -3.420876      0.287839
  H      -6.309967     -2.110947     -0.063876
  H      -5.003081     -2.457828     -1.212173
  C      -4.350900      1.162663      2.275999
  H      -5.166470      1.806514      1.939116
  H      -3.685289      1.748745      2.908683
  H      -4.789510      0.363963      2.879736
60
Coordinates from ORCA-job orca E -1383.399251335834
  C       1.606408      0.182907     -1.296122
  H       1.938149      1.078256     -0.769653
  H       2.457922     -0.260032     -1.811621
  C       0.985094     -0.801273     -0.308932
  C       1.978748     -1.207113      0.813545
  H       1.484042     -1.956293      1.436261
  H       2.117504     -0.325211      1.440929
  C       3.382345     -1.755861      0.480291
  C       0.535153     -2.042958     -1.078705
  O       0.654000     -2.209430     -2.262471
  O      -0.024240     -2.960415     -0.275510
  C       4.294782     -0.692599     -0.124903
  O       5.025237     -0.859258     -1.064129
  O       4.241314      0.464790      0.552459
  C       3.358888     -2.972238     -0.442367
  H       4.354894     -3.406495     -0.523925
  H       2.685227     -3.729422     -0.035496
  H       3.034865     -2.720152     -1.450687
  C       4.034884     -2.156926      1.817250
  H       3.487261     -2.992009      2.258017
  H       5.067917     -2.474754      1.662481
  H       4.032138     -1.328197      2.526055
  C      -0.475470     -4.146694     -0.922118
  H      -0.898064     -4.770102     -0.138348
  H      -1.230220     -3.909245     -1.672115
  H       0.355732     -4.656076     -1.410219
  C       5.082060      1.505003      0.061608
  H       4.805306      1.767517     -0.960091
  H       4.926697      2.350334      0.727136
  H       6.126718      1.195056      0.074852
  H       0.899742      0.469443     -2.073748
  C      -0.217412     -0.188103      0.461286
  C      -1.404197      0.479025     -0.285207
  H       0.195530      0.554939      1.145539
  H      -0.650606     -0.975099      1.082171
  C      -2.350826      0.919152      0.822624
  C      -0.980993      1.781465     -0.979835
  C      -2.032584     -0.434245     -1.330814
  C      -3.605686      0.585765      1.093648
  H      -1.889516      1.619839      1.513646
  O      -1.258827      2.081930     -2.107239
  O      -0.278595      2.582870     -0.165285
  H      -1.345400     -0.599877     -2.157837
  H      -2.282029     -1.397734     -0.886782
  H      -2.930484      0.010814     -1.754900
  C      -4.473911     -0.328229      0.283188
  C       0.143607      3.819470     -0.734358
  O      -5.306361      0.046138     -0.496951
  O      -4.289222     -1.613585      0.610475
  H      -0.715657      4.403673     -1.062731
  H       0.680129      4.340299      0.054572
  H       0.797740      3.640169     -1.588168
  C      -5.127599     -2.546916     -0.070433
  H      -4.911830     -3.516544      0.370618
  H      -6.177631     -2.289245      0.062807
  H      -4.898131     -2.553685     -1.136573
  C      -4.348728      1.163668      2.267001
  H      -5.209441      1.741043      1.922510
  H      -3.703455      1.814871      2.855310
  H      -4.724448      0.369389      2.916779
60
Coordinates from ORCA-job orca E -1383.399488059846
  C       1.604098      0.205403     -1.299967
  H       1.938721      1.093818     -0.763195
  H       2.458728     -0.242459     -1.805943
  C       0.958201     -0.776322     -0.326309
  C       1.930036     -1.201801      0.807346
  H       1.414122     -1.943724      1.421346
  H       2.076732     -0.324357      1.439320
  C       3.328733     -1.774159      0.492501
  C       0.502369     -2.007430     -1.109016
  O       0.631713     -2.165976     -2.292791
  O      -0.075935     -2.924041     -0.318438
  C       4.265190     -0.726117     -0.101950
  O       5.002004     -0.904013     -1.034169
  O       4.223696      0.431927      0.575486
  C       3.297266     -2.990811     -0.429367
  H       4.289567     -3.434770     -0.504626
  H       2.613404     -3.740674     -0.025981
  H       2.983763     -2.736309     -1.440484
  C       3.955781     -2.185101      1.838499
  H       3.383656     -3.006150      2.274478
  H       4.983275     -2.526926      1.698342
  H       3.963237     -1.354422      2.545005
  C      -0.530440     -4.101206     -0.978792
  H      -0.986789     -4.717529     -0.208348
  H      -1.258020     -3.850052     -1.750789
  H       0.305058     -4.625760     -1.443297
  C       5.082249      1.459940      0.089811
  H       4.830259      1.712206     -0.940779
  H       4.919889      2.314492      0.741799
  H       6.123964      1.141952      0.129670
  H       0.910222      0.505081     -2.084008
  C      -0.245186     -0.151604      0.431660
  C      -1.414295      0.536436     -0.325130
  H       0.167621      0.582194      1.125919
  H      -0.700210     -0.934960      1.041599
  C      -2.367435      0.980951      0.775108
  C      -0.963943      1.837021     -1.006043
  C      -2.042756     -0.357117     -1.388622
  C      -3.595658      0.586599      1.083507
  H      -1.935271      1.735006      1.427467
  O      -1.224311      2.149187     -2.134540
  O      -0.257792      2.623341     -0.179553
  H      -1.356235     -0.497171     -2.220920
  H      -2.280275     -1.333711     -0.968353
  H      -2.948509      0.088712     -1.795602
  C      -4.421754     -0.414085      0.334388
  C       0.194513      3.853379     -0.739418
  O      -5.318393     -0.127076     -0.411294
  O      -4.117571     -1.672665      0.675400
  H      -0.649544      4.457598     -1.071137
  H       0.736184      4.358799      0.056032
  H       0.850877      3.663802     -1.589378
  C      -4.908099     -2.684955      0.053695
  H      -4.548974     -3.628356      0.456641
  H      -5.963172     -2.544965      0.287471
  H      -4.780120     -2.657235     -1.028892
  C      -4.351610      1.174117      2.242204
  H      -5.255077      1.672676      1.884507
  H      -3.737233      1.895512      2.779229
  H      -4.662054      0.395671      2.943481
60
Coordinates from ORCA-job orca E -1383.399775607018
  C       1.611186      0.232217     -1.295489
  H       1.947054      1.109817     -0.742116
  H       2.469090     -0.220618     -1.791425
  C       0.935655     -0.752659     -0.345611
  C       1.881498     -1.204759      0.799197
  H       1.344407     -1.946367      1.395071
  H       2.029719     -0.336895      1.443950
  C       3.277229     -1.793794      0.501923
  C       0.478144     -1.966984     -1.153045
  O       0.621187     -2.107915     -2.337430
  O      -0.119672     -2.890407     -0.385043
  C       4.237459     -0.752498     -0.065824
  O       4.983195     -0.928423     -0.991276
  O       4.203755      0.397012      0.626513
  C       3.243735     -2.999593     -0.434052
  H       4.231481     -3.455052     -0.500250
  H       2.544517     -3.744931     -0.049317
  H       2.948971     -2.729767     -1.446883
  C       3.874031     -2.229153      1.853780
  H       3.280373     -3.044649      2.270911
  H       4.897796     -2.587446      1.728093
  H       3.883352     -1.406195      2.569168
  C      -0.576428     -4.051750     -1.071223
  H      -1.058861     -4.671457     -0.319591
  H      -1.282297     -3.779555     -1.856021
  H       0.261594     -4.582447     -1.524080
  C       5.077536      1.421478      0.160762
  H       4.840355      1.684701     -0.870588
  H       4.914594      2.271709      0.818215
  H       6.115857      1.093984      0.210810
  H       0.935472      0.549276     -2.088519
  C      -0.273213     -0.122821      0.400628
  C      -1.428423      0.579178     -0.365456
  H       0.136056      0.602115      1.106340
  H      -0.743460     -0.907177      0.997394
  C      -2.385035      1.037411      0.726251
  C      -0.957527      1.873121     -1.045506
  C      -2.061256     -0.306805     -1.433689
  C      -3.585356      0.596369      1.078106
  H      -1.979334      1.841117      1.334741
  O      -1.206263      2.186264     -2.176462
  O      -0.246205      2.652009     -0.216504
  H      -1.382160     -0.431266     -2.274572
  H      -2.286598     -1.290763     -1.024576
  H      -2.975817      0.136252     -1.823735
  C      -4.364740     -0.489847      0.402182
  C       0.230140      3.872337     -0.777848
  O      -5.315367     -0.298591     -0.306326
  O      -3.945602     -1.709158      0.763916
  H      -0.601623      4.489076     -1.117444
  H       0.774467      4.372009      0.019409
  H       0.889092      3.668459     -1.622441
  C      -4.683032     -2.799581      0.213147
  H      -4.215314     -3.699205      0.604769
  H      -5.728264     -2.747292      0.516911
  H      -4.631717     -2.783340     -0.875864
  C      -4.356494      1.208960      2.214181
  H      -5.289827      1.637025      1.842509
  H      -3.774541      1.991229      2.699744
  H      -4.616100      0.457845      2.964366
60
Coordinates from ORCA-job orca E -1383.400038242115
  C       1.610757      0.252291     -1.285462
  H       1.947799      1.121555     -0.719866
  H       2.470045     -0.203081     -1.776686
  C       0.916826     -0.736309     -0.353001
  C       1.848745     -1.207688      0.795429
  H       1.299886     -1.949672      1.380049
  H       1.999678     -0.347250      1.449422
  C       3.241104     -1.807645      0.503841
  C       0.456364     -1.937511     -1.178069
  O       0.604628     -2.064559     -2.363352
  O      -0.152057     -2.866470     -0.424887
  C       4.215708     -0.770942     -0.047592
  O       4.965734     -0.945726     -0.969783
  O       4.189312      0.372164      0.655499
  C       3.203232     -3.004672     -0.443266
  H       4.186985     -3.469087     -0.506270
  H       2.493981     -3.746540     -0.070511
  H       2.918526     -2.723019     -1.455767
  C       3.822473     -2.261500      1.856275
  H       3.216084     -3.073786      2.261158
  H       4.843012     -2.630455      1.735557
  H       3.835072     -1.445144      2.579080
  C      -0.608998     -4.017975     -1.127283
  H      -1.104376     -4.641281     -0.387174
  H      -1.303614     -3.733266     -1.917805
  H       0.230473     -4.550387     -1.575406
  C       5.076057      1.392134      0.204552
  H       4.847785      1.666416     -0.825910
  H       4.916912      2.238102      0.868375
  H       6.110856      1.054367      0.258244
  H       0.946826      0.582570     -2.083069
  C      -0.294989     -0.105384      0.387177
  C      -1.438249      0.606568     -0.387289
  H       0.110778      0.612849      1.101751
  H      -0.775599     -0.891364      0.973267
  C      -2.399332      1.078279      0.694459
  C      -0.951393      1.893813     -1.068660
  C      -2.075538     -0.276322     -1.456357
  C      -3.580235      0.606286      1.070309
  H      -2.017384      1.917155      1.269891
  O      -1.190768      2.206087     -2.201891
  O      -0.238236      2.668591     -0.237464
  H      -1.397994     -0.403419     -2.298116
  H      -2.304759     -1.260059     -1.049173
  H      -2.989004      0.171100     -1.844059
  C      -4.311709     -0.537194      0.437435
  C       0.251992      3.883474     -0.798863
  O      -5.278525     -0.416385     -0.264472
  O      -3.825352     -1.721833      0.830207
  H      -0.572295      4.506468     -1.145101
  H       0.795643      4.380529      0.000473
  H       0.914361      3.671955     -1.638830
  C      -4.511267     -2.865393      0.322331
  H      -3.990089     -3.727389      0.730474
  H      -5.552870     -2.860890      0.642559
  H      -4.478455     -2.876936     -0.767530
  C      -4.372260      1.229942      2.186471
  H      -5.328755      1.594931      1.806598
  H      -3.826659      2.060746      2.632157
  H      -4.588402      0.499970      2.970705
60
Coordinates from ORCA-job orca E -1383.400201442827
  C       1.601231      0.258915     -1.284632
  H       1.938321      1.124983     -0.714353
  H       2.461025     -0.198398     -1.773189
  C       0.897802     -0.730554     -0.360285
  C       1.824802     -1.210459      0.789485
  H       1.271315     -1.951914      1.370625
  H       1.977382     -0.353164      1.447144
  C       3.214833     -1.816503      0.499573
  C       0.435305     -1.925523     -1.193274
  O       0.586594     -2.047032     -2.378737
  O      -0.176217     -2.858238     -0.447110
  C       4.198731     -0.783166     -0.041498
  O       4.952457     -0.958554     -0.960591
  O       4.178218      0.355426      0.668721
  C       3.173996     -3.007816     -0.454863
  H       4.154131     -3.480081     -0.514311
  H       2.456642     -3.746176     -0.090682
  H       2.896699     -2.718157     -1.467170
  C       3.788682     -2.282080      1.851373
  H       3.174855     -3.092301      2.249250
  H       4.806889     -2.657492      1.731780
  H       3.803566     -1.470031      2.578941
  C      -0.623200     -4.009464     -1.156564
  H      -1.122247     -4.636677     -0.422338
  H      -1.311553     -3.725874     -1.952876
  H       0.222247     -4.537439     -1.598703
  C       5.077927      1.369610      0.230677
  H       4.856778      1.654794     -0.798371
  H       4.924487      2.211588      0.900855
  H       6.108894      1.020774      0.285656
  H       0.943888      0.594368     -2.085661
  C      -0.314542     -0.097964      0.376546
  C      -1.443958      0.627820     -0.404731
  H       0.089880      0.612663      1.099321
  H      -0.805342     -0.884725      0.952669
  C      -2.413434      1.109342      0.666118
  C      -0.941228      1.913547     -1.076970
  C      -2.081224     -0.246201     -1.481719
  C      -3.583128      0.618446      1.053838
  H      -2.054362      1.976006      1.214194
  O      -1.170873      2.234319     -2.209833
  O      -0.230768      2.679236     -0.235263
  H      -1.400666     -0.375791     -2.320789
  H      -2.319933     -1.230782     -1.082394
  H      -2.989622      0.210479     -1.870767
  C      -4.271361     -0.570388      0.457158
  C       0.267876      3.896789     -0.783800
  O      -5.241934     -0.509657     -0.246820
  O      -3.737327     -1.722261      0.885777
  H      -0.551332      4.525378     -1.131866
  H       0.807194      4.385988      0.023241
  H       0.935937      3.689962     -1.620310
  C      -4.381241     -2.905997      0.415851
  H      -3.825383     -3.735194      0.845075
  H      -5.420243     -2.932433      0.743555
  H      -4.356268     -2.947938     -0.673477
  C      -4.397244      1.251756      2.149229
  H      -5.365503      1.572575      1.759355
  H      -3.881442      2.115158      2.567624
  H      -4.588536      0.538309      2.955097
60
Coordinates from ORCA-job orca E -1383.400385735150
  C       1.597688      0.267343     -1.284871
  H       1.937521      1.128350     -0.708751
  H       2.457228     -0.195605     -1.768546
  C       0.878077     -0.719543     -0.370246
  C       1.792083     -1.212001      0.784561
  H       1.227691     -1.950173      1.359433
  H       1.947161     -0.358161      1.446162
  C       3.178843     -1.829463      0.503678
  C       0.411424     -1.906336     -1.212115
  O       0.568446     -2.022633     -2.397388
  O      -0.211144     -2.838602     -0.474036
  C       4.175821     -0.803553     -0.027451
  O       4.935053     -0.983496     -0.941166
  O       4.159548      0.333678      0.684974
  C       3.134963     -3.018360     -0.453670
  H       4.111581     -3.498449     -0.507482
  H       2.409318     -3.751670     -0.095710
  H       2.866408     -2.724504     -1.467165
  C       3.738228     -2.303161      1.858798
  H       3.113286     -3.107958      2.250363
  H       4.753483     -2.688509      1.746055
  H       3.755383     -1.492733      2.588112
  C      -0.663476     -3.982531     -1.191878
  H      -1.170030     -4.610440     -0.463377
  H      -1.346389     -3.689841     -1.989620
  H       0.180052     -4.514171     -1.633382
  C       5.070553      1.341359      0.255352
  H       4.857309      1.631668     -0.773963
  H       4.920775      2.182461      0.927463
  H       6.098108      0.983294      0.314655
  H       0.950105      0.611000     -2.090330
  C      -0.335263     -0.081150      0.360009
  C      -1.453102      0.656092     -0.426899
  H       0.067742      0.623062      1.089921
  H      -0.837019     -0.867115      0.927669
  C      -2.429907      1.141233      0.636645
  C      -0.936257      1.940287     -1.091264
  C      -2.088981     -0.207932     -1.513235
  C      -3.580503      0.622837      1.044639
  H      -2.097802      2.035836      1.155693
  O      -1.158158      2.268059     -2.223737
  O      -0.223092      2.696541     -0.243378
  H      -1.409222     -0.325652     -2.354720
  H      -2.323280     -1.198859     -1.127175
  H      -3.000530      0.249515     -1.893580
  C      -4.219402     -0.613611      0.491609
  C       0.288573      3.911785     -0.784887
  O      -5.210001     -0.622024     -0.186463
  O      -3.609474     -1.725077      0.927509
  H      -0.523495      4.548703     -1.134634
  H       0.828130      4.393469      0.026500
  H       0.958919      3.702413     -1.618965
  C      -4.196304     -2.953094      0.498554
  H      -3.582155     -3.740163      0.927792
  H      -5.222720     -3.032249      0.856236
  H      -4.198921     -3.016484     -0.590085
  C      -4.414047      1.259058      2.122815
  H      -5.394055      1.533047      1.726748
  H      -3.928832      2.152752      2.513052
  H      -4.577471      0.563267      2.949953
60
Coordinates from ORCA-job orca E -1383.400654464300
  C       1.589874      0.284880     -1.280597
  H       1.930290      1.136871     -0.691705
  H       2.451356     -0.183841     -1.755265
  C       0.844270     -0.701555     -0.386606
  C       1.734743     -1.215670      0.776848
  H       1.151812     -1.949261      1.338964
  H       1.892925     -0.368662      1.446554
  C       3.116131     -1.851961      0.511516
  C       0.376151     -1.873243     -1.248266
  O       0.541281     -1.973806     -2.433844
  O      -0.258505     -2.812139     -0.528539
  C       4.134719     -0.838234     -0.001590
  O       4.900947     -1.023687     -0.908370
  O       4.128087      0.294391      0.718263
  C       3.067722     -3.035674     -0.452050
  H       4.039158     -3.526893     -0.498583
  H       2.330128     -3.762012     -0.104527
  H       2.812518     -2.734205     -1.466836
  C       3.649689     -2.340688      1.871674
  H       3.005546     -3.136105      2.251164
  H       4.659475     -2.743303      1.770772
  H       3.670943     -1.533833      2.604812
  C      -0.710401     -3.942799     -1.267217
  H      -1.227736     -4.578499     -0.553197
  H      -1.383476     -3.635003     -2.067753
  H       0.134475     -4.473233     -1.707717
  C       5.057136      1.291726      0.303335
  H       4.857884      1.590174     -0.726469
  H       4.912247      2.131180      0.978575
  H       6.079008      0.919113      0.370813
  H       0.959270      0.642459     -2.093489
  C      -0.372864     -0.056462      0.331667
  C      -1.472052      0.697558     -0.465824
  H       0.025802      0.638096      1.073190
  H      -0.891310     -0.841718      0.884836
  C      -2.460545      1.191113      0.584016
  C      -0.931613      1.977507     -1.119254
  C      -2.105655     -0.152762     -1.565621
  C      -3.574062      0.628450      1.033583
  H      -2.176126      2.130538      1.049086
  O      -1.136612      2.312808     -2.252826
  O      -0.218869      2.721779     -0.260533
  H      -1.425973     -0.254112     -2.409359
  H      -2.334822     -1.151773     -1.198306
  H      -3.021059      0.305782     -1.935318
  C      -4.127579     -0.679871      0.560512
  C       0.316824      3.930854     -0.792440
  O      -5.146831     -0.803140     -0.061588
  O      -3.395450     -1.714893      0.997849
  H      -0.481522      4.580405     -1.150520
  H       0.853136      4.402858      0.026761
  H       0.994379      3.713852     -1.618730
  C      -3.887487     -3.006582      0.644286
  H      -3.173222     -3.716423      1.052690
  H      -4.875626     -3.170132      1.074142
  H      -3.955733     -3.108085     -0.439388
  C      -4.440339      1.271125      2.080699
  H      -5.436476      1.462733      1.676758
  H      -4.009029      2.212644      2.418108
  H      -4.558484      0.613175      2.945635
60
Coordinates from ORCA-job orca E -1383.400229491107
  C       1.571055      0.308791     -1.265209
  H       1.907626      1.145802     -0.653439
  H       2.436605     -0.164118     -1.728446
  C       0.788424     -0.683142     -0.409818
  C       1.644471     -1.234099      0.762531
  H       1.037774     -1.966419      1.300734
  H       1.802525     -0.401421      1.450228
  C       3.019230     -1.891450      0.514718
  C       0.324544     -1.826386     -1.311239
  O       0.495390     -1.886926     -2.498582
  O      -0.312789     -2.793159     -0.630377
  C       4.067924     -0.888484      0.042996
  O       4.844333     -1.068505     -0.856267
  O       4.076557      0.224284      0.792881
  C       2.968543     -3.055397     -0.472777
  H       3.932223     -3.562107     -0.512373
  H       2.213256     -3.775748     -0.151800
  H       2.734809     -2.730341     -1.485585
  C       3.515525     -2.416056      1.875595
  H       2.845667     -3.202561      2.228599
  H       4.517365     -2.840494      1.786239
  H       3.540491     -1.622840      2.623264
  C      -0.749850     -3.896394     -1.418386
  H      -1.250354     -4.575138     -0.732856
  H      -1.434556     -3.565062     -2.199665
  H       0.101352     -4.390591     -1.887794
  C       5.035975      1.209423      0.419819
  H       4.855815      1.543784     -0.602476
  H       4.904172      2.031254      1.118974
  H       6.047058      0.808616      0.486900
  H       0.966990      0.687502     -2.088779
  C      -0.433719     -0.031063      0.294878
  C      -1.510271      0.742805     -0.515451
  H      -0.038469      0.655053      1.046053
  H      -0.967566     -0.813459      0.835050
  C      -2.516295      1.263356      0.508208
  C      -0.934410      2.007420     -1.166629
  C      -2.154393     -0.097970     -1.620168
  C      -3.574030      0.651846      1.024914
  H      -2.322854      2.271440      0.862644
  O      -1.109990      2.340279     -2.305987
  O      -0.229826      2.744599     -0.295736
  H      -1.477480     -0.205351     -2.465423
  H      -2.399965     -1.096924     -1.262907
  H      -3.064765      0.374661     -1.984979
  C      -3.970260     -0.753650      0.695983
  C       0.340492      3.940470     -0.821672
  O      -5.008193     -1.067353      0.181610
  O      -3.054831     -1.638114      1.119502
  H      -0.436243      4.600586     -1.206903
  H       0.861854      4.410465      0.008267
  H       1.037130      3.706055     -1.627050
  C      -3.371710     -3.008269      0.884319
  H      -2.520433     -3.574255      1.252242
  H      -4.277597     -3.288299      1.422218
  H      -3.524933     -3.190130     -0.180084
  C      -4.506652      1.310425      2.001345
  H      -5.517748      1.345673      1.591252
  H      -4.183820      2.325953      2.227212
  H      -4.552703      0.742944      2.934464
60
Coordinates from ORCA-job orca E -1383.400800050573
  C       1.586621      0.286722     -1.279720
  H       1.926945      1.136573     -0.687600
  H       2.448325     -0.183680     -1.752532
  C       0.832761     -0.699332     -0.391964
  C       1.715356     -1.222655      0.773227
  H       1.126873     -1.955450      1.330555
  H       1.874562     -0.379099      1.447218
  C       3.094026     -1.864982      0.509677
  C       0.364449     -1.864826     -1.262639
  O       0.518781     -1.948065     -2.450864
  O      -0.257730     -2.820715     -0.554177
  C       4.120989     -0.853882      0.008365
  O       4.887571     -1.036119     -0.898816
  O       4.122804      0.270485      0.740942
  C       3.041709     -3.041203     -0.462859
  H       4.010233     -3.538064     -0.510258
  H       2.298680     -3.765641     -0.122931
  H       2.790524     -2.730516     -1.475951
  C       3.621298     -2.365602      1.868027
  H       2.970903     -3.158645      2.242146
  H       4.628406     -2.774643      1.766313
  H       3.646619     -1.563083      2.605754
  C      -0.717899     -3.931725     -1.317868
  H      -1.187778     -4.608626     -0.609147
  H      -1.435328     -3.608170     -2.072786
  H       0.116820     -4.423855     -1.817753
  C       5.063641      1.263129      0.341613
  H       4.862896      1.585477     -0.680748
  H       4.933635      2.090489      1.034589
  H       6.080489      0.875093      0.395725
  H       0.961138      0.647282     -2.095249
  C      -0.380630     -0.045864      0.326913
  C      -1.481920      0.707733     -0.470202
  H       0.026365      0.654530      1.058392
  H      -0.895061     -0.823069      0.891888
  C      -2.481705      1.209713      0.569050
  C      -0.933540      1.982265     -1.126114
  C      -2.123691     -0.142972     -1.567506
  C      -3.586712      0.640304      1.035093
  H      -2.237272      2.182654      0.985472
  O      -1.125759      2.311716     -2.263649
  O      -0.230908      2.730044     -0.262591
  H      -1.447590     -0.252975     -2.412625
  H      -2.364335     -1.139071     -1.198814
  H      -3.035653      0.322904     -1.936941
  C      -4.097311     -0.703590      0.615242
  C       0.314266      3.935059     -0.794107
  O      -5.129350     -0.885878      0.030142
  O      -3.305979     -1.696362      1.046171
  H      -0.476936      4.581794     -1.172476
  H       0.835389      4.413738      0.031034
  H       1.007452      3.711581     -1.605642
  C      -3.737354     -3.013216      0.710436
  H      -2.992566     -3.683107      1.131365
  H      -4.719618     -3.215371      1.137285
  H      -3.792610     -3.132336     -0.372252
  C      -4.480335      1.307910      2.040158
  H      -5.480371      1.440779      1.623008
  H      -4.085819      2.281955      2.326799
  H      -4.580293      0.694270      2.938964
60
Coordinates from ORCA-job orca E -1383.400798774186
  C       1.592491      0.283381     -1.282731
  H       1.940481      1.131511     -0.692336
  H       2.450163     -0.192303     -1.757362
  C       0.836186     -0.696776     -0.390304
  C       1.717783     -1.220865      0.775018
  H       1.128327     -1.953194      1.331823
  H       1.878060     -0.377473      1.448926
  C       3.097274     -1.862636      0.512516
  C       0.357374     -1.862624     -1.253633
  O       0.522994     -1.962230     -2.439273
  O      -0.287422     -2.798046     -0.537299
  C       4.122721     -0.850536      0.009547
  O       4.890908     -1.033322     -0.896142
  O       4.119247      0.277155      0.737194
  C       3.047557     -3.040579     -0.457821
  H       4.018436     -3.532781     -0.506490
  H       2.308528     -3.767652     -0.115359
  H       2.794197     -2.732767     -1.471328
  C       3.623624     -2.360851      1.872010
  H       2.974492     -3.154776      2.246182
  H       4.631714     -2.768119      1.772178
  H       3.647241     -1.557577      2.608972
  C      -0.757505     -3.916352     -1.283999
  H      -1.243612     -4.572435     -0.566312
  H      -1.464012     -3.595833     -2.050423
  H       0.073406     -4.430696     -1.767317
  C       5.057450      1.271184      0.335106
  H       4.860822      1.585731     -0.690437
  H       4.920751      2.102684      1.021831
  H       6.075604      0.887595      0.397149
  H       0.965624      0.647660     -2.095388
  C      -0.374808     -0.039185      0.327301
  C      -1.477896      0.710369     -0.470321
  H       0.032377      0.663444      1.056458
  H      -0.889545     -0.815414      0.894935
  C      -2.476062      1.206088      0.571349
  C      -0.933458      1.985852     -1.128140
  C      -2.116234     -0.141067     -1.567812
  C      -3.574448      0.627271      1.039207
  H      -2.228130      2.173324      0.998609
  O      -1.129568      2.314277     -2.265287
  O      -0.225667      2.734388     -0.269014
  H      -1.437295     -0.249719     -2.410937
  H      -2.354638     -1.136719     -1.197034
  H      -3.028213      0.322323     -1.939712
  C      -4.091819     -0.707965      0.600627
  C       0.317736      3.938031     -0.805099
  O      -5.126963     -0.876197      0.015848
  O      -3.305478     -1.711457      1.015142
  H      -0.475016      4.585273     -1.179432
  H       0.844398      4.416820      0.016449
  H       1.005627      3.712408     -1.620560
  C      -3.745381     -3.022441      0.667049
  H      -3.005135     -3.701297      1.082169
  H      -4.729546     -3.221939      1.090297
  H      -3.799541     -3.131141     -0.417109
  C      -4.461967      1.281464      2.058953
  H      -5.466609      1.411402      1.651817
  H      -4.068835      2.254859      2.349295
  H      -4.550320      0.662279      2.955236
60
Coordinates from ORCA-job orca E -1383.400846476833
  C       1.590301      0.289320     -1.278049
  H       1.934369      1.134415     -0.681205
  H       2.450439     -0.182285     -1.752267
  C       0.831857     -0.697734     -0.395132
  C       1.710633     -1.227209      0.770117
  H       1.120898     -1.963500      1.321367
  H       1.867228     -0.387239      1.449095
  C       3.091954     -1.865400      0.508192
  C       0.360031     -1.858686     -1.268538
  O       0.525831     -1.946153     -2.455163
  O      -0.276031     -2.806882     -0.561094
  C       4.117996     -0.849143      0.014482
  O       4.890225     -1.026404     -0.888871
  O       4.110643      0.274495      0.748171
  C       3.047644     -3.037951     -0.468985
  H       4.019303     -3.528580     -0.516872
  H       2.308580     -3.768055     -0.133161
  H       2.797101     -2.724891     -1.481532
  C       3.615064     -2.370615      1.866384
  H       2.966511     -3.168166      2.233764
  H       4.624340     -2.774986      1.767088
  H       3.634353     -1.571696      2.608156
  C      -0.724305     -3.927463     -1.318039
  H      -1.190681     -4.602854     -0.605280
  H      -1.442249     -3.615458     -2.077196
  H       0.115744     -4.416946     -1.811111
  C       5.053253      1.269329      0.358447
  H       4.863597      1.590771     -0.666210
  H       4.913760      2.096526      1.049761
  H       6.070214      0.883302      0.424269
  H       0.966560      0.657279     -2.091479
  C      -0.382758     -0.045737      0.322155
  C      -1.482232      0.708282     -0.475552
  H       0.022044      0.653204      1.056048
  H      -0.897960     -0.825762      0.884598
  C      -2.480254      1.212531      0.562521
  C      -0.933404      1.981341     -1.134224
  C      -2.125943     -0.141671     -1.571108
  C      -3.577073      0.636955      1.038514
  H      -2.235807      2.185571      0.978372
  O      -1.130909      2.311801     -2.270539
  O      -0.221426      2.726582     -0.275697
  H      -1.446658     -0.261506     -2.412680
  H      -2.375879     -1.133227     -1.197202
  H      -3.032155      0.329996     -1.946694
  C      -4.090882     -0.705374      0.618972
  C       0.322108      3.930702     -0.810683
  O      -5.127489     -0.884417      0.039947
  O      -3.298697     -1.700783      1.041390
  H      -0.470793      4.579906     -1.181261
  H       0.851952      4.406961      0.010257
  H       1.007103      3.706430     -1.628862
  C      -3.741139     -3.016990      0.716399
  H      -2.999975     -3.689677      1.139544
  H      -4.723820     -3.208275      1.146668
  H      -3.800233     -3.143703     -0.365539
  C      -4.466034      1.302442      2.051170
  H      -5.474041      1.418283      1.648000
  H      -4.079962      2.283886      2.323295
  H      -4.544378      0.696919      2.957863
60
Coordinates from ORCA-job orca E -1383.400870586877
  C       1.587308      0.288084     -1.279632
  H       1.930437      1.135036     -0.684901
  H       2.447925     -0.183422     -1.753101
  C       0.830053     -0.697610     -0.394251
  C       1.709651     -1.225169      0.771259
  H       1.119613     -1.959381      1.324904
  H       1.868491     -0.384108      1.448433
  C       3.088964     -1.866964      0.508537
  C       0.358918     -1.860492     -1.266033
  O       0.520378     -1.946979     -2.453200
  O      -0.272876     -2.811002     -0.558219
  C       4.117020     -0.854032      0.012570
  O       4.887110     -1.033926     -0.892093
  O       4.115097      0.269262      0.746853
  C       3.039487     -3.040417     -0.467332
  H       4.009671     -3.533862     -0.516588
  H       2.298892     -3.768118     -0.129265
  H       2.787839     -2.727738     -1.479680
  C       3.613092     -2.371635      1.866519
  H       2.963017     -3.166859      2.236357
  H       4.621063     -2.778947      1.766010
  H       3.635916     -1.571669      2.607097
  C      -0.723507     -3.928684     -1.317953
  H      -1.174400     -4.613644     -0.604422
  H      -1.455111     -3.615697     -2.063740
  H       0.112810     -4.407620     -1.827449
  C       5.059501      1.261598      0.355203
  H       4.866823      1.585801     -0.668061
  H       4.925634      2.087919      1.048680
  H       6.075377      0.871940      0.416182
  H       0.962770      0.653296     -2.093709
  C      -0.382997     -0.042989      0.323691
  C      -1.483527      0.710262     -0.473517
  H       0.024024      0.658025      1.054463
  H      -0.896968     -0.820463      0.889626
  C      -2.483908      1.214002      0.563585
  C      -0.934028      1.983498     -1.130929
  C      -2.126878     -0.139058     -1.570651
  C      -3.581522      0.638059      1.038878
  H      -2.245632      2.190734      0.974499
  O      -1.127371      2.313036     -2.268258
  O      -0.227962      2.730646     -0.269280
  H      -1.447382     -0.258094     -2.412033
  H      -2.378123     -1.130775     -1.198220
  H      -3.032736      0.333503     -1.946394
  C      -4.088738     -0.709156      0.627140
  C       0.318185      3.934278     -0.802650
  O      -5.129027     -0.896515      0.057499
  O      -3.284833     -1.698117      1.041753
  H      -0.472510      4.582166     -1.180154
  H       0.841728      4.412534      0.021182
  H       1.009374      3.709060     -1.615411
  C      -3.715602     -3.016908      0.712627
  H      -2.966135     -3.684021      1.129763
  H      -4.694906     -3.219623      1.145496
  H      -3.777179     -3.138976     -0.369629
  C      -4.477135      1.308949      2.041399
  H      -5.483724      1.415308      1.632477
  H      -4.096610      2.294937      2.304861
  H      -4.556372      0.712546      2.953996
60
Coordinates from ORCA-job orca E -1383.400872007594
  C       1.586413      0.287971     -1.279995
  H       1.930382      1.134385     -0.684951
  H       2.446709     -0.184037     -1.753536
  C       0.828356     -0.697253     -0.394738
  C       1.707570     -1.225353      0.770828
  H       1.117199     -1.959497      1.324213
  H       1.866727     -0.384580      1.448258
  C       3.086851     -1.867497      0.508356
  C       0.356337     -1.859909     -1.266283
  O       0.520279     -1.948221     -2.452986
  O      -0.278503     -2.808383     -0.558345
  C       4.115297     -0.854715      0.012861
  O       4.885627     -1.034620     -0.891593
  O       4.113463      0.268448      0.747355
  C       3.037592     -3.040790     -0.467665
  H       4.008115     -3.533534     -0.517375
  H       2.297632     -3.769010     -0.129391
  H       2.785685     -2.728168     -1.479969
  C       3.610348     -2.372568      1.866417
  H       2.959952     -3.167698      2.235864
  H       4.618250     -2.780148      1.766225
  H       3.633253     -1.572784      2.607186
  C      -0.724019     -3.929689     -1.315800
  H      -1.172280     -4.614954     -0.600835
  H      -1.456640     -3.621489     -2.062554
  H       0.114473     -4.406329     -1.823777
  C       5.058662      1.260341      0.356501
  H       4.868807      1.582922     -0.667770
  H       4.922937      2.087695      1.048380
  H       6.074402      0.870828      0.420870
  H       0.962053      0.654144     -2.093768
  C      -0.384495     -0.042241      0.322930
  C      -1.484029      0.711707     -0.474623
  H       0.022397      0.658374      1.054138
  H      -0.899001     -0.819731      0.888301
  C      -2.485116      1.215760      0.561465
  C      -0.933514      1.985048     -1.131181
  C      -2.127129     -0.136390     -1.572830
  C      -3.580124      0.637379      1.039867
  H      -2.249856      2.194335      0.969620
  O      -1.126358      2.315484     -2.268335
  O      -0.227068      2.731299     -0.268983
  H      -1.446700     -0.256066     -2.413368
  H      -2.380368     -1.127677     -1.200786
  H      -3.031866      0.337706     -1.949442
  C      -4.085746     -0.711283      0.631284
  C       0.319728      3.934988     -0.801490
  O      -5.130380     -0.900593      0.070040
  O      -3.275871     -1.698589      1.037582
  H      -0.470650      4.584078     -1.177602
  H       0.844426      4.411820      0.022430
  H       1.009960      3.710069     -1.615131
  C      -3.706186     -3.018209      0.710919
  H      -2.948251     -3.683454      1.115517
  H      -4.678475     -3.225706      1.157129
  H      -3.782954     -3.137717     -0.370629
  C      -4.477419      1.309733      2.040240
  H      -5.484442      1.410437      1.631047
  H      -4.099831      2.298134      2.298818
  H      -4.554141      0.717609      2.955872
60
Coordinates from ORCA-job orca E -1383.400875884521
  C       1.587050      0.288530     -1.278689
  H       1.931720      1.134067     -0.682812
  H       2.446962     -0.183880     -1.752508
  C       0.828064     -0.696838     -0.394385
  C       1.707093     -1.226371      0.770733
  H       1.116547     -1.961135      1.323157
  H       1.866116     -0.386388      1.449126
  C       3.086472     -1.868137      0.507854
  C       0.355070     -1.858522     -1.266637
  O       0.521037     -1.947692     -2.453010
  O      -0.282892     -2.805289     -0.559014
  C       4.114883     -0.854966      0.013000
  O       4.885799     -1.034573     -0.891006
  O       4.112169      0.268212      0.747439
  C       3.037618     -3.040934     -0.468769
  H       4.007921     -3.534174     -0.517739
  H       2.296968     -3.768933     -0.131591
  H       2.786934     -2.727700     -1.481171
  C       3.610064     -2.373865      1.865660
  H       2.960268     -3.169789      2.234419
  H       4.618302     -2.780568      1.765335
  H       3.632222     -1.574632      2.607026
  C      -0.727529     -3.927926     -1.315073
  H      -1.170958     -4.614683     -0.598504
  H      -1.464071     -3.621759     -2.058804
  H       0.110434     -4.401837     -1.826324
  C       5.057793      1.260122      0.357633
  H       4.868605      1.583190     -0.666594
  H       4.921746      2.087168      1.049806
  H       6.073434      0.870449      0.422424
  H       0.963182      0.656033     -2.092249
  C      -0.384838     -0.042256      0.323443
  C      -1.483847      0.711747     -0.474434
  H       0.021559      0.657959      1.055303
  H      -0.899324     -0.820441      0.887944
  C      -2.485429      1.216382      0.560724
  C      -0.933305      1.985028     -1.131391
  C      -2.127117     -0.136196     -1.572544
  C      -3.579505      0.637016      1.040047
  H      -2.251411      2.195686      0.967715
  O      -1.127052      2.315612     -2.268334
  O      -0.225604      2.730877     -0.269888
  H      -1.446453     -0.257686     -2.412633
  H      -2.382319     -1.126596     -1.199504
  H      -3.030670      0.339335     -1.950036
  C      -4.083741     -0.712339      0.632346
  C       0.320080      3.934984     -0.802597
  O      -5.128958     -0.902576      0.072373
  O      -3.272008     -1.698663      1.037267
  H      -0.471051      4.584109     -1.177051
  H       0.846039      4.411465      0.020708
  H       1.008984      3.710737     -1.617519
  C      -3.700818     -3.019094      0.711432
  H      -2.944430     -3.683568      1.120122
  H      -4.674914     -3.225945      1.153840
  H      -3.773040     -3.140493     -0.370273
  C      -4.478562      1.310468      2.038844
  H      -5.486267      1.406002      1.630159
  H      -4.104296      2.301284      2.293022
  H      -4.552251      0.721791      2.956958
60
Coordinates from ORCA-job orca E -1383.400874259518
  C       1.586290      0.288244     -1.279281
  H       1.930982      1.134149     -0.683936
  H       2.446157     -0.184166     -1.753187
  C       0.827907     -0.696883     -0.394208
  C       1.707455     -1.225546      0.770919
  H       1.117049     -1.959759      1.324229
  H       1.866870     -0.385003      1.448540
  C       3.086600     -1.867780      0.508047
  C       0.355219     -1.859277     -1.265736
  O       0.520704     -1.948864     -2.452132
  O      -0.281939     -2.806078     -0.557524
  C       4.115095     -0.855260      0.012090
  O       4.885620     -1.035778     -0.892071
  O       4.113024      0.268437      0.745733
  C       3.037131     -3.041339     -0.467640
  H       4.007224     -3.535021     -0.516352
  H       2.296264     -3.768793     -0.129736
  H       2.786367     -2.728816     -1.480241
  C       3.610508     -2.372578      1.866089
  H       2.960549     -3.167984      2.235691
  H       4.618572     -2.779708      1.765761
  H       3.633167     -1.572753      2.606808
  C      -0.726106     -3.929223     -1.313048
  H      -1.169394     -4.615781     -0.596212
  H      -1.462615     -3.623687     -2.057091
  H       0.112111     -4.403036     -1.824002
  C       5.058664      1.259840      0.354697
  H       4.869598      1.581542     -0.669984
  H       4.922567      2.087820      1.045744
  H       6.074311      0.870271      0.420108
  H       0.962039      0.655257     -2.092767
  C      -0.384952     -0.042286      0.323638
  C      -1.483664      0.712069     -0.474361
  H       0.021424      0.657752      1.055671
  H      -0.899754     -0.820397      0.887962
  C      -2.485628      1.216106      0.560765
  C      -0.932958      1.985845     -1.130250
  C      -2.126426     -0.135264     -1.573291
  C      -3.579877      0.636596      1.039587
  H      -2.251681      2.195242      0.968226
  O      -1.126846      2.317480     -2.266865
  O      -0.225173      2.730895     -0.268131
  H      -1.445565     -0.255767     -2.413357
  H      -2.381176     -1.126106     -1.201166
  H      -3.030191      0.340163     -1.950460
  C      -4.084508     -0.712418      0.631240
  C       0.320448      3.935497     -0.799787
  O      -5.129829     -0.901950      0.071237
  O      -3.273227     -1.699280      1.035631
  H      -0.470781      4.585174     -1.173089
  H       0.846910      4.410982      0.023775
  H       1.008875      3.712060     -1.615336
  C      -3.702918     -3.019263      0.709261
  H      -2.945492     -3.684203      1.115255
  H      -4.675837     -3.226627      1.154077
  H      -3.778104     -3.139424     -0.372374
  C      -4.478879      1.309780      2.038563
  H      -5.486444      1.405588      1.629591
  H      -4.104400      2.300417      2.293080
  H      -4.552868      0.720706      2.956380
