60
Coordinates from ORCA-job orca E -1383.400874259518
  C           1.58628970808936      0.28824411719090     -1.27928086436431
  H           1.93098186087099      1.13414854797632     -0.68393586702746
  H           2.44615654156122     -0.18416614049361     -1.75318689591969
  C           0.82790705447050     -0.69688276435834     -0.39420774018937
  C           1.70745490430928     -1.22554632792736      0.77091853080704
  H           1.11704945132078     -1.95975875126088      1.32422853831535
  H           1.86686965494750     -0.38500339053789      1.44853993623247
  C           3.08660030505991     -1.86778001748943      0.50804679706397
  C           0.35521890972504     -1.85927676141188     -1.26573562710072
  O           0.52070397802116     -1.94886414445179     -2.45213217204723
  O          -0.28193868372740     -2.80607837408681     -0.55752357459141
  C           4.11509476103318     -0.85525966263349      0.01209016404156
  O           4.88562047847475     -1.03577757684500     -0.89207121130892
  O           4.11302392645585      0.26843736686737      0.74573343444582
  C           3.03713070405409     -3.04133873727715     -0.46764034910991
  H           4.00722394352987     -3.53502101602545     -0.51635178067162
  H           2.29626433766452     -3.76879347049441     -0.12973604127497
  H           2.78636702455967     -2.72881624060941     -1.48024055967326
  C           3.61050836466023     -2.37257825688309      1.86608931476630
  H           2.96054938452048     -3.16798405372243      2.23569067348770
  H           4.61857248114986     -2.77970752607924      1.76576141067977
  H           3.63316698063669     -1.57275297382534      2.60680754711465
  C          -0.72610634926397     -3.92922295590924     -1.31304798753301
  H          -1.16939396348618     -4.61578129066588     -0.59621241846358
  H          -1.46261452743076     -3.62368749230348     -2.05709124016760
  H           0.11211055635583     -4.40303643989987     -1.82400156830533
  C           5.05866392453853      1.25983970714509      0.35469697131398
  H           4.86959756764579      1.58154151571115     -0.66998376263711
  H           4.92256665190357      2.08781997930645      1.04574434374486
  H           6.07431056259063      0.87027050151551      0.42010781672999
  H           0.96203865365132      0.65525687791979     -2.09276690255827
  C          -0.38495156230704     -0.04228572853845      0.32363780550610
  C          -1.48366401820717      0.71206876126753     -0.47436097405258
  H           0.02142386310546      0.65775157075236      1.05567103451004
  H          -0.89975441821218     -0.82039654895179      0.88796228307491
  C          -2.48562771335218      1.21610592077003      0.56076467922367
  C          -0.93295776586677      1.98584457072385     -1.13025019330364
  C          -2.12642645046864     -0.13526373113789     -1.57329122065627
  C          -3.57987671753696      0.63659551416813      1.03958734517507
  H          -2.25168072916861      2.19524215857442      0.96822555946060
  O          -1.12684629023273      2.31748021307941     -2.26686474021065
  O          -0.22517260726555      2.73089483902423     -0.26813136306054
  H          -1.44556469090134     -0.25576659561656     -2.41335651131269
  H          -2.38117597155866     -1.12610614125967     -1.20116623198706
  H          -3.03019091425356      0.34016298646236     -1.95045971996201
  C          -4.08450770872687     -0.71241769799266      0.63123957613613
  C           0.32044768197356      3.93549689278797     -0.79978667785449
  O          -5.12982900656400     -0.90195017979434      0.07123735580854
  O          -3.27322692382169     -1.69928040931721      1.03563097704152
  H          -0.47078064566651      4.58517427289656     -1.17308932165363
  H           0.84691018551562      4.41098206484763      0.02377475259654
  H           1.00887473878531      3.71205959304051     -1.61533646711751
  C          -3.70291763673308     -3.01926338484929      0.70926136379874
  H          -2.94549203831888     -3.68420260308935      1.11525523127523
  H          -4.67583652910902     -3.22662735507844      1.15407695276225
  H          -3.77810409689978     -3.13942351342285     -0.37237441580926
  C          -4.47887873470129      1.30978041064951      2.03856291723145
  H          -5.48644409070573      1.40558764223379      1.62959127932996
  H          -4.10439985919575      2.30041666963459      2.29307983608971
  H          -4.55286849749821      0.72070555969456      2.95637997216017
