64
Coordinates from ORCA-job orca E -1421.333723928341
  C           1.76076502659052      0.76890698368456     -1.05804363241085
  H           1.86588306985288      1.72427743963947     -0.52608545833928
  H           2.71912573834285      0.52081567077737     -1.53192764761665
  C           1.31949918511800     -0.32972427039583     -0.08406688333184
  C           2.35325559998971     -0.54494818816642      1.06448719082538
  H           2.00096001715687     -1.39152078844204      1.67371525954668
  H           2.30373853427489      0.34489397735391      1.70905635106725
  C           3.84957576516034     -0.80245390986059      0.75226964813551
  C           1.14261372547109     -1.63244453550483     -0.86757497916507
  O           1.32010469175310     -1.77018062892842     -2.05341176805815
  O           0.75535682460676     -2.65083654123081     -0.07207278019776
  C           4.53536404321927      0.43430961657710      0.16704819912694
  O           5.29005585726792      0.43739837491997     -0.77445452194974
  O           4.24638276057425      1.55003641947804      0.86917948293511
  C           4.08570677101254     -1.99200661341937     -0.18715482352153
  H           5.16044658566100     -2.21065164515545     -0.26456599864308
  H           3.57539860798266     -2.88543502044420      0.20372051280074
  H           3.72251693795363     -1.79744244617381     -1.20370612955208
  C           4.55025230312868     -1.07862688336966      2.10556801025609
  H           4.15479337831941     -2.00679437936439      2.54810296708797
  H           5.63588440739711     -1.20398417819581      1.96692302995229
  H           4.38519100793847     -0.25620413610610      2.81709755044927
  C           0.55870437750589     -3.90791612048729     -0.71584689425275
  H           0.25922388922858     -4.61226046455334      0.07058652950642
  H          -0.22701621739646     -3.83323549104817     -1.48323994491825
  H           1.48648412511740     -4.24678115730128     -1.20151809433498
  C           4.86460581856584      2.75287102064297      0.41805391492875
  H           4.54514012574201      2.99274974628567     -0.60811996090089
  H           4.54436795728745      3.54165862049495      1.11061729918072
  H           5.96106347023685      2.65783897418208      0.42522492806559
  H           1.04161546892560      0.89103691447778     -1.87640298402138
  C          -0.00283715931434      0.02611455713419      0.66185463453791
  C          -1.32067790905277      0.36877223964317     -0.09824170939792
  H           0.22729344245106      0.88221921124158      1.31319505385943
  H          -0.23708169956312     -0.81838665480144      1.32676695130050
  C          -2.35900638502823      0.60716229297272      1.04145498872280
  C          -1.13916745680552      1.65754558145261     -0.90417861656127
  C          -1.75627166536781     -0.74715799704779     -1.05482661568040
  C          -3.85280160944913      0.85609574687297      0.71114003731223
  H          -2.31564988774869     -0.26955474019580      1.70406913804554
  H          -2.01491900470700      1.46696569584766      1.63525114048192
  O          -1.31069653506735      1.77343679885459     -2.09332474383130
  O          -0.75675472300683      2.68958929099097     -0.12514374730314
  H          -1.03304163258362     -0.88099174268340     -1.86775641050818
  H          -1.86173497108798     -1.69336174073142     -0.50720819306522
  H          -2.71321944605928     -0.50972388854280     -1.53746426308912
  C          -4.09303172803571      2.01552270735129     -0.26747502960190
  C          -4.53940574826133     -0.40808939424645      0.15436823666579
  C          -0.55812141742487      3.93586971283839     -0.78905406169215
  H          -3.60241610242946      2.92669420408052      0.10535672912054
  H          -3.71131024591566      1.79145590184637     -1.27100910257973
  H          -5.17002478809128      2.21168567113307     -0.36611743061463
  O          -5.31502294750099     -0.42895784875956     -0.76869876218531
  O          -4.22139841047532     -1.50659903972272      0.86908749770042
  H          -1.48401510486942      4.26560838255349     -1.28449924452658
  H          -0.26312028014821      4.65350307448652     -0.01306858639264
  H           0.23118954213787      3.84907742848325     -1.55145752087335
  C          -4.84621171558597     -2.72138838341154      0.46095879959501
  H          -4.50454616489115     -3.49305010687168      1.16248878738296
  H          -5.94245263368735     -2.62949366255369      0.49582632845830
  H          -4.55313966703801     -2.98421017558055     -0.56753875904781
  C          -4.56861299975465      1.12546870115683      2.00912437458713
  H          -4.27220909556454      0.60089865248604      2.92084907332458
  H          -5.51146370405835      1.67844316335653      2.00522265320518
