64
Coordinates from ORCA-job orca E -1421.303587005637
  C           1.82746738455334      0.69031182535741     -1.04240759224857
  H           1.90367865754617      1.64836645981718     -0.51063522845012
  H           2.77383771845854      0.49669990745187     -1.56360999778992
  C           1.49204794642298     -0.43475387311266     -0.05748571046074
  C           2.57014022659439     -0.58252411183514      1.05946446887393
  H           2.28059155705719     -1.43921280133952      1.68736377097033
  H           2.49395909267028      0.31159030036622      1.69560607564745
  C           4.06847268444032     -0.76574384580869      0.70432844707125
  C           1.37153909592842     -1.74529005878560     -0.83770205721066
  O           1.52589576953843     -1.87138416930574     -2.02805397128808
  O           1.06659087733176     -2.78494518376195     -0.03427319830029
  C           4.66311852438024      0.49242715965495      0.06776852161074
  O           5.36940624360679      0.51654273323286     -0.91029498153306
  O           4.35124535723999      1.60489026393233      0.76528264869367
  C           4.34111698940055     -1.96291492835472     -0.21528825967737
  H           5.42363810855965     -2.12373756366379     -0.32175014548736
  H           3.89393831861111     -2.87328267361411      0.21207114393194
  H           3.93783955305798     -1.81377834445447     -1.22431297718919
  C           4.82356262999991     -0.97194869778719      2.04072895168861
  H           4.49089927541240     -1.90883215685439      2.51516021238722
  H           5.90972450318809     -1.04350682255021      1.87139670667988
  H           4.63607634440923     -0.14277087800684      2.73857962818871
  C           0.92659224016658     -4.05102704680127     -0.67583781076840
  H           0.67773083471139     -4.77004809618660      0.11494329558470
  H           0.12609774219732     -4.01772073060054     -1.43060555458716
  H           1.86341540197977     -4.34036880173200     -1.17610513983681
  C           4.87663954163362      2.82985749885853      0.25923124268513
  H           4.48098933409827      3.03443744823246     -0.74791718354716
  H           4.55889988006791      3.61320672290420      0.95908282345776
  H           5.97479222345132      2.79139895935988      0.19839750074705
  H           1.06533228955971      0.77717534539012     -1.82688226446664
  C           0.16980584256577     -0.15853261854316      0.72583680796936
  C          -1.17145099225594      0.12582846016100     -0.02903311361387
  H           0.36253485574688      0.70445749557940      1.37923418342763
  H          -0.01427427036106     -1.02022673255373      1.38445507227365
  C          -2.22312416967461      0.28339590527719      1.04219359142907
  C          -1.10970051338571      1.45841289110815     -0.78384342805036
  C          -1.57146994341426     -0.98875192731325     -1.00596002499860
  C          -4.82289363221662      1.19937465487044      0.72155836508674
  H          -2.73821405041934     -0.60814096153304      1.40495167131015
  H          -2.18135245222006      1.14920098042672      1.70367118079593
  O          -1.40970229908548      1.62367680339161     -1.94049414991122
  O          -0.71612731587748      2.46957139043086      0.01688666069279
  H          -0.88216115007032     -1.05641076474283     -1.85614383639865
  H          -1.57876129262587     -1.95593309328352     -0.48002575004338
  H          -2.57433116085056     -0.80110016128440     -1.41182850635308
  C          -4.48009325766764      2.31553276781277     -0.22751533272484
  C          -5.02143431627146     -0.13252924367685      0.07469780591118
  C          -0.65696178041498      3.76016691843259     -0.58708062817752
  H          -4.13203786725465      3.20413572280471      0.31901715224587
  H          -3.71816923587632      2.00731350686071     -0.95533407710294
  H          -5.36912694829650      2.59735551831014     -0.81718237812476
  O          -4.99282992747797     -0.30928371362966     -1.12262337962257
  O          -5.23425686853756     -1.13479622913674      0.95283566088366
  H          -1.64406470692500      4.05710867892916     -0.97253745753965
  H          -0.32970508347987      4.45221966147438      0.19923123935345
  H           0.05843053938017      3.76556833818816     -1.42382650540685
  C          -5.43300662119411     -2.42707043852717      0.38531607347311
  H          -5.61772409195630     -3.10635498453684      1.22722795182928
  H          -6.29217464454246     -2.42747972982719     -0.30272363087153
  H          -4.54132057590131     -2.74861841992495     -0.17543901618280
  C          -5.09751626513368      1.37946500072836      2.02485886519222
  H          -5.40293236354263      0.54688358971577      2.66056180540953
  H          -5.00394978703642      2.36695689400857      2.48622376246202
