64
Coordinates from ORCA-job orca E -1421.295886538804
  C           1.76189309526714      0.70220788194975     -1.06275007049870
  H           1.85025673270227      1.67264481941818     -0.55521451632241
  H           2.71150307379702      0.47812694416307     -1.56542126656164
  C           1.39455762512515     -0.38938287058777     -0.05201377937052
  C           2.46683486521522     -0.53751774827948      1.07137787255459
  H           2.15781412939250     -1.37509945314337      1.71555422697444
  H           2.40800278150555      0.37040294612805      1.68941550048048
  C           3.96155013621434     -0.75918258817216      0.72431706205936
  C           1.24383780694808     -1.71640056029364     -0.79842976798843
  O           1.40737746942314     -1.87916324243961     -1.98307049015601
  O           0.90034950414098     -2.72425536727024      0.02942903238607
  C           4.58665484968533      0.47491464154892      0.06988430949036
  O           5.30308064636006      0.46621501588320     -0.90097046654128
  O           4.28985507589012      1.60634164806509      0.74302501643486
  C           4.21095089879836     -1.97762423981910     -0.17367144178789
  H           5.28996738042317     -2.16462043120523     -0.27227842729465
  H           3.74168825440846     -2.87039851241511      0.26717775195875
  H           3.81498339736809     -1.83738919499653     -1.18686678040145
  C           4.70787360646808     -0.95893865766807      2.06675261011232
  H           4.35412555445024     -1.88056277156028      2.55560541544952
  H           5.79275013566883     -1.05615027612693      1.90222716814576
  H           4.53584533905530     -0.11442953264699      2.75008088628138
  C           0.72797177330595     -4.00274779396279     -0.57901308184121
  H           0.45964179571087     -4.69402008343812      0.22988586621197
  H          -0.07121140108951     -3.96807324616885     -1.33522533884321
  H           1.65703662691974     -4.32924342659889     -1.07060259148303
  C           4.84508493150324      2.81100516409160      0.22012049320025
  H           4.46555701461663      3.00370107784599     -0.79553676589657
  H           4.53446388576885      3.61364097303195      0.90104548683566
  H           5.94291204624506      2.75012093429724      0.17357012311387
  H           1.01122345196726      0.78256773537985     -1.85809724788733
  C           0.08095245285689     -0.06078664083708      0.72602229513084
  C          -1.26397436462239      0.23449568969773     -0.02106839809273
  H           0.30056328787111      0.81372757934000      1.35511074120082
  H          -0.11430051831530     -0.90111605809598      1.40858463932389
  C          -2.26737447500098      0.41544112600830      1.11487163598711
  C          -1.15737880043032      1.54046050318560     -0.81145868996597
  C          -1.68075490134319     -0.89494149974893     -0.96995866331651
  C          -4.31508385547812      0.99477554755385      0.73060083395933
  H          -2.49967162224825     -0.51533997267235      1.64140538660611
  H          -2.03619181048735      1.24514409264334      1.78869315415502
  O          -1.37731353172907      1.66574546247575     -1.99077414413858
  O          -0.79241497070037      2.57397190941779     -0.02656677624162
  H          -0.95985816318533     -1.02338100189981     -1.78585138445077
  H          -1.75861732933106     -1.84040422457700     -0.41268971706737
  H          -2.64766889459162     -0.67689896097588     -1.43777070800585
  C          -4.21422900545526      2.21820572137226     -0.15786533257682
  C          -4.74536483661014     -0.24889004154661      0.00853572966028
  C          -0.65978889096511      3.83701036488658     -0.67625472106049
  H          -3.66683803205374      3.02220433538129      0.35532850000231
  H          -3.71912969891442      1.99145160615427     -1.10883849010293
  H          -5.22382881555100      2.59025437279192     -0.39922124618854
  O          -5.03589590623301     -0.28966494589613     -1.16460434156804
  O          -4.77930101037646     -1.33649169293647      0.80652934826650
  H          -1.61221871943501      4.14159688336058     -1.13571295135907
  H          -0.36406986086302      4.55243211178481      0.10149637152040
  H           0.10678794079220      3.78891540649392     -1.46480583388754
  C          -5.18162184635342     -2.55416557373971      0.18424616317846
  H          -5.19217395651772     -3.31392090867692      0.97622479537142
  H          -6.18120021773220     -2.45600827986390     -0.26582355243629
  H          -4.47195698920585     -2.84007779732016     -0.60781737986554
  C          -4.78745872592056      1.15440329322574      2.04854640022630
  H          -5.09735123550531      0.29435884520867      2.64372349715804
  H          -4.75452517961996      2.13531296279477      2.53026604976246
