64
Coordinates from ORCA-job orca E -1421.323666593007
  C           1.74940774189190      0.73264596425401     -1.06541976097891
  H           1.85083096175153      1.70007835793310     -0.55465898469894
  H           2.70176619341788      0.48874893214466     -1.55333598297108
  C           1.34353217142521     -0.35237931579671     -0.06180649572556
  C           2.39852976103728     -0.52493051607724      1.07465977085842
  H           2.06470925788440     -1.35726645444325      1.71334029671859
  H           2.34978852823684      0.38261330392527      1.69414479824896
  C           3.89283035945068     -0.77636735770968      0.74702843395171
  C           1.17693135826728     -1.67486193613130     -0.81358884911189
  O           1.35184147206252     -1.83862618350624     -1.99652598978621
  O           0.80341143353901     -2.67779553590677      0.00738602855206
  C           4.55268887433166      0.44633602815014      0.10548258854984
  O           5.28310946684001      0.42533899847696     -0.85472690561527
  O           4.26960367894406      1.58186357337126      0.77758267845802
  C           4.12913936767723     -1.99678568470560     -0.15190707829494
  H           5.20505640133557     -2.20793806160155     -0.23419690446264
  H           3.63267337658171     -2.88034437785907      0.27747698771088
  H           3.75261861996690     -1.84333786596204     -1.17059000700974
  C           4.61678982945347     -0.99596128348832      2.09858859814744
  H           4.23806482370262     -1.91202235244055      2.57916652418640
  H           5.70160445879072     -1.11450269148522      1.94819397632016
  H           4.45270094373565     -0.15059876133989      2.78283736763251
  C           0.61527600652181     -3.95161729920051     -0.60579304946405
  H           0.32231992782818     -4.63898566471180      0.19789630029339
  H          -0.17219812957725     -3.90071442276068     -1.37329968748621
  H           1.54485036968257     -4.29504070322704     -1.08474822209489
  C           4.85717112569728      2.77609397158747      0.26623414508854
  H           4.49785179904352      2.97822928761329     -0.75491045933128
  H           4.55192474796522      3.58352165996411      0.94390581225465
  H           5.95417145517799      2.69325689064116      0.23697004800491
  H           1.01303903329803      0.83034923267929     -1.87193408090895
  C           0.02717075170097     -0.00188136443918      0.69806965206907
  C          -1.30157535715321      0.31999862441113     -0.05589904107996
  H           0.25562295035031      0.86415022619286      1.33630528756152
  H          -0.19046815344972     -0.84162896337023      1.37447169882676
  C          -2.32621562821282      0.52440738165554      1.08742828248841
  C          -1.15380376448827      1.61845279418167     -0.85157428782971
  C          -1.72717198061951     -0.79934417738386     -1.01205618616351
  C          -4.00463856300397      0.87433678945672      0.71655559535608
  H          -2.37123309979475     -0.38752473265018      1.69622729918968
  H          -2.01674119990311      1.36153845629120      1.72642231629697
  O          -1.34673430655868      1.74163135886969     -2.03637732605160
  O          -0.77831973874606      2.64938873244789     -0.06785871896945
  H          -0.99347983917736     -0.94388634022688     -1.81367352174981
  H          -1.84300142263400     -1.74214648909545     -0.45893829073116
  H          -2.67561380880886     -0.55843898650969     -1.50710768182848
  C          -4.13769327468923      2.09917791656899     -0.18498720070456
  C          -4.61142250044828     -0.35289365797722      0.04717118383910
  C          -0.60938079686635      3.90481563266097     -0.72340601931362
  H          -3.60994985692509      2.95533957112900      0.26112475948710
  H          -3.73540348831437      1.91625146383760     -1.18822877770783
  H          -5.19869128793260      2.36721795450116     -0.30238902058541
  O          -5.19692550095394     -0.34955744141300     -1.00770282281401
  O          -4.44034947934454     -1.46854001866356      0.78490814671780
  H          -1.54884276034876      4.22598751986348     -1.19839312138598
  H          -0.30995697052781      4.61910391737384      0.05396320263938
  H           0.16687457732838      3.83577754725896     -1.50084092409829
  C          -4.98321942434008     -2.66910093221376      0.23926349250854
  H          -4.78849067608369     -3.45725085555599      0.97767286521620
  H          -6.06465684197268     -2.56683631923970      0.06278716620313
  H          -4.49706192562143     -2.91444909957159     -0.71787580668425
  C          -4.64831601329455      1.07874827349202      2.04229960124365
  H          -4.83339123723142      0.23102427557957      2.70458320857925
  H          -4.81377479789590      2.09164121015069      2.41801309243910
