64
Coordinates from ORCA-job orca E -1421.306333894337
  C           1.83839689123852      0.69373344825800     -1.01915196720880
  H           1.91997810066532      1.64109767166268     -0.46970908176103
  H           2.77756006546556      0.51234443595804     -1.55745071118648
  C           1.51980118345844     -0.45145162280461     -0.05194249496246
  C           2.60925974491394     -0.61204650114663      1.05212012899629
  H           2.33140814965132     -1.48223618799605      1.66661769202985
  H           2.53274072280231      0.26961479612443      1.70542506130196
  C           4.10559394011186     -0.77822185068176      0.68016070684676
  C           1.40182229525097     -1.74831361746793     -0.85535663785971
  O           1.54622337253121     -1.85119922610805     -2.04920848746451
  O           1.11165750061043     -2.80487634244429     -0.06877025180246
  C           4.68598994463163      0.49607034344749      0.06270995407730
  O           5.38062153836557      0.54426929855993     -0.92279937945213
  O           4.37511686948105      1.59252363896271      0.78559983990521
  C           4.37725053335172     -1.95520297404759     -0.26546981014224
  H           5.45971062906461     -2.10764886874640     -0.38427141848475
  H           3.93874461091040     -2.87645755092136      0.14723400496762
  H           3.96453079368847     -1.78767733149899     -1.26773776495841
  C           4.87409304686804     -1.00583644701439      2.00530726873429
  H           4.55146288898251     -1.95391000230548      2.46418687030846
  H           5.95906751588151     -1.06729861723344      1.82477165830179
  H           4.68812042905014     -0.19173317994489      2.72111389365107
  C           0.97546408912601     -4.06005852416010     -0.73214339875265
  H           0.73696941210354     -4.79485403286171      0.04726061865091
  H           0.16949636242427     -4.01865191434970     -1.48063949776523
  H           1.91070480317682     -4.33408959432777     -1.24389589045051
  C           4.88613089779358      2.83070783113629      0.29729349199840
  H           4.47798405769754      3.05132663990436     -0.70144273960247
  H           4.57048165570971      3.59829937197854      1.01532281647940
  H           5.98380914564382      2.80155549972676      0.22385237500036
  H           1.06491135373824      0.79407967891092     -1.79113777486379
  C           0.20245641454321     -0.20004538653992      0.74748330382403
  C          -1.14402373987807      0.09364082783274      0.00738121211879
  H           0.39454089787784      0.64891757647449      1.41915186276310
  H           0.02698535069489     -1.07732800866314      1.38748569882955
  C          -2.19689085784819      0.22634027753875      1.07866645536144
  C          -1.10157993148744      1.44518321421867     -0.71501230831524
  C          -1.54610836965752     -1.00028926853421     -0.99203146588809
  C          -4.95014261813004      1.26837910740664      0.62128907289957
  H          -2.77563507942274     -0.65012224256502      1.37537279331219
  H          -2.18334895761967      1.08633946492151      1.74933485917986
  O          -1.44305299005286      1.64111078843786     -1.85556508615460
  O          -0.68078298288218      2.43517526133628      0.09794500866029
  H          -0.86501298666884     -1.04390039030670     -1.85043116390224
  H          -1.54129027139941     -1.97933275985317     -0.48847965152134
  H          -2.55513097060651     -0.81112044740243     -1.38196431408622
  C          -4.62316636850611      2.32130875299101     -0.40053796003741
  C          -5.08938968442819     -0.11304226552254      0.06942960104794
  C          -0.64964102087071      3.74253197499768     -0.47091785915893
  H          -4.40955760436822      3.28592816027243      0.08259340178265
  H          -3.76864697949531      2.02598799291671     -1.02574961728578
  H          -5.47140426005813      2.45761990138709     -1.09248053243182
  O          -5.00276923441442     -0.37691652289384     -1.10900861016855
  O          -5.31740056647428     -1.05382433580003      1.00969242121147
  H          -1.65345145794094      4.04846326392710     -0.80269580206584
  H          -0.28822067160828      4.41252025907481      0.31952238762811
  H           0.02714822513487      3.77394091339487     -1.33863009728668
  C          -5.45721281620402     -2.38915486587720      0.53146842818953
  H          -5.65519558006580     -3.01150520584509      1.41340717662479
  H          -6.28888374176400     -2.46588536399311     -0.18560928171360
  H          -4.53602819722546     -2.72248268566505      0.02810667460160
  C          -5.19722776310095      1.52400766891347      1.91599783345869
  H          -5.46605389722692      0.72638185180355      2.61039194964092
  H          -5.12380383323435      2.54182422304671      2.30995453434967
