64
Coordinates from ORCA-job orca E -1421.299211289538
  C           1.80043243519543      0.68323646858041     -1.05935875679254
  H           1.87642958672440      1.65053171961374     -0.54423392475021
  H           2.74918402324701      0.47824282746085     -1.57181501000298
  C           1.45705312273036     -0.42311316817592     -0.05622895481986
  C           2.53107518515090     -0.55609188661066      1.06673228681344
  H           2.23403513041367     -1.39826447824922      1.71058623807319
  H           2.45871468026535      0.35097644964230      1.68464762380065
  C           4.02923671092529     -0.75609167880875      0.72024260539363
  C           1.33298781963628     -1.74676066290530     -0.81323267306262
  O           1.49492572577295     -1.89576969189781     -1.99991122022585
  O           1.01580881298063     -2.76946093689474      0.00708356522514
  C           4.63349621778064      0.48361132668698      0.05709703091129
  O           5.34299217329711      0.48101605236516     -0.91891549366954
  O           4.32635874214935      1.61348526494645      0.72819505727421
  C           4.29764950362732     -1.97580697323836     -0.17053762952611
  H           5.37953943253310     -2.14539718851287     -0.26946783953166
  H           3.84375811991123     -2.87339523598235      0.27644903008377
  H           3.89868878764676     -1.84815635587914     -1.18422528607304
  C           4.77923650048461     -0.93577277795028      2.06337708177351
  H           4.43971775288234     -1.85934539139996      2.55862032220803
  H           5.86540388901759     -1.01770259706982      1.89891260057519
  H           4.59471987431896     -0.08941309061578      2.74106188294957
  C           0.87235974094992     -4.04635426956526     -0.61194620586134
  H           0.61454236368089     -4.74926558153544      0.19035401411401
  H           0.07662162969436     -4.02231622515073     -1.37209747369224
  H           1.81043567900496     -4.35015528205557     -1.10112788174896
  C           4.86031923634690      2.82353437185501      0.19589731066687
  H           4.46826223207302      3.00782856465898     -0.81658841572055
  H           4.54571293191697      3.62436940099120      0.87712284172616
  H           5.95835354098889      2.77713408353865      0.13868817496034
  H           1.04262178045586      0.75840022254701     -1.84888139394737
  C           0.13434291814990     -0.12730798781417      0.71958509469402
  C          -1.20523618157524      0.15683753463700     -0.04058853386379
  H           0.33213418132190      0.74278336286659      1.36188335142199
  H          -0.05596427471363     -0.97927464090148      1.38898477227959
  C          -2.24826533757444      0.31840201133569      1.04313299459106
  C          -1.12858600666005      1.48207118513578     -0.80535130536208
  C          -1.60293714809368     -0.96299121801606     -1.01142328045933
  C          -4.67067485872406      1.13369174225420      0.76669397157118
  H          -2.68888963649469     -0.59202810411888      1.45461989666013
  H          -2.15679929343879      1.17158229187234      1.71596095091699
  O          -1.39458733028700      1.63547573158204     -1.97175733380925
  O          -0.75517472747853      2.50107743329985     -0.00472161174147
  H          -0.90111335331294     -1.04647410570606     -1.84976017890874
  H          -1.62931857972072     -1.92491013557164     -0.47656013930155
  H          -2.59553698062425     -0.76837222946490     -1.43755523074280
  C          -4.35503827908460      2.30491707488052     -0.12803229463382
  C          -4.92791654898457     -0.15285541431839      0.05173986530155
  C          -0.67188291868761      3.78405910889611     -0.62210331153181
  H          -3.89577923928521      3.12406522406939      0.44423923843323
  H          -3.69430768222700      2.01889208145004     -0.95537439755170
  H          -5.28282782741375      2.68490857639385     -0.58905857904049
  O          -4.97431099895205     -0.25566527633460     -1.15353514248575
  O          -5.10879119769643     -1.20325816851133      0.87914606133603
  H          -1.64593643208744      4.08089804346956     -1.03944750164030
  H          -0.36383206243153      4.48397078526202      0.16499707211254
  H           0.06743595477407      3.77529765214217     -1.43772418725208
  C          -5.36525958827885     -2.45540472479457      0.24838318609877
  H          -5.52408339388267     -3.17936961076800      1.05775792855871
  H          -6.25657094626545     -2.39775476595642     -0.39470877458175
  H          -4.50938215277565     -2.76122466927676     -0.37353400673222
  C          -4.97835379301018      1.26067297065181      2.07379921942763
  H          -5.29766380459226      0.40233282596473      2.66688551065716
  H          -4.88438584169542      2.22573213500073      2.58033718845415
