64
Coordinates from ORCA-job orca E -1421.308096587801
  C           1.83209966532241      0.69792399495798     -0.97136994574618
  H           1.91787910709581      1.63027861171022     -0.39753815990173
  H           2.75873534099255      0.54225086669137     -1.53852400660800
  C           1.55289317784435     -0.47772976317377     -0.02872439116668
  C           2.67150265268147     -0.65221410313661      1.04375738929452
  H           2.42116922323438     -1.54287297347321      1.64045227378251
  H           2.59896466943247      0.21033228769400      1.72249113317166
  C           4.16015766643001     -0.78650862384843      0.63036996658517
  C           1.43448758273645     -1.75384697383792     -0.86492983742631
  O           1.55393877555945     -1.82196816432051     -2.06407646261343
  O           1.17643750967372     -2.83538176867299     -0.10176877371855
  C           4.70749267155621      0.51222863986812      0.03399572410729
  O           5.37723598775356      0.59681254303557     -0.96619263177823
  O           4.40008240394068      1.58438514236278      0.79393186629116
  C           4.42372145727507     -1.93312175531568     -0.35423247719123
  H           5.50484705997868     -2.06931006148432     -0.50162418226359
  H           4.00509908913491     -2.87070445704196      0.04196439479620
  H           3.98634528237399     -1.74199690369561     -1.34166319261775
  C           4.96547951363843     -1.03910576962440      1.92882879649777
  H           4.66816897749649     -2.00404229795472      2.36928538005925
  H           6.04609122532769     -1.07982786079260      1.71877225218038
  H           4.78711115160922     -0.24774740270074      2.67162686272051
  C           1.04256588346071     -4.07390445294990     -0.79620178561508
  H           0.83109514362905     -4.83278026716296     -0.03222741996318
  H           0.21987865135904     -4.02359049264155     -1.52569860625330
  H           1.96997768144139     -4.32079872332712     -1.33528558594307
  C           4.88478919493209      2.84181128272858      0.32852333474513
  H           4.45345420022904      3.08329730831356     -0.65549203200651
  H           4.57433949668174      3.58584100699041      1.07312807286588
  H           5.98102476550424      2.82934787106250      0.23201084014041
  H           1.03699391638215      0.81001832430490     -1.71951113594049
  C           0.25175837974166     -0.26902811398832      0.80818606211864
  C          -1.11541166438367      0.02368422898635      0.10778120298522
  H           0.44654509303107      0.56358988351583      1.49935631073147
  H           0.10443254531373     -1.16637706706018      1.42692460902797
  C          -2.14850367788609      0.11666382124699      1.20142577745540
  C          -1.11246595130699      1.39571873880520     -0.57810570079676
  C          -1.52534726301428     -1.04744969072004     -0.91234123108142
  C          -5.08946827868607      1.37130336729320      0.44606508571865
  H          -2.80500757271520     -0.72891046914630      1.41292255463609
  H          -2.13136496918795      0.95337426971268      1.90184576523339
  O          -1.49598411538712      1.61764562298737     -1.70083317532047
  O          -0.67410184774138      2.36878780174337      0.24520426110686
  H          -0.85377364385819     -1.06869756564550     -1.77909359027829
  H          -1.51155982611243     -2.03787347187259     -0.43189129874600
  H          -2.53868266026193     -0.85220356606228     -1.28820967458364
  C          -4.76473020179922      2.33700604069291     -0.65825800801201
  C          -5.15504752604986     -0.06028153960856      0.02166921679691
  C          -0.67516343608556      3.69052390907494     -0.29017002730121
  H          -4.67291100501479      3.36211442278501     -0.27052818628889
  H          -3.83229592398901      2.05501125572144     -1.16986130355637
  H          -5.55233438742635      2.32077142958660     -1.42979828415560
  O          -4.99246673196445     -0.42884988045719     -1.12024177454208
  O          -5.40932119276539     -0.91819121199986      1.03166149448298
  H          -1.69166629127918      3.99421926576919     -0.58348357166756
  H          -0.29664199317107      4.34413394874692      0.50594859945091
  H          -0.02572922846415      3.75207676749980     -1.17699832015058
  C          -5.49799477791183     -2.29402418746372      0.67117648550838
  H          -5.74099587970094     -2.83760934229700      1.59304472545393
  H          -6.28220494981058     -2.45288566878178     -0.08490277200624
  H          -4.54302827090099     -2.65393044637698      0.25681722816287
  C          -5.33792659442041      1.72733264605365      1.71604785136729
  H          -5.57963831581503      0.98282282292568      2.47631818132220
  H          -5.29984696568354      2.77696691376814      2.02165384644330
