64
Coordinates from ORCA-job orca E -1421.310032018655
  C           1.72900150405546      0.77580561405443     -0.79105077814243
  H           1.74367238704800      1.61299110915182     -0.08015117801039
  H           2.66428016527259      0.78147583219359     -1.36546662292925
  C           1.54496894124119     -0.54762296658048     -0.04048174432680
  C           2.68371862072634     -0.79932498949357      0.99494632443208
  H           2.50573263815053     -1.78606768178443      1.44940850189669
  H           2.55291056416981     -0.05732598485151      1.79618703691582
  C           4.17357308171401     -0.75959638294618      0.56728962612291
  C           1.50834118379086     -1.68553182888679     -1.06267943969431
  O           1.60184133372041     -1.55762479186506     -2.25922193077620
  O           1.35726771706789     -2.88881453704285     -0.47318399545913
  C           4.61986598485717      0.64967857895372      0.17173842123378
  O           5.27356216537952      0.93025568150580     -0.80295662988698
  O           4.24361691743452      1.57138711763486      1.08297622235085
  C           4.50837786920861     -1.72518758345321     -0.57685939880325
  H           5.59430489164920     -1.75520832588844     -0.74677590776226
  H           4.16659857180108     -2.73977390718836     -0.32211401513679
  H           4.04343398383582     -1.42527574036546     -1.52410197648600
  C           5.01016600027276     -1.14147813096250      1.81327768430110
  H           4.78830087344249     -2.17933088572799      2.10880626872894
  H           6.08817638795368     -1.07306751854630      1.59724429471564
  H           4.78550851412215     -0.48197925917464      2.66434180259475
  C           1.31057322895277     -4.01391472290920     -1.34867747104938
  H           1.18542914907452     -4.89608525376845     -0.70816646041653
  H           0.46709274576622     -3.92671674772185     -2.05042054163863
  H           2.24101122475591     -4.09189049722178     -1.93166049747831
  C           4.63524184962200      2.91538277343447      0.81375208616608
  H           4.18107029242801      3.27158790710655     -0.12411578509140
  H           4.27871914286653      3.51512977119655      1.66085625295035
  H           5.72892735272219      2.99518088879851      0.72024280879763
  H           0.92635307136548      0.93844225075866     -1.52070706522675
  C           0.24125011928636     -0.56451743818481      0.81856367029904
  C          -1.15821280791624     -0.28394442875462      0.17499283546393
  H           0.38014140084707      0.17315405654556      1.62211106558510
  H           0.17265996864464     -1.55018279512431      1.30209326899636
  C          -2.17119801737398     -0.43346139047280      1.27899507458058
  C          -1.25385072492740      1.16489378859617     -0.31918562119620
  C          -1.50492015338762     -1.23563914966498     -0.97925052574626
  C          -4.81028806422125      1.51276146376757     -0.18643664288541
  H          -2.73018264285065     -1.36661882105802      1.36725150333257
  H          -2.23381105129845      0.30377409470403      2.08084655676746
  O          -1.59707697283332      1.50747810781782     -1.42404397541148
  O          -0.92555322289986      2.04589384886474      0.64581643827323
  H          -0.87762992448759     -1.05790307913566     -1.86079766710123
  H          -1.36893984078176     -2.27706599336412     -0.65100720687346
  H          -2.55343862751709     -1.10385341917006     -1.28036319108952
  C          -4.73298221981470      1.83720724327414     -1.65074634177965
  C          -5.11036443281683      0.08107376514086      0.12630065898259
  C          -0.98690953280662      3.42350667251604      0.28557030710679
  H          -4.55353431577840      2.91059423899719     -1.80496501336198
  H          -3.91380774795047      1.27908779297212     -2.12697010074242
  H          -5.66606164746687      1.55031186237864     -2.16249488868161
  O          -5.11280793524247     -0.80171835944586     -0.70312138101191
  O          -5.40187062391946     -0.13896554932863      1.42399409350609
  H          -1.99144470566143      3.68726215554781     -0.07541035234128
  H          -0.74472555639028      3.98976048946224      1.19389763894340
  H          -0.25965249300216      3.64952509781602     -0.50983062367366
  C          -5.72355402978991     -1.48074763268088      1.77339364290603
  H          -5.94981163190588     -1.47354595362899      2.84723176796984
  H          -6.59432060803158     -1.83676083374871      1.20130178044850
  H          -4.87955150134434     -2.15730795948866      1.56711482476477
  C          -4.62891620334731      2.40591732134826      0.79874956603412
  H          -4.69148702897444      2.11554990052771      1.84852070763404
  H          -4.41360557850717      3.45349111456428      0.56901223740965
