64
Coordinates from ORCA-job orca E -1421.300645026344
  C           1.76510037300739      0.71751899718804     -1.05987615195141
  H           1.85537767956408      1.68471284611446     -0.54648664797947
  H           2.71716160721137      0.49091757579260     -1.55672491502139
  C           1.38460734182420     -0.37729972096642     -0.05738345028234
  C           2.45118260027966     -0.54049499072592      1.06938476397612
  H           2.13575137278995     -1.38256036588514      1.70455321294181
  H           2.39389591880345      0.36180531978793      1.69574330349533
  C           3.94618927430446     -0.76572834233054      0.72626027117379
  C           1.22772007155434     -1.69880619151290     -0.81252104637064
  O           1.39324032342990     -1.85527561593546     -1.99772992273993
  O           0.87355819599502     -2.70906855700057      0.00785033499256
  C           4.58104312803155      0.47341175096334      0.09090217611906
  O           5.30439659797904      0.47308870488364     -0.87484142439741
  O           4.28413541570061      1.59812601735897      0.77515734760197
  C           4.19284272759597     -1.97355808772591     -0.18673020503120
  H           5.27119180817976     -2.16535505584831     -0.28324739248069
  H           3.71656645302885     -2.86946365703597      0.23997874978115
  H           3.80185308147507     -1.81737293655499     -1.19952692032009
  C           4.68558867840779     -0.98703605412721      2.06912121048721
  H           4.32508121946473     -1.91325789100786      2.54415451045086
  H           5.77066354682316     -1.08757551863883      1.90794755093544
  H           4.51490041038215     -0.15081431428452      2.76294939025198
  C           0.69208507702392     -3.98216258095375     -0.60917417369763
  H           0.41911671269117     -4.67699575948217      0.19510895566030
  H          -0.10725240825369     -3.93678236674462     -1.36470523617725
  H           1.61861298338542     -4.31180188495928     -1.10339340562678
  C           4.84866417508023      2.80641932499415      0.27083649758215
  H           4.47812978079430      3.01252234197078     -0.74549532512954
  H           4.53596720780142      3.60238914922328      0.95860350936022
  H           5.94656366334221      2.74134333376263      0.23235110695271
  H           1.02065972449852      0.80605711701543     -1.86008101003371
  C           0.07054290871888     -0.04413029948464      0.71711926009182
  C          -1.27198237284664      0.25910941805174     -0.02930075817285
  H           0.29357514390564      0.82734371425204      1.34945713377698
  H          -0.12974492922974     -0.88524273289754      1.39732028848816
  C          -2.27444446717868      0.44878423160740      1.11241318646328
  C          -1.15379865089148      1.56152791424993     -0.82368285436661
  C          -1.69591547611720     -0.86887035015901     -0.97627888615212
  C          -4.22973071910126      0.95841148832087      0.70935913431647
  H          -2.45517755903418     -0.47801045796781      1.66717029477055
  H          -2.02100612298889      1.28199413813466      1.77550760111181
  O          -1.36082272129641      1.68264404010840     -2.00584820874551
  O          -0.79084203748041      2.59669194206675     -0.04015456535809
  H          -0.97277390765959     -1.00590008284916     -1.78869116930328
  H          -1.78663938898991     -1.81192403098158     -0.41727706918927
  H          -2.65764817605463     -0.64313138398787     -1.45095414165295
  C          -4.19979623448878      2.16821537764941     -0.20656266698993
  C          -4.71555390001665     -0.29121785290726      0.02379812486032
  C          -0.64588849230111      3.85613176827431     -0.69422465791970
  H          -3.65314293875911      2.99527855298667      0.26964921201562
  H          -3.73537064391984      1.93714906776921     -1.17189151333311
  H          -5.22781811357056      2.50887120433112     -0.41243415834837
  O          -5.08076975294800     -0.34397663616260     -1.12710156305220
  O          -4.70013767814579     -1.36976526632198      0.83422539640756
  H          -1.59246566260279      4.16284696276572     -1.16431270633536
  H          -0.35446926659153      4.57372372705675      0.08313426863080
  H           0.12800314341897      3.80089243164328     -1.47511119629860
  C          -5.14288162429323     -2.59379223492061      0.25298820073119
  H          -5.10356908162695     -3.34456894497364      1.05257272218569
  H          -6.16912906494682     -2.49864322182137     -0.13316137110293
  H          -4.48587158120761     -2.88985666736734     -0.57983086415067
  C          -4.74987122852232      1.16136392494739      2.03184137154239
  H          -5.04643195964762      0.31581077854223      2.65405443991532
  H          -4.73784218578163      2.15984689270965      2.47663205064038
