64
Coordinates from ORCA-job orca E -1421.301587199424
  C           1.81733402860115      0.69070405250713     -1.04931461765838
  H           1.89076277336488      1.65159562908298     -0.52212412657401
  H           2.76691295006185      0.49422417253705     -1.56354290547552
  C           1.47555713502598     -0.42896839142537     -0.06046624503271
  C           2.54937770168659     -0.57447047141344      1.06095792411275
  H           2.25603995098259     -1.42819326449361      1.69114290683151
  H           2.47276982023266      0.32220467055514      1.69340410202708
  C           4.04850340235097     -0.76191987821896      0.71161756420425
  C           1.35430493173139     -1.74285623461714     -0.83483767164372
  O           1.51264423741550     -1.87506768781616     -2.02398567643670
  O           1.04333091457790     -2.77774674871178     -0.02753955499943
  C           4.64830046745949      0.49300758343758      0.07344988467105
  O           5.35940778893089      0.51240797559494     -0.90121790062345
  O           4.33462913756846      1.60852611470091      0.76525245263506
  C           4.32175341715342     -1.96252033306428     -0.20333994979201
  H           5.40428000984470     -2.12583567139302     -0.30575943490755
  H           3.87132659419379     -2.87064157222484      0.22543476868212
  H           3.92200606408490     -1.81588073593760     -1.21414466258567
  C           4.79852349877530     -0.96560549196841      2.05128047646943
  H           4.46224812645060     -1.90030769879626      2.52745747639995
  H           5.88510782842995     -1.03993476717118      1.88593398446157
  H           4.61029370489483     -0.13386872502194      2.74588458428858
  C           0.90181404913586     -4.04647753959570     -0.66354700543484
  H           0.64904344803549     -4.76115814196638      0.12991955224391
  H           0.10335962372708     -4.01466766599703     -1.42054877269208
  H           1.83918161368753     -4.34049983294456     -1.16002795789144
  C           4.86357921718031      2.83095844802240      0.25674072421760
  H           4.47229529065690      3.03215144768189     -0.75280622771804
  H           4.54383094055348      3.61732455233783      0.95228054274088
  H           5.96192527580600      2.79103116983625      0.20063512263768
  H           1.06012135075946      0.77366741025906     -1.83875977290895
  C           0.15163543155884     -0.14542604834924      0.71767615024418
  C          -1.18844421685940      0.13908164684757     -0.04067483587385
  H           0.34551653785942      0.72020062553205      1.36727552359260
  H          -0.03594762339429     -1.00349400800497      1.38005505151639
  C          -2.23650081119774      0.30018854649029      1.03550123723799
  C          -1.11755633121641      1.46723311132665     -0.80163837341191
  C          -1.58766715675509     -0.97874184026097     -1.01376810382075
  C          -4.74609424972684      1.17131323297290      0.73958523005985
  H          -2.71954450247989     -0.59989474998388      1.42054944870094
  H          -2.17069777660094      1.16013930143195      1.70242512517981
  O          -1.39534117250263      1.62507249368003     -1.96480335884330
  O          -0.73889097810546      2.48352205196920     -0.00020273111470
  H          -0.89382103884924     -1.05320529091538     -1.85960809880421
  H          -1.60210533186303     -1.94331757961772     -0.48318191707816
  H          -2.58704387183982     -0.78953643045726     -1.42699417617548
  C          -4.41404249608100      2.30108767715402     -0.19873520970347
  C          -4.97680738351760     -0.14710042222794      0.07593430089936
  C          -0.66596552314145      3.76977327193948     -0.61195160365605
  H          -4.01272672984964      3.16472144059169      0.35129556460508
  H          -3.69849637471386      1.99110365394722     -0.97060610472305
  H          -5.32287128562510      2.62462302332793     -0.73454784165933
  O          -4.98204259995759     -0.30391593434057     -1.12450560354198
  O          -5.18005091640750     -1.16104053925821      0.94269156335902
  H          -1.64441663356634      4.06428819919283     -1.02058249415947
  H          -0.35509302402433      4.46726358556522      0.17619805494759
  H           0.06733911764012      3.76845965635051     -1.43306031810238
  C          -5.40588657792537     -2.44194048385422      0.35969321002969
  H          -5.58401209092828     -3.13149778510685      1.19465619062272
  H          -6.27696941933780     -2.42109530298467     -0.31274544815653
  H          -4.52830079013842     -2.76610100171158     -0.22150346016939
  C          -5.02976232965059      1.34204281255135      2.04387784500320
  H          -5.34134294728640      0.50505658677571      2.67071943226833
  H          -4.93143419687597      2.32446412565132      2.51495616647824
