64
Coordinates from ORCA-job orca E -1421.296716028548
  C           1.77819736364650      0.67371160744319     -1.06826886679334
  H           1.86289519044115      1.64789808127833     -0.56764542344345
  H           2.72265066505232      0.45568014928347     -1.58325448111844
  C           1.43456081662828     -0.41579295911988     -0.04702554959432
  C           2.51322389403768     -0.53675175926994      1.07316930560542
  H           2.21339492852328     -1.36568500263881      1.73273588894844
  H           2.44924525650200      0.38135110156040      1.67547390106649
  C           4.00864500310143     -0.75271887029901      0.72439232141773
  C           1.30154047046107     -1.75043757520554     -0.78281408550380
  O           1.46311083712973     -1.91962529993291     -1.96686278278576
  O           0.97711239398686     -2.75757097683675      0.05371631434949
  C           4.61776868971668      0.46979027549389      0.03437020181178
  O           5.32108252724845      0.44365251224752     -0.94573710719839
  O           4.32216454923136      1.61429014334316      0.68557254601132
  C           4.26596959394947     -1.99170105481049     -0.14274145873887
  H           5.34638275632053     -2.17070223026902     -0.24127674110261
  H           3.80744691058946     -2.87707823901889      0.32353152956232
  H           3.86491978207206     -1.88161215798963     -1.15764319131880
  C           4.76306017310261     -0.91002718788953      2.06785137594314
  H           4.42013556623512     -1.82123075737900      2.58329439650998
  H           5.84799886329738     -1.00207877107387      1.90062964014135
  H           4.58668077789751     -0.04892153363462      2.72885154998670
  C           0.82564055280044     -4.04345728718424     -0.54447050700843
  H           0.56282763908711     -4.73145690963149      0.26903929509478
  H           0.03045768618290     -4.02661140555617     -1.30540462382952
  H           1.76192824993916     -4.36128835277484     -1.02810698688669
  C           4.86233881489584      2.81024113168963      0.12834092708122
  H           4.46613818169944      2.97938340134811     -0.88518948563843
  H           4.55777228278123      3.62572136018199      0.79662891346470
  H           5.95964181976829      2.75418153202240      0.06594722648018
  H           1.01585523023383      0.74208875479389     -1.85396868351997
  C           0.11730466314077     -0.10239801056380      0.73144205173254
  C          -1.22488874351034      0.18169010857276     -0.02482529382144
  H           0.32397918538239      0.77347763724390      1.36286423195201
  H          -0.07411352344487     -0.94580007570065      1.41123823490412
  C          -2.25571645971745      0.35022672992334      1.07300499818701
  C          -1.14366823337850      1.50064035683387     -0.79913859006242
  C          -1.62725086649711     -0.94326279329809     -0.98729344029522
  C          -4.59324863297498      1.09054531295781      0.78560623434647
  H          -2.64131787821255     -0.56677065649391      1.52429564658492
  H          -2.13013391762568      1.20071243990380      1.74489918499494
  O          -1.40788287080032      1.64579492243235     -1.96693892548542
  O          -0.76443677072664      2.52397690212352     -0.00686159605658
  H          -0.91666150370364     -1.04478108947908     -1.81614447920667
  H          -1.67339771669461     -1.89890416947522     -0.44291173660241
  H          -2.60977192140371     -0.73867437457038     -1.43045990055972
  C          -4.31137151890758      2.31200872853859     -0.05485396049880
  C          -4.86652694582753     -0.15889993227918      0.01206898244149
  C          -0.67124747386727      3.80091042348957     -0.63539215493402
  H          -3.80384354559110      3.08655320622275      0.53839014478877
  H          -3.70588343910186      2.06909116436787     -0.93620729179732
  H          -5.25879454271888      2.73396334754215     -0.43133031905868
  O          -4.97001013184776     -0.19615114179348     -1.19323665067952
  O          -4.99635927540474     -1.25458632330351      0.78871077385626
  H          -1.64300067684651      4.10191787035398     -1.05508110447172
  H          -0.35738645987217      4.50510504994890      0.14555455751020
  H           0.06764913989933      3.77905602888365     -1.45113059925477
  C          -5.27703626642139     -2.47294550547835      0.10432067389605
  H          -5.38057275960560     -3.24285975478084      0.87955576486769
  H          -6.20568034902251     -2.39153901662527     -0.48088571457243
  H          -4.45667296710094     -2.73214292619218     -0.58290172948905
  C          -4.94284274358487      1.16481089547145      2.09244297758298
  H          -5.26293046541075      0.27974043920628      2.64427573787046
  H          -4.87189185515959      2.11076248584597      2.63719793233601
