64
Coordinates from ORCA-job orca E -1421.307167133318
  C           1.83669324844016      0.69323759463927     -1.00503392153503
  H           1.92145044046196      1.63583346804730     -0.44807242597240
  H           2.77073744859994      0.51871200780878     -1.55434758027314
  C           1.53098800924964     -0.46131473998644     -0.04479239333899
  C           2.62959402355475     -0.62539927440260      1.04970001632330
  H           2.35990785529106     -1.50112871957530      1.65995117930896
  H           2.55448994510628      0.25129090788328      1.70982042444792
  C           4.12373900699023     -0.78289684776672      0.66529673288670
  C           1.41377407969376     -1.75221869289217     -0.85798667296531
  O           1.55138484938276     -1.84488107129174     -2.05348458137729
  O           1.13343445263755     -2.81637291282673     -0.07816470194518
  C           4.69386301150314      0.49764521774351      0.05123700179975
  O           5.37904796717888      0.55510046047405     -0.94037433338184
  O           4.38568539305009      1.58805872575273      0.78436561007838
  C           4.39288878651570     -1.95277652494576     -0.28983357336944
  H           5.47502084770063     -2.10070323325851     -0.41709918979866
  H           3.96042496174114     -2.87817608973658      0.11995221470293
  H           3.97268694439939     -1.78002026182202     -1.28807983274661
  C           4.90336791596400     -1.01562296684309      1.98298741580064
  H           4.58808364765757     -1.96779458663513      2.43848071541602
  H           5.98711534336901     -1.07168468370692      1.79358112161587
  H           4.71989821133208     -0.20672320800508      2.70531221825516
  C           0.99958035542853     -4.06698970764576     -0.75054691414376
  H           0.76842976543743     -4.80886923329174      0.02435342626641
  H           0.18964894027491     -4.02354539962136     -1.49462656228608
  H           1.93347906205376     -4.33274960425650     -1.26907827870462
  C           4.88711584114471      2.83144944818945      0.29938874043628
  H           4.46870423442460      3.05690002240989     -0.69401025795761
  H           4.57516253102719      3.59306956654536      1.02534564693388
  H           5.98416861302409      2.80727758174707      0.21547681969187
  H           1.05501865886349      0.79839901064078     -1.76819384334975
  C           0.21816119490094     -0.22388779327304      0.76603131249820
  C          -1.13283769826118      0.07316084196921      0.03662137832567
  H           0.41088751860246      0.61785822560239      1.44651013201304
  H           0.04971207103167     -1.10921725662286      1.39669986411489
  C          -2.18348133130200      0.18934723180879      1.11161549259290
  C          -1.10312807765883      1.43519946015226     -0.66682512373340
  C          -1.53540316971525     -1.00875426991250     -0.97552605076398
  C          -5.00283619242695      1.30439498500938      0.56206252948423
  H          -2.78989358102918     -0.67903188573766      1.37445148067878
  H          -2.17485054121420      1.04107375321704      1.79323012701141
  O          -1.46575115786724      1.64722830718843     -1.79809476483100
  O          -0.66935812681883      2.41401841120005      0.15261999879879
  H          -0.85733292202005     -1.03945086681738     -1.83690718642629
  H          -1.52553267925647     -1.99416116993981     -0.48461018951041
  H          -2.54658289365299     -0.81768126481750     -1.35889798759760
  C          -4.68618897627111      2.32903044415297     -0.49086841714318
  C          -5.11233503070030     -0.09650508758473      0.05386957497760
  C          -0.65463743536839      3.73007576016762     -0.39647664755248
  H          -4.53353842041919      3.32112629468384     -0.04137312790971
  H          -3.79475896830303      2.04855987929503     -1.07071775059063
  H          -5.51164119300022      2.39695257297312     -1.21915258336053
  O          -4.99474771892235     -0.39798271808252     -1.11287904858130
  O          -5.35159947617716     -1.00896206224776      1.01889441450773
  H          -1.66728389095025      4.03919907184058     -0.69723120513624
  H          -0.27425570513712      4.38844357248960      0.39482432430354
  H          -0.00061260014391      3.77641248790056     -1.28077573796839
  C          -5.46368568358186     -2.36077466399746      0.58165144880781
  H          -5.67662353042754     -2.95652488261752      1.47834707580557
  H          -6.27599034837865     -2.47119184221646     -0.15304396962186
  H          -4.52634202179423     -2.69896735426778      0.11245639825158
  C          -5.24212048312018      1.59328656796096      1.85090904746868
  H          -5.49297476627750      0.81186758690018      2.57001598593857
  H          -5.18284055583707      2.62326141025153      2.21445498432955
