64
Coordinates from ORCA-job orca E -1421.309945378707
  C           1.69390888210883      0.75400867496098     -0.73417225393826
  H           1.70699867036764      1.57438873979494     -0.00384026558684
  H           2.61130344093699      0.79870455426973     -1.33510712949060
  C           1.56614193658714     -0.59129822154206     -0.01105178457901
  C           2.74101682979029     -0.83848201009359      0.98445961413707
  H           2.59982519087048     -1.83906057713438      1.42114717686110
  H           2.61685478918343     -0.11770578559831      1.80580043860486
  C           4.21612343225248     -0.75331255022785      0.51422693281005
  C           1.52620370413622     -1.70541288577394     -1.05894320581150
  O           1.57844995912834     -1.54724596795987     -2.25439361744214
  O           1.42380692395705     -2.92555587029931     -0.49426082930439
  C           4.61716215517679      0.67527107776354      0.13983356324471
  O           5.23432692447909      0.99452854924152     -0.84673875056485
  O           4.24584785754418      1.56610747455786      1.08318070824977
  C           4.53885306896052     -1.68329617187147     -0.66240942453097
  H           5.61949110907968     -1.68228714288642     -0.86541115827002
  H           4.22982951616406     -2.71180719598959     -0.42215638660818
  H           4.03806742991728     -1.37271930697709     -1.58769053148045
  C           5.09826967430654     -1.14416322521419      1.72547998769364
  H           4.90826991409774     -2.19320044240323      2.00311017371660
  H           6.16741357008911     -1.04634081336242      1.47894020006315
  H           4.88489898367235     -0.50937326628409      2.59795910612105
  C           1.37569560433783     -4.03067484348330     -1.39474211733141
  H           1.29378273657859     -4.93047381405708     -0.77200771104261
  H           0.50727326849146     -3.94854873244621     -2.06601412575192
  H           2.28774990906747     -4.07144681588163     -2.00972051079669
  C           4.59540257279647      2.92548042167005      0.83387916417710
  H           4.10895043095439      3.28910174743818     -0.08470029607323
  H           4.24454525400567      3.49739504697626      1.70232890419488
  H           5.68402562871574      3.03621149596157      0.71581525038019
  H           0.86600201092417      0.91157217439247     -1.43602304801902
  C           0.28971450110570     -0.66129912616395      0.88579384073080
  C          -1.13623773775730     -0.40376244288482      0.29140474834254
  H           0.43423904889208      0.06243934348729      1.70093308477284
  H           0.26138008281022     -1.65870086027388      1.34890232900919
  C          -2.10837753997089     -0.60366546728752      1.42424119705454
  C          -1.28232352226805      1.05204237342483     -0.16825065866943
  C          -1.49577736372464     -1.33832939360477     -0.87306914691776
  C          -4.89482300130609      1.64599592221774     -0.35754037702402
  H          -2.61834399117863     -1.56363090345717      1.52701207404451
  H          -2.18422197184370      0.12896161377851      2.22968910895151
  O          -1.65600132228567      1.40797624025156     -1.25912029351781
  O          -0.95863631179404      1.92068308241484      0.80818679573568
  H          -0.89467173677012     -1.13065022208445     -1.76627954877044
  H          -1.33224903495897     -2.38384070459130     -0.57112923001353
  H          -2.55366058290721     -1.21596897252156     -1.14447875851569
  C          -4.74165067396029      1.86331127313965     -1.83500224949258
  C          -5.11550031696028      0.22263988868555      0.04926798393295
  C          -1.07297899588657      3.30424047421867      0.48159390215399
  H          -4.65734372506427      2.93447782140644     -2.06790042826791
  H          -3.83738179158864      1.35526820293112     -2.20129274756387
  H          -5.60004374410973      1.44160594571249     -2.38209373803516
  O          -5.06126498479881     -0.71203063028425     -0.71942911773214
  O          -5.40604886968567      0.07260747070839      1.35696565329648
  H          -2.10521900872363      3.54921559391958      0.19231046795902
  H          -0.78678070697942      3.85709182623582      1.38533457269831
  H          -0.40308058992126      3.56254496998475     -0.35303920849058
  C          -5.69899338725071     -1.25312649926109      1.78481614422486
  H          -5.88472372136977     -1.19385002915091      2.86481598433305
  H          -6.58889893561343     -1.64279317712054      1.26586207718301
  H          -4.85758788927311     -1.93088300832798      1.57848379827135
  C          -4.84128147509238      2.62027216230421      0.56434509072996
  H          -4.95322251230077      2.40309292994178      1.62780443788495
  H          -4.68931956614175      3.66220998470990      0.26749413806912
