64
Coordinates from ORCA-job orca E -1421.315146484551
  C           1.75397718664892      0.72438706718697     -1.06506638206536
  H           1.85153807783210      1.69317338915629     -0.55605978766209
  H           2.70598095114158      0.48567809839401     -1.55626797574598
  C           1.35831808030684     -0.36158424061755     -0.05853814798074
  C           2.41855614154481     -0.52752532122819      1.07396884175228
  H           2.09177040921439     -1.36141701949480      1.71421686137298
  H           2.36733914315595      0.38001968332432      1.69323639504836
  C           3.91285223062518     -0.77081835193984      0.74025857976182
  C           1.19483864920478     -1.68589570958348     -0.80767159875351
  O           1.36591907751492     -1.85048018685338     -1.99103258145629
  O           0.82653761346550     -2.68862092706449      0.01583214434986
  C           4.56344546668229      0.45567298386439      0.09643824938414
  O           5.29034993424534      0.43894274943936     -0.86650330375426
  O           4.27560812467780      1.58964127803176      0.76916654474409
  C           4.15199366920232     -1.98973337913275     -0.15993461529122
  H           5.22873752955872     -2.19440615389591     -0.24754664968451
  H           3.66297568147672     -2.87628558211333      0.27184643705999
  H           3.76948060438004     -1.83859105879196     -1.17673345014635
  C           4.64341714657828     -0.98681715238028      2.08882400299358
  H           4.27140246657232     -1.90490704550532      2.57074607612208
  H           5.72821943567890     -1.09964976304233      1.93404657479238
  H           4.47767566260909     -0.14243415659033      2.77389126104275
  C           0.63846135306025     -3.96353952343391     -0.59521253308434
  H           0.35254756658845     -4.65112652810820      0.21081255182092
  H          -0.15411929107104     -3.91543258441674     -1.35766509865433
  H           1.56597565362596     -4.30454756672155     -1.07980234937927
  C           4.85423569658970      2.78732858888126      0.25567187244972
  H           4.48992071835770      2.98734959841323     -0.76411997517743
  H           4.54674284549147      3.59293752222099      0.93449153746776
  H           5.95158074809729      2.71094601443186      0.22234315923445
  H           1.01403782119110      0.81652512583499     -1.86897871847232
  C           0.04353857825130     -0.01555945290103      0.70706654271487
  C          -1.29109594548685      0.29875015168098     -0.04293788157577
  H           0.27100215617568      0.85349381165234      1.34140643462170
  H          -0.16718204911554     -0.85454933305421      1.38668197937976
  C          -2.30592092622765      0.49709395786822      1.10162185323222
  C          -1.15509112199226      1.59825993049176     -0.83900171334966
  C          -1.71696536062452     -0.82427562841818     -0.99460893510854
  C          -4.07633920206650      0.89880533757775      0.71443821913583
  H          -2.39677526386428     -0.42290164917519      1.69143267277474
  H          -2.01364930642268      1.33054222673015      1.75165839582599
  O          -1.35364785857842      1.71980391352100     -2.02286875147134
  O          -0.78334446316156      2.63115831286399     -0.05633555027115
  H          -0.98616241469836     -0.96875737914989     -1.79880861411834
  H          -1.82658720749618     -1.76626370802580     -0.43817823512058
  H          -2.66866079719411     -0.58733398394267     -1.48462570460583
  C          -4.15894000310973      2.12693205361412     -0.18296587171787
  C          -4.64797056036400     -0.32865576011857      0.02959499705594
  C          -0.62383089853407      3.88773907158998     -0.71227690281683
  H          -3.62188605827017      2.96972179622781      0.27698166673354
  H          -3.74022692812354      1.93582371457556     -1.17778349128969
  H          -5.21096965873229      2.42145390302482     -0.32211272035714
  O          -5.15949005682816     -0.33538362849559     -1.06380982606606
  O          -4.53031171592941     -1.43770635586442      0.78772161472851
  H          -1.56650838150862      4.20338395988601     -1.18447026264507
  H          -0.32632907349206      4.60366299584543      0.06431457599271
  H           0.15061940065300      3.82320336093828     -1.49188834859366
  C          -5.04178692529280     -2.64132808254735      0.21942475794834
  H          -4.90016786392878     -3.42255243979561      0.97708718102280
  H          -6.10876827506909     -2.53678463481365     -0.02918431412769
  H          -4.49505071178452     -2.89937438744586     -0.70106771611461
  C          -4.68303676968777      1.09794016343561      2.04321330530741
  H          -4.92358194486455      0.24405175556127      2.67877371348182
  H          -4.76001878687910      2.10532615839781      2.46025900730451
