64
Coordinates from ORCA-job orca E -1421.307046952797
  C           1.75990600138486      0.72201800008963     -1.06098504116090
  H           1.85420857839172      1.68967782139985     -0.54920969459815
  H           2.71163001815814      0.48967147165154     -1.55578794671880
  C           1.37245327498438     -0.36904881641434     -0.05693511082129
  C           2.43676108661787     -0.53473790622489      1.07172200383698
  H           2.11644744693726     -1.37370437644374      1.70857694619831
  H           2.38274157681627      0.36934715134879      1.69577927020367
  C           3.93117434650205     -0.76795788385875      0.73160298598804
  C           1.21124458201073     -1.69132511569799     -0.80997971935337
  O           1.37881296672922     -1.85098752520878     -1.99449051474238
  O           0.85262042697768     -2.69884411161227      0.01186906436762
  C           4.57285963620532      0.46622522853022      0.09351869683948
  O           5.29774535509893      0.45953408562643     -0.87105658621348
  O           4.28062193394250      1.59430602087528      0.77422413605043
  C           4.17365762441552     -1.97972399024330     -0.17728402523721
  H           5.25121687422739     -2.17733072409437     -0.27086211669451
  H           3.69186419544427     -2.87191234685061      0.25102442176572
  H           3.78569906761139     -1.82455097966477     -1.19140633187645
  C           4.66747773560246     -0.98859061715119      2.07629320959423
  H           4.30198151864583     -1.91168812425395      2.55359849042346
  H           5.75232861220191     -1.09461859740279      1.91712491729976
  H           4.49957884981443     -0.14947018219793      2.76729364099442
  C           0.66790054253561     -3.97257426533557     -0.60280512526153
  H           0.39175977108142     -4.66492950709023      0.20253600263196
  H          -0.13039481227494     -3.92621882668219     -1.35939688618725
  H           1.59396848603666     -4.30612710025083     -1.09525562038940
  C           4.85164493480723      2.79838578707924      0.26717517838479
  H           4.48358059756343      3.00324956055614     -0.75030508032956
  H           4.54176214561849      3.59786224577925      0.95213782885056
  H           5.94927792653390      2.72795980551957      0.23048613133854
  H           1.01715938963476      0.81290691273133     -1.86248440985994
  C           0.05868712092657     -0.02970778647503      0.71410730202809
  C          -1.28063200069335      0.27788823377660     -0.03358927123660
  H           0.28402397377209      0.84109986062221      1.34667553422590
  H          -0.14591214058671     -0.86946548965207      1.39469862725812
  C          -2.28920104827683      0.47233977178000      1.11006922858604
  C          -1.15420904194434      1.57816485315549     -0.83019147576310
  C          -1.70515921261986     -0.84878758027473     -0.98172247967952
  C          -4.15123730181079      0.92689976861935      0.70849028694233
  H          -2.42491136836114     -0.45191093926002      1.68349448863762
  H          -2.01564139240340      1.30549745543049      1.76727379831560
  O          -1.35628632162564      1.69799814255972     -2.01345871714140
  O          -0.78841741496895      2.61334847019193     -0.04786763130715
  H          -0.97746809876833     -0.99079681939882     -1.78923584411647
  H          -1.80588918668904     -1.79068889894110     -0.42288729817000
  H          -2.66136709109877     -0.61777300569266     -1.46521872171225
  C          -4.17859704109018      2.14599026975717     -0.19968950753516
  C          -4.68281480512642     -0.31088709806792      0.02336009346914
  C          -0.63643528404722      3.87079250739323     -0.70410634900130
  H          -3.63582070137736      2.98120032885183      0.26696820569138
  H          -3.73787918216731      1.93387953408746     -1.18050622835316
  H          -5.21966029621935      2.46402927622748     -0.37071984673207
  O          -5.11753297567935     -0.34207203259236     -1.10314693299471
  O          -4.62421404472544     -1.40264148018519      0.81338008478876
  H          -1.58087299567415      4.18083181170734     -1.17640049269824
  H          -0.34315330646439      4.58857861357935      0.07237050788368
  H           0.13849720525371      3.81057583614108     -1.48359033560095
  C          -5.10368442292525     -2.61633154429152      0.23916375058134
  H          -5.02048182954669     -3.38009961812600      1.02288928886902
  H          -6.15019472541037     -2.51233456183197     -0.08529789313934
  H          -4.49668844203582     -2.89982574695754     -0.63495826002033
  C          -4.71776213988896      1.13246101958182      2.03532890359022
  H          -4.99751226630120      0.28397925265825      2.66159874994293
  H          -4.73608291168236      2.13547450111731      2.46940971906780
