64
Coordinates from ORCA-job orca E -1421.330569441521
  C           1.75547688350439      0.75223780736408     -1.05999446936130
  H           1.85964645677647      1.71311482343791     -0.53770101417986
  H           2.71065566195167      0.50598152261815     -1.54117092360516
  C           1.33095124248282     -0.34026101806676     -0.07204912926493
  C           2.37576833299867     -0.53689857598422      1.06980647299846
  H           2.03260976272024     -1.37752712744213      1.69242064228750
  H           2.32762031155761      0.36058219263006      1.70381405706579
  C           3.87073202159103     -0.79154361543327      0.74822901720313
  C           1.15697675126596     -1.65189928780077     -0.84114383057402
  O           1.33179792079593     -1.80150188741039     -2.02595789304709
  O           0.77588675711629     -2.66309644911609     -0.03373248318853
  C           4.54381011826667      0.43973278970241      0.13736025741301
  O           5.28586459232881      0.43297961949419     -0.81411549569502
  O           4.25851813925304      1.56390272289030      0.82737825616932
  C           4.10502655122516     -1.99434014782423     -0.17467661637599
  H           5.18008324012040     -2.21007020531182     -0.25602669034149
  H           3.60102096722907     -2.88370063467097      0.23334862434412
  H           3.73432512552547     -1.81697774643677     -1.19163879997000
  C           4.58400888316618     -1.04370375181241      2.09966182131574
  H           4.19652628781823     -1.96699980650275      2.55902386245096
  H           5.66905973854261     -1.16600752771499      1.95395252455668
  H           4.42074782933632     -0.21151498273690      2.80014208951451
  C           0.57986184174263     -3.92734223056289     -0.66377412105132
  H           0.28084326504354     -4.62312987335576      0.13040239429523
  H          -0.20591757187320     -3.86117538893287     -1.43186020065071
  H           1.50787829910480     -4.27101701864662     -1.14561751445024
  C           4.85967331841254      2.76417225707106      0.34698966361398
  H           4.51550214176364      2.98804656685035     -0.67484371933264
  H           4.54983530097586      3.56027530327232      1.03588817203926
  H           5.95650040292737      2.67545294824521      0.33094075203777
  H           1.02772894970535      0.86355591552150     -1.87239664825603
  C           0.01215518344490      0.01360179007826      0.68153442023562
  C          -1.31076828407084      0.34790096566951     -0.07502344868858
  H           0.24251152542584      0.87368416130978      1.32733317283863
  H          -0.21459728874238     -0.82906822820548      1.35130275339854
  C          -2.34217418221747      0.57089702146740      1.06644192992659
  C          -1.14451476358557      1.64153970309695     -0.87570219123285
  C          -1.74291508351227     -0.76870564018730     -1.03178100445893
  C          -3.92874117457453      0.86267328582667      0.70999960668423
  H          -2.34017564953945     -0.32197009928597      1.70635205566116
  H          -2.01795674055816      1.42215618719062      1.68076011580901
  O          -1.32613721876563      1.76140114963207     -2.06284094171618
  O          -0.76497638489048      2.67268339943076     -0.09422748054769
  H          -1.01462997890196     -0.90853855266527     -1.83912936549252
  H          -1.85519461434306     -1.71322920992293     -0.48182881983707
  H          -2.69515804308133     -0.52796613375531     -1.52076864962307
  C          -4.11984767547294      2.04948004779347     -0.23577974957247
  C          -4.57278957167678     -0.38979211701703      0.10225911167884
  C          -0.57798656700735      3.92306686628057     -0.75411256235262
  H          -3.61481399010588      2.93847968062546      0.17061148837600
  H          -3.72593638474977      1.84542876371623     -1.23840050913863
  H          -5.19078499884268      2.27494866628516     -0.34675074799972
  O          -5.26082096634808     -0.40564708620547     -0.88808270205649
  O          -4.31668938583433     -1.49311107111261      0.83373508030396
  H          -1.50941644597804      4.25016428331351     -1.24081358007966
  H          -0.28061993321831      4.63866984859023      0.02284496036020
  H           0.20590087425266      3.84351276134104     -1.52288435642002
  C          -4.89678883845421     -2.70661430942869      0.35977044892200
  H          -4.61630940343480     -3.48351974129027      1.08231922567125
  H          -5.99199873626893     -2.61934319502903      0.29567865023088
  H          -4.50929086487155     -2.95726061543551     -0.64001972336043
  C          -4.61201052287848      1.10277935033780      2.02300735153028
  H          -4.56724908284707      0.34679289946013      2.80985865515259
  H          -5.18311433172655      2.01808797476031      2.19508774783604
