64
Coordinates from ORCA-job orca E -1421.305168564769
  C           1.83617568785284      0.69820796266395     -1.02745418318004
  H           1.91344469119525      1.64836732672817     -0.48199849811205
  H           2.78064645314742      0.51333434691544     -1.55521249244214
  C           1.50626803269990     -0.44159196027745     -0.05771088592461
  C           2.58791553035844     -0.60259738976308      1.05387015724938
  H           2.30319346035465     -1.46989584082049      1.66927649358006
  H           2.51069545592671      0.28129177021655      1.70404918434927
  C           4.08574324592195     -0.77517038981255      0.69131095887841
  C           1.38708678389399     -1.74120768000898     -0.85631319192496
  O           1.53679766226814     -1.84956272567126     -2.04900111976548
  O           1.08897031235120     -2.79339129798944     -0.06676513935302
  C           4.67471381685394      0.49586031034086      0.07519651942337
  O           5.37764306199581      0.53939160984956     -0.90462413666930
  O           4.36158477411976      1.59505561858212      0.79292590009107
  C           4.35867440560351     -1.95485309601814     -0.25056397621278
  H           5.44124510113637     -2.11114389025715     -0.36310036837818
  H           3.91471740684929     -2.87384130260440      0.16135984593089
  H           3.95199072040247     -1.78794310916046     -1.25542696727117
  C           4.84548998211606     -1.00300821040445      2.02148190574880
  H           4.51693690947128     -1.94919214329589      2.48005154802437
  H           5.93132448685149     -1.06832445609243      1.84760897165963
  H           4.65781074959260     -0.18704021756467      2.73472667440763
  C           0.95044804766869     -4.05055087162955     -0.72589374954950
  H           0.70725594066948     -4.78167784526600      0.05550299612334
  H           0.14670059186820     -4.00914215303970     -1.47678819124692
  H           1.88614671790517     -4.32956868378193     -1.23407873568784
  C           4.88077955313555      2.83039970697827      0.30602479866403
  H           4.48115228793093      3.05031003040006     -0.69630810798376
  H           4.56223714734980      3.60061992627383      1.01994359408353
  H           5.97887787428186      2.79721222119255      0.24120908063145
  H           1.07082687860015      0.79545148271246     -1.80771828691565
  C           0.18530814265851     -0.18013016108997      0.73265549215835
  C          -1.15813626272606      0.11067242491711     -0.01513980369133
  H           0.37699601157300      0.67412538136055      1.39779816467728
  H           0.00459395162374     -1.05135288245905      1.37952776581953
  C          -2.21093436473782      0.25670570468176      1.05515464728645
  C          -1.10397312000947      1.45282368499444     -0.75378953269276
  C          -1.56011827341789     -0.99293054149765     -1.00386029303562
  C          -4.88747461738286      1.23637131417580      0.66273171314165
  H          -2.76089781345559     -0.62692066666134      1.38370979257424
  H          -2.18906950051763      1.12328972336977      1.71649873216202
  O          -1.42023869601766      1.63328214462944     -1.90402417604758
  O          -0.70032437305527      2.45353499627806      0.05460922243256
  H          -0.87585101650000     -1.04778227034060     -1.85905055108047
  H          -1.56105359198037     -1.96666840148251     -0.49007759297022
  H          -2.56679520441484     -0.80441028527876     -1.40001997280118
  C          -4.55537237365896      2.30553576079955     -0.34109053331152
  C          -5.05573859654985     -0.13088009746530      0.08432656407567
  C          -0.65259821923079      3.75255875073813     -0.53192155011339
  H          -4.29021684167913      3.24753518177305      0.16073900120083
  H          -3.73449939060487      1.99765497712261     -1.00325433920414
  H          -5.42119634624146      2.49243909149706     -0.99867244677446
  O          -4.99646757884329     -0.37061252376703     -1.10091004652150
  O          -5.27732399740873     -1.08814627545754      1.00921029712414
  H          -1.64548354585099      4.05212435924949     -0.90017941485051
  H          -0.31681663037863      4.43448907016896      0.25961038400443
  H           0.05165824147783      3.77186894359283     -1.37790154496004
  C          -5.44027165521954     -2.41201286679970      0.50702667895173
  H          -5.63144585137885     -3.04942044059978      1.37966707729020
  H          -6.28376857394872     -2.46505344147821     -0.19820485241065
  H          -4.53070787435341     -2.74554715545219     -0.01692560133976
  C          -5.14332980477687      1.47379399398309      1.95966001673812
  H          -5.42624539719021      0.66786557200130      2.63867812228298
  H          -5.06052060617594      2.48390788510083      2.37124798165704
