64
Coordinates from ORCA-job orca E -1421.310070595059
  C           1.70851270914254      0.76378534219983     -0.76223138106261
  H           1.72333695357405      1.59296929522938     -0.04203110611001
  H           2.63403387571055      0.78903598748420     -1.35170141752672
  C           1.55457558105964     -0.57044132920585     -0.02398484766689
  C           2.71268730713094     -0.81812325286950      0.99074394965524
  H           2.55475346188960     -1.81182767595136      1.43730322083396
  H           2.58496384087032     -0.08629915585842      1.80173464114884
  C           4.19492516999131     -0.75420967144697      0.54006201234666
  C           1.51645894940655     -1.69710217706258     -1.05848969977620
  O           1.58625863548879     -1.55428553454222     -2.25496023438358
  O           1.39399660983336     -2.90908733342450     -0.48034261548422
  C           4.61633674377642      0.66522786826587      0.15340671412160
  O           5.24979442789290      0.96551015993998     -0.82876322042595
  O           4.24182804777298      1.57179619468957      1.08039260903354
  C           4.52374256401507     -1.70244620168850     -0.62021945743166
  H           5.60698424409235     -1.71528257494719     -0.80843595177781
  H           4.20053129123744     -2.72451132258719     -0.37126476587407
  H           4.03895995857911     -1.39860817914674     -1.55622834505548
  C           5.05624511294331     -1.13904048576380      1.76812550360881
  H           4.85129944517225     -2.18241194254027      2.05630755051411
  H           6.12966194790944     -1.05566798409144      1.53519013124472
  H           4.83792833862174     -0.49109062825848      2.62964394720203
  C           1.34812099775747     -4.02487159538483     -1.36770781796858
  H           1.24783167663427     -4.91594087231778     -0.73518859697174
  H           0.49077624509147     -3.94258951595176     -2.05305150306659
  H           2.26884378724797     -4.08234737390876     -1.96825969406393
  C           4.60759964325540      2.92441620513637      0.81802560300639
  H           4.13772203375128      3.28018826095532     -0.11218960432731
  H           4.24997359502120      3.51114333215684      1.67374052064856
  H           5.69879751341041      3.02356432247910      0.71411850374045
  H           0.89184554201866      0.92325673532974     -1.47675175713820
  C           0.26484239791169     -0.61496288349820      0.85520684085456
  C          -1.14826618057120     -0.34589200018274      0.23687007273037
  H           0.40690133626010      0.11507971828652      1.66509511666685
  H           0.21724403513737     -1.60712255873460      1.32790474772321
  C          -2.14092705877797     -0.52196194240528      1.35527477529763
  C          -1.26889121434896      1.10750345343892     -0.23926364465516
  C          -1.50084010343417     -1.28761331655343     -0.92399642246593
  C          -4.85030106269174      1.58026901964663     -0.27207518113973
  H          -2.68272071566136     -1.46537774816925      1.44560211516885
  H          -2.20242945605222      0.20682749619748      2.16531628083961
  O          -1.62754271751522      1.45788989941128     -1.33687961519623
  O          -0.94007446390207      1.98143175143586      0.73129284449457
  H          -0.89242284634671     -1.08737772042520     -1.81387488941963
  H          -1.34210921766093     -2.33139148244587     -0.61370239133235
  H          -2.55697206777791     -1.16722147640712     -1.20306465402956
  C          -4.73818530843371      1.85406961444027     -1.74427989227958
  C          -5.12002268383623      0.15222643411339      0.08361281846428
  C          -1.01712482885176      3.36265286614764      0.38547516114008
  H          -4.60136634752061      2.92815314071478     -1.93423962637400
  H          -3.87758124331817      1.31606523347233     -2.16824392227222
  H          -5.63873481816667      1.50556880497827     -2.27514512693931
  O          -5.10319423283164     -0.75451642925964     -0.71949044120442
  O          -5.40788049728357     -0.03593948267963      1.38708695568091
  H          -2.03402135808257      3.62577921436653      0.06042688289618
  H          -0.74739030480422      3.92077832651159      1.29102912698385
  H          -0.31644687003120      3.59713548996498     -0.43088465360453
  C          -5.72381742350837     -1.36946924195453      1.77126355107808
  H          -5.92630970868461     -1.33958617689229      2.84945526865088
  H          -6.60868879231792     -1.73429941434991      1.22666228873978
  H          -4.88674448948409     -2.05194035303821      1.55936789583745
  C          -4.72001784559578      2.51156621098353      0.68555935505281
  H          -4.80487177948531      2.25486270899217      1.74269658016349
  H          -4.52723838263081      3.55661394697567      0.42635889145565
