64
Coordinates from ORCA-job orca E -1421.307749255378
  C           1.83100440982450      0.69422462570364     -0.98632712377467
  H           1.91667657375551      1.63025866417448     -0.41865036807276
  H           2.76049836486853      0.53069209101422     -1.54652128880705
  C           1.54047134151673     -0.47356810109693     -0.03739201931526
  C           2.64954245694797     -0.64395592350417      1.04556472279715
  H           2.39113228489729     -1.52944468327658      1.64655817643477
  H           2.57408331775134      0.22360689885850      1.71758185975059
  C           4.14138521423224     -0.78615374014175      0.64627381527088
  C           1.42478900998393     -1.75540353398174     -0.86526636318470
  O           1.55299347927013     -1.83261237636262     -2.06292424449782
  O           1.15879487746709     -2.83088315809666     -0.09614070939677
  C           4.69808719437626      0.50655676224710      0.04545436236495
  O           5.37450424037237      0.58229763587318     -0.95094138742943
  O           4.38914212941526      1.58469530540927      0.79623172575061
  C           4.40956051212701     -1.94066323755984     -0.32771475265834
  H           5.49146399243812     -2.08103742116745     -0.46515862656991
  H           3.98490584106743     -2.87414148142922      0.07178381583640
  H           3.98101345887649     -1.75547423440795     -1.32012434137511
  C           4.93402964602618     -1.03243871574616      1.95363969011203
  H           4.62889535533390     -1.99298299495311      2.39832958395724
  H           6.01635432301500     -1.07885305046163      1.75379298806275
  H           4.75203966315996     -0.23502528842730      2.68901838303194
  C           1.02780059533886     -4.07420556963359     -0.78247873712988
  H           0.80868639469637     -4.82699111807678     -0.01463571164767
  H           0.21103524213982     -4.02757409495489     -1.51885643771244
  H           1.95892267951727     -4.32703178033412     -1.31234208821929
  C           4.87819575524823      2.83791736511738      0.32414419756990
  H           4.44996958092881      3.07395337990828     -0.66259822342358
  H           4.56723115286029      3.58748779689444      1.06295760438539
  H           5.97464898833704      2.82240540440498      0.23086085459315
  H           1.04140689221860      0.80466879523645     -1.74057811471507
  C           0.23305318451581     -0.25448379881091      0.78716785649319
  C          -1.12484877287234      0.04439234446949      0.07217066323714
  H           0.42631719695421      0.57914272977910      1.47743565579564
  H           0.07470383068089     -1.14906852296694      1.40724187274829
  C          -2.16970113031100      0.14365735291765      1.15431535098999
  C          -1.10956340012528      1.41616467915315     -0.61284600959189
  C          -1.52981633200781     -1.02601474718940     -0.95099633155819
  C          -5.04010640143186      1.34646717041747      0.48526119596482
  H          -2.80497071787779     -0.71350513395624      1.38263115984603
  H          -2.15504349476538      0.98153667726267      1.85317604172516
  O          -1.49162407360906      1.64227675891598     -1.73517210361840
  O          -0.66785888946112      2.38563707000901      0.21316676928224
  H          -0.85762011562540     -1.04251197651498     -1.81733803311539
  H          -1.51199288727112     -2.01746465732123     -0.47270475993993
  H          -2.54452078453141     -0.83511258480209     -1.32494468216599
  C          -4.74026134213980      2.32878374533982     -0.61167009239128
  C          -5.13006968592854     -0.07661518978783      0.03806704073784
  C          -0.66868017468024      3.70923527206719     -0.31775360104121
  H          -4.64020945577612      3.34803341811571     -0.21060001074098
  H          -3.82151948047233      2.05832267375928     -1.15331577221861
  H          -5.54793401071413      2.32327886681392     -1.36236674047835
  O          -4.99239353954469     -0.42788489603512     -1.11253366911467
  O          -5.37756114654338     -0.94844261872558      1.03794191119949
  H          -1.68793327673106      4.01767006910167     -0.59613034142558
  H          -0.27747133768073      4.35842882539347      0.47583521532687
  H          -0.03057283788278      3.77090909302823     -1.21264875059959
  C          -5.47121001080701     -2.31880404290158      0.65804825599307
  H          -5.69888766599290     -2.87663033123012      1.57528577744170
  H          -6.26690510323577     -2.46737735318719     -0.08797782927586
  H          -4.52181258255878     -2.66987849366859      0.22365347231946
  C          -5.26509545493563      1.68464836790843      1.76448211520045
  H          -5.49683539585339      0.93010420528058      2.51791303402902
  H          -5.21513967879238      2.72929080613549      2.08507409695742
