64
Coordinates from ORCA-job orca E -1421.309500176012
  C           1.74541740691006      0.78914878815391     -0.81563425954599
  H           1.75524654132243      1.62967354543496     -0.10856548609884
  H           2.69226462162195      0.78178352447416     -1.37067758752703
  C           1.53157506767837     -0.52849549898864     -0.06265864058120
  C           2.64841893691427     -0.78942025097184      0.99395623231957
  H           2.45343063400546     -1.77419915826084      1.44557331378415
  H           2.51015011648228     -0.04554420359055      1.79217316809350
  C           4.14595169240458     -0.76325269130836      0.59284390189245
  C           1.49911741530586     -1.67037041507036     -1.08065720591773
  O           1.60918674804753     -1.54819696693665     -2.27633071433526
  O           1.32951410831010     -2.86992031159129     -0.48839380094627
  C           4.61270314672008      0.64227424022325      0.20764400301596
  O           5.28896910481370      0.91762810337660     -0.75304031931836
  O           4.22526459739453      1.56682074734632      1.11131657450125
  C           4.49169574761372     -1.73056604513355     -0.54650420528325
  H           5.57986432556021     -1.76821408364655     -0.69958598006713
  H           4.13867312323666     -2.74276756390511     -0.29764007416417
  H           4.04353591968250     -1.42704790545179     -1.50069801126046
  C           4.95682659410537     -1.15425227331832      1.85291739148575
  H           4.72057001257456     -2.19045921874023      2.14304975568223
  H           6.03913176686482     -1.09509265406490      1.65642965671007
  H           4.72280938804251     -0.49378682435731      2.70071161404527
  C           1.28495350153166     -3.99822292328199     -1.35994271408988
  H           1.14431872731109     -4.87667642419844     -0.71754529095401
  H           0.45137096891103     -3.90706122292837     -2.07293158255864
  H           2.22215821542879     -4.08606859713046     -1.93052758476192
  C           4.63444330613497      2.90749187654550      0.85176527249160
  H           4.19948596194184      3.27023501085611     -0.09274821602407
  H           4.26948324700550      3.50889827510401      1.69408792372901
  H           5.73023767202415      2.97683133099388      0.77676077223700
  H           0.95983937336765      0.95695427491101     -1.56237251817062
  C           0.21222702893036     -0.52536975080412      0.77265304494953
  C          -1.17246707780986     -0.23314970151007      0.10185890609040
  H           0.34539343666253      0.21593819362382      1.57381967673184
  H           0.12372963701071     -1.50713466167529      1.26098013557936
  C          -2.20645673208256     -0.36528683397586      1.18801926982411
  C          -1.23880498251830      1.21243787262851     -0.40493060815424
  C          -1.50710843185249     -1.19152016960189     -1.05072344710734
  C          -4.75724483557201      1.44364642360948     -0.11443882695183
  H          -2.72735575372758     -1.31694724898749      1.30911697089437
  H          -2.27431160399731      0.37986794213909      1.98179538269315
  O          -1.54878764889017      1.55058057226538     -1.52093164150920
  O          -0.92406368606955      2.09681027841951      0.56170643780015
  H          -0.87838259735984     -1.01142732295492     -1.93069776498980
  H          -1.36308746944393     -2.23059818702279     -0.71863968998119
  H          -2.55657567606837     -1.07418737922570     -1.35480444237008
  C          -4.69756127119694      1.77604237514370     -1.57854423609399
  C          -5.10259050440291      0.02171358423976      0.19277396818474
  C          -0.95180245377382      3.47173263000931      0.18755444105734
  H          -4.51062136031275      2.84863279833056     -1.72885288890230
  H          -3.89135276197581      1.21644479590499     -2.07434860632618
  H          -5.64138778978862      1.50075849682666     -2.07637115561164
  O          -5.15551834386413     -0.85217992802926     -0.64423234588130
  O          -5.37400489891482     -0.19981903921501      1.49467945266770
  H          -1.93644900018508      3.74764416231893     -0.21700045384402
  H          -0.73709348808381      4.04328689647126      1.09942487883442
  H          -0.18994528696516      3.67976657907697     -0.58001953494181
  C          -5.71712487381899     -1.53699131407956      1.84118882533914
  H          -5.92070988323134     -1.53263969834819      2.91954857976888
  H          -6.60612203763455     -1.87105702232076      1.28422507121090
  H          -4.89097514741633     -2.22855680508081      1.61232550768575
  C          -4.54268963112651      2.32941037131157      0.87058032693899
  H          -4.60313919270636      2.03753303703165      1.92009869133253
  H          -4.29904367108166      3.37100356893638      0.64282068669849
