64
Coordinates from ORCA-job orca E -1421.309827477067
  C           1.74194470628552      0.78640956471165     -0.80200749518380
  H           1.75569367234256      1.62430783685531     -0.09191013273224
  H           2.68318161248242      0.78476234387664     -1.36661855642053
  C           1.54076180706277     -0.53463314977320     -0.05159743167907
  C           2.66815380759685     -0.79386118082247      0.99428598167005
  H           2.48077919485405     -1.78030082192365      1.44555889041488
  H           2.53419109243175     -0.05223646345145      1.79533229576667
  C           4.16182536331790     -0.76123350861274      0.57984228387944
  C           1.50427788572059     -1.67326286850637     -1.07293754369125
  O           1.60628639546791     -1.54696333403424     -2.26895107123263
  O           1.34280573603152     -2.87513243938740     -0.48332028557439
  C           4.61896926308987      0.64652898034091      0.19133798251604
  O           5.28460914140251      0.92550404344690     -0.77570002045041
  O           4.23668615574911      1.56866768431970      1.09965707614892
  C           4.50139110562503     -1.72625349927941     -0.56333350518366
  H           5.58840765726683     -1.76022649779761     -0.72526491459817
  H           4.15374369691495     -2.73989854843323     -0.31276137858076
  H           4.04461886682432     -1.42310031056909     -1.51354720634013
  C           4.98556518585559     -1.14976014053009      1.83232276864681
  H           4.75609036210492     -2.18709888895134      2.12385369261228
  H           6.06579237838231     -1.08615775069361      1.62607773923721
  H           4.75653956444449     -0.49084771045708      2.68267745698193
  C           1.29574588160931     -4.00088989174973     -1.35799824564416
  H           1.16320349260820     -4.88185684819401     -0.71731998153174
  H           0.45636184984341     -3.91062604838276     -2.06426785045833
  H           2.22886734033980     -4.08357931836203     -1.93599762793447
  C           4.63756219729203      2.91125162541208      0.83707819973566
  H           4.19388642742995      3.27197967401313     -0.10412336497228
  H           4.27624515778630      3.51092854975624      1.68220031954257
  H           5.73244870067660      2.98567582362588      0.75384891472851
  H           0.94820470319369      0.95375057800489     -1.54024195641004
  C           0.22889992091893     -0.54049253929424      0.79506377704069
  C          -1.16339446611001     -0.25554415254686      0.13704670565170
  H           0.36441539683966      0.19991086126590      1.59667492269320
  H           0.15041333899435     -1.52364328873356      1.28225430121331
  C          -2.18655940152175     -0.39569496821290      1.23241288209521
  C          -1.24301976684762      1.19074447491369     -0.36737426959217
  C          -1.50209343303011     -1.21275802260445     -1.01512049245985
  C          -4.79330706496687      1.47124630958482     -0.14475392827153
  H          -2.73143102989736     -1.33557205851645      1.33580610849157
  H          -2.26035943627596      0.35130425793722      2.02407989396905
  O          -1.56266052931591      1.52873455815301     -1.48087567509981
  O          -0.92676918174187      2.07607552584738      0.59795572266422
  H          -0.86834394107396     -1.03896122708904     -1.89288311185306
  H          -1.36866632029227     -2.25279051238331     -0.68157178460225
  H          -2.54866812017594     -1.08421802150878     -1.32501943112834
  C          -4.71391954557943      1.79596209964049     -1.60914343163409
  C          -5.12556864555770      0.04625349480942      0.16513287109928
  C          -0.95895555608422      3.45110340650974      0.22420694517296
  H          -4.52302616176430      2.86723575593427     -1.76395253569443
  H          -3.89887721748459      1.23067940316088     -2.08430137985654
  H          -5.64893480676812      1.51762864260523     -2.12156988466916
  O          -5.16312230421968     -0.83104976986452     -0.66919464894516
  O          -5.39926889592207     -0.17530661443294      1.46666328525387
  H          -1.94520744848773      3.72628635140876     -0.17712667312889
  H          -0.74196930212648      4.02276817725516      1.13546542637564
  H          -0.20015746248668      3.66034191096923     -0.54611537291925
  C          -5.74281288902131     -1.51218918314929      1.81362657804692
  H          -5.96121991562389     -1.50482692503289      2.88910990250717
  H          -6.62355111411829     -1.85088266457409      1.24642792014296
  H          -4.91226920195205     -2.20329760050423      1.59959470349612
  C          -4.58631811994586      2.35836248515735      0.84066153330144
  H          -4.65178832604675      2.06546040992134      1.88969426834887
  H          -4.34114945434697      3.39979193892186      0.61435983902729
