64
Coordinates from ORCA-job orca E -1421.294666925573
  C           1.76496625110700      0.67510874632455     -1.06926683930310
  H           1.85261358896385      1.65078649738846     -0.57197853500590
  H           2.70923407612283      0.45226703149420     -1.58249899685047
  C           1.41721850144785     -0.40960659310891     -0.04435121969344
  C           2.49660680804077     -0.53184270071959      1.07518781612323
  H           2.19524238497925     -1.35903428268758      1.73623278338511
  H           2.43561144953237      0.38725258499351      1.67625952577115
  C           3.99108433230160     -0.75201725700054      0.72526846584084
  C           1.27803312573702     -1.74616296149418     -0.77550492067858
  O           1.43971659815234     -1.92035593753861     -1.95882074456153
  O           0.94815627466429     -2.74866032750897      0.06438905816496
  C           4.60298556648794      0.46838706463148      0.03392592510306
  O           5.30712644119094      0.43945953522856     -0.94549519064249
  O           4.30922979960516      1.61432228053521      0.68344696270567
  C           4.24452197188577     -1.99244075025638     -0.14092746536878
  H           5.32438713635264     -2.17436138729760     -0.24007363698992
  H           3.78408243374197     -2.87621571828743      0.32654687364178
  H           3.84294201842740     -1.88241394063865     -1.15561856826208
  C           4.74629278114155     -0.91003897900962      2.06825222088547
  H           4.40150943228926     -1.81987183713207      2.58487402531399
  H           5.83083157481610     -1.00500640411613      1.90012781296200
  H           4.57269474488407     -0.04786567240030      2.72861481272976
  C           0.79082895396750     -4.03596753640480     -0.52926114765863
  H           0.52518386297279     -4.71994838555836      0.28670235058283
  H          -0.00452263115428     -4.01820163819303     -1.29000499604087
  H           1.72553052200228     -4.35957947230155     -1.01210716738830
  C           4.85224560107955      2.80852573848452      0.12519714014989
  H           4.45649192379377      2.97765578671647     -0.88851841717537
  H           4.54945496387966      3.62530808003410      0.79270330262629
  H           5.94941509305194      2.74989543025934      0.06297583439669
  H           1.00355181114845      0.74324376474488     -1.85574349752258
  C           0.10261479014446     -0.08815744735924      0.73559384624935
  C          -1.24164719844407      0.19813465666637     -0.01686379535662
  H           0.31489123227586      0.78916471097165      1.36308989839189
  H          -0.08924647235746     -0.92840721486214      1.41913501345523
  C          -2.26125919690443      0.37089231427394      1.09533751861529
  C          -1.15326516359361      1.51205341926543     -0.79775067148610
  C          -1.64821458564219     -0.92994806551667     -0.97323976678319
  C          -4.50340215973656      1.05930657979160      0.77912227495815
  H          -2.59627775520605     -0.55304630196556      1.57312967064148
  H          -2.09854533638903      1.21421397209049      1.76931197366028
  O          -1.40606295744159      1.65007812137753     -1.96897918125801
  O          -0.77619292441715      2.53908641247450     -0.00950282790452
  H          -0.93209405230431     -1.04366483976133     -1.79567511505570
  H          -1.70786055307400     -1.88095196632603     -0.42247427892432
  H          -2.62362730112026     -0.71972541751956     -1.42829756476319
  C          -4.26975717167048      2.29726588775118     -0.05527629730019
  C          -4.81761804620428     -0.17609991774185     -0.00336393769624
  C          -0.67055328786420      3.81098753797012     -0.64633344060983
  H          -3.74620413508466      3.06767232997557      0.52933962074194
  H          -3.69788361100883      2.07421694095056     -0.96352160189663
  H          -5.23671952139119      2.71411109081894     -0.38404305348109
  O          -4.98294110869211     -0.19170859657903     -1.20197777856170
  O          -4.90982109135756     -1.28475799344276      0.76017142236374
  H          -1.63726287143395      4.11466053259428     -1.07561214775983
  H          -0.35870798093967      4.51884973924149      0.13209121106952
  H           0.07456380913458      3.77886935195226     -1.45602543813994
  C          -5.22809481499877     -2.49095262001630      0.07054919514761
  H          -5.29569171508472     -3.27328073004571      0.83730050639203
  H          -6.18417985814995     -2.39763277591205     -0.46669087445102
  H          -4.44336257208808     -2.74080880238474     -0.66031866198327
  C          -4.88751062078732      1.13419928428148      2.08742393916021
  H          -5.20750673223163      0.24649758348694      2.63500148446656
  H          -4.82864642855024      2.08077146431761      2.63222529085743
