64
Coordinates from ORCA-job orca E -1421.310052606254
  C           1.72406538713374      0.77302198226716     -0.77840756259767
  H           1.74027118216572      1.60687240283634     -0.06359009184184
  H           2.65440200625871      0.78669547007157     -1.36066218781850
  C           1.55358720643271     -0.55486706290125     -0.03249849499686
  C           2.70214510668483     -0.80502887807135      0.99257949471953
  H           2.53291645140479     -1.79456749423901      1.44429229445264
  H           2.57388921754897     -0.06706552197861      1.79794926423302
  C           4.18834071259939     -0.75581296422789      0.55329781835184
  C           1.51450008887006     -1.68829891100353     -1.05948176988004
  O           1.59874388059395     -1.55471878141082     -2.25613159931235
  O           1.37261368652868     -2.89463626086951     -0.47418022323594
  C           4.62423517205018      0.65737640170424      0.16011752812204
  O           5.26839006642118      0.94544398712599     -0.81874168456474
  O           4.24993312449656      1.57344307794868      1.07782833952741
  C           4.51907822117201     -1.71492074690170     -0.59748261675352
  H           5.60381618867468     -1.73881925950182     -0.77574431009312
  H           4.18433919113447     -2.73228337163016     -0.34445552521673
  H           4.04548994328516     -1.41327129610054     -1.53986520605803
  C           5.03668587103714     -1.13858180959088      1.79103319605701
  H           4.82198898203266     -2.17858515777068      2.08426671996270
  H           6.11257336792916     -1.06432144722834      1.56654372537250
  H           4.81585762401854     -0.48342747653087      2.64644015193082
  C           1.32384396783964     -4.01624343698687     -1.35402113647955
  H           1.20751264266180     -4.90160433794968     -0.71625481694485
  H           0.47442398243633     -3.92977043602337     -2.04865150904611
  H           2.24996071521789     -4.08782678647940     -1.94465669663985
  C           4.63212209010235      2.92061134669219      0.81084583188639
  H           4.16976060000875      3.27763375969236     -0.12268618853654
  H           4.27795312723835      3.51527085894910      1.66251106988286
  H           5.72470766804881      3.00685805445828      0.71036625071773
  H           0.91429828530161      0.93448603602771     -1.50038004625193
  C           0.25733332540285     -0.58317793884786      0.83722412872512
  C          -1.15017516502825     -0.31024909305407      0.20768936133132
  H           0.39828609258454      0.15270340882099      1.64210525339827
  H           0.19950094570461     -1.57082775915583      1.31806281797320
  C          -2.15004137246415     -0.46996141499250      1.32211957273195
  C          -1.25822736277991      1.13957656088146     -0.28304573538645
  C          -1.50181962955513     -1.25941734959272     -0.94671478984103
  C          -4.83969031832352      1.53877290152946     -0.21884242667017
  H          -2.73225598723737     -1.39014731695827      1.39385075299435
  H          -2.20104426250860      0.25842006271109      2.13306983020070
  O          -1.60554034586175      1.48154924216512     -1.38692585664366
  O          -0.93275283287034      2.02121665235776      0.68208207010528
  H          -0.87248802901259     -1.08565154014306     -1.82765595993724
  H          -1.37385423393100     -2.30218343740597     -0.61949839534151
  H          -2.54836255472503     -1.11786429012248     -1.25068984061655
  C          -4.73454517808199      1.84569412700670     -1.68493734803265
  C          -5.13508081170150      0.10823655567347      0.10499539643535
  C          -0.99329728249981      3.39875611175933      0.32043312179213
  H          -4.55033544313485      2.91670762937444     -1.84962533488207
  H          -3.90633485107451      1.27934874481543     -2.13512410949960
  H          -5.65738362367073      1.55306417539521     -2.21170335394091
  O          -5.13151051203627     -0.78153217823523     -0.71698516404301
  O          -5.42625944822238     -0.10347217775735      1.40425017547240
  H          -1.99701072804186      3.66443082724737     -0.04173763586563
  H          -0.75020122463971      3.96569846381674      1.22805824093425
  H          -0.26533347577772      3.62244168591863     -0.47502402703702
  C          -5.75234762403655     -1.44197333378617      1.76180407259919
  H          -5.98663637157661     -1.42589578487694      2.83384225972734
  H          -6.61920947749297     -1.80145310010587      1.18598521086041
  H          -4.90787807912878     -2.12156410260228      1.56795506447273
  C          -4.67642960829513      2.44187448650613      0.76039230439955
  H          -4.75773981208743      2.16047298281952      1.81142833570592
  H          -4.45860047522413      3.48785425846042      0.52639198892961
