14
Coordinates from ORCA-job orca E -345.173222036702
  C          -3.87026235884364      0.71107555191503      1.35380741951332
  C          -4.18102187948011      1.96870626971289      1.83261334353711
  H          -5.16001650883379      2.39354487332732      1.66518291822490
  H          -3.44755053162964      2.54313726775811      2.38279294691725
  C          -2.64163451820651      0.10552718932138      1.53014571504421
  H          -2.43622977989756     -0.88060225069047      1.14285184327129
  H          -1.85665402386497      0.61996240426653      2.06924362021379
  C          -4.96560111844162      0.00103700730334      0.60389341737648
  O          -4.58741128503453     -1.19891601701207      0.15166125547005
  C          -5.57830855827080     -1.92149602267815     -0.57552780071099
  H          -5.10490569597943     -2.85273014468546     -0.87535011521547
  H          -6.44605081685504     -2.11929510358179      0.05349028640900
  H          -5.89679087594545     -1.35628957806960     -1.45125638912199
  O          -6.06407204871683      0.45462855311295      0.42292153907104
