14
Coordinates from ORCA-job orca E -345.038822102565
  C      -3.825890      0.998620      0.889370
  C      -4.274120      1.437840      2.073330
  H      -4.627300      0.562210      2.636390
  H      -3.746120      2.250840      2.594450
  C      -2.370770      0.529850      1.121240
  H      -2.416290     -0.376260      1.743090
  H      -1.877170      1.302160      1.731340
  C      -4.749340      0.198400     -0.028070
  O      -5.009770     -1.022860      0.460170
  C      -5.862580     -1.841020     -0.320750
  H      -5.980740     -2.779560      0.232420
  H      -6.840230     -1.361150     -0.470480
  H      -5.416110     -2.035360     -1.307280
  O      -5.240080      0.604580     -1.048750
14
Coordinates from ORCA-job orca E -345.061453849977
  C      -3.818730      0.973422      0.898866
  C      -4.288640      1.435462      2.096661
  H      -4.819306      0.668573      2.675164
  H      -3.754837      2.227808      2.622561
  C      -2.373773      0.525930      1.098344
  H      -2.363444     -0.405210      1.677086
  H      -1.813323      1.282138      1.662422
  C      -4.737232      0.193706     -0.008439
  O      -4.994238     -1.033217      0.468939
  C      -5.852879     -1.844785     -0.320407
  H      -5.966175     -2.784005      0.220263
  H      -6.825827     -1.365660     -0.457329
  H      -5.413502     -2.026042     -1.305208
  O      -5.214605      0.620169     -1.022453
14
Coordinates from ORCA-job orca E -345.081904176130
  C      -3.807889      0.946374      0.928676
  C      -4.315974      1.426611      2.110124
  H      -4.993042      0.786701      2.678532
  H      -3.768854      2.195486      2.643635
  C      -2.375497      0.526301      1.076585
  H      -2.309450     -0.431666      1.594935
  H      -1.760377      1.261944      1.600160
  C      -4.720811      0.183427      0.026194
  O      -4.979302     -1.049585      0.487300
  C      -5.843606     -1.846737     -0.318604
  H      -5.958371     -2.790902      0.205902
  H      -6.811362     -1.362053     -0.444496
  H      -5.405620     -2.011635     -1.302671
  O      -5.186355      0.634024     -0.979799
14
Coordinates from ORCA-job orca E -345.106028407687
  C      -3.789447      0.907234      0.998498
  C      -4.369475      1.424132      2.132598
  H      -5.208197      0.975801      2.650125
  H      -3.810841      2.164034      2.683648
  C      -2.385343      0.518214      1.044199
  H      -2.240614     -0.484256      1.430946
  H      -1.698901      1.217997      1.512644
  C      -4.695284      0.164323      0.092137
  O      -4.959267     -1.077263      0.523698
  C      -5.825807     -1.848677     -0.314624
  H      -5.947128     -2.802656      0.182959
  H      -6.786080     -1.354291     -0.429661
  H      -5.381432     -1.986630     -1.295841
  O      -5.138694      0.650327     -0.904856
14
Coordinates from ORCA-job orca E -345.128535050151
  C      -3.791574      0.870862      1.082805
  C      -4.400902      1.452670      2.172874
  H      -5.374174      1.234722      2.590244
  H      -3.796241      2.118962      2.771376
  C      -2.404262      0.520287      1.048295
  H      -2.185504     -0.530235      1.209386
  H      -1.660459      1.186351      1.473841
  C      -4.690855      0.136125      0.153709
  O      -4.957448     -1.114987      0.552842
  C      -5.810722     -1.867205     -0.321437
  H      -5.934722     -2.833303      0.150412
  H      -6.769260     -1.370766     -0.434224
  H      -5.349574     -1.976088     -1.297685
  O      -5.110812      0.640894     -0.845971
14
Coordinates from ORCA-job orca E -345.145152592916
  C      -3.803350      0.837403      1.148698
  C      -4.402079      1.480975      2.202629
  H      -5.442354      1.470338      2.497161
  H      -3.765188      2.065312      2.853622
  C      -2.425764      0.517413      1.079461
  H      -2.159850     -0.529056      0.984228
  H      -1.667257      1.153819      1.517326
  C      -4.697318      0.112718      0.193558
  O      -4.958502     -1.144614      0.568975
  C      -5.797337     -1.887721     -0.326240
  H      -5.915068     -2.863982      0.128824
  H      -6.760114     -1.396507     -0.435562
  H      -5.326147     -1.973526     -1.301318
  O      -5.116183      0.625717     -0.804892
14
Coordinates from ORCA-job orca E -345.154927360776
  C      -3.814209      0.800230      1.196766
  C      -4.386303      1.497315      2.221683
  H      -5.443591      1.616786      2.413624
  H      -3.738391      2.046901      2.893682
  C      -2.443730      0.505654      1.117131
  H      -2.136992     -0.489163      0.819000
  H      -1.696155      1.130624      1.587011
  C      -4.710166      0.095583      0.221341
  O      -4.965086     -1.167072      0.577055
  C      -5.792515     -1.903491     -0.330909
  H      -5.903922     -2.888306      0.110950
  H      -6.760483     -1.418279     -0.437448
  H      -5.316290     -1.971631     -1.306864
  O      -5.128677      0.613141     -0.776552
14
Coordinates from ORCA-job orca E -345.159894382785
  C      -3.814624      0.771647      1.222362
  C      -4.375344      1.504355      2.227370
  H      -5.436003      1.680189      2.344280
  H      -3.732655      2.041495      2.914120
  C      -2.448396      0.494714      1.143156
  H      -2.107048     -0.435771      0.708964
  H      -1.720201      1.110022      1.653996
  C      -4.710476      0.083958      0.233222
  O      -4.966580     -1.180937      0.579367
  C      -5.795313     -1.911213     -0.329495
  H      -5.905174     -2.899862      0.106182
  H      -6.765097     -1.426492     -0.430906
  H      -5.322604     -1.973085     -1.308632
  O      -5.136993      0.609269     -0.757516
14
Coordinates from ORCA-job orca E -345.164579293820
  C      -3.816284      0.737596      1.250277
  C      -4.363714      1.531688      2.225280
  H      -5.417067      1.774369      2.261838
  H      -3.724418      2.054564      2.922920
  C      -2.460619      0.464537      1.172075
  H      -2.084456     -0.339534      0.555161
  H      -1.752582      1.025212      1.766343
  C      -4.724108      0.073846      0.259339
  O      -4.963249     -1.200738      0.583629
  C      -5.791034     -1.924646     -0.329051
  H      -5.884499     -2.922473      0.088837
  H      -6.768429     -1.451895     -0.413305
  H      -5.328926     -1.963471     -1.314422
  O      -5.157122      0.609234     -0.722451
14
Coordinates from ORCA-job orca E -345.165954075593
  C      -3.798380      0.703611      1.264639
  C      -4.364441      1.552225      2.196129
  H      -5.408042      1.833393      2.153943
  H      -3.745980      2.070082      2.916310
  C      -2.453166      0.434105      1.207852
  H      -2.035321     -0.232776      0.467112
  H      -1.771658      0.937553      1.880072
  C      -4.697514      0.051285      0.257727
  O      -4.920303     -1.231776      0.560735
  C      -5.794038     -1.931502     -0.326468
  H      -5.867327     -2.940438      0.068838
  H      -6.774741     -1.457795     -0.349297
  H      -5.383214     -1.944502     -1.335392
  O      -5.222383      0.624825     -0.655729
14
Coordinates from ORCA-job orca E -345.166622196411
  C      -3.831559      0.706357      1.298782
  C      -4.334174      1.648168      2.181326
  H      -5.360806      1.984310      2.122373
  H      -3.681511      2.157624      2.878993
  C      -2.504492      0.356533      1.231693
  H      -2.126299     -0.317535      0.475462
  H      -1.787181      0.828800      1.891091
  C      -4.794167      0.069861      0.336693
  O      -4.899380     -1.245497      0.552141
  C      -5.741309     -1.952366     -0.358889
  H      -5.717456     -2.990036     -0.036950
  H      -6.758678     -1.563115     -0.319978
  H      -5.365246     -1.859163     -1.377835
  O      -5.334252      0.644350     -0.568432
14
Coordinates from ORCA-job orca E -345.168197339627
  C      -3.838534      0.713141      1.306749
  C      -4.323453      1.697012      2.149001
  H      -5.346749      2.041529      2.080962
  H      -3.665081      2.207957      2.840886
  C      -2.516064      0.316750      1.260930
  H      -2.166211     -0.433664      0.564669
  H      -1.777962      0.809076      1.882581
  C      -4.815978      0.073403      0.358206
  O      -4.847110     -1.254431      0.510064
  C      -5.713487     -1.954651     -0.382707
  H      -5.621892     -3.005050     -0.118923
  H      -6.742712     -1.617484     -0.259420
  H      -5.408909     -1.791877     -1.416790
  O      -5.452369      0.666580     -0.469738
14
Coordinates from ORCA-job orca E -345.170651064100
  C      -3.852361      0.723327      1.324694
  C      -4.290501      1.797091      2.068639
  H      -5.305559      2.159186      1.985617
  H      -3.616248      2.313770      2.739656
  C      -2.557417      0.236427      1.324469
  H      -2.277382     -0.634199      0.748132
  H      -1.774337      0.744830      1.873362
  C      -4.867828      0.073818      0.423408
  O      -4.748483     -1.257676      0.421433
  C      -5.653760     -1.953504     -0.435217
  H      -5.423559     -3.008541     -0.313744
  H      -6.684479     -1.751042     -0.145418
  H      -5.511101     -1.647402     -1.471497
  O      -5.673494      0.672205     -0.237065
14
Coordinates from ORCA-job orca E -345.171950390954
  C      -3.859327      0.722995      1.331936
  C      -4.259408      1.861276      2.000660
  H      -5.267573      2.237549      1.899342
  H      -3.572753      2.384613      2.653039
  C      -2.578834      0.192197      1.378179
  H      -2.329623     -0.726122      0.866162
  H      -1.783541      0.698202      1.911857
  C      -4.899597      0.061804      0.469223
  O      -4.688766     -1.253202      0.345297
  C      -5.623048     -1.949871     -0.477883
  H      -5.313577     -2.991203     -0.460362
  H      -6.632678     -1.844508     -0.082113
  H      -5.599947     -1.561157     -1.495638
  O      -5.827838      0.635718     -0.033229
14
Coordinates from ORCA-job orca E -345.172571556403
  C      -3.861206      0.722207      1.336047
  C      -4.235206      1.899467      1.949226
  H      -5.238471      2.283450      1.835709
  H      -3.537551      2.432452      2.581596
  C      -2.596928      0.166997      1.420376
  H      -2.366554     -0.779362      0.954220
  H      -1.800373      0.672687      1.950896
  C      -4.918698      0.046961      0.505324
  O      -4.650026     -1.244926      0.286196
  C      -5.607145     -1.943787     -0.507324
  H      -5.243513     -2.965309     -0.578390
  H      -6.587348     -1.919375     -0.032026
  H      -5.682387     -1.494991     -1.497639
  O      -5.911102      0.591818      0.102259
14
Coordinates from ORCA-job orca E -345.173075574458
  C      -3.865497      0.716232      1.345796
  C      -4.199785      1.949023      1.871708
  H      -5.193072      2.349507      1.730273
  H      -3.482739      2.501881      2.464546
  C      -2.618554      0.131305      1.488609
  H      -2.402807     -0.842159      1.073930
  H      -1.830660      0.639458      2.029791
  C      -4.948363      0.018016      0.564657
  O      -4.606883     -1.221153      0.196322
  C      -5.590925     -1.931303     -0.551669
  H      -5.156907     -2.905649     -0.760846
  H      -6.508008     -2.037806      0.027570
  H      -5.816313     -1.406090     -1.479953
  O      -6.015998      0.507027      0.305735
14
Coordinates from ORCA-job orca E -345.173177373822
  C      -3.866758      0.714438      1.350762
  C      -4.188725      1.961384      1.847081
  H      -5.176781      2.370488      1.696469
  H      -3.461972      2.525011      2.417267
  C      -2.633125      0.117722      1.509246
  H      -2.425710     -0.862872      1.108811
  H      -1.847153      0.626592      2.051617
  C      -4.957318      0.007455      0.589859
  O      -4.593633     -1.208284      0.170055
  C      -5.582400     -1.924924     -0.565882
  H      -5.128261     -2.879836     -0.817821
  H      -6.476189     -2.074213      0.039691
  H      -5.853525     -1.380055     -1.470188
  O      -6.044958      0.475384      0.379505
14
Coordinates from ORCA-job orca E -345.173205008391
  C      -3.869878      0.711723      1.355490
  C      -4.179980      1.971702      1.827849
  H      -5.162654      2.389803      1.665542
  H      -3.445565      2.543871      2.379450
  C      -2.640850      0.106088      1.528808
  H      -2.436647     -0.879625      1.139761
  H      -1.857996      0.617829      2.073705
  C      -4.966189     -0.001218      0.608124
  O      -4.585317     -1.196256      0.146723
  C      -5.577562     -1.920165     -0.577590
  H      -5.106861     -2.855562     -0.868927
  H      -6.448068     -2.108925      0.050368
  H      -5.891011     -1.359464     -1.458178
  O      -6.067933      0.448489      0.435344
14
Coordinates from ORCA-job orca E -345.173210700617
  C      -3.870410      0.711948      1.354920
  C      -4.180700      1.970347      1.831011
  H      -5.162572      2.390402      1.668648
  H      -3.446208      2.542761      2.382108
  C      -2.641091      0.106248      1.527247
  H      -2.437193     -0.879365      1.137951
  H      -1.857812      0.618162      2.071358
  C      -4.965908      0.000447      0.605503
  O      -4.585767     -1.196690      0.148485
  C      -5.577452     -1.921002     -0.576258
  H      -5.106813     -2.856649     -0.866571
  H      -6.448592     -2.109226      0.050972
  H      -5.889945     -1.361093     -1.457670
  O      -6.066045      0.451999      0.428766
14
Coordinates from ORCA-job orca E -345.173215869882
  C      -3.870720      0.711442      1.354443
  C      -4.180634      1.968818      1.832960
  H      -5.160546      2.392558      1.668029
  H      -3.445991      2.543501      2.381335
  C      -2.641540      0.105765      1.528508
  H      -2.437867     -0.881030      1.142390
  H      -1.857994      0.619946      2.069989
  C      -4.965904      0.001214      0.603746
  O      -4.586023     -1.197083      0.148612
  C      -5.577681     -1.921400     -0.576043
  H      -5.105440     -2.854497     -0.871748
  H      -6.446285     -2.114926      0.053093
  H      -5.894576     -1.359308     -1.454445
  O      -6.065309      0.453290      0.425599
14
Coordinates from ORCA-job orca E -345.173221702793
  C      -3.870519      0.711350      1.354083
  C      -4.181053      1.968358      1.833522
  H      -5.160658      2.392567      1.667994
  H      -3.446963      2.543125      2.382546
  C      -2.641236      0.105926      1.528405
  H      -2.437022     -0.880676      1.141867
  H      -1.857380      0.620181      2.069312
  C      -4.965627      0.001411      0.603265
  O      -4.586580     -1.197919      0.150031
  C      -5.577976     -1.921524     -0.575598
  H      -5.105812     -2.854576     -0.871649
  H      -6.446855     -2.115351      0.053059
  H      -5.894370     -1.358903     -1.453798
  O      -6.064458      0.454322      0.423433
14
Coordinates from ORCA-job orca E -345.173223660972
  C      -3.870199      0.711110      1.353798
  C      -4.181238      1.968286      1.833264
  H      -5.160377      2.392987      1.666309
  H      -3.447863      2.542989      2.383319
  C      -2.641214      0.105834      1.529288
  H      -2.436032     -0.880389      1.142130
  H      -1.856629      0.620277      2.068947
  C      -4.965454      0.001231      0.603487
  O      -4.587360     -1.198948      0.151690
  C      -5.578355     -1.921542     -0.575370
  H      -5.105631     -2.853658     -0.873560
  H      -6.446858     -2.117559      0.053150
  H      -5.895468     -1.357233     -1.452190
  O      -6.063830      0.454907      0.422208
14
Coordinates from ORCA-job orca E -345.173222036702
  C      -3.870262      0.711076      1.353807
  C      -4.181022      1.968706      1.832613
  H      -5.160017      2.393545      1.665183
  H      -3.447551      2.543137      2.382793
  C      -2.641635      0.105527      1.530146
  H      -2.436230     -0.880602      1.142852
  H      -1.856654      0.619962      2.069244
  C      -4.965601      0.001037      0.603893
  O      -4.587411     -1.198916      0.151661
  C      -5.578309     -1.921496     -0.575528
  H      -5.104906     -2.852730     -0.875350
  H      -6.446051     -2.119295      0.053490
  H      -5.896791     -1.356290     -1.451256
  O      -6.064072      0.454629      0.422922
