34
Coordinates from ORCA-job orca E -731.565142447029
  C          -2.42523799451127      1.37073501207746     -3.66352678648383
  O          -2.65398283644122      0.46590623930941     -2.58650829281312
  C          -2.36129161971069      0.93440623449691     -1.36481508758989
  C          -2.59525249212404     -0.12267413326156     -0.27268564226851
  C          -2.42964308946741      0.54002174270359      1.09470789098734
  H          -2.56529517033041     -0.20385738757506      1.88079356100257
  H          -3.14510844513808      1.34865568967519      1.24529861216144
  H          -1.43435883186417      0.97251484258899      1.18823412109854
  C          -1.50535996359571     -1.12993455248608     -0.48427878091789
  H          -0.53947521683158     -0.98867000805274     -0.01718504334565
  H          -1.61683580408235     -1.90603830600973     -1.23016663055145
  C          -3.95205249947381     -0.84604114675237     -0.44223559294459
  H          -3.92780257450026     -1.72207338182435      0.20858693390703
  C          -5.26600154779198     -0.08341670466537     -0.17227089144215
  C          -5.46761196212988      0.22038269497583      1.31028809019398
  O          -5.23369317574899     -0.85055362581490      2.08309810686518
  C          -5.42398752324882     -0.65442403587158      3.48170533381152
  H          -5.18100951888778     -1.60470245925837      3.95016047611491
  H          -4.76395196933345      0.13185093067687      3.84900585453588
  H          -6.45625531474267     -0.37710494725269      3.69456116062236
  O          -5.84265864091512      1.27131878300444      1.75691028970219
  C          -6.42624263215237     -1.01209469236979     -0.57597306567248
  H          -6.36607066296668     -1.97101159254850     -0.06012686930694
  H          -7.38959236707989     -0.55424594631932     -0.34259389132942
  H          -6.39099143359392     -1.19551406128581     -1.65150029089547
  C          -5.37320237348552      1.21937816564295     -0.96165835941588
  H          -4.63189632684464      1.95470831410083     -0.64829250277894
  H          -6.35262307846418      1.67433408365410     -0.81708684492020
  H          -5.23753270085025      1.01729406332402     -2.02540889805565
  H          -4.00166951612441     -1.22179221153762     -1.46646346951788
  O          -1.91695441616671      2.03390671153976     -1.17620167409082
  H          -3.03762747964726      2.26536087057212     -3.54741739887679
  H          -1.37617599431049      1.66349227440450     -3.70237904849008
  H          -2.70469482744385      0.83314254013888     -4.56595536929530
