34
Coordinates from ORCA-job orca E -731.544207725422
  C      -2.461120      1.406580     -3.655000
  O      -2.604440      0.502420     -2.573090
  C      -2.351580      0.988880     -1.352240
  C      -2.514830     -0.065710     -0.260100
  C      -2.432840      0.630890      1.099970
  H      -2.487690     -0.107880      1.909780
  H      -3.245350      1.359530      1.219610
  H      -1.503920      1.198990      1.214630
  C      -1.443940     -1.191620     -0.428460
  H      -1.688450     -1.937900      0.341240
  H      -1.619880     -1.671210     -1.404520
  C      -3.867090     -0.814390     -0.438650
  H      -3.843220     -1.684080      0.233680
  C      -5.207750     -0.083490     -0.193170
  C      -5.428630      0.226830      1.287690
  O      -5.147870     -0.823400      2.068800
  C      -5.313920     -0.633500      3.463540
  H      -5.056980     -1.587670      3.936620
  H      -4.645660      0.160850      3.827060
  H      -6.350360     -0.354930      3.701420
  O      -5.850300      1.266310      1.724100
  C      -6.336170     -1.057810     -0.594750
  H      -6.251650     -2.010790     -0.053350
  H      -7.323910     -0.622730     -0.379480
  H      -6.283930     -1.265290     -1.674320
  C      -5.352080      1.210840     -0.996400
  H      -4.628040      1.975650     -0.684530
  H      -6.352640      1.641220     -0.854340
  H      -5.206830      1.003730     -2.066550
  H      -3.897580     -1.211030     -1.464430
  O      -2.014030      2.132990     -1.173670
  H      -3.148230      2.257680     -3.542750
  H      -1.432340      1.792540     -3.707440
  H      -2.698890      0.840760     -4.562280
34
Coordinates from ORCA-job orca E -731.555456215665
  C      -2.402919      1.392007     -3.685231
  O      -2.585133      0.495483     -2.598962
  C      -2.343325      0.992539     -1.378915
  C      -2.534774     -0.050637     -0.280963
  C      -2.398549      0.633254      1.076705
  H      -2.458161     -0.106965      1.876877
  H      -3.173942      1.384674      1.227107
  H      -1.445706      1.154233      1.163617
  C      -1.480037     -1.152283     -0.458828
  H      -1.570374     -1.907518      0.326948
  H      -1.516256     -1.617585     -1.447506
  C      -3.893272     -0.800219     -0.436304
  H      -3.859317     -1.668475      0.226171
  C      -5.236186     -0.079033     -0.170209
  C      -5.457091      0.219657      1.312193
  O      -5.171686     -0.833991      2.088671
  C      -5.358442     -0.647632      3.484418
  H      -5.096139     -1.593142      3.953927
  H      -4.710266      0.149418      3.854223
  H      -6.393914     -0.386623      3.707669
  O      -5.893695      1.249267      1.753031
  C      -6.355292     -1.058959     -0.570069
  H      -6.259767     -2.008853     -0.041199
  H      -7.337858     -0.636883     -0.346268
  H      -6.308671     -1.254897     -1.643741
  C      -5.401802      1.214744     -0.964610
  H      -4.690550      1.982160     -0.658089
  H      -6.399264      1.628296     -0.814353
  H      -5.264273      1.014944     -2.029323
  H      -3.940538     -1.189380     -1.455890
  O      -1.974984      2.124000     -1.204940
  H      -3.071278      2.250017     -3.591765
  H      -1.374343      1.754509     -3.720221
  H      -2.634338      0.827132     -4.585552
34
Coordinates from ORCA-job orca E -731.560689089981
  C      -2.434454      1.403342     -3.665769
  O      -2.601911      0.484061     -2.590879
  C      -2.370011      0.975537     -1.364887
  C      -2.568493     -0.078191     -0.278677
  C      -2.447712      0.581727      1.090639
  H      -2.513899     -0.174997      1.872443
  H      -3.224970      1.327005      1.255341
  H      -1.491129      1.090582      1.186179
  C      -1.495998     -1.117252     -0.451673
  H      -1.441594     -1.863061      0.336707
  H      -1.363782     -1.529133     -1.446753
  C      -3.913474     -0.838045     -0.445634
  H      -3.884314     -1.705257      0.214025
  C      -5.237531     -0.092649     -0.182671
  C      -5.441956      0.223177      1.296697
  O      -5.162712     -0.826507      2.083506
  C      -5.333177     -0.611309      3.481243
  H      -5.078141     -1.550869      3.960981
  H      -4.672527      0.181956      3.827414
  H      -6.360917     -0.335167      3.707830
  O      -5.838711      1.270615      1.730982
  C      -6.381321     -1.045094     -0.576844
  H      -6.311329     -1.993109     -0.045978
  H      -7.349937     -0.596961     -0.354892
  H      -6.339937     -1.244775     -1.647346
  C      -5.357656      1.198388     -0.986581
  H      -4.621112      1.941486     -0.684780
  H      -6.338766      1.645701     -0.844547
  H      -5.223105      0.985106     -2.047148
  H      -3.958292     -1.220502     -1.465287
  O      -2.044457      2.114060     -1.171702
  H      -3.118466      2.243719     -3.560152
  H      -1.415298      1.783294     -3.692324
  H      -2.655050      0.846384     -4.570841
34
Coordinates from ORCA-job orca E -731.562603306358
  C      -2.372360      1.355936     -3.714952
  O      -2.591256      0.463246     -2.623380
  C      -2.380438      0.982710     -1.404244
  C      -2.575183     -0.058870     -0.302372
  C      -2.399691      0.609511      1.060817
  H      -2.475280     -0.141924      1.848211
  H      -3.143060      1.384989      1.244100
  H      -1.417526      1.075390      1.122933
  C      -1.504362     -1.077612     -0.490738
  H      -1.321891     -1.772689      0.320234
  H      -1.298391     -1.454793     -1.484103
  C      -3.930554     -0.815206     -0.436550
  H      -3.880974     -1.684647      0.220527
  C      -5.259180     -0.078257     -0.149276
  C      -5.458290      0.216201      1.334487
  O      -5.195523     -0.852610      2.102660
  C      -5.405242     -0.667166      3.501752
  H      -5.155728     -1.617517      3.966563
  H      -4.758351      0.124412      3.880372
  H      -6.442721     -0.403305      3.704174
  O      -5.888896      1.244558      1.782410
  C      -6.400526     -1.034024     -0.543981
  H      -6.318554     -1.989568     -0.024960
  H      -7.371865     -0.595049     -0.307305
  H      -6.366908     -1.220084     -1.618926
  C      -5.400410      1.221371     -0.936877
  H      -4.674143      1.972059     -0.627242
  H      -6.389341      1.653495     -0.787894
  H      -5.264489      1.022360     -2.001590
  H      -3.994003     -1.198964     -1.456450
  O      -1.990102      2.103540     -1.231944
  H      -3.042096      2.213241     -3.645129
  H      -1.342564      1.711610     -3.719633
  H      -2.582242      0.780914     -4.613077
34
Coordinates from ORCA-job orca E -731.563476095158
  C      -2.426564      1.373172     -3.690056
  O      -2.610665      0.460803     -2.607316
  C      -2.348661      0.956524     -1.387960
  C      -2.569923     -0.087454     -0.288871
  C      -2.396270      0.580438      1.079047
  H      -2.520792     -0.166600      1.865456
  H      -3.110699      1.385986      1.246813
  H      -1.395760      1.003698      1.158318
  C      -1.494987     -1.111121     -0.468983
  H      -1.231920     -1.745679      0.369109
  H      -1.230540     -1.463256     -1.457939
  C      -3.936626     -0.825363     -0.440128
  H      -3.899036     -1.697714      0.215363
  C      -5.266304     -0.079677     -0.167434
  C      -5.483447      0.216688      1.313445
  O      -5.193462     -0.839018      2.090441
  C      -5.381391     -0.637602      3.490948
  H      -5.106869     -1.578311      3.962906
  H      -4.741092      0.170919      3.846323
  H      -6.420843     -0.389334      3.706824
  O      -5.881019      1.259521      1.759336
  C      -6.408050     -1.030438     -0.572479
  H      -6.333009     -1.987808     -0.054178
  H      -7.380617     -0.588380     -0.342812
  H      -6.365817     -1.214640     -1.648348
  C      -5.399840      1.218954     -0.959362
  H      -4.682880      1.973837     -0.637899
  H      -6.393876      1.647509     -0.828859
  H      -5.244430      1.019057     -2.021945
  H      -3.989126     -1.208502     -1.461919
  O      -1.990330      2.087049     -1.205664
  H      -3.085694      2.234897     -3.575960
  H      -1.393133      1.718663     -3.727858
  H      -2.678469      0.816444     -4.589745
34
Coordinates from ORCA-job orca E -731.564055444387
  C      -2.420941      1.400296     -3.670928
  O      -2.615913      0.475185     -2.601619
  C      -2.382873      0.958663     -1.371884
  C      -2.585716     -0.108576     -0.290861
  C      -2.434305      0.541944      1.088240
  H      -2.566510     -0.216160      1.862564
  H      -3.159450      1.338707      1.253653
  H      -1.440042      0.974580      1.187453
  C      -1.495146     -1.124021     -0.486117
  H      -1.166640     -1.714832      0.360952
  H      -1.211028     -1.450480     -1.478447
  C      -3.945413     -0.847400     -0.454684
  H      -3.909882     -1.721665      0.198022
  C      -5.263028     -0.090563     -0.177633
  C      -5.448231      0.232064      1.302211
  O      -5.174881     -0.820284      2.089239
  C      -5.359758     -0.604838      3.487484
  H      -5.095121     -1.543713      3.967246
  H      -4.711180      0.199612      3.835291
  H      -6.395966     -0.343842      3.701397
  O      -5.847528      1.278889      1.737107
  C      -6.420285     -1.034736     -0.555044
  H      -6.346763     -1.986371     -0.027169
  H      -7.384368     -0.580806     -0.316192
  H      -6.396285     -1.231848     -1.628651
  C      -5.387184      1.198632     -0.986019
  H      -4.652159      1.945585     -0.686244
  H      -6.371319      1.645370     -0.847248
  H      -5.252252      0.981049     -2.047319
  H      -3.995672     -1.224539     -1.478162
  O      -2.024842      2.086779     -1.171880
  H      -3.089830      2.254072     -3.559752
  H      -1.390790      1.755338     -3.685953
  H      -2.650840      0.851166     -4.580431
34
Coordinates from ORCA-job orca E -731.564212336112
  C      -2.424702      1.367803     -3.691762
  O      -2.615785      0.457430     -2.610043
  C      -2.384470      0.956928     -1.386981
  C      -2.581097     -0.097037     -0.293741
  C      -2.421030      0.569639      1.074663
  H      -2.549307     -0.177039      1.859998
  H      -3.145863      1.368673      1.230198
  H      -1.427979      1.007261      1.163353
  C      -1.496107     -1.115788     -0.485380
  H      -1.128136     -1.662227      0.373704
  H      -1.223504     -1.458010     -1.474404
  C      -3.940869     -0.837878     -0.444847
  H      -3.901131     -1.709574      0.210863
  C      -5.258305     -0.082821     -0.165702
  C      -5.453847      0.222218      1.316609
  O      -5.203254     -0.844100      2.091696
  C      -5.392763     -0.644670      3.491058
  H      -5.143711     -1.592828      3.960455
  H      -4.735624      0.146137      3.853453
  H      -6.426215     -0.372169      3.703269
  O      -5.838444      1.269999      1.762200
  C      -6.414729     -1.020429     -0.560494
  H      -6.345408     -1.978064     -0.043435
  H      -7.379182     -0.567891     -0.321604
  H      -6.385149     -1.205331     -1.635877
  C      -5.375520      1.216972     -0.957961
  H      -4.642876      1.959672     -0.642190
  H      -6.360434      1.661962     -0.820597
  H      -5.232551      1.013649     -2.020847
  H      -3.995628     -1.219017     -1.466374
  O      -2.023630      2.086817     -1.201993
  H      -3.096088      2.220859     -3.592445
  H      -1.396009      1.726337     -3.712600
  H      -2.652793      0.805776     -4.593623
34
Coordinates from ORCA-job orca E -731.564345477023
  C      -2.409972      1.366879     -3.690303
  O      -2.606354      0.458019     -2.609664
  C      -2.375897      0.954118     -1.385738
  C      -2.582043     -0.098644     -0.294621
  C      -2.417859      0.563801      1.072827
  H      -2.553484     -0.180883      1.858694
  H      -3.137655      1.368162      1.223290
  H      -1.424166      0.999276      1.165376
  C      -1.509577     -1.125816     -0.490588
  H      -1.073362     -1.604410      0.375363
  H      -1.257625     -1.483622     -1.478355
  C      -3.945920     -0.833108     -0.448724
  H      -3.908196     -1.707785      0.203005
  C      -5.264167     -0.080349     -0.165789
  C      -5.456342      0.224250      1.317439
  O      -5.208871     -0.843499      2.090563
  C      -5.391823     -0.646367      3.490154
  H      -5.141745     -1.594923      3.958160
  H      -4.733075      0.143367      3.852095
  H      -6.423939     -0.373223      3.708284
  O      -5.837814      1.272412      1.764835
  C      -6.417939     -1.022606     -0.556071
  H      -6.341347     -1.980226     -0.040249
  H      -7.383360     -0.574977     -0.312058
  H      -6.392708     -1.206706     -1.631597
  C      -5.392654      1.218556     -0.958085
  H      -4.666084      1.967178     -0.644058
  H      -6.380788      1.655562     -0.818164
  H      -5.251226      1.016409     -2.021376
  H      -4.001205     -1.211190     -1.471180
  O      -2.009214      2.082013     -1.198916
  H      -3.076781      2.223708     -3.592221
  H      -1.379685      1.721006     -3.710593
  H      -2.639261      0.806879     -4.593114
34
Coordinates from ORCA-job orca E -731.564396835393
  C      -2.423705      1.377491     -3.679721
  O      -2.614592      0.463621     -2.603138
  C      -2.376990      0.952217     -1.377675
  C      -2.578385     -0.106004     -0.290913
  C      -2.408385      0.549448      1.078197
  H      -2.540315     -0.197965      1.862017
  H      -3.127525      1.353399      1.234023
  H      -1.415386      0.986925      1.170095
  C      -1.508723     -1.135457     -0.499691
  H      -1.011348     -1.563383      0.359919
  H      -1.289832     -1.514031     -1.487979
  C      -3.944419     -0.838428     -0.445087
  H      -3.910439     -1.711256      0.209348
  C      -5.262757     -0.083014     -0.169167
  C      -5.458859      0.228364      1.312301
  O      -5.216348     -0.836714      2.090346
  C      -5.400193     -0.633625      3.488401
  H      -5.151500     -1.580119      3.961410
  H      -4.741391      0.157114      3.848345
  H      -6.432183     -0.358559      3.705232
  O      -5.836980      1.279992      1.754474
  C      -6.416344     -1.025703     -0.559507
  H      -6.341761     -1.981805     -0.040568
  H      -7.382156     -0.576751     -0.319250
  H      -6.388705     -1.213225     -1.634434
  C      -5.386838      1.212871     -0.967179
  H      -4.658960      1.961352     -0.655541
  H      -6.374265      1.652593     -0.830243
  H      -5.245054      1.005926     -2.029541
  H      -3.997751     -1.220355     -1.466295
  O      -2.009617      2.079266     -1.186366
  H      -3.088127      2.235318     -3.573482
  H      -1.393043      1.730592     -3.705258
  H      -2.659266      0.823165     -4.584454
34
Coordinates from ORCA-job orca E -731.564453510314
  C      -2.418015      1.382398     -3.674730
  O      -2.612330      0.466509     -2.600737
  C      -2.376360      0.952479     -1.373686
  C      -2.581663     -0.107746     -0.288595
  C      -2.417501      0.544906      1.082190
  H      -2.548632     -0.204498      1.864319
  H      -3.138818      1.346939      1.239080
  H      -1.425742      0.984652      1.178471
  C      -1.511216     -1.138441     -0.497474
  H      -0.981984     -1.538470      0.357158
  H      -1.323105     -1.548413     -1.480358
  C      -3.947724     -0.839376     -0.448348
  H      -3.916157     -1.713583      0.204423
  C      -5.266617     -0.084085     -0.173080
  C      -5.460049      0.228817      1.308307
  O      -5.209514     -0.833838      2.087318
  C      -5.386132     -0.628019      3.485772
  H      -5.131001     -1.572249      3.960062
  H      -4.728486      0.166253      3.840259
  H      -6.417936     -0.356474      3.708342
  O      -5.837469      1.280806      1.750236
  C      -6.420013     -1.027892     -0.561724
  H      -6.344895     -1.983457     -0.041690
  H      -7.386037     -0.579160     -0.321496
  H      -6.392914     -1.216565     -1.636560
  C      -5.391522      1.211146     -0.971817
  H      -4.661896      1.959210     -0.662648
  H      -6.378226      1.651962     -0.832447
  H      -5.252682      1.003195     -2.034356
  H      -3.999432     -1.218510     -1.470875
  O      -2.007482      2.078458     -1.179118
  H      -3.081350      2.241197     -3.568339
  H      -1.386835      1.734501     -3.697830
  H      -2.652406      0.830607     -4.581408
34
Coordinates from ORCA-job orca E -731.564519575438
  C      -2.427425      1.397009     -3.659748
  O      -2.618253      0.473732     -2.592455
  C      -2.363418      0.949259     -1.364044
  C      -2.581423     -0.113747     -0.278848
  C      -2.433079      0.534333      1.093797
  H      -2.556531     -0.219207      1.873536
  H      -3.160661      1.330167      1.256626
  H      -1.444742      0.981356      1.199957
  C      -1.507922     -1.147185     -0.489983
  H      -0.805075     -1.388437      0.298459
  H      -1.490086     -1.736181     -1.400020
  C      -3.947542     -0.842075     -0.453989
  H      -3.925371     -1.718726      0.195864
  C      -5.267521     -0.084318     -0.183874
  C      -5.453643      0.233264      1.297142
  O      -5.195592     -0.827516      2.077350
  C      -5.372839     -0.619895      3.474998
  H      -5.107935     -1.559946      3.952934
  H      -4.723002      0.181926      3.827789
  H      -6.406978     -0.357982      3.700012
  O      -5.846850      1.280354      1.736896
  C      -6.421107     -1.028960     -0.570850
  H      -6.349188     -1.982562     -0.046074
  H      -7.387716     -0.578255     -0.335179
  H      -6.391880     -1.222307     -1.645166
  C      -5.388190      1.209675     -0.984281
  H      -4.648400      1.951867     -0.682724
  H      -6.369891      1.659641     -0.836531
  H      -5.259792      0.998421     -2.047467
  H      -3.995075     -1.213870     -1.480176
  O      -1.994019      2.073588     -1.162429
  H      -3.081084      2.262048     -3.540356
  H      -1.393500      1.741453     -3.692958
  H      -2.676412      0.856335     -4.569587
34
Coordinates from ORCA-job orca E -731.564666806517
  C      -2.407345      1.391242     -3.660098
  O      -2.617305      0.472861     -2.591943
  C      -2.375350      0.950955     -1.362284
  C      -2.592268     -0.114127     -0.278849
  C      -2.440519      0.532850      1.093862
  H      -2.567137     -0.220762      1.872935
  H      -3.165310      1.330899      1.256380
  H      -1.450675      0.976505      1.198930
  C      -1.515897     -1.139869     -0.493192
  H      -0.779978     -1.342214      0.274002
  H      -1.502907     -1.732972     -1.399031
  C      -3.956458     -0.843077     -0.454304
  H      -3.932083     -1.720601      0.194135
  C      -5.276068     -0.086192     -0.182595
  C      -5.465285      0.227622      1.299057
  O      -5.199456     -0.831620      2.078707
  C      -5.362089     -0.621434      3.477851
  H      -5.091154     -1.560335      3.954332
  H      -4.709467      0.181679      3.821961
  H      -6.394082     -0.360292      3.712694
  O      -5.839246      1.280302      1.742188
  C      -6.429455     -1.029101     -0.572478
  H      -6.357913     -1.983900     -0.050229
  H      -7.395880     -0.578695     -0.336210
  H      -6.399474     -1.219592     -1.647090
  C      -5.396940      1.209411     -0.980682
  H      -4.659583      1.952091     -0.675545
  H      -6.379653      1.657366     -0.834897
  H      -5.265036      1.000768     -2.043921
  H      -4.003358     -1.213630     -1.480633
  O      -1.988271      2.069351     -1.160957
  H      -3.057349      2.260246     -3.551719
  H      -1.371068      1.728919     -3.680916
  H      -2.648079      0.848605     -4.570841
34
Coordinates from ORCA-job orca E -731.564830954349
  C      -2.412100      1.377981     -3.666512
  O      -2.625323      0.465384     -2.593511
  C      -2.374460      0.945620     -1.366893
  C      -2.592400     -0.116462     -0.279666
  C      -2.433897      0.537314      1.089850
  H      -2.566253     -0.211375      1.872456
  H      -3.153334      1.341009      1.247169
  H      -1.441007      0.974908      1.189497
  C      -1.511457     -1.133516     -0.493465
  H      -0.721116     -1.262519      0.232793
  H      -1.503703     -1.734613     -1.392620
  C      -3.955340     -0.843708     -0.450321
  H      -3.928200     -1.720711      0.198722
  C      -5.272391     -0.084665     -0.176405
  C      -5.464316      0.224819      1.305872
  O      -5.218544     -0.841612      2.082085
  C      -5.388544     -0.636256      3.481347
  H      -5.131866     -1.580801      3.954233
  H      -4.728981      0.157502      3.833323
  H      -6.419180     -0.364372      3.709200
  O      -5.830523      1.279069      1.751715
  C      -6.428944     -1.021758     -0.569980
  H      -6.360920     -1.978361     -0.050829
  H      -7.393698     -0.568566     -0.332850
  H      -6.398830     -1.208960     -1.645010
  C      -5.389521      1.214147     -0.970317
  H      -4.653587      1.955435     -0.659089
  H      -6.372537      1.662058     -0.827520
  H      -5.252731      1.009422     -2.033593
  H      -4.004055     -1.215516     -1.475879
  O      -1.975386      2.060867     -1.171148
  H      -3.054761      2.252244     -3.558493
  H      -1.373056      1.706091     -3.691980
  H      -2.661181      0.833160     -4.573560
34
Coordinates from ORCA-job orca E -731.565019764294
  C      -2.426658      1.379083     -3.657844
  O      -2.645998      0.468267     -2.584242
  C      -2.369558      0.939437     -1.359787
  C      -2.592491     -0.124464     -0.272002
  C      -2.427133      0.529429      1.097064
  H      -2.561430     -0.218578      1.879873
  H      -3.141524      1.337012      1.255645
  H      -1.431758      0.962046      1.192808
  C      -1.506931     -1.132881     -0.494071
  H      -0.602468     -1.115045      0.097405
  H      -1.572395     -1.813167     -1.332710
  C      -3.953068     -0.848362     -0.444344
  H      -3.928271     -1.724213      0.206328
  C      -5.268428     -0.086056     -0.176339
  C      -5.466639      0.225459      1.304855
  O      -5.232865     -0.842324      2.082768
  C      -5.411449     -0.636115      3.481061
  H      -5.161076     -1.581640      3.955245
  H      -4.751519      0.155470      3.836983
  H      -6.442767     -0.360923      3.701452
  O      -5.832271      1.281064      1.748000
  C      -6.426077     -1.019999     -0.573652
  H      -6.363222     -1.975918     -0.052734
  H      -7.390425     -0.563488     -0.341661
  H      -6.391603     -1.208978     -1.648199
  C      -5.379086      1.212218     -0.972520
  H      -4.643040      1.952357     -0.658897
  H      -6.361563      1.662720     -0.834829
  H      -5.237547      1.005856     -2.034816
  H      -3.999683     -1.222686     -1.469100
  O      -1.944263      2.045258     -1.165689
  H      -3.049680      2.266105     -3.540102
  H      -1.381222      1.684847     -3.694582
  H      -2.698029      0.841467     -4.562746
34
Coordinates from ORCA-job orca E -731.565092638303
  C      -2.425810      1.363915     -3.662896
  O      -2.653715      0.461327     -2.583782
  C      -2.361954      0.932790     -1.363134
  C      -2.594838     -0.124029     -0.267697
  C      -2.428644      0.542070      1.096727
  H      -2.566272     -0.198851      1.885390
  H      -3.141324      1.353170      1.245837
  H      -1.432476      0.973100      1.188675
  C      -1.503359     -1.126765     -0.484030
  H      -0.521361     -0.970653     -0.058470
  H      -1.627664     -1.891229     -1.240210
  C      -3.951130     -0.847221     -0.438324
  H      -3.926177     -1.722630      0.213232
  C      -5.264445     -0.083577     -0.170292
  C      -5.466753      0.220367      1.312105
  O      -5.244456     -0.853913      2.083938
  C      -5.433989     -0.657783      3.482545
  H      -5.191107     -1.608164      3.950820
  H      -4.773904      0.128457      3.849716
  H      -6.466209     -0.380514      3.695788
  O      -5.835321      1.273253      1.759412
  C      -6.424623     -1.011095     -0.575984
  H      -6.366583     -1.969953     -0.059976
  H      -7.387952     -0.552237     -0.344486
  H      -6.387685     -1.194567     -1.651433
  C      -5.368903      1.219972     -0.958987
  H      -4.630120      1.955523     -0.640323
  H      -6.349516      1.673844     -0.819234
  H      -5.227393      1.019238     -2.022155
  H      -3.999024     -1.223011     -1.462525
  O      -1.918822      2.032989     -1.176422
  H      -3.035053      2.260550     -3.546225
  H      -1.375877      1.653074     -3.705346
  H      -2.709684      0.825811     -4.563631
34
Coordinates from ORCA-job orca E -731.565116584773
  C      -2.428674      1.365139     -3.668076
  O      -2.652796      0.461663     -2.588742
  C      -2.361454      0.934009     -1.368261
  C      -2.593169     -0.121130     -0.272771
  C      -2.425441      0.545745      1.092108
  H      -2.561829     -0.195251      1.880873
  H      -3.138868      1.356280      1.241430
  H      -1.429336      0.976756      1.182942
  C      -1.504327     -1.128892     -0.485231
  H      -0.551500     -1.018314      0.016234
  H      -1.601227     -1.872193     -1.266483
  C      -3.950010     -0.845296     -0.439597
  H      -3.924188     -1.720390      0.212467
  C      -5.263468     -0.082347     -0.169426
  C      -5.465416      0.220429      1.313344
  O      -5.239466     -0.853461      2.084499
  C      -5.432724     -0.659620      3.483054
  H      -5.189858     -1.610475      3.950391
  H      -4.774268      0.126769      3.852863
  H      -6.465767     -0.383749      3.694056
  O      -5.840494      1.270946      1.760835
  C      -6.423687     -1.010305     -0.574688
  H      -6.364486     -1.969563     -0.059477
  H      -7.387004     -0.552103     -0.341798
  H      -6.387800     -1.192939     -1.650337
  C      -5.369282      1.221294     -0.957713
  H      -4.629531      1.956681     -0.640979
  H      -6.349485      1.675338     -0.815620
  H      -5.230607      1.020513     -2.021323
  H      -4.000296     -1.222291     -1.463230
  O      -1.923557      2.036453     -1.182296
  H      -3.041592      2.259226     -3.551135
  H      -1.379937      1.658572     -3.710635
  H      -2.710598      0.825767     -4.568659
34
Coordinates from ORCA-job orca E -731.565138765404
  C      -2.423950      1.369448     -3.664553
  O      -2.652674      0.465235     -2.587028
  C      -2.362236      0.935537     -1.365438
  C      -2.595267     -0.121122     -0.272038
  C      -2.429954      0.542775      1.094284
  H      -2.564326     -0.200381      1.881356
  H      -3.145351      1.351279      1.245564
  H      -1.434774      0.975741      1.187373
  C      -1.505960     -1.129174     -0.484638
  H      -0.542084     -1.002421     -0.009163
  H      -1.619472     -1.900111     -1.236031
  C      -3.951997     -0.845456     -0.441686
  H      -3.927484     -1.721374      0.209218
  C      -5.266468     -0.083214     -0.171902
  C      -5.468247      0.219946      1.310838
  O      -5.234697     -0.851604      2.083085
  C      -5.423381     -0.655767      3.481872
  H      -5.176150     -1.604969      3.950310
  H      -4.765830      0.133112      3.848011
  H      -6.456363     -0.382322      3.696463
  O      -5.841681      1.271077      1.758246
  C      -6.426011     -1.012166     -0.576644
  H      -6.366038     -1.971240     -0.061083
  H      -7.389706     -0.554685     -0.343826
  H      -6.390049     -1.195075     -1.652235
  C      -5.373503      1.219821     -0.960860
  H      -4.632548      1.955030     -0.646612
  H      -6.353143      1.674462     -0.816668
  H      -5.237395      1.018244     -2.024699
  H      -4.001378     -1.220968     -1.466004
  O      -1.919646      2.035747     -1.177388
  H      -3.035307      2.264768     -3.548479
  H      -1.374634      1.661229     -3.704361
  H      -2.704438      0.831856     -4.566666
34
Coordinates from ORCA-job orca E -731.565138895126
  C      -2.425852      1.369442     -3.664630
  O      -2.655241      0.465526     -2.586879
  C      -2.360695      0.934208     -1.365702
  C      -2.595245     -0.121933     -0.272472
  C      -2.428879      0.542488      1.094131
  H      -2.564164     -0.200442      1.881172
  H      -3.144054      1.351446      1.244250
  H      -1.433440      0.974734      1.186672
  C      -1.505336     -1.129258     -0.483573
  H      -0.535996     -0.984129     -0.024735
  H      -1.620183     -1.909315     -1.224946
  C      -3.951388     -0.845787     -0.441253
  H      -3.926946     -1.721543      0.209944
  C      -5.265310     -0.083148     -0.171405
  C      -5.467675      0.219829      1.311272
  O      -5.234980     -0.851831      2.083411
  C      -5.426810     -0.656932      3.482018
  H      -5.182153     -1.607001      3.950007
  H      -4.768817      0.130568      3.850284
  H      -6.459893     -0.382046      3.694091
  O      -5.843555      1.270279      1.758298
  C      -6.425601     -1.011273     -0.576287
  H      -6.366014     -1.970513     -0.060986
  H      -7.388956     -0.553267     -0.343226
  H      -6.389834     -1.193996     -1.651905
  C      -5.371800      1.220089     -0.960195
  H      -4.630423      1.955040     -0.646193
  H      -6.351147      1.675253     -0.815752
  H      -5.235966      1.018490     -2.024020
  H      -4.001282     -1.222115     -1.465243
  O      -1.914656      2.033191     -1.178139
  H      -3.035445      2.265830     -3.547690
  H      -1.375988      1.659048     -3.705338
  H      -2.708417      0.832327     -4.566358
34
Coordinates from ORCA-job orca E -731.565143778589
  C      -2.424973      1.370326     -3.663886
  O      -2.654196      0.465847     -2.586637
  C      -2.361068      0.934379     -1.365069
  C      -2.595385     -0.122410     -0.272708
  C      -2.429733      0.540747      1.094483
  H      -2.565331     -0.202892      1.880806
  H      -3.145223      1.349386      1.244839
  H      -1.434447      0.973245      1.187854
  C      -1.505531     -1.129687     -0.483925
  H      -0.539225     -0.988116     -0.017972
  H      -1.617315     -1.906107     -1.229354
  C      -3.951962     -0.845931     -0.442195
  H      -3.927649     -1.721992      0.208565
  C      -5.265922     -0.083367     -0.172063
  C      -5.467583      0.220179      1.310553
  O      -5.233941     -0.850953      2.083156
  C      -5.424370     -0.655115      3.481800
  H      -5.180283     -1.605159      3.950141
  H      -4.765236      0.131903      3.849097
  H      -6.456960     -0.379014      3.694672
  O      -5.842639      1.271035      1.757337
  C      -6.426226     -1.011895     -0.575946
  H      -6.366114     -1.970921     -0.060303
  H      -7.389554     -0.554036     -0.342499
  H      -6.390984     -1.195065     -1.651507
  C      -5.373163      1.219561     -0.961233
  H      -4.631871      1.954866     -0.647798
  H      -6.352590      1.674462     -0.816548
  H      -5.237625      1.017644     -2.025018
  H      -4.001665     -1.221700     -1.466410
  O      -1.916052      2.033649     -1.176701
  H      -3.036131      2.265731     -3.547471
  H      -1.375548      1.661676     -3.703365
  H      -2.705646      0.832986     -4.566076
34
Coordinates from ORCA-job orca E -731.565142447029
  C      -2.425238      1.370735     -3.663527
  O      -2.653983      0.465906     -2.586508
  C      -2.361292      0.934406     -1.364815
  C      -2.595252     -0.122674     -0.272686
  C      -2.429643      0.540022      1.094708
  H      -2.565295     -0.203857      1.880794
  H      -3.145108      1.348656      1.245299
  H      -1.434359      0.972515      1.188234
  C      -1.505360     -1.129935     -0.484279
  H      -0.539475     -0.988670     -0.017185
  H      -1.616836     -1.906038     -1.230167
  C      -3.952052     -0.846041     -0.442236
  H      -3.927803     -1.722073      0.208587
  C      -5.266002     -0.083417     -0.172271
  C      -5.467612      0.220383      1.310288
  O      -5.233693     -0.850554      2.083098
  C      -5.423988     -0.654424      3.481705
  H      -5.181010     -1.604702      3.950160
  H      -4.763952      0.131851      3.849006
  H      -6.456255     -0.377105      3.694561
  O      -5.842659      1.271319      1.756910
  C      -6.426243     -1.012095     -0.575973
  H      -6.366071     -1.971012     -0.060127
  H      -7.389592     -0.554246     -0.342594
  H      -6.390991     -1.195514     -1.651500
  C      -5.373202      1.219378     -0.961658
  H      -4.631896      1.954708     -0.648293
  H      -6.352623      1.674334     -0.817087
  H      -5.237533      1.017294     -2.025409
  H      -4.001670     -1.221792     -1.466463
  O      -1.916954      2.033907     -1.176202
  H      -3.037627      2.265361     -3.547417
  H      -1.376176      1.663492     -3.702379
  H      -2.704695      0.833143     -4.565955
