54
Coordinates from ORCA-job orca E -1043.695009641087
  C           0.74383869157690     -2.43025169863716     -0.39478836285153
  H           0.25100140403379     -3.03141414829080      0.37167522957252
  C           2.25909662329021     -2.74808324351484     -0.25156461144765
  C           2.81195150421175     -2.52711195546417      1.17022415017114
  H           1.99668116410018     -2.57765537003228      1.89062495782708
  H           3.49394873249921     -3.34944536943296      1.40731165641766
  C           3.58672976411060     -1.23295887003980      1.32118196618114
  H           4.01851983182358     -1.17416669838349      2.32140356741096
  H           2.94620863537661     -0.35597300759508      1.20910258814415
  C           4.69851830831110     -1.19016706189692      0.29870814509268
  H           5.38969688291721     -2.02230688839149      0.48359660062197
  C           5.48156314210834      0.11096496829348      0.25646750418381
  C           6.19628037778075      0.44803123800611      1.55943914091926
  H           5.46381821356088      0.58916155166764      2.35927832097207
  H           6.82363283471469     -0.39744729823915      1.86193538552869
  C           7.05238712428383      1.70190230321535      1.43906603394811
  H           7.55031829695396      1.93559527381408      2.38119906791297
  H           6.44374488749537      2.56619208199232      1.16158094036383
  H           7.82263829166534      1.58146183784557      0.67394312869715
  H           4.79390966670970      0.92051769635881     -0.01196128538333
  H           6.20708866334680      0.04120028394051     -0.55876872282152
  O           4.18572437048434     -1.36984337791976     -1.03817232004107
  C           2.38412314743311     -4.24925793577619     -0.58340627598547
  H           1.83049653546604     -4.83334832617876      0.15476898911804
  H           3.42831763629028     -4.56755861692398     -0.55204705248770
  H           1.99022902585249     -4.46433118549564     -1.57577102193694
  C           3.06497212264588     -2.03948844201317     -1.34210614218344
  O           2.73629377747401     -2.08723172369481     -2.49761941855378
  C           0.10195141878174     -1.00453590448430     -0.31736533978575
  C           0.36545486295170     -0.37937766673306      1.06066480624861
  O           0.16896383182545     -0.99526811575167      2.07369657410519
  O           0.79843897201820      0.88224579089575      1.16271268471472
  C           1.10748568909634      1.73747619129109      0.04148904506331
  C           2.13971036893283      2.72029776105536      0.56703377804923
  H           1.72608193250282      3.19579626339851      1.46065571418174
  H           3.01770831582659      2.15500556383941      0.89871705008800
  C           2.55854402574827      3.78333941331460     -0.44117834484958
  C           3.50299793587834      4.81219439568660      0.16619652519224
  H           3.03093116665242      5.33627400175226      1.00023079533970
  H           4.40948324884102      4.33561646456344      0.54779454821881
  H           3.80515298843035      5.55831066265171     -0.57010544708814
  H           1.66857493178365      4.28748385523249     -0.83326254028069
  H           3.04556833968813      3.31096164936400     -1.29897687024119
  H           0.18427098222117      2.27656087128170     -0.20511255484484
  C           1.54636667415567      0.92858553037248     -1.15706085038968
  H           2.51109513008144      0.45894089213328     -0.95464732858651
  H           1.70160964808790      1.59894007629309     -2.00371709959892
  C          -1.37931672555961     -1.24987677936559     -0.34041586218296
  H          -1.86495680166898     -1.67483446497484      0.52741758932540
  H          -1.92025642273334     -1.17891012181615     -1.27474703806141
  C           0.47744715516409     -0.08998920518881     -1.50168421114098
  H          -0.41673775725214      0.46127906218447     -1.80583669928713
  H           0.78230604337778     -0.69943155157715     -2.35126794806302
  H           0.42732438865114     -2.82326065263207     -1.36254313551694
