54
Coordinates from ORCA-job orca E -1043.674633329284
  C       0.686720     -2.389350     -0.392200
  H       0.164710     -2.977960      0.376240
  C       2.190280     -2.763440     -0.228890
  C       2.759200     -2.517830      1.187160
  H       1.943780     -2.538050      1.921580
  H       3.433120     -3.353600      1.438830
  C       3.560240     -1.233220      1.310130
  H       4.013400     -1.173790      2.310240
  H       2.927980     -0.340920      1.208190
  C       4.660720     -1.208470      0.268510
  H       5.373510     -2.027310      0.480260
  C       5.423250      0.106310      0.174520
  C       6.114750      0.532700      1.465800
  H       5.363020      0.696470      2.255570
  H       6.763260     -0.285500      1.825010
  C       6.939450      1.803200      1.291170
  H       7.423350      2.101640      2.232490
  H       6.305810      2.641380      0.960300
  H       7.728060      1.666790      0.534920
  H       4.718250      0.892450     -0.146190
  H       6.163380      0.010590     -0.636210
  O       4.144490     -1.446300     -1.051500
  C       2.253710     -4.283060     -0.507070
  H       1.675040     -4.823730      0.257360
  H       3.291980     -4.646290     -0.467420
  H       1.846720     -4.519470     -1.499160
  C       3.030870     -2.128910     -1.346270
  O       2.725350     -2.247970     -2.504110
  C       0.095000     -0.944350     -0.332620
  C       0.375230     -0.369120      1.061110
  O       0.136030     -1.003920      2.056110
  O       0.899730      0.852940      1.193660
  C       1.196270      1.735180      0.093710
  C       2.215840      2.722490      0.640800
  H       1.790870      3.171810      1.552750
  H       3.109740      2.159610      0.962970
  C       2.618150      3.820980     -0.338650
  C       3.549530      4.850830      0.291140
  H       3.071450      5.348180      1.149330
  H       4.473830      4.376250      0.657370
  H       3.836980      5.628760     -0.431100
  H       1.711240      4.322180     -0.718630
  H       3.113260      3.376190     -1.217900
  H       0.259800      2.264250     -0.158010
  C       1.657690      0.941350     -1.111580
  H       2.620560      0.459340     -0.891850
  H       1.840430      1.628730     -1.949860
  C      -1.443940     -1.191620     -0.428460
  H      -1.688450     -1.937900      0.341240
  H      -1.619880     -1.671210     -1.404520
  C       0.596890     -0.072020     -1.508460
  H      -0.237080      0.485340     -1.944230
  H       0.968730     -0.721560     -2.310280
  H       0.375630     -2.788260     -1.369310
54
Coordinates from ORCA-job orca E -1043.685800256752
  C       0.723168     -2.376028     -0.383164
  H       0.219854     -2.978245      0.377292
  C       2.228531     -2.759730     -0.249217
  C       2.811543     -2.585546      1.168370
  H       2.007978     -2.634789      1.903049
  H       3.474430     -3.434170      1.370197
  C       3.626384     -1.320886      1.349517
  H       4.085035     -1.317362      2.340854
  H       3.008092     -0.423700      1.297915
  C       4.716570     -1.256685      0.304325
  H       5.418656     -2.086359      0.466622
  C       5.486964      0.053712      0.275947
  C       6.191234      0.396286      1.582393
  H       5.452664      0.519266      2.381629
  H       6.831796     -0.440825      1.885153
  C       7.024285      1.665831      1.472280
  H       7.515602      1.904464      2.417790
  H       6.399561      2.520986      1.197564
  H       7.799447      1.566412      0.707466
  H       4.788985      0.858439      0.010468
  H       6.214899     -0.000345     -0.540010
  O       4.188982     -1.423494     -1.024960
  C       2.278436     -4.264132     -0.587252
  H       1.707133     -4.826653      0.155796
  H       3.307616     -4.631722     -0.570973
  H       1.863870     -4.457372     -1.576822
  C       3.066639     -2.082398     -1.339998
  O       2.755706     -2.145446     -2.499378
  C       0.123762     -0.931819     -0.293017
  C       0.430887     -0.334072      1.082808
  O       0.240193     -0.957523      2.092791
  O       0.927952      0.902896      1.183915
  C       1.148982      1.781424      0.061377
  C       2.172634      2.794059      0.544162
  H       1.794032      3.236928      1.471082
  H       3.091690      2.256361      0.812989
  C       2.489091      3.892613     -0.462928
  C       3.428188      4.947104      0.106227
  H       2.990768      5.435910      0.981104
  H       4.376468      4.500814      0.419909
  H       3.653477      5.720427     -0.631032
  H       1.556277      4.366878     -0.790656
  H       2.940513      3.456365     -1.360226
  H       0.194105      2.285581     -0.139888
  C       1.565109      0.999036     -1.164353
  H       2.547462      0.552021     -1.000167
  H       1.676850      1.684429     -2.007338
  C      -1.391075     -1.188276     -0.330035
  H      -1.711721     -1.859598      0.470036
  H      -1.701123     -1.578950     -1.304748
  C       0.519492     -0.049268     -1.493987
  H      -0.365589      0.474420     -1.866670
  H       0.857359     -0.681798     -2.314423
  H       0.398087     -2.754660     -1.355794
54
Coordinates from ORCA-job orca E -1043.691304345033
  C       0.723290     -2.407386     -0.385045
  H       0.215989     -2.999336      0.376217
  C       2.225337     -2.778203     -0.242295
  C       2.794213     -2.556488      1.170478
  H       1.986842     -2.599104      1.897497
  H       3.469539     -3.383367      1.401268
  C       3.578997     -1.268650      1.316130
  H       4.026387     -1.224656      2.307894
  H       2.944615     -0.385027      1.226253
  C       4.679488     -1.224392      0.282573
  H       5.385369     -2.040076      0.472413
  C       5.441137      0.087337      0.218990
  C       6.132841      0.468768      1.520814
  H       5.389937      0.612161      2.307211
  H       6.772384     -0.354260      1.850900
  C       6.962998      1.736607      1.379669
  H       7.444598      2.002842      2.318942
  H       6.340355      2.579217      1.076146
  H       7.742272      1.615873      0.627057
  H       4.744380      0.875504     -0.075344
  H       6.175125      0.013002     -0.585429
  O       4.162906     -1.427964     -1.047713
  C       2.290330     -4.286642     -0.552799
  H       1.725091     -4.838700      0.197737
  H       3.320111     -4.641555     -0.527493
  H       1.880660     -4.501941     -1.536168
  C       3.050183     -2.110509     -1.344505
  O       2.735626     -2.194655     -2.501292
  C       0.143755     -0.958839     -0.304536
  C       0.419447     -0.366049      1.077568
  O       0.186942     -0.983020      2.081076
  O       0.925088      0.866160      1.195697
  C       1.189571      1.737411      0.077178
  C       2.198286      2.746362      0.594733
  H       1.789513      3.192180      1.503318
  H       3.099462      2.208310      0.897270
  C       2.554758      3.840249     -0.403320
  C       3.475423      4.890945      0.200505
  H       3.007365      5.380924      1.054361
  H       4.406258      4.442602      0.549753
  H       3.730801      5.659686     -0.526750
  H       1.639971      4.317062     -0.765463
  H       3.037084      3.402201     -1.278632
  H       0.248417      2.248002     -0.153751
  C       1.635362      0.946751     -1.131364
  H       2.605707      0.484254     -0.936515
  H       1.780861      1.628401     -1.967632
  C      -1.347710     -1.166524     -0.370824
  H      -1.795628     -1.738016      0.436174
  H      -1.733323     -1.432625     -1.351946
  C       0.578184     -0.080144     -1.491541
  H      -0.296341      0.456605     -1.870798
  H       0.923120     -0.713435     -2.305603
  H       0.404558     -2.787046     -1.355078
54
Coordinates from ORCA-job orca E -1043.693724948450
  C       0.740382     -2.410938     -0.386316
  H       0.240537     -3.010095      0.376644
  C       2.250083     -2.769780     -0.253808
  C       2.817920     -2.585068      1.165200
  H       2.008290     -2.643375      1.891670
  H       3.491053     -3.421406      1.376367
  C       3.610844     -1.305014      1.341985
  H       4.057969     -1.287253      2.336935
  H       2.983823     -0.415042      1.270118
  C       4.712646     -1.244677      0.310687
  H       5.409917     -2.074983      0.476450
  C       5.489607      0.060568      0.281934
  C       6.195239      0.390846      1.591792
  H       5.458017      0.519019      2.388810
  H       6.828163     -0.451593      1.890088
  C       7.041380      1.652907      1.485358
  H       7.533665      1.882732      2.431263
  H       6.426387      2.514208      1.213310
  H       7.815200      1.545256      0.722296
  H       4.798851      0.867940      0.017317
  H       6.219522      0.002496     -0.529889
  O       4.192259     -1.404823     -1.026924
  C       2.329129     -4.268894     -0.604276
  H       1.768126     -4.846065      0.133441
  H       3.364412     -4.615405     -0.588077
  H       1.919770     -4.461894     -1.594634
  C       3.070883     -2.069192     -1.337522
  O       2.761271     -2.131782     -2.497838
  C       0.141313     -0.966605     -0.295031
  C       0.436265     -0.355245      1.077277
  O       0.242530     -0.969886      2.090656
  O       0.918487      0.889700      1.175524
  C       1.145827      1.759697      0.045823
  C       2.159970      2.778578      0.535380
  H       1.771047      3.224100      1.454786
  H       3.076161      2.247107      0.815011
  C       2.480293      3.873069     -0.475664
  C       3.407294      4.934550      0.102245
  H       2.954625      5.424599      0.966874
  H       4.351961      4.494500      0.430574
  H       3.638298      5.703931     -0.635728
  H       1.550936      4.341985     -0.815437
  H       2.945040      3.435806     -1.363345
  H       0.193620      2.263708     -0.160747
  C       1.566818      0.970853     -1.172354
  H       2.548485      0.521626     -1.005466
  H       1.677224      1.653203     -2.016062
  C      -1.337203     -1.172494     -0.306968
  H      -1.812402     -1.639483      0.546704
  H      -1.809117     -1.347086     -1.267247
  C       0.512263     -0.070449     -1.495952
  H      -0.390221      0.455317     -1.819525
  H       0.828196     -0.690777     -2.332911
  H       0.414874     -2.788187     -1.356807
54
Coordinates from ORCA-job orca E -1043.694285326663
  C       0.741009     -2.424385     -0.374991
  H       0.244514     -3.014296      0.398174
  C       2.254618     -2.770321     -0.247155
  C       2.827690     -2.578240      1.170187
  H       2.021978     -2.640959      1.900973
  H       3.508972     -3.409016      1.380619
  C       3.612962     -1.292156      1.340169
  H       4.065153     -1.267769      2.333470
  H       2.979744     -0.406890      1.267501
  C       4.707215     -1.226300      0.301380
  H       5.405254     -2.059217      0.455420
  C       5.485600      0.078683      0.274071
  C       6.214459      0.392864      1.575628
  H       5.490615      0.515291      2.386736
  H       6.849850     -0.455462      1.853589
  C       7.063975      1.653102      1.469166
  H       7.573041      1.870363      2.409831
  H       6.447748      2.520159      1.216826
  H       7.825064      1.550403      0.691835
  H       4.791199      0.890862      0.030092
  H       6.202317      0.027957     -0.550715
  O       4.174400     -1.379304     -1.032909
  C       2.348693     -4.269631     -0.595724
  H       1.794827     -4.851441      0.144768
  H       3.388108     -4.605872     -0.581059
  H       1.938921     -4.468115     -1.585308
  C       3.062281     -2.063222     -1.336801
  O       2.704895     -2.068093     -2.485362
  C       0.129784     -0.983417     -0.303962
  C       0.400255     -0.357585      1.071178
  O       0.175595     -0.959368      2.086420
  O       0.867871      0.893368      1.168897
  C       1.132724      1.751085      0.037460
  C       2.138964      2.769639      0.544883
  H       1.726528      3.226955      1.448852
  H       3.045198      2.235945      0.855215
  C       2.493031      3.851755     -0.468494
  C       3.408570      4.916008      0.123408
  H       2.932765      5.419068      0.968717
  H       4.341392      4.475083      0.484640
  H       3.665047      5.675570     -0.617219
  H       1.575249      4.321522     -0.839242
  H       2.980640      3.402098     -1.338517
  H       0.189526      2.259040     -0.201604
  C       1.583087      0.945728     -1.158703
  H       2.554055      0.488575     -0.957131
  H       1.725329      1.617605     -2.007174
  C      -1.353948     -1.186371     -0.335697
  H      -1.867450     -1.573249      0.534988
  H      -1.842977     -1.283476     -1.298075
  C       0.526785     -0.087007     -1.500745
  H      -0.367580      0.447825     -1.830714
  H       0.850661     -0.709658     -2.333936
  H       0.411728     -2.814923     -1.339868
54
Coordinates from ORCA-job orca E -1043.694678788839
  C       0.744168     -2.433992     -0.409889
  H       0.240036     -3.030415      0.353383
  C       2.256911     -2.763171     -0.251951
  C       2.795672     -2.518438      1.171417
  H       1.972891     -2.556433      1.884576
  H       3.475508     -3.336679      1.429873
  C       3.571563     -1.222798      1.308104
  H       3.994669     -1.151707      2.311827
  H       2.938097     -0.343489      1.175438
  C       4.694093     -1.203171      0.297878
  H       5.377553     -2.038365      0.499464
  C       5.488859      0.090841      0.244618
  C       6.196335      0.437894      1.549511
  H       5.458322      0.597102      2.341226
  H       6.813543     -0.409815      1.867398
  C       7.066564      1.681707      1.420385
  H       7.558788      1.922109      2.364129
  H       6.469084      2.548633      1.126655
  H       7.842373      1.542328      0.663712
  H       4.809740      0.902942     -0.038893
  H       6.220832      0.004401     -0.563573
  O       4.192690     -1.398823     -1.042879
  C       2.371692     -4.271628     -0.556811
  H       1.805140     -4.838094      0.185886
  H       3.412917     -4.598626     -0.508496
  H       1.987089     -4.500337     -1.549877
  C       3.077926     -2.078970     -1.346613
  O       2.774095     -2.166484     -2.507167
  C       0.114304     -1.003245     -0.328141
  C       0.390224     -0.393580      1.056931
  O       0.190043     -1.018121      2.064086
  O       0.858659      0.855253      1.171106
  C       1.135524      1.726505      0.053226
  C       2.153676      2.725759      0.575334
  H       1.746019      3.174836      1.485603
  H       3.053246      2.177451      0.878119
  C       2.521043      3.817754     -0.422349
  C       3.449173      4.863073      0.183311
  H       2.978928      5.360987      1.034633
  H       4.376202      4.406118      0.539112
  H       3.715223      5.628903     -0.547144
  H       1.608710      4.303487     -0.786061
  H       3.002764      3.374252     -1.298788
  H       0.198881      2.249440     -0.179108
  C       1.576371      0.931422     -1.153232
  H       2.540077      0.458300     -0.955524
  H       1.729803      1.611105     -1.993580
  C      -1.375968     -1.221719     -0.355441
  H      -1.892782     -1.561732      0.532086
  H      -1.891777     -1.225696     -1.308348
  C       0.506012     -0.081240     -1.509185
  H      -0.386657      0.473213     -1.810084
  H       0.812605     -0.687421     -2.360328
  H       0.430475     -2.820813     -1.381580
54
Coordinates from ORCA-job orca E -1043.694873212165
  C       0.743546     -2.425606     -0.386635
  H       0.249937     -3.021701      0.383458
  C       2.258442     -2.750744     -0.250305
  C       2.817322     -2.543534      1.171196
  H       2.005085     -2.598858      1.894680
  H       3.498093     -3.370108      1.397631
  C       3.599752     -1.254870      1.331940
  H       4.038512     -1.212573      2.330181
  H       2.966544     -0.371100      1.234489
  C       4.705783     -1.207880      0.304245
  H       5.391964     -2.047891      0.471958
  C       5.498543      0.087583      0.273871
  C       6.224821      0.400577      1.576701
  H       5.498756      0.534651      2.383579
  H       6.849206     -0.453270      1.861631
  C       7.088173      1.650946      1.469088
  H       7.594295      1.866737      2.411234
  H       6.482975      2.523243      1.209373
  H       7.852247      1.536679      0.696732
  H       4.814756      0.905855      0.022450
  H       6.218058      0.023977     -0.547254
  O       4.182475     -1.365213     -1.032348
  C       2.374747     -4.249971     -0.594229
  H       1.821428     -4.837215      0.141797
  H       3.417660     -4.573301     -0.569246
  H       1.976432     -4.455448     -1.586949
  C       3.061478     -2.033988     -1.337531
  O       2.742310     -2.093129     -2.495413
  C       0.110373     -0.996471     -0.311586
  C       0.381469     -0.370269      1.064981
  O       0.170894     -0.978857      2.079462
  O       0.839757      0.883145      1.164546
  C       1.116572      1.741463      0.036975
  C       2.133706      2.747364      0.547857
  H       1.725603      3.206702      1.452528
  H       3.032985      2.203421      0.857663
  C       2.501590      3.827737     -0.462024
  C       3.430761      4.878675      0.131518
  H       2.961716      5.386311      0.977476
  H       4.357492      4.424951      0.491872
  H       3.697085      5.636046     -0.607304
  H       1.589687      4.309782     -0.831002
  H       2.982461      3.374257     -1.333399
  H       0.179568      2.260273     -0.201595
  C       1.558549      0.933955     -1.161222
  H       2.525423      0.467856     -0.959433
  H       1.707911      1.603664     -2.009667
  C      -1.373662     -1.227795     -0.336450
  H      -1.881534     -1.583220      0.549728
  H      -1.889253     -1.244772     -1.288228
  C       0.493295     -0.089266     -1.503044
  H      -0.402246      0.455928     -1.813409
  H       0.803229     -0.705665     -2.345833
  H       0.421157     -2.818254     -1.352748
54
Coordinates from ORCA-job orca E -1043.694870557572
  C       0.748778     -2.421375     -0.394823
  H       0.251982     -3.023134      0.368634
  C       2.261877     -2.752459     -0.253612
  C       2.816779     -2.548395      1.169704
  H       2.001470     -2.600239      1.890050
  H       3.492493     -3.378263      1.398078
  C       3.603285     -1.262857      1.334624
  H       4.039387     -1.222871      2.333853
  H       2.971888     -0.377688      1.237566
  C       4.711679     -1.215207      0.308943
  H       5.397523     -2.054851      0.478234
  C       5.503558      0.080641      0.281576
  C       6.222537      0.395922      1.587671
  H       5.492241      0.528333      2.390742
  H       6.847318     -0.456106      1.876530
  C       7.082717      1.648571      1.483806
  H       7.583057      1.866502      2.428407
  H       6.476455      2.518832      1.220165
  H       7.851242      1.536405      0.715770
  H       4.820664      0.897896      0.025602
  H       6.227114      0.016927     -0.535794
  O       4.191993     -1.371341     -1.028567
  C       2.372064     -4.252139     -0.594780
  H       1.812897     -4.835188      0.139855
  H       3.413092     -4.580607     -0.565368
  H       1.976386     -4.457052     -1.588516
  C       3.075582     -2.044980     -1.339110
  O       2.738459     -2.069560     -2.492889
  C       0.115484     -0.992323     -0.310266
  C       0.394876     -0.369446      1.064280
  O       0.206371     -0.985633      2.078382
  O       0.850370      0.884639      1.163056
  C       1.113880      1.747777      0.036252
  C       2.136876      2.751190      0.539605
  H       1.739180      3.207289      1.450340
  H       3.038799      2.205676      0.837839
  C       2.494980      3.834890     -0.470092
  C       3.433285      4.881177      0.116717
  H       2.975912      5.385811      0.970641
  H       4.363390      4.424136      0.463643
  H       3.692054      5.641346     -0.621709
  H       1.579881      4.320026     -0.826378
  H       2.964408      3.384175     -1.348876
  H       0.174097      2.267243     -0.188666
  C       1.541978      0.947029     -1.171732
  H       2.514170      0.485976     -0.984949
  H       1.676976      1.620204     -2.019453
  C      -1.363795     -1.233613     -0.323029
  H      -1.856114     -1.612362      0.561960
  H      -1.888733     -1.245647     -1.269067
  C       0.478090     -0.081770     -1.502760
  H      -0.423278      0.459722     -1.803374
  H       0.780774     -0.694648     -2.350502
  H       0.429502     -2.807769     -1.364225
54
Coordinates from ORCA-job orca E -1043.694958459691
  C       0.745694     -2.425553     -0.394231
  H       0.249792     -3.025359      0.371389
  C       2.259653     -2.751386     -0.251124
  C       2.812841     -2.536085      1.171396
  H       1.997095     -2.585155      1.891353
  H       3.491043     -3.362184      1.406343
  C       3.595179     -1.246848      1.327308
  H       4.029219     -1.197175      2.327072
  H       2.961544     -0.364232      1.221216
  C       4.705342     -1.205847      0.303345
  H       5.390763     -2.044528      0.479847
  C       5.497801      0.089608      0.268135
  C       6.216403      0.413121      1.572486
  H       5.485781      0.551707      2.374338
  H       6.840248     -0.437588      1.867417
  C       7.078072      1.664083      1.460670
  H       7.577989      1.887913      2.404143
  H       6.472973      2.533179      1.190616
  H       7.847080      1.545784      0.693965
  H       4.815295      0.905570      0.006482
  H       6.221753      0.020247     -0.548509
  O       4.187397     -1.371634     -1.033702
  C       2.376101     -4.252644     -0.585260
  H       1.818444     -4.834649      0.151486
  H       3.418393     -4.577058     -0.553352
  H       1.982197     -4.463731     -1.578442
  C       3.069463     -2.044701     -1.340048
  O       2.742966     -2.092557     -2.496240
  C       0.109569     -0.997079     -0.315020
  C       0.380984     -0.374444      1.061906
  O       0.175964     -0.987336      2.074992
  O       0.835863      0.879579      1.164034
  C       1.115426      1.740789      0.039613
  C       2.138510      2.739095      0.552737
  H       1.734014      3.197566      1.459357
  H       3.034714      2.188914      0.860107
  C       2.512152      3.820590     -0.453691
  C       3.449652      4.862518      0.142168
  H       2.986107      5.369734      0.991279
  H       4.373944      4.401046      0.498643
  H       3.719619      5.621167     -0.593860
  H       1.603043      4.310161     -0.819328
  H       2.988202      3.367116     -1.327608
  H       0.180669      2.265189     -0.195126
  C       1.551491      0.937087     -1.163350
  H       2.519208      0.470901     -0.966732
  H       1.698472      1.608995     -2.010251
  C      -1.372316     -1.237494     -0.337837
  H      -1.871452     -1.611367      0.545634
  H      -1.894657     -1.235510     -1.285762
  C       0.484939     -0.085643     -1.503683
  H      -0.411327      0.461234     -1.809421
  H       0.790935     -0.698408     -2.350333
  H       0.427682     -2.815885     -1.362574
54
Coordinates from ORCA-job orca E -1043.694969877827
  C       0.744527     -2.426314     -0.392779
  H       0.250581     -3.026621      0.373706
  C       2.259171     -2.747973     -0.250720
  C       2.812520     -2.532257      1.171758
  H       1.996950     -2.581834      1.891893
  H       3.491289     -3.357884      1.406643
  C       3.593799     -1.242396      1.327273
  H       4.027893     -1.191679      2.326949
  H       2.958974     -0.360663      1.220833
  C       4.703474     -1.200890      0.302669
  H       5.388477     -2.040079      0.478515
  C       5.496662      0.094154      0.267801
  C       6.216107      0.416943      1.571825
  H       5.486051      0.555600      2.374216
  H       6.839664     -0.434166      1.866229
  C       7.078297      1.667481      1.459840
  H       7.578914      1.890839      2.403044
  H       6.473441      2.536935      1.190383
  H       7.846763      1.549183      0.692588
  H       4.814616      0.910637      0.006498
  H       6.220181      0.024612     -0.549222
  O       4.184367     -1.365371     -1.033855
  C       2.380255     -4.248519     -0.586740
  H       1.824938     -4.833287      0.149611
  H       3.423590     -4.569671     -0.555986
  H       1.986251     -4.459679     -1.579879
  C       3.065400     -2.036960     -1.339526
  O       2.737850     -2.084289     -2.495417
  C       0.105523     -0.998888     -0.314963
  C       0.373968     -0.374767      1.061847
  O       0.174426     -0.989298      2.075118
  O       0.827967      0.879534      1.163405
  C       1.112929      1.739201      0.039208
  C       2.137844      2.734933      0.553788
  H       1.732165      3.196382      1.458377
  H       3.031127      2.182238      0.865046
  C       2.518761      3.813238     -0.453298
  C       3.458749      4.852280      0.143595
  H       2.994909      5.362630      0.990665
  H       4.380143      4.387602      0.503424
  H       3.733939      5.608731     -0.592755
  H       1.612700      4.305845     -0.822423
  H       2.995499      3.356386     -1.325100
  H       0.180254      2.266269     -0.197851
  C       1.549221      0.933746     -1.162502
  H       2.516157      0.466550     -0.964251
  H       1.698450      1.604652     -2.009801
  C      -1.376070     -1.242959     -0.339322
  H      -1.872978     -1.623933      0.542347
  H      -1.901035     -1.228840     -1.285619
  C       0.481612     -0.087807     -1.503123
  H      -0.413609      0.460385     -1.809621
  H       0.787483     -0.700756     -2.349840
  H       0.426792     -2.818393     -1.360511
54
Coordinates from ORCA-job orca E -1043.694988305115
  C       0.744584     -2.427644     -0.393737
  H       0.251837     -3.029483      0.372303
  C       2.259584     -2.746459     -0.251596
  C       2.811743     -2.529532      1.171232
  H       1.995487     -2.578833      1.890610
  H       3.490749     -3.354515      1.407588
  C       3.590935     -1.238460      1.325896
  H       4.023379     -1.184710      2.326102
  H       2.953891     -0.358561      1.216883
  C       4.701655     -1.196716      0.302139
  H       5.387024     -2.035153      0.480337
  C       5.493760      0.099007      0.266532
  C       6.211309      0.424929      1.570735
  H       5.480275      0.564035      2.372203
  H       6.835480     -0.424940      1.867492
  C       7.072064      1.676258      1.457390
  H       7.571420      1.902054      2.400687
  H       6.466403      2.544462      1.185633
  H       7.841492      1.557774      0.691117
  H       4.811404      0.914490      0.002609
  H       6.218311      0.028727     -0.549544
  O       4.184019     -1.363135     -1.034345
  C       2.384575     -4.246568     -0.588225
  H       1.830197     -4.833090      0.147467
  H       3.428653     -4.565285     -0.557151
  H       1.991414     -4.458243     -1.581630
  C       3.064334     -2.033353     -1.340178
  O       2.736085     -2.079419     -2.495865
  C       0.103312     -1.000848     -0.314741
  C       0.372370     -0.376690      1.061753
  O       0.171735     -0.990336      2.075454
  O       0.818896      0.880179      1.162697
  C       1.110421      1.738530      0.039273
  C       2.138602      2.730017      0.555728
  H       1.732171      3.195319      1.458026
  H       3.027825      2.173321      0.871474
  C       2.529532      3.804159     -0.451910
  C       3.473906      4.838285      0.146466
  H       3.010621      5.352543      0.991487
  H       4.391314      4.368454      0.509876
  H       3.756150      5.592094     -0.589928
  H       1.627783      4.301661     -0.825054
  H       3.006417      3.342836     -1.321311
  H       0.180517      2.269650     -0.199643
  C       1.545658      0.931764     -1.161946
  H       2.512262      0.463979     -0.963419
  H       1.696097      1.602031     -2.009512
  C      -1.377834     -1.248950     -0.336939
  H      -1.867314     -1.647081      0.541297
  H      -1.911111     -1.210454     -1.277695
  C       0.476655     -0.088658     -1.501763
  H      -0.418096      0.461415     -1.806496
  H       0.780569     -0.700280     -2.350252
  H       0.427409     -2.819768     -1.361619
54
Coordinates from ORCA-job orca E -1043.694999438842
  C       0.744066     -2.429184     -0.394916
  H       0.250948     -3.031168      0.370713
  C       2.259365     -2.746768     -0.250423
  C       2.810617     -2.524838      1.172042
  H       1.993929     -2.572064      1.890966
  H       3.489961     -3.348536      1.411802
  C       3.587979     -1.232133      1.322407
  H       4.019047     -1.173137      2.322867
  H       2.949109     -0.354133      1.208986
  C       4.699803     -1.192352      0.299679
  H       5.387150     -2.027940      0.483494
  C       5.488273      0.105439      0.258664
  C       6.203417      0.440061      1.561912
  H       5.471190      0.581343      2.361889
  H       6.829488     -0.406562      1.863851
  C       7.060975      1.693011      1.442853
  H       7.558802      1.925196      2.385388
  H       6.453296      2.558141      1.165889
  H       7.831440      1.572670      0.677937
  H       4.803891      0.917636     -0.010299
  H       6.213889      0.033139     -0.556296
  O       4.184946     -1.367160     -1.036668
  C       2.385497     -4.247824     -0.581952
  H       1.830435     -4.832160      0.154933
  H       3.429654     -4.565967     -0.548572
  H       1.993547     -4.462957     -1.575088
  C       3.065262     -2.038089     -1.340998
  O       2.737100     -2.086750     -2.496583
  C       0.100547     -1.002937     -0.317604
  C       0.363481     -0.378155      1.059819
  O       0.160846     -0.992019      2.072994
  O       0.805691      0.880081      1.162039
  C       1.108906      1.737044      0.040676
  C       2.140389      2.721837      0.563473
  H       1.731093      3.190686      1.462606
  H       3.023537      2.159188      0.885833
  C       2.546248      3.792300     -0.442133
  C       3.493529      4.820068      0.162527
  H       3.027913      5.337808      1.004106
  H       4.404970      4.343913      0.532643
  H       3.786419      5.571578     -0.572018
  H       1.650898      4.295963     -0.822320
  H       3.026295      3.326887     -1.307585
  H       0.183585      2.274068     -0.202649
  C       1.545791      0.929182     -1.159253
  H       2.511046      0.459875     -0.958143
  H       1.700127      1.599318     -2.006170
  C      -1.380049     -1.252925     -0.343246
  H      -1.866682     -1.668040      0.528712
  H      -1.916900     -1.193877     -1.280717
  C       0.475913     -0.089283     -1.502164
  H      -0.417450      0.462835     -1.807391
  H       0.780144     -0.699307     -2.351580
  H       0.428563     -2.822194     -1.362944
54
Coordinates from ORCA-job orca E -1043.695002730884
  C       0.744150     -2.429675     -0.395438
  H       0.251262     -3.031815      0.370215
  C       2.259487     -2.746611     -0.251102
  C       2.810709     -2.524782      1.171310
  H       1.994129     -2.572815      1.890415
  H       3.490653     -3.348095      1.410686
  C       3.587165     -1.231545      1.321861
  H       4.018152     -1.172245      2.322372
  H       2.947492     -0.354095      1.208459
  C       4.699247     -1.190743      0.299485
  H       5.387912     -2.025071      0.484090
  C       5.485722      0.108291      0.258123
  C       6.200370      0.444068      1.561364
  H       5.467902      0.585299      2.361176
  H       6.826965     -0.402011      1.863751
  C       7.057298      1.697418      1.441763
  H       7.555102      1.930338      2.384151
  H       6.449177      2.562148      1.164492
  H       7.827721      1.577101      0.676788
  H       4.800173      0.919444     -0.011055
  H       6.211514      0.036821     -0.556756
  O       4.185533     -1.367428     -1.037150
  C       2.385886     -4.247648     -0.582697
  H       1.831372     -4.832152      0.154498
  H       3.430178     -4.565428     -0.549778
  H       1.993539     -4.462936     -1.575645
  C       3.065367     -2.037697     -1.341508
  O       2.736565     -2.084957     -2.496982
  C       0.100547     -1.004012     -0.317601
  C       0.364022     -0.379217      1.060078
  O       0.164540     -0.994035      2.073252
  O       0.801839      0.880640      1.162125
  C       1.107655      1.736992      0.040948
  C       2.140169      2.720221      0.564799
  H       1.729546      3.192070      1.461746
  H       3.020870      2.155845      0.890893
  C       2.552166      3.787269     -0.441965
  C       3.499624      4.814382      0.163619
  H       3.032202      5.335132      1.002346
  H       4.408644      4.336978      0.538092
  H       3.796933      5.563452     -0.571658
  H       1.659437      4.292163     -0.826683
  H       3.034331      3.318560     -1.304506
  H       0.183460      2.275526     -0.203280
  C       1.544617      0.928815     -1.158787
  H       2.509806      0.459457     -0.957789
  H       1.698860      1.599178     -2.005598
  C      -1.380119     -1.252979     -0.341442
  H      -1.864451     -1.676396      0.527831
  H      -1.920562     -1.184139     -1.276147
  C       0.474852     -0.089576     -1.501857
  H      -0.419000      0.462498     -1.805675
  H       0.778585     -0.698821     -2.352040
  H       0.428617     -2.822372     -1.363600
54
Coordinates from ORCA-job orca E -1043.695001576040
  C       0.743950     -2.430235     -0.395068
  H       0.250893     -3.031576      0.371117
  C       2.259178     -2.747834     -0.251201
  C       2.811365     -2.526259      1.170785
  H       1.995584     -2.575697      1.890706
  H       3.492561     -3.348926      1.408941
  C       3.586709     -1.232380      1.321326
  H       4.018217     -1.173188      2.321640
  H       2.946381     -0.355338      1.208614
  C       4.698614     -1.190314      0.298920
  H       5.389206     -2.022922      0.484011
  C       5.482329      0.110375      0.256538
  C       6.197224      0.447504      1.559340
  H       5.464936      0.588571      2.359347
  H       6.824717     -0.397899      1.861772
  C       7.053179      1.701461      1.438703
  H       7.551356      1.935226      2.380687
  H       6.444322      2.565663      1.161389
  H       7.823223      1.581183      0.673337
  H       4.794978      0.920144     -0.012167
  H       6.207774      0.040138     -0.558741
  O       4.185697     -1.369553     -1.037882
  C       2.384533     -4.249035     -0.582636
  H       1.830502     -4.833078      0.155276
  H       3.428742     -4.567232     -0.550595
  H       1.991222     -4.464350     -1.575183
  C       3.065163     -2.039533     -1.341810
  O       2.736343     -2.087147     -2.497280
  C       0.101602     -1.004541     -0.317742
  C       0.364658     -0.379499      1.060347
  O       0.167082     -0.995103      2.073350
  O       0.799073      0.881622      1.162545
  C       1.107648      1.737198      0.041462
  C       2.139920      2.719975      0.566906
  H       1.726960      3.194422      1.461398
  H       3.018564      2.154831      0.897168
  C       2.557231      3.784131     -0.440747
  C       3.502682      4.812232      0.166370
  H       3.031908      5.335404      1.001711
  H       4.409712      4.335157      0.546049
  H       3.803773      5.559177     -0.569532
  H       1.666667      4.288760     -0.830834
  H       3.042926      3.312750     -1.299844
  H       0.184309      2.276285     -0.204692
  C       1.546301      0.928529     -1.157331
  H       2.511144      0.459026     -0.955132
  H       1.701404      1.598959     -2.003962
  C      -1.379499     -1.250562     -0.341402
  H      -1.864727     -1.676691      0.526084
  H      -1.920473     -1.178482     -1.275597
  C       0.477187     -0.089939     -1.501834
  H      -0.416822      0.461665     -1.805984
  H       0.781890     -0.699169     -2.351632
  H       0.427908     -2.823095     -1.363022
54
Coordinates from ORCA-job orca E -1043.695009641087
  C       0.743839     -2.430252     -0.394788
  H       0.251001     -3.031414      0.371675
  C       2.259097     -2.748083     -0.251565
  C       2.811952     -2.527112      1.170224
  H       1.996681     -2.577655      1.890625
  H       3.493949     -3.349445      1.407312
  C       3.586730     -1.232959      1.321182
  H       4.018520     -1.174167      2.321404
  H       2.946209     -0.355973      1.209103
  C       4.698518     -1.190167      0.298708
  H       5.389697     -2.022307      0.483597
  C       5.481563      0.110965      0.256468
  C       6.196280      0.448031      1.559439
  H       5.463818      0.589162      2.359278
  H       6.823633     -0.397447      1.861935
  C       7.052387      1.701902      1.439066
  H       7.550318      1.935595      2.381199
  H       6.443745      2.566192      1.161581
  H       7.822638      1.581462      0.673943
  H       4.793910      0.920518     -0.011961
  H       6.207089      0.041200     -0.558769
  O       4.185724     -1.369843     -1.038172
  C       2.384123     -4.249258     -0.583406
  H       1.830497     -4.833348      0.154769
  H       3.428318     -4.567559     -0.552047
  H       1.990229     -4.464331     -1.575771
  C       3.064972     -2.039488     -1.342106
  O       2.736294     -2.087232     -2.497619
  C       0.101951     -1.004536     -0.317365
  C       0.365455     -0.379378      1.060665
  O       0.168964     -0.995268      2.073697
  O       0.798439      0.882246      1.162713
  C       1.107486      1.737476      0.041489
  C       2.139710      2.720298      0.567034
  H       1.726082      3.195796      1.460656
  H       3.017708      2.155006      0.898717
  C       2.558544      3.783339     -0.441178
  C       3.502998      4.812194      0.166197
  H       3.030931      5.336274      1.000231
  H       4.409483      4.335616      0.547795
  H       3.805153      5.558311     -0.570105
  H       1.668575      4.287484     -0.833263
  H       3.045568      3.310962     -1.298977
  H       0.184271      2.276561     -0.205113
  C       1.546367      0.928586     -1.157061
  H       2.511095      0.458941     -0.954647
  H       1.701610      1.598940     -2.003717
  C      -1.379317     -1.249877     -0.340416
  H      -1.864957     -1.674834      0.527418
  H      -1.920256     -1.178910     -1.274747
  C       0.477447     -0.089989     -1.501684
  H      -0.416738      0.461279     -1.805837
  H       0.782306     -0.699432     -2.351268
  H       0.427324     -2.823261     -1.362543
