61
Coordinates from ORCA-job orca E -1383.952302217172
  C           1.88814241672447      0.64675056524515     -1.13736286932044
  H           1.97952689200327      1.61247288196722     -0.63990744705545
  H           2.83974821176803      0.39313983260210     -1.60337618242263
  C           1.45659513927260     -0.41667846299693     -0.13225157954998
  C           2.43963491720172     -0.54136289914970      1.05834257397955
  H           2.09080321043867     -1.35873170990396      1.69439751822342
  H           2.33943896224261      0.37277195795526      1.64633888385691
  C           3.94677008048518     -0.77234639613763      0.81870191927444
  C           1.31592440851039     -1.75240645462056     -0.86006990104965
  O           1.49033206011529     -1.92488114138807     -2.03621988274444
  O           0.94802172716539     -2.74235676301825     -0.03300942650585
  C           4.63125863585016      0.44896383251470      0.21051043130282
  O           5.42066957987740      0.42128690068453     -0.69482499377225
  O           4.29865918567899      1.58297981709051      0.84584368579467
  C           4.24285496774583     -1.99093770233911     -0.05235693172091
  H           5.31463676040369     -2.18474868397083     -0.08260687948059
  H           3.74548444710955     -2.86985323856983      0.36329044480065
  H           3.91396706094198     -1.85440077035048     -1.08150602654517
  C           4.59528351981675     -0.97758710592006      2.20118740845176
  H           4.21530592526144     -1.89776201770316      2.64912633551807
  H           5.67950548414983     -1.06833074988499      2.11095590515732
  H           4.37253329575713     -0.14828363936503      2.87322311959975
  C           0.77584842651583     -4.01939540608484     -0.64251415007240
  H           0.46634059972913     -4.68992803658061      0.15491549911525
  H           0.01381512325904     -3.97092069989842     -1.42048543248730
  H           1.71146120051550     -4.36058720501351     -1.08605988329278
  C           4.92062627206631      2.76812779717068      0.35685277751504
  H           4.65752701508646      2.93404003237304     -0.68820587804951
  H           4.54528222633324      3.57792871781299      0.97726018751817
  H           6.00481723491721      2.69497089178164      0.43967454800939
  H           1.16482349081822      0.74032748518122     -1.94770842853869
  C           0.08627021896135     -0.05285982124872      0.52129235127827
  C          -1.06362296600699      0.24357705609888     -0.40345319754864
  H           0.26546234533898      0.81659248397358      1.15407032282674
  H          -0.19132729496090     -0.88140946367540      1.17667591518509
  C          -2.61880042010327      0.51590930628420      1.13574791811556
  C          -1.18668743002296      1.59277131688916     -0.98761155915499
  C          -1.61149920549690     -0.85322913878098     -1.26075696919441
  C          -3.82951879964446      0.77705439991469      0.55403166310962
  H          -2.41937004042015     -0.47584559842339      1.51758881271250
  H          -2.06435120575990      1.33314429296877      1.58098050432119
  O          -1.78405228256478      1.84219701767546     -2.00699429866997
  O          -0.59591677813709      2.55079920763861     -0.24482161083671
  H          -0.94731068043638     -1.04637080045001     -2.10860919826735
  H          -1.71680154724511     -1.77608255105284     -0.68911336769092
  H          -2.57874524745359     -0.57530739143021     -1.67567576084509
  C          -4.27523222115752      2.15397543819476      0.18666234830953
  C          -4.74811853314609     -0.31621434590995      0.17814229319639
  C          -0.69178856706466      3.87142308850120     -0.76759079746582
  H          -3.58734249295611      2.90017661004737      0.58461909756102
  H          -4.32114257398341      2.26672691557149     -0.89921732508490
  H          -5.27824350688355      2.35273213620548      0.56818772608470
  O          -5.79619545804395     -0.14510043343308     -0.39508796650274
  O          -4.31324146441995     -1.53551981510264      0.54696334778512
  H          -1.73418952262175      4.18197023620195     -0.84422477107599
  H          -0.15599383242560      4.50733077808315     -0.06720909067018
  H          -0.23606813102273      3.92611588343834     -1.75638141235467
  C          -5.15984358251505     -2.62014979785960      0.18355279940258
  H          -4.67497344094522     -3.51565948337911      0.56443841148070
  H          -6.14781062974982     -2.50520478561524      0.62955817363290
  H          -5.26753318687378     -2.67746437080891     -0.90001970514867
