61
Coordinates from ORCA-job orca E -1382.069223761701
  C           1.87009355512776      0.68237836925073     -1.11027979635955
  H           1.96827407830639      1.65277599984399     -0.60647600363512
  H           2.82324305061671      0.42715981115044     -1.59094485478902
  C           1.44492333652715     -0.39341815721839     -0.10527117413206
  C           2.43932151897214     -0.53195945366429      1.08173519512501
  H           2.07335118639309     -1.34244218067711      1.73105360919427
  H           2.36766804635551      0.39614599903893      1.66771417833011
  C           3.94448874250808     -0.80079396181132      0.82357237270047
  C           1.30061126581963     -1.72435277901583     -0.84572610932561
  O           1.46975711727864     -1.89122769325600     -2.02933165821605
  O           0.93260490511941     -2.72428320021161     -0.01968106698511
  C           4.63009192862634      0.39500723994912      0.15832774371150
  O           5.37687927450310      0.33738692728157     -0.78772419632951
  O           4.34425036770676      1.55275593610733      0.78907112060038
  C           4.20587128366533     -2.05443226744078     -0.02117158464809
  H           5.28330305037062     -2.26983154554435     -0.06203138752385
  H           3.69322609330955     -2.92044547816209      0.42387877400809
  H           3.86445116574952     -1.93713602752144     -1.05734082447048
  C           4.61656594714257     -0.97259524579661      2.20787951994001
  H           4.21454871409877     -1.86758719919431      2.70884759344356
  H           5.70532197993685     -1.10247110416949      2.10213976390759
  H           4.43298923743385     -0.10057032969236      2.85232164843593
  C           0.75409329075582     -4.00422145120020     -0.62415463236475
  H           0.45681181657283     -4.68577210386658      0.18274626607954
  H          -0.02662112214012     -3.96260583434011     -1.39890118178778
  H           1.68954634424838     -4.34764436793617     -1.09153262694430
  C           4.94934497567167      2.72673230538532      0.25127532863414
  H           4.60461970938596      2.90245970764825     -0.77973164855099
  H           4.64258152190348      3.55591880124795      0.90132189062180
  H           6.04575117004973      2.63326554476518      0.23891832809929
  H           1.13531619414696      0.78031404323621     -1.92162569308642
  C           0.06747196879792     -0.03888893661802      0.56155252221193
  C          -1.07825643799691      0.27588701435732     -0.36688307140011
  H           0.24709252749646      0.82536115511222      1.21514828482137
  H          -0.21120673860376     -0.88810486850313      1.20319090565327
  C          -2.65051074969472      0.55881696900007      1.15140540476468
  C          -1.18367966703207      1.63643993959274     -0.93642320756361
  C          -1.61926913618505     -0.80775850410554     -1.25365368690139
  C          -3.86574675771863      0.77809257036485      0.51981857090824
  H          -2.45438878983631     -0.42398373614392      1.58008243613694
  H          -2.13235633899398      1.40656017962235      1.60482531795992
  O          -1.77936018904956      1.91235971594135     -1.95747116241262
  O          -0.58537541365416      2.58300086758037     -0.17047169546126
  H          -0.93156722965255     -0.99552007927924     -2.09592818662702
  H          -1.74581056282753     -1.74662184285851     -0.69732975578879
  H          -2.58061713941408     -0.51213927939719     -1.69376379917315
  C          -4.32833659007953      2.13518518248317      0.08870455211183
  C          -4.73475040071455     -0.35114358805079      0.13342568261611
  C          -0.67065176575015      3.91898442897963     -0.65620874918579
  H          -3.73467682881299      2.92778705571801      0.56702008043264
  H          -4.22925536896563      2.24742987114692     -1.00506555309291
  H          -5.39382823901640      2.28150918900553      0.32624545813140
  O          -5.78172822557187     -0.23239558624029     -0.46887940020880
  O          -4.25585895604655     -1.55762720008942      0.52752325897505
  H          -1.72009350055703      4.23872811635652     -0.74863359723174
  H          -0.14476763831858      4.54598448423635      0.07525612136967
  H          -0.19606656077668      4.00726034144209     -1.64579501781157
  C          -5.04688851485831     -2.68458229978554      0.16893694840065
  H          -4.52998668327304     -3.56491873409041      0.57251616097416
  H          -6.05937523473945     -2.60867654329599      0.59530959682652
  H          -5.14178458431683     -2.76719618666741     -0.92543331311859
