41
Coordinates from ORCA-job orca E -848.297937499399
  O       3.714169     -2.680656     -2.152873
  C       3.987485     -2.078029     -1.138132
  C       3.640268     -2.578956      0.217418
  C       4.123856     -1.826485      1.430952
  H       3.391618     -1.922282      2.249040
  H       5.046649     -2.325396      1.792422
  C       4.431899     -0.359647      1.144434
  H       4.992966      0.079012      1.983983
  H       3.511939      0.232975      1.034660
  C       5.242927     -0.231278     -0.135586
  H       6.203850     -0.769642     -0.013712
  C       5.528784      1.200306     -0.570820
  C       6.461073      1.971824      0.365647
  H       6.004517      2.056238      1.367417
  H       7.395989      1.398095      0.505172
  C       6.791498      3.370684     -0.155177
  H       7.462064      3.910216      0.532468
  H       5.877850      3.976539     -0.275762
  H       7.287355      3.323387     -1.139150
  H       4.567112      1.734263     -0.673960
  H       5.967896      1.156121     -1.581778
  C       3.552330     -4.073093      0.345220
  H       2.992680     -4.366702      1.247483
  H       4.568064     -4.503223      0.436836
  H       3.085651     -4.522658     -0.541144
  C       1.495578     -2.134430      0.051871
  H       1.277375     -2.635439      0.995479
  C       1.262447     -0.770043     -0.046584
  C       1.041568      0.052631      1.157443
  O       1.052789     -0.663383      2.311583
  C       0.839236      0.082060      3.505151
  H       0.877916     -0.640245      4.330737
  H       1.616409      0.851876      3.634955
  H      -0.139941      0.585449      3.485607
  O       0.876096      1.255494      1.143690
  C       1.307908     -0.030584     -1.348574
  H       2.159994      0.669400     -1.375267
  H       0.401031      0.581885     -1.482795
  H       1.414071     -0.722235     -2.195123
  H       1.439935     -2.738205     -0.856031
  O       4.546160     -0.846292     -1.239610
41
Coordinates from ORCA-job orca E -848.296557010344
  O       3.717295     -2.659729     -2.156467
  C       3.989361     -2.067239     -1.135205
  C       3.639616     -2.577194      0.217673
  C       4.119727     -1.831961      1.445859
  H       3.381828     -1.935250      2.250774
  H       5.035173     -2.335724      1.817067
  C       4.429472     -0.357972      1.147472
  H       5.000023      0.082369      1.978875
  H       3.516784      0.244104      1.048748
  C       5.231244     -0.227030     -0.121476
  H       6.195012     -0.757596      0.006340
  C       5.519145      1.208959     -0.563093
  C       6.474313      1.973744      0.354957
  H       6.032260      2.072597      1.361163
  H       7.402009      1.387927      0.486878
  C       6.817893      3.363092     -0.181356
  H       7.504574      3.897916      0.492779
  H       5.912088      3.980677     -0.294957
  H       7.299902      3.300742     -1.170574
  H       4.574752      1.764028     -0.661957
  H       5.944608      1.160933     -1.579006
  C       3.571534     -4.076085      0.331296
  H       3.010476     -4.383444      1.226583
  H       4.590956     -4.495272      0.423880
  H       3.115517     -4.519281     -0.562389
  C       1.486765     -2.147228      0.052952
  H       1.275592     -2.645123      1.005473
  C       1.261471     -0.770515     -0.045487
  C       1.038441      0.050377      1.170182
  O       1.035423     -0.667758      2.321112
  C       0.807154      0.075150      3.513323
  H       0.835540     -0.648629      4.337084
  H       1.582382      0.843950      3.654255
  H      -0.171081      0.578228      3.482630
  O       0.860081      1.259350      1.174265
  C       1.311979     -0.025641     -1.353511
  H       2.148930      0.690803     -1.367988
  H       0.397881      0.572621     -1.496519
  H       1.428171     -0.724948     -2.191577
  H       1.432593     -2.755234     -0.853676
  O       4.542176     -0.829163     -1.218793
41
Coordinates from ORCA-job orca E -848.295126723520
  O       3.705879     -2.636028     -2.161553
  C       3.975914     -2.054324     -1.135708
  C       3.628936     -2.574814      0.217401
  C       4.108057     -1.837245      1.457996
  H       3.362677     -1.935966      2.252161
  H       5.010300     -2.348673      1.843563
  C       4.426007     -0.364759      1.146939
  H       5.016029      0.073617      1.966422
  H       3.516456      0.247258      1.064560
  C       5.216381     -0.235937     -0.119645
  H       6.185628     -0.755864      0.013693
  C       5.512561      1.200915     -0.558239
  C       6.469746      1.959815      0.363071
  H       6.035089      2.040680      1.373487
  H       7.402394      1.380608      0.479417
  C       6.797083      3.359234     -0.155092
  H       7.478142      3.892099      0.524535
  H       5.885229      3.967834     -0.259035
  H       7.277939      3.314952     -1.144699
  H       4.577232      1.770089     -0.667055
  H       5.944033      1.148314     -1.570683
  C       3.586588     -4.075417      0.320021
  H       3.022453     -4.395176      1.207901
  H       4.610741     -4.479065      0.411865
  H       3.144686     -4.517293     -0.580366
  C       1.472671     -2.163639      0.056730
  H       1.272610     -2.642577      1.018238
  C       1.252660     -0.779619     -0.059080
  C       1.022150      0.047221      1.151796
  O       1.047690     -0.651413      2.310094
  C       0.852105      0.108801      3.496904
  H       0.902015     -0.603792      4.328021
  H       1.630966      0.877208      3.605545
  H      -0.125127      0.611643      3.484496
  O       0.877423      1.263338      1.153151
  C       1.304878     -0.034557     -1.367830
  H       2.119683      0.706777     -1.356629
  H       0.376418      0.535700     -1.527313
  H       1.453602     -0.740087     -2.193410
  H       1.416167     -2.791296     -0.836400
  O       4.526972     -0.819013     -1.207676
41
Coordinates from ORCA-job orca E -848.295586027470
  O       3.683082     -2.629297     -2.163527
  C       3.961079     -2.050592     -1.139172
  C       3.620876     -2.571758      0.215667
  C       4.107108     -1.834572      1.456554
  H       3.360314     -1.920936      2.250271
  H       5.001511     -2.353841      1.845819
  C       4.437326     -0.366453      1.143100
  H       5.041994      0.063554      1.955322
  H       3.532882      0.254665      1.073789
  C       5.218110     -0.243093     -0.130738
  H       6.186681     -0.764619     -0.002318
  C       5.522604      1.192252     -0.567429
  C       6.470896      1.950520      0.362731
  H       6.039975      2.007015      1.375301
  H       7.412808      1.385749      0.464740
  C       6.772612      3.363046     -0.133058
  H       7.441841      3.897488      0.555302
  H       5.850447      3.955276     -0.228994
  H       7.255202      3.342912     -1.121452
  H       4.590519      1.763481     -0.687565
  H       5.965081      1.136007     -1.573972
  C       3.585549     -4.072670      0.314648
  H       3.023306     -4.396333      1.201184
  H       4.610271     -4.472422      0.402602
  H       3.144228     -4.512985     -0.585838
  C       1.474204     -2.163881      0.071495
  H       1.282409     -2.626753      1.040027
  C       1.262569     -0.781457     -0.057955
  C       1.051305      0.052627      1.148739
  O       1.052655     -0.643100      2.307755
  C       0.852704      0.121748      3.490664
  H       0.882002     -0.590270      4.321871
  H       1.640526      0.878061      3.607732
  H      -0.116194      0.637550      3.464889
  O       0.902923      1.267306      1.141795
  C       1.306572     -0.044644     -1.369851
  H       2.108678      0.708372     -1.355869
  H       0.370437      0.509216     -1.534545
  H       1.468752     -0.753421     -2.188725
  H       1.405106     -2.804410     -0.809835
  O       4.518109     -0.819787     -1.213561
41
Coordinates from ORCA-job orca E -848.297001834371
  O       3.668839     -2.625771     -2.164468
  C       3.951333     -2.049192     -1.141188
  C       3.612685     -2.571524      0.212276
  C       4.103853     -1.837553      1.449691
  H       3.358155     -1.919239      2.244624
  H       4.995506     -2.361000      1.835213
  C       4.440399     -0.372524      1.145158
  H       5.047741      0.048139      1.957790
  H       3.538638      0.250576      1.080667
  C       5.219164     -0.247912     -0.133546
  H       6.184655     -0.773582     -0.012386
  C       5.524485      1.186406     -0.565228
  C       6.462349      1.945377      0.373031
  H       6.032948      1.984102      1.385173
  H       7.411012      1.393558      0.466103
  C       6.744033      3.366324     -0.107297
  H       7.403967      3.902066      0.586367
  H       5.814732      3.945063     -0.197486
  H       7.226843      3.363439     -1.093985
  H       4.589840      1.751012     -0.689209
  H       5.973757      1.132580     -1.567276
  C       3.578355     -4.071602      0.309296
  H       3.017472     -4.396686      1.194384
  H       4.601655     -4.470528      0.396391
  H       3.136602     -4.510783     -0.589780
  C       1.480741     -2.163451      0.077873
  H       1.290890     -2.618404      1.048228
  C       1.267967     -0.786590     -0.059753
  C       1.062849      0.056542      1.138722
  O       1.069886     -0.628831      2.303148
  C       0.884057      0.148820      3.479640
  H       0.916063     -0.554506      4.315944
  H       1.676374      0.900187      3.582449
  H      -0.080829      0.668730      3.456249
  O       0.926613      1.269500      1.118572
  C       1.305811     -0.060829     -1.374723
  H       2.098788      0.699527     -1.363800
  H       0.364790      0.479334     -1.545515
  H       1.480218     -0.770185     -2.188700
  H       1.403096     -2.809033     -0.796811
  O       4.512728     -0.822008     -1.218246
41
Coordinates from ORCA-job orca E -848.297473177364
  O       3.676958     -2.633648     -2.161902
  C       3.957220     -2.053132     -1.140547
  C       3.618546     -2.571461      0.213413
  C       4.107701     -1.834206      1.447535
  H       3.363330     -1.917104      2.243505
  H       5.001737     -2.353606      1.831677
  C       4.440411     -0.369883      1.142357
  H       5.041935      0.054578      1.956470
  H       3.536903      0.248942      1.071777
  C       5.222784     -0.247376     -0.135787
  H       6.187258     -0.773147     -0.012958
  C       5.526414      1.185697     -0.568735
  C       6.460469      1.946226      0.371329
  H       6.025565      1.989566      1.380273
  H       7.406975      1.393285      0.471858
  C       6.746808      3.364577     -0.112538
  H       7.403936      3.901203      0.581995
  H       5.819576      3.944307     -0.209168
  H       7.234128      3.357351     -1.096234
  H       4.590265      1.746936     -0.693664
  H       5.977445      1.131934     -1.569297
  C       3.576620     -4.070329      0.315793
  H       3.016628     -4.389830      1.202700
  H       4.597742     -4.473099      0.402923
  H       3.131777     -4.511023     -0.580248
  C       1.479290     -2.157495      0.073665
  H       1.286977     -2.618091      1.039851
  C       1.265918     -0.783017     -0.057867
  C       1.058105      0.055405      1.142377
  O       1.066114     -0.634692      2.303913
  C       0.878013      0.138313      3.482740
  H       0.911150     -0.567411      4.316045
  H       1.668168      0.890582      3.588584
  H      -0.087407      0.655886      3.460794
  O       0.920025      1.266983      1.125394
  C       1.307002     -0.053775     -1.369770
  H       2.108268      0.697049     -1.361214
  H       0.372074      0.496764     -1.535608
  H       1.471746     -0.760659     -2.187136
  H       1.406349     -2.796887     -0.804860
  O       4.518136     -0.826162     -1.221845
41
Coordinates from ORCA-job orca E -848.299131806810
  O       3.682748     -2.643767     -2.157372
  C       3.963127     -2.057794     -1.140354
  C       3.624324     -2.569676      0.212229
  C       4.114742     -1.829883      1.436182
  H       3.374726     -1.912453      2.236277
  H       5.012633     -2.344823      1.811876
  C       4.444759     -0.368951      1.138627
  H       5.035386      0.054697      1.957428
  H       3.540045      0.243159      1.058331
  C       5.233464     -0.248751     -0.140953
  H       6.192290     -0.780082     -0.022307
  C       5.532450      1.181171     -0.573042
  C       6.452914      1.945805      0.374249
  H       6.008594      1.990039      1.376320
  H       7.398845      1.398293      0.484215
  C       6.737628      3.362482     -0.111075
  H       7.385696      3.902128      0.585864
  H       5.810802      3.936772     -0.216347
  H       7.231913      3.353974     -1.088623
  H       4.590115      1.729066     -0.699222
  H       5.989133      1.130914     -1.568716
  C       3.567365     -4.065428      0.322676
  H       3.010999     -4.375318      1.212684
  H       4.582986     -4.475879      0.408677
  H       3.114437     -4.507567     -0.565909
  C       1.487541     -2.143537      0.072405
  H       1.292014     -2.611436      1.031506
  C       1.270188     -0.779309     -0.051473
  C       1.063756      0.056643      1.146996
  O       1.066277     -0.637627      2.305353
  C       0.874726      0.133740      3.484268
  H       0.902962     -0.572505      4.314218
  H       1.664972      0.881888      3.594376
  H      -0.087778      0.651533      3.458995
  O       0.920628      1.262574      1.125858
  C       1.308301     -0.052113     -1.360450
  H       2.118038      0.686183     -1.363556
  H       0.380342      0.507104     -1.519101
  H       1.461366     -0.754432     -2.181384
  H       1.416087     -2.772795     -0.810203
  O       4.527520     -0.834492     -1.231935
41
Coordinates from ORCA-job orca E -848.300132025268
  O       3.697238     -2.655094     -2.152354
  C       3.976138     -2.063095     -1.139226
  C       3.633196     -2.568707      0.209964
  C       4.124599     -1.828108      1.423069
  H       3.391115     -1.914704      2.228846
  H       5.029567     -2.336058      1.786338
  C       4.447081     -0.369357      1.135621
  H       5.020064      0.055317      1.962571
  H       3.538781      0.231413      1.039451
  C       5.247130     -0.248681     -0.142132
  H       6.199688     -0.785969     -0.026959
  C       5.536876      1.178975     -0.573165
  C       6.443723      1.950283      0.379214
  H       5.985196      2.008219      1.371371
  H       7.385157      1.403439      0.507676
  C       6.738665      3.358664     -0.120431
  H       7.380870      3.902944      0.574889
  H       5.816530      3.933188     -0.240889
  H       7.241338      3.335477     -1.090886
  H       4.585512      1.708863     -0.696355
  H       5.996458      1.135642     -1.565308
  C       3.556656     -4.060522      0.328948
  H       3.003940     -4.358382      1.223014
  H       4.565758     -4.481142      0.414296
  H       3.093289     -4.503960     -0.551012
  C       1.500143     -2.127271      0.067746
  H       1.300443     -2.609710      1.016365
  C       1.273180     -0.775206     -0.042810
  C       1.058235      0.056307      1.155169
  O       1.061104     -0.642635      2.309502
  C       0.865572      0.126214      3.489842
  H       0.894289     -0.581346      4.315822
  H       1.653630      0.873054      3.602167
  H      -0.096818      0.639209      3.463386
  O       0.909100      1.256056      1.130101
  C       1.307050     -0.046585     -1.347132
  H       2.125895      0.678172     -1.363428
  H       0.385947      0.521565     -1.496847
  H       1.447241     -0.741885     -2.174018
  H       1.435160     -2.740928     -0.823537
  O       4.544326     -0.844108     -1.241289
41
Coordinates from ORCA-job orca E -848.300311857337
  O       3.728875     -2.669600     -2.146273
  C       4.002104     -2.069162     -1.136216
  C       3.653362     -2.567302      0.211555
  C       4.140973     -1.821960      1.419375
  H       3.413211     -1.917333      2.229479
  H       5.055261     -2.317698      1.775558
  C       4.446971     -0.361831      1.129236
  H       4.999330      0.076135      1.962390
  H       3.531285      0.222871      1.011902
  C       5.261178     -0.242388     -0.141015
  H       6.212784     -0.777740     -0.018511
  C       5.540646      1.184534     -0.576788
  C       6.447591      1.962285      0.369782
  H       5.971827      2.061206      1.349755
  H       7.373625      1.399356      0.531179
  C       6.782184      3.348050     -0.166785
  H       7.430047      3.896123      0.519349
  H       5.875777      3.940120     -0.313303
  H       7.294058      3.283539     -1.129769
  H       4.583612      1.704805     -0.691735
  H       5.994651      1.144843     -1.570825
  C       3.556363     -4.055880      0.340812
  H       3.005984     -4.338834      1.240609
  H       4.560358     -4.487251      0.425612
  H       3.082450     -4.501645     -0.531567
  C       1.503235     -2.110578      0.057275
  H       1.301290     -2.616991      0.992330
  C       1.267086     -0.764412     -0.030428
  C       1.029431      0.048612      1.177490
  O       1.028284     -0.667808      2.319476
  C       0.808805      0.080799      3.509854
  H       0.838295     -0.639715      4.323763
  H       1.586291      0.834371      3.641607
  H      -0.160212      0.579206      3.479297
  O       0.859796      1.244182      1.164270
  C       1.304839     -0.016844     -1.323603
  H       2.136326      0.692538     -1.340759
  H       0.392879      0.567539     -1.460013
  H       1.428439     -0.700936     -2.162020
  H       1.458849     -2.703688     -0.848547
  O       4.570919     -0.851969     -1.246205
41
Coordinates from ORCA-job orca E -848.300343659234
  O       3.720681     -2.667829     -2.148925
  C       3.997020     -2.068441     -1.138990
  C       3.648500     -2.566562      0.209260
  C       4.141027     -1.822779      1.416260
  H       3.415345     -1.915697      2.228412
  H       5.054752     -2.321183      1.769806
  C       4.450549     -0.363582      1.127417
  H       5.005476      0.072314      1.959804
  H       3.536281      0.222661      1.011775
  C       5.262728     -0.244877     -0.144612
  H       6.213385     -0.782034     -0.024525
  C       5.543162      1.181584     -0.579017
  C       6.443755      1.959139      0.373557
  H       5.964765      2.051073      1.352535
  H       7.371761      1.399844      0.535182
  C       6.773117      3.349084     -0.155264
  H       7.415214      3.897295      0.535825
  H       5.864387      3.937007     -0.302739
  H       7.289052      3.291701     -1.116324
  H       4.585666      1.700031     -0.698592
  H       6.002784      1.142362     -1.570320
  C       3.552674     -4.055173      0.338016
  H       3.003470     -4.338642      1.238116
  H       4.556644     -4.486302      0.421722
  H       3.077777     -4.501004     -0.533535
  C       1.511072     -2.112199      0.061951
  H       1.311944     -2.615646      0.998523
  C       1.271354     -0.765926     -0.029458
  C       1.035517      0.051023      1.175653
  O       1.034837     -0.661355      2.320239
  C       0.815955      0.091999      3.507680
  H       0.845736     -0.625087      4.324290
  H       1.593535      0.845873      3.635782
  H      -0.152879      0.590295      3.475363
  O       0.863779      1.246046      1.157536
  C       1.302172     -0.022782     -1.325048
  H       2.125779      0.695497     -1.343503
  H       0.384112      0.550954     -1.464281
  H       1.434302     -0.707547     -2.161429
  H       1.462320     -2.708323     -0.840914
  O       4.569553     -0.853261     -1.249636
41
Coordinates from ORCA-job orca E -848.300343580672
  O       3.733611     -2.675356     -2.146092
  C       4.007443     -2.072126     -1.137601
  C       3.659200     -2.567113      0.211177
  C       4.147144     -1.819262      1.417040
  H       3.421347     -1.914306      2.228904
  H       5.063144     -2.312509      1.772236
  C       4.450171     -0.359652      1.123593
  H       4.998827      0.083413      1.956472
  H       3.532982      0.220685      1.000839
  C       5.266728     -0.242891     -0.145686
  H       6.218233     -0.777379     -0.020565
  C       5.545054      1.183089     -0.582806
  C       6.445997      1.962501      0.368073
  H       5.961306      2.067168      1.343029
  H       7.368693      1.397782      0.540850
  C       6.788498      3.345313     -0.171208
  H       7.431414      3.894687      0.518228
  H       5.884956      3.938770     -0.328211
  H       7.308709      3.275417     -1.129133
  H       4.586998      1.700646     -0.701657
  H       6.003847      1.143257     -1.574465
  C       3.555139     -4.054385      0.344691
  H       3.005877     -4.331713      1.246703
  H       4.557421     -4.489560      0.428560
  H       3.077247     -4.501180     -0.524759
  C       1.503837     -2.106201      0.056139
  H       1.304583     -2.617724      0.988199
  C       1.264939     -0.761430     -0.026809
  C       1.021692      0.047209      1.183323
  O       1.022031     -0.672104      2.323091
  C       0.796549      0.072614      3.515006
  H       0.828822     -0.649708      4.326913
  H       1.569912      0.829725      3.649227
  H      -0.175091      0.565443      3.483702
  O       0.844937      1.241480      1.172009
  C       1.302189     -0.008986     -1.317089
  H       2.132853      0.701326     -1.331548
  H       0.389657      0.574372     -1.451801
  H       1.427374     -0.689407     -2.158158
  H       1.465946     -2.695684     -0.851617
  O       4.578843     -0.856672     -1.251210
41
Coordinates from ORCA-job orca E -848.300363452671
  O       3.731203     -2.674626     -2.147147
  C       4.007414     -2.071891     -1.138968
  C       3.657452     -2.565536      0.210180
  C       4.148902     -1.818696      1.415555
  H       3.425083     -1.912688      2.229193
  H       5.065019     -2.313187      1.768716
  C       4.453107     -0.359563      1.121236
  H       5.001540      0.084269      1.953669
  H       3.535901      0.220393      0.997092
  C       5.270212     -0.243950     -0.147952
  H       6.221430     -0.778778     -0.022147
  C       5.549386      1.181546     -0.586392
  C       6.445342      1.962986      0.367725
  H       5.955114      2.069842      1.339619
  H       7.366749      1.398298      0.547316
  C       6.791267      3.344707     -0.172179
  H       7.429513      3.895643      0.520343
  H       5.888754      3.937717     -0.336487
  H       7.317831      3.272916     -1.126505
  H       4.591404      1.697891     -0.710477
  H       6.012840      1.140483     -1.575822
  C       3.551394     -4.052581      0.344403
  H       3.002570     -4.328121      1.247219
  H       4.552979     -4.489478      0.427446
  H       3.071665     -4.499441     -0.524013
  C       1.510317     -2.105467      0.057982
  H       1.313632     -2.618819      0.989571
  C       1.266373     -0.760620     -0.024095
  C       1.017495      0.046281      1.185969
  O       1.021014     -0.672884      2.325692
  C       0.791028      0.070887      3.517495
  H       0.826956     -0.651173      4.329474
  H       1.560341      0.832108      3.651584
  H      -0.183267      0.558379      3.485492
  O       0.834591      1.239770      1.174345
  C       1.300006     -0.007002     -1.313796
  H       2.121576      0.713874     -1.323597
  H       0.380770      0.564936     -1.452067
  H       1.437290     -0.685121     -2.154847
  H       1.473879     -2.694995     -0.849787
  O       4.582989     -0.858759     -1.253447
41
Coordinates from ORCA-job orca E -848.300390674393
  O       3.736234     -2.678682     -2.145637
  C       4.015097     -2.073783     -1.139434
  C       3.662057     -2.561648      0.211074
  C       4.155434     -1.812720      1.414546
  H       3.433446     -1.905189      2.229932
  H       5.072392     -2.306016      1.767374
  C       4.457948     -0.354547      1.114082
  H       5.002208      0.095997      1.945599
  H       3.539111      0.221450      0.982816
  C       5.279335     -0.244115     -0.152686
  H       6.230884     -0.776890     -0.020328
  C       5.559901      1.179435     -0.596861
  C       6.448690      1.966187      0.359830
  H       5.946659      2.085944      1.324198
  H       7.364197      1.398025      0.557791
  C       6.809229      3.340384     -0.189392
  H       7.440142      3.895506      0.506496
  H       5.912192      3.936050     -0.373036
  H       7.349065      3.256254     -1.135262
  H       4.602583      1.694585     -0.730552
  H       6.030283      1.133610     -1.582830
  C       3.546535     -4.047486      0.350262
  H       2.997824     -4.315372      1.255436
  H       4.545437     -4.490695      0.432137
  H       3.061880     -4.494712     -0.515262
  C       1.514561     -2.098643      0.056428
  H       1.321501     -2.621342      0.983415
  C       1.263705     -0.755038     -0.016912
  C       0.999715      0.040323      1.197755
  O       1.007867     -0.685870      2.332539
  C       0.762470      0.047038      3.528249
  H       0.805162     -0.679927      4.335494
  H       1.520852      0.817715      3.670031
  H      -0.218327      0.521157      3.494855
  O       0.799236      1.231192      1.192645
  C       1.299177      0.009053     -1.300539
  H       2.107218      0.745121     -1.293977
  H       0.371422      0.565568     -1.445093
  H       1.458006     -0.660427     -2.144732
  H       1.489821     -2.683051     -0.855015
  O       4.597911     -0.864892     -1.257844
41
Coordinates from ORCA-job orca E -848.300404368824
  O       3.736611     -2.680090     -2.144643
  C       4.017106     -2.074626     -1.139281
  C       3.661481     -2.559274      0.211905
  C       4.155448     -1.809270      1.414415
  H       3.432861     -1.899585      2.229499
  H       5.071518     -2.303123      1.768686
  C       4.459303     -0.351991      1.111234
  H       5.002841      0.100301      1.942263
  H       3.540702      0.223960      0.977668
  C       5.282927     -0.244901     -0.154378
  H       6.234496     -0.776778     -0.018044
  C       5.565642      1.177386     -0.601587
  C       6.450991      1.966800      0.356025
  H       5.945682      2.088969      1.318383
  H       7.365662      1.398963      0.558929
  C       6.813939      3.339365     -0.195366
  H       7.440965      3.896767      0.502198
  H       5.917747      3.934268     -0.385596
  H       7.358672      3.252926     -1.138224
  H       4.609261      1.692752     -0.741233
  H       6.039723      1.128012     -1.585631
  C       3.543177     -4.044867      0.353048
  H       2.993751     -4.310228      1.258494
  H       4.540988     -4.490452      0.434875
  H       3.057436     -4.491981     -0.511935
  C       1.516469     -2.096423      0.055108
  H       1.323611     -2.622544      0.980128
  C       1.262590     -0.753118     -0.014636
  C       0.991568      0.037023      1.201727
  O       1.004479     -0.691567      2.334957
  C       0.754574      0.037161      3.532216
  H       0.801432     -0.691379      4.337805
  H       1.508477      0.811892      3.675805
  H      -0.228855      0.505875      3.499790
  O       0.784063      1.226737      1.199522
  C       1.300422      0.015593     -1.295394
  H       2.096815      0.763964     -1.276651
  H       0.366090      0.559061     -1.447697
  H       1.477561     -0.648723     -2.139972
  H       1.496428     -2.679094     -0.857507
  O       4.604406     -0.868209     -1.259314
41
Coordinates from ORCA-job orca E -848.300417359298
  O       3.738033     -2.683417     -2.142050
  C       4.020724     -2.076425     -1.138242
  C       3.660775     -2.555090      0.214095
  C       4.153902     -1.801913      1.414761
  H       3.428649     -1.887449      2.228081
  H       5.067881     -2.296405      1.773449
  C       4.461100     -0.346457      1.106308
  H       5.003119      0.108521      1.936844
  H       3.543717      0.230442      0.968035
  C       5.289381     -0.246453     -0.156880
  H       6.240282     -0.777712     -0.013322
  C       5.576041      1.173222     -0.609998
  C       6.457306      1.966998      0.347535
  H       5.949261      2.091487      1.308150
  H       7.372038      1.400816      0.555038
  C       6.820788      3.337876     -0.207355
  H       7.443325      3.899047      0.491211
  H       5.924702      3.930705     -0.404620
  H       7.370271      3.249001     -1.147214
  H       4.621154      1.689090     -0.758279
  H       6.054917      1.117442     -1.591447
  C       3.538291     -4.040151      0.359055
  H       2.987621     -4.301508      1.264870
  H       4.534410     -4.489332      0.441233
  H       3.050942     -4.487176     -0.505108
  C       1.518530     -2.092166      0.052015
  H       1.323721     -2.624264      0.973192
  C       1.261933     -0.749192     -0.010491
  C       0.981818      0.031806      1.209509
  O       0.998134     -0.702881      2.338920
  C       0.738488      0.017058      3.539279
  H       0.788031     -0.715697      4.340875
  H       1.486218      0.796446      3.689952
  H      -0.248094      0.479051      3.506265
  O       0.761745      1.219239      1.213050
  C       1.304705      0.028480     -1.285729
  H       2.079388      0.798370     -1.244825
  H       0.359399      0.548474     -1.452941
  H       1.515021     -0.625310     -2.130852
  H       1.505765     -2.670806     -0.863293
  O       4.615629     -0.874216     -1.261488
41
Coordinates from ORCA-job orca E -848.300423600374
  O       3.738944     -2.685540     -2.140690
  C       4.022092     -2.077841     -1.137401
  C       3.659531     -2.553776      0.215238
  C       4.150902     -1.798634      1.415212
  H       3.423329     -1.881377      2.226707
  H       5.063387     -2.293336      1.777325
  C       4.460540     -0.344197      1.104439
  H       5.001423      0.111439      1.935354
  H       3.544236      0.233785      0.963239
  C       5.291969     -0.247715     -0.157063
  H       6.242092     -0.779375     -0.009917
  C       5.580570      1.170791     -0.612826
  C       6.460868      1.966342      0.344031
  H       5.953794      2.089421      1.305323
  H       7.377202      1.402263      0.550104
  C       6.820721      3.338075     -0.211141
  H       7.442845      3.900535      0.486746
  H       5.923155      3.929025     -0.407365
  H       7.369273      3.250454     -1.151662
  H       4.626279      1.686841     -0.763968
  H       6.060861      1.112375     -1.593412
  C       3.536301     -4.038558      0.362186
  H       2.984931     -4.298575      1.267944
  H       4.531990     -4.488507      0.445173
  H       3.048873     -4.485948     -0.501766
  C       1.518821     -2.091130      0.049114
  H       1.320926     -2.625825      0.968145
  C       1.262094     -0.747879     -0.009682
  C       0.978350      0.029550      1.211792
  O       0.997044     -0.707286      2.339884
  C       0.735689      0.009829      3.541525
  H       0.786374     -0.724298      4.341800
  H       1.482000      0.790260      3.693927
  H      -0.251670      0.470197      3.509207
  O       0.756808      1.216647      1.217952
  C       1.307088      0.034007     -1.282285
  H       2.068843      0.815832     -1.230111
  H       0.355777      0.540147     -1.458466
  H       1.536008     -0.613754     -2.127230
  H       1.508401     -2.667231     -0.867807
  O       4.620400     -0.877482     -1.261982
41
Coordinates from ORCA-job orca E -848.300432341754
  O       3.741014     -2.688954     -2.137967
  C       4.024367     -2.079654     -1.135646
  C       3.658220     -2.551240      0.217511
  C       4.146222     -1.792254      1.416438
  H       3.414864     -1.870447      2.224976
  H       5.056415     -2.286871      1.784325
  C       4.459654     -0.339431      1.101505
  H       4.998707      0.117535      1.932903
  H       3.545197      0.240377      0.955433
  C       5.295772     -0.248942     -0.157320
  H       6.244347     -0.781829     -0.004982
  C       5.587548      1.167503     -0.617574
  C       6.468395      1.964907      0.337131
  H       5.964236      2.086120      1.300177
  H       7.387116      1.403447      0.539543
  C       6.822509      3.337903     -0.218792
  H       7.446492      3.901402      0.476582
  H       5.922699      3.926874     -0.410561
  H       7.366986      3.251994     -1.161847
  H       4.634283      1.684605     -0.771415
  H       6.068686      1.105028     -1.597486
  C       3.534837     -4.035644      0.368174
  H       2.983150     -4.293569      1.274315
  H       4.530303     -4.485847      0.452391
  H       3.047227     -4.484512     -0.494936
  C       1.518679     -2.088918      0.044762
  H       1.315282     -2.627341      0.960485
  C       1.263594     -0.745039     -0.008006
  C       0.977612      0.026677      1.216489
  O       0.993298     -0.715905      2.340951
  C       0.726590     -0.005117      3.545165
  H       0.773976     -0.743323      4.341893
  H       1.472185      0.774543      3.704818
  H      -0.260662      0.455322      3.511064
  O       0.753142      1.213143      1.227604
  C       1.310416      0.043316     -1.276732
  H       2.053636      0.841477     -1.210211
  H       0.350916      0.529879     -1.464469
  H       1.563678     -0.595425     -2.121626
  H       1.510526     -2.660555     -0.875001
  O       4.626951     -0.881686     -1.262474
41
Coordinates from ORCA-job orca E -848.300442338375
  O       3.742415     -2.690216     -2.137290
  C       4.024888     -2.080176     -1.135143
  C       3.657622     -2.550923      0.217993
  C       4.143858     -1.790705      1.416796
  H       3.411398     -1.868091      2.224357
  H       5.053568     -2.284853      1.786498
  C       4.457805     -0.338233      1.100983
  H       4.995772      0.119242      1.932799
  H       3.543665      0.241627      0.953071
  C       5.295652     -0.248906     -0.156820
  H       6.243691     -0.782304     -0.003152
  C       5.588412      1.167134     -0.617681
  C       6.470192      1.964216      0.336509
  H       5.967374      2.084415      1.300384
  H       7.389550      1.403152      0.537011
  C       6.822627      3.337921     -0.218848
  H       7.448390      3.900760      0.475470
  H       5.922194      3.926923     -0.407531
  H       7.364663      3.253041     -1.163399
  H       4.635510      1.684869     -0.771232
  H       6.069302      1.104105     -1.597658
  C       3.535501     -4.035277      0.369950
  H       2.984188     -4.292907      1.276409
  H       4.531407     -4.484447      0.454620
  H       3.048201     -4.485427     -0.492663
  C       1.517698     -2.089208      0.042458
  H       1.312154     -2.628638      0.957096
  C       1.263341     -0.745031     -0.008676
  C       0.977091      0.025759      1.216403
  O       0.993099     -0.717448      2.340457
  C       0.728360     -0.006933      3.545312
  H       0.775729     -0.745550      4.341648
  H       1.474955      0.771860      3.704545
  H      -0.258467      0.454508      3.512330
  O       0.756018      1.212831      1.228726
  C       1.309715      0.044349     -1.276767
  H       2.048535      0.846266     -1.208417
  H       0.348119      0.526018     -1.466716
  H       1.567724     -0.592654     -2.121557
  H       1.509540     -2.659195     -0.878327
  O       4.627606     -0.882320     -1.262358
41
Coordinates from ORCA-job orca E -848.300436108957
  O       3.747312     -2.693923     -2.134047
  C       4.026859     -2.080581     -1.133051
  C       3.656325     -2.547539      0.220540
  C       4.136584     -1.781759      1.418464
  H       3.400230     -1.855590      2.222804
  H       5.044550     -2.274129      1.794740
  C       4.452614     -0.330632      1.098182
  H       4.987402      0.129506      1.930675
  H       3.539806      0.249753      0.944018
  C       5.295712     -0.247207     -0.156406
  H       6.241569     -0.782986      0.002060
  C       5.593398      1.166559     -0.620840
  C       6.480010      1.962003      0.330434
  H       5.981648      2.081838      1.296696
  H       7.399984      1.400266      0.525939
  C       6.830540      3.336071     -0.225441
  H       7.463412      3.896338      0.464498
  H       5.929673      3.927160     -0.405183
  H       7.364560      3.251563     -1.174581
  H       4.642564      1.688176     -0.773810
  H       6.073061      1.099838     -1.601146
  C       3.539618     -4.031882      0.377914
  H       2.991082     -4.288232      1.286431
  H       4.537419     -4.476795      0.462957
  H       3.052596     -4.487366     -0.482062
  C       1.514891     -2.088542      0.036112
  H       1.302845     -2.631879      0.947075
  C       1.263911     -0.743357     -0.008322
  C       0.981176      0.022360      1.220554
  O       0.986657     -0.728236      2.339759
  C       0.720093     -0.023866      3.547926
  H       0.759458     -0.767811      4.339715
  H       1.470241      0.749714      3.715514
  H      -0.264047      0.443088      3.513000
  O       0.764604      1.210209      1.239015
  C       1.307002      0.050835     -1.273758
  H       2.030648      0.865643     -1.199835
  H       0.338147      0.516009     -1.469198
  H       1.579353     -0.579770     -2.118912
  H       1.505910     -2.652340     -0.888501
  O       4.629642     -0.882957     -1.262336
41
Coordinates from ORCA-job orca E -848.300445391698
  O       3.746359     -2.692751     -2.135247
  C       4.026084     -2.080246     -1.133808
  C       3.656561     -2.548741      0.219551
  C       4.138345     -1.784744      1.417841
  H       3.403429     -1.860307      2.223299
  H       5.047135     -2.277352      1.791843
  C       4.453029     -0.333032      1.099282
  H       4.988471      0.126457      1.931638
  H       3.539500      0.246629      0.946985
  C       5.294555     -0.247248     -0.156297
  H       6.241127     -0.782272      0.000593
  C       5.590907      1.167317     -0.619122
  C       6.475835      1.962822      0.333603
  H       5.975261      2.083459      1.298598
  H       7.394917      1.400536      0.531772
  C       6.828683      3.336325     -0.222111
  H       7.459062      3.897064      0.469735
  H       5.928626      3.927459     -0.405760
  H       7.366161      3.251038     -1.169229
  H       4.639552      1.687899     -0.772316
  H       6.071201      1.101967     -1.599218
  C       3.539078     -4.033143      0.375245
  H       2.990221     -4.290199      1.283359
  H       4.536667     -4.478628      0.459820
  H       3.052059     -4.487508     -0.485318
  C       1.515038     -2.089504      0.037398
  H       1.305310     -2.631848      0.949397
  C       1.262478     -0.744723     -0.009195
  C       0.978338      0.022973      1.218237
  O       0.988831     -0.724408      2.339563
  C       0.726030     -0.016836      3.546652
  H       0.769605     -0.758343      4.340507
  H       1.475667      0.758362      3.709004
  H      -0.258914      0.448645      3.514244
  O       0.763592      1.211177      1.234622
  C       1.306575      0.047567     -1.275617
  H       2.035862      0.857640     -1.204175
  H       0.340275      0.518766     -1.468803
  H       1.573396     -0.585578     -2.120623
  H       1.506277     -2.655090     -0.886125
  O       4.627875     -0.882051     -1.262234
41
Coordinates from ORCA-job orca E -848.300421063749
  O       3.739826     -2.686046     -2.139657
  C       4.022434     -2.077256     -1.136857
  C       3.659929     -2.551995      0.216080
  C       4.150465     -1.795195      1.415601
  H       3.422206     -1.876925      2.226675
  H       5.062647     -2.289654      1.778848
  C       4.460852     -0.340975      1.103598
  H       5.002004      0.114961      1.934215
  H       3.544929      0.237862      0.962013
  C       5.292355     -0.246452     -0.157954
  H       6.241856     -0.779111     -0.010314
  C       5.582626      1.171251     -0.615317
  C       6.463164      1.966943      0.341085
  H       5.954858      2.093343      1.301313
  H       7.377890      1.401265      0.549901
  C       6.826995      3.336542     -0.216701
  H       7.448723      3.899476      0.481128
  H       5.931103      3.928853     -0.416405
  H       7.377344      3.245467     -1.155856
  H       4.629165      1.688351     -0.767844
  H       6.063488      1.111063     -1.595513
  C       3.538025     -4.036808      0.364212
  H       2.988643     -4.296908      1.271131
  H       4.534308     -4.485759      0.445569
  H       3.049506     -4.485218     -0.498603
  C       1.518509     -2.090175      0.049082
  H       1.320777     -2.626089      0.967553
  C       1.262471     -0.746896     -0.007808
  C       0.982458      0.028665      1.215474
  O       0.991754     -0.712739      2.340653
  C       0.725362      0.000526      3.543464
  H       0.770144     -0.736622      4.341315
  H       1.472443      0.778819      3.702839
  H      -0.260826      0.463138      3.507645
  O       0.758009      1.215168      1.223924
  C       1.306701      0.037027     -1.279482
  H       2.067863      0.819241     -1.226387
  H       0.355136      0.543194     -1.454613
  H       1.535388     -0.609348     -2.125537
  H       1.507523     -2.665004     -0.868610
  O       4.620002     -0.876431     -1.262269
41
Coordinates from ORCA-job orca E -848.300446128384
  O       3.745145     -2.691090     -2.136437
  C       4.024969     -2.079329     -1.134597
  C       3.657273     -2.549665      0.218584
  C       4.140777     -1.787364      1.417272
  H       3.407524     -1.864818      2.224087
  H       5.050556     -2.280158      1.788644
  C       4.453993     -0.334931      1.100554
  H       4.990670      0.123688      1.932588
  H       3.539732      0.244273      0.950880
  C       5.293109     -0.246649     -0.156477
  H       6.240357     -0.781234     -0.002041
  C       5.588165      1.168766     -0.617571
  C       6.472228      1.963808      0.336314
  H       5.969556      2.086086      1.300016
  H       7.389898      1.400188      0.537324
  C       6.828625      3.336212     -0.219742
  H       7.457103      3.897070      0.473733
  H       5.929921      3.928158     -0.407401
  H       7.369379      3.249280     -1.164843
  H       4.636419      1.688751     -0.770325
  H       6.068566      1.104914     -1.597724
  C       3.539595     -4.034226      0.372460
  H       2.991081     -4.292370      1.280473
  H       4.537212     -4.479846      0.456020
  H       3.052314     -4.487583     -0.488480
  C       1.515271     -2.090317      0.039759
  H       1.308475     -2.631086      0.953340
  C       1.261764     -0.745896     -0.009449
  C       0.978894      0.024173      1.216799
  O       0.989769     -0.721168      2.339450
  C       0.728218     -0.011311      3.545444
  H       0.772834     -0.751277      4.340681
  H       1.477839      0.764381      3.705500
  H      -0.256855      0.453932      3.513300
  O       0.764173      1.212415      1.231090
  C       1.305592      0.043907     -1.277404
  H       2.043633      0.846583     -1.211493
  H       0.343006      0.524489     -1.465432
  H       1.561793     -0.593131     -2.122750
  H       1.505626     -2.658053     -0.882418
  O       4.624861     -0.880022     -1.262135
41
Coordinates from ORCA-job orca E -848.300448933967
  O       3.745950     -2.691604     -2.135933
  C       4.025208     -2.079281     -1.134272
  C       3.657056     -2.549064      0.218988
  C       4.139551     -1.785841      1.417543
  H       3.405681     -1.862773      2.223847
  H       5.049064     -2.278337      1.789966
  C       4.453085     -0.333602      1.100136
  H       4.989337      0.125401      1.932237
  H       3.539054      0.245726      0.949579
  C       5.292918     -0.246257     -0.156458
  H       6.239805     -0.781279     -0.001334
  C       5.588830      1.168767     -0.618094
  C       6.473587      1.963513      0.335417
  H       5.971377      2.086030      1.299332
  H       7.391157      1.399589      0.536019
  C       6.830202      3.335784     -0.220854
  H       7.459576      3.896272      0.472108
  H       5.931632      3.928190     -0.407672
  H       7.370120      3.248618     -1.166412
  H       4.637430      1.689398     -0.770862
  H       6.069115      1.104282     -1.598258
  C       3.540393     -4.033637      0.373701
  H       2.992489     -4.291678      1.282112
  H       4.538379     -4.478472      0.457137
  H       3.053091     -4.487869     -0.486766
  C       1.514768     -2.090318      0.038749
  H       1.307098     -2.631720      0.951785
  C       1.261735     -0.745765     -0.009399
  C       0.979601      0.023542      1.217452
  O       0.988610     -0.722995      2.339313
  C       0.726910     -0.014092      3.545844
  H       0.770317     -0.754889      4.340370
  H       1.477122      0.760766      3.707141
  H      -0.257732      0.452050      3.513489
  O       0.765709      1.211925      1.232710
  C       1.305124      0.044844     -1.276893
  H       2.041092      0.849309     -1.210053
  H       0.341515      0.523211     -1.465584
  H       1.563295     -0.591212     -2.122384
  H       1.504950     -2.657095     -0.884033
  O       4.624860     -0.879888     -1.262126
