41
Coordinates from ORCA-job orca E -848.300448933967
  O           3.74595020800511     -2.69160389675626     -2.13593336646749
  C           4.02520799355603     -2.07928112166588     -1.13427241580903
  C           3.65705590655040     -2.54906416037596      0.21898779312906
  C           4.13955120019290     -1.78584122940833      1.41754339842463
  H           3.40568063727141     -1.86277251307902      2.22384737860710
  H           5.04906371946838     -2.27833691575437      1.78996619104710
  C           4.45308464728854     -0.33360168985291      1.10013606229279
  H           4.98933677963521      0.12540123268709      1.93223702390091
  H           3.53905373743426      0.24572605161741      0.94957904198704
  C           5.29291845252819     -0.24625678579868     -0.15645820729533
  H           6.23980543746616     -0.78127912927284     -0.00133418969174
  C           5.58882994111551      1.16876678680984     -0.61809419368484
  C           6.47358726417715      1.96351297911214      0.33541743396162
  H           5.97137680864645      2.08602952921626      1.29933244922662
  H           7.39115709674280      1.39958924496049      0.53601932258499
  C           6.83020240132610      3.33578424890050     -0.22085419304571
  H           7.45957594817605      3.89627178151919      0.47210849754380
  H           5.93163183189964      3.92819005825425     -0.40767228466021
  H           7.37011953069349      3.24861781923936     -1.16641185130648
  H           4.63742983779123      1.68939807798168     -0.77086200836447
  H           6.06911457603409      1.10428177805451     -1.59825809268891
  C           3.54039268394053     -4.03363693473078      0.37370067007642
  H           2.99248893819213     -4.29167833404044      1.28211173044829
  H           4.53837872756633     -4.47847172465650      0.45713697692631
  H           3.05309118374627     -4.48786887037039     -0.48676579614705
  C           1.51476751076886     -2.09031792025110      0.03874911068257
  H           1.30709790635449     -2.63171971183310      0.95178535484313
  C           1.26173470053740     -0.74576508419718     -0.00939874329070
  C           0.97960143929149      0.02354220309572      1.21745188593189
  O           0.98861010232687     -0.72299477654360      2.33931317819775
  C           0.72690974476193     -0.01409218214276      3.54584408519598
  H           0.77031677072489     -0.75488902171718      4.34037025795703
  H           1.47712210918085      0.76076564704293      3.70714066393447
  H          -0.25773157592443      0.45204960757911      3.51348934359289
  O           0.76570930773396      1.21192515712656      1.23270995266020
  C           1.30512399784992      0.04484389714027     -1.27689318431730
  H           2.04109230393628      0.84930923189725     -1.21005281906595
  H           0.34151510062646      0.52321107269361     -1.46558381126785
  H           1.56329513275586     -0.59121188979851     -2.12238388904362
  H           1.50495026522054     -2.65709490059671     -0.88403250686290
  O           4.62485969440919     -0.87988761208552     -1.26212625014313
