41
Coordinates from ORCA-job orca E -847.138533491880
  O           3.71416940845277     -2.68065642631973     -2.15287273530456
  C           3.98748458636238     -2.07802861405261     -1.13813249324324
  C           3.64026813589154     -2.57895624497622      0.21741773850427
  C           4.12385641118720     -1.82648541491794      1.43095185672471
  H           3.39161755126783     -1.92228185913150      2.24904029921245
  H           5.04664880714295     -2.32539632601009      1.79242158555684
  C           4.43189864391317     -0.35964718372649      1.14443436661485
  H           4.99296580035301      0.07901184126881      1.98398338430044
  H           3.51193928600885      0.23297546344862      1.03465981845015
  C           5.24292653991202     -0.23127848361433     -0.13558587618063
  H           6.20385003079853     -0.76964203297450     -0.01371228204657
  C           5.52878400648775      1.20030623282832     -0.57081966620547
  C           6.46107253567621      1.97182368829842      0.36564706125570
  H           6.00451740661564      2.05623760362472      1.36741737091142
  H           7.39598937148668      1.39809524157110      0.50517155682496
  C           6.79149780443519      3.37068399718470     -0.15517654048974
  H           7.46206371254259      3.91021600501856      0.53246816819235
  H           5.87785017545475      3.97653852429822     -0.27576151369182
  H           7.28735506858861      3.32338732114426     -1.13915007840333
  H           4.56711196700288      1.73426300069398     -0.67396010821031
  H           5.96789601808158      1.15612075161015     -1.58177783165953
  C           3.55232962351572     -4.07309328260970      0.34521969514561
  H           2.99268040491070     -4.36670225609738      1.24748272837465
  H           4.56806407679295     -4.50322256051036      0.43683554726931
  H           3.08565109926687     -4.52265819412602     -0.54114369468680
  C           1.49557755756043     -2.13442955012411      0.05187052193437
  H           1.27737486800984     -2.63543916627685      0.99547897465795
  C           1.26244688226373     -0.77004273867242     -0.04658374514670
  C           1.04156812413348      0.05263092872466      1.15744303591164
  O           1.05278888495174     -0.66338291299672      2.31158288990840
  C           0.83923637871036      0.08206000189750      3.50515134805453
  H           0.87791631568232     -0.64024519848850      4.33073657847034
  H           1.61640872747634      0.85187646275056      3.63495492880162
  H          -0.13994129398343      0.58544925704709      3.48560700098544
  O           0.87609610014389      1.25549398763494      1.14369013723491
  C           1.30790833093375     -0.03058441433911     -1.34857365951724
  H           2.15999378353023      0.66939957460423     -1.37526707315783
  H           0.40103134174726      0.58188522044110     -1.48279502535393
  H           1.41407073777369     -0.72223501805814     -2.19512326627683
  H           1.43993454123618     -2.73820513569175     -0.85603065555106
  O           4.54616024768094     -0.84629209037535     -1.23961034817142
