64

C          1.74063        0.73880       -1.05733
H          1.84748        1.69702       -0.52972
H          2.69458        0.49217       -1.54173
C          1.31571       -0.35278       -0.07439
C          2.35767       -0.55260        1.06419
H          2.01562       -1.39632        1.68345
H          2.30760        0.34215        1.70192
C          3.84956       -0.80267        0.74389
C          1.13918       -1.66091       -0.84603
O          1.31335       -1.80555       -2.02806
O          0.75717       -2.66864       -0.04931
C          4.52138        0.43276        0.14623
O          5.26808        0.43200       -0.79719
O          4.22881        1.54690        0.83234
C          4.07980       -1.99299       -0.18965
H          5.15253       -2.21572       -0.27163
H          3.56824       -2.88217        0.20869
H          3.71077       -1.80127       -1.20484
C          4.56181       -1.06716        2.08815
H          4.17873       -1.99671        2.53591
H          5.64618       -1.18359        1.94022
H          4.39500       -0.24477        2.79831
C          0.55431       -3.92045       -0.68106
H          0.25665       -4.61950        0.10849
H         -0.23506       -3.84695       -1.44341
H          1.47764       -4.26548       -1.16849
C          4.80990        2.74735        0.35506
H          4.46725        2.96359       -0.66777
H          4.48492        3.54006        1.03830
H          5.90697        2.67771        0.34633
H          1.01022        0.85446       -1.86710
C         -0.00003       -0.00023        0.67635
C         -1.31574        0.35267       -0.07429
H          0.23296        0.84931        1.33561
H         -0.23304       -0.85004        1.33525
C         -2.35769        0.55222        1.06435
C         -1.13908        1.66103       -0.84551
C         -1.74074       -0.73855       -1.05759
C         -3.84956        0.80253        0.74412
H         -2.30770       -0.34275        1.70179
H         -2.01556        1.39570        1.68388
O         -1.31313        1.80604       -2.02751
O         -0.75689        2.66844       -0.04847
H         -1.01036       -0.85399       -1.86741
H         -1.84765       -1.69695       -0.53030
H         -2.69468       -0.49170       -1.54190
C         -4.07967        1.99314       -0.18909
C         -4.52152       -0.43266        0.14613
C         -0.55379        3.92041       -0.67984
H         -3.56801        2.88215        0.20949
H         -3.71067        1.80164       -1.20433
H         -5.15238        2.21601       -0.27100
O         -5.26823       -0.43156       -0.79727
O         -4.22914       -1.54701        0.83199
H         -1.47706        4.26576       -1.16717
H         -0.25601        4.61916        0.10992
H          0.23556        3.84700       -1.44221
C         -4.81041       -2.74725        0.35442
H         -4.48557       -3.54017        1.03749
H         -5.90747       -2.67744        0.34568
H         -4.46777       -2.96331       -0.66845
C         -4.56177        1.06673        2.08846
H         -4.17858        1.99612        2.53648
H         -5.64612        1.18332        1.94057
