85
Coordinates from ORCA-job orca E -1736.088764140538
  C           2.26492165683530     -4.12620153578385     -0.70821068556047
  C           2.18911120455075     -2.63023467671205     -0.33502048250572
  H           1.67887558707525     -4.71096292730855      0.00393703242745
  H           1.88016345957049     -4.29862472874799     -1.71250392128439
  C           3.04965760662860     -1.93380252789474     -1.39143795798254
  C           2.72614245343413     -2.47551512428826      1.10215286292485
  O           2.73838731857433     -1.93090206514383     -2.55293854720585
  O           4.20344868471626     -1.34440518061479     -1.05141341157543
  H           3.35566423677814     -3.34105501426365      1.32994760339055
  H           1.89624366839494     -2.49823764200470      1.80679366716889
  C           3.57061941216215     -1.23233745578926      1.30168520056323
  C           4.70057159297046     -1.22346296613768      0.29836733424598
  H           3.98862507629662     -1.22855718493691      2.30939362144096
  H           2.98297703802386     -0.31795432827820      1.20679975393614
  H           5.34498040694254     -2.09433757791021      0.47301651692048
  C           5.54690662482526      0.03816988829793      0.29985683548974
  H           4.90485412535671      0.88450953822111      0.03233626013709
  H           6.28698194704595     -0.05092792782791     -0.50027933047566
  C           6.24632132579764      0.31649797475207      1.62459142808561
  H           5.50334194419432      0.46539616843265      2.41313146603227
  H           6.83644777339007     -0.55832504036678      1.91846523096984
  C           7.14851773259395      1.54152573713064      1.55219208343597
  H           7.63723524154739      1.73215123480590      2.50873426035667
  H           7.92765042717950      1.41368870846563      0.79731165295644
  H           6.57536085727076      2.43357100933821      1.28742621399464
  C           0.68999791494000     -2.25762089708115     -0.49992022919364
  C           0.06736027199809     -0.82985619371028     -0.37790903491985
  H           0.39687338142843     -2.60405691755416     -1.49275127210762
  H           0.16873083933219     -2.88704081842096      0.22397402621500
  C          -1.45936630230692     -1.13175836742331     -0.46410256501066
  C           0.34788629882110     -0.29060981861756      1.02685876463783
  C           0.53101187393671      0.09802030916033     -1.51750339822328
  C          -2.56870656402434     -0.04505062141244     -0.33498170437107
  H          -1.61877908658761     -1.64719592155778     -1.41457746203320
  H          -1.66826711587665     -1.85384173136429      0.32648377717760
  O           0.09248891504356     -0.94020120503935      2.00704556303736
  O           0.90286862110173      0.91416717615432      1.19920557163292
  H          -0.29600712148555      0.71869411132208     -1.85188003512115
  H           0.83343537849542     -0.50608927521592     -2.37152694023215
  C           1.63964657943840      1.05045982281294     -1.11003563794631
  C          -2.51244737925229      0.91204311901107     -1.52205569355507
  C          -2.45559469275964      0.76656996155370      0.95185432751790
  C           1.21036458466820      1.82102502812347      0.11605329289263
  H           1.83624914920472      1.74918604897858     -1.92432431668054
  H           2.58069765968510      0.53456071370818     -0.91044133529612
  O          -2.29023499789681      2.09332004140023     -1.45434276232452
  O          -2.71877231264527      0.28585839270773     -2.68836148455705
  H          -1.54664197903194      1.36292488251571      0.97550524703713
  H          -2.45320794450697      0.10522118701288      1.81777304446821
  H          -3.27805449044334      1.47513409398872      1.04352045546848
  H           0.29008506089257      2.37498989571204     -0.10878091110384
  C           2.25198372077858      2.76992054715975      0.68046154468078
  C          -2.66395095761303      1.10771898872262     -3.85134935730799
  H           3.13394049268219      2.18721696739962      0.96942346675773
  H           1.85093220517807      3.19774341671071      1.60350472549259
  C           2.65660555034213      3.88644611230563     -0.27398069552326
  H          -2.86817551865076      0.44792484628062     -4.69029883786573
  H          -3.41092134608998      1.89949659460515     -3.79347002531157
  H          -1.67699848224525      1.55973774086293     -3.95457172851645
  H           3.11774015564365      3.46098313635105     -1.16972716776420
  H           1.76178195211873      4.41909267915599     -0.61256350954653
  C           3.62649345476649      4.86939663830518      0.36822111673233
  H           3.91768655802406      5.65440368084266     -0.33115844140639
  H           3.18085836757696      5.34860237996165      1.24279769594810
  H           4.53722390823855      4.36295797756259      0.69802396230681
  C          -3.88609159466410     -0.86901547234050     -0.37748318565523
  C          -5.25350939790544     -0.19372645319042     -0.13955179288521
  H          -3.93916640292516     -1.36022951167980     -1.35157786342182
  H          -3.78275423256737     -1.66201991709203      0.36450070517612
  C          -5.51372909818233      0.99825732352842     -1.05714382273030
  C          -5.44004610290371      0.24687357300729      1.31050685983373
  C          -6.33181656168822     -1.26462709093661     -0.39294701367709
  H          -5.38288314175125      0.69700458126830     -2.09834198396355
  H          -4.84811734008014      1.83484040198838     -0.84754441459752
  H          -6.53276006501220      1.36159054351865     -0.92864626598806
  O          -5.90672310825674      1.29829357877865      1.65935543393654
  O          -5.07561913491795     -0.70729780496395      2.17782291449541
  H          -6.15908630547666     -2.15317350503081      0.21499194615067
  H          -6.31943234455342     -1.55721989949750     -1.44461529276307
  H          -7.32554310620861     -0.87586604779521     -0.16189076257965
  C          -5.22887037276170     -0.38201632418108      3.55691324076527
  H          -4.88877420388440     -1.25552246786266      4.10684107460504
  H          -4.62218555739379      0.48719779624060      3.81192013759428
  H          -6.27196021558498     -0.16580682199821      3.78705394764313
  H           3.29630428164352     -4.48289756018719     -0.67024058591064
