85
Coordinates from ORCA-job orca E -1736.085714935050
  C       2.253710     -4.283060     -0.507070
  C       2.190280     -2.763440     -0.228890
  H       1.675040     -4.823730      0.257360
  H       1.846720     -4.519470     -1.499160
  C       3.030870     -2.128910     -1.346270
  C       2.759200     -2.517830      1.187160
  O       2.725350     -2.247970     -2.504110
  O       4.144490     -1.446300     -1.051500
  H       3.433120     -3.353600      1.438830
  H       1.943780     -2.538050      1.921580
  C       3.560240     -1.233220      1.310130
  C       4.660720     -1.208470      0.268510
  H       4.013400     -1.173790      2.310240
  H       2.927980     -0.340920      1.208190
  H       5.373510     -2.027310      0.480260
  C       5.423250      0.106310      0.174520
  H       4.718250      0.892450     -0.146190
  H       6.163380      0.010590     -0.636210
  C       6.114750      0.532700      1.465800
  H       5.363020      0.696470      2.255570
  H       6.763260     -0.285500      1.825010
  C       6.939450      1.803200      1.291170
  H       7.423350      2.101640      2.232490
  H       7.728060      1.666790      0.534920
  H       6.305810      2.641380      0.960300
  C       0.686720     -2.389350     -0.392200
  C       0.095000     -0.944350     -0.332620
  H       0.375630     -2.788260     -1.369310
  H       0.164710     -2.977960      0.376240
  C      -1.443940     -1.191620     -0.428460
  C       0.375230     -0.369120      1.061110
  C       0.596890     -0.072020     -1.508460
  C      -2.514830     -0.065710     -0.260100
  H      -1.619880     -1.671210     -1.404520
  H      -1.688450     -1.937900      0.341240
  O       0.136030     -1.003920      2.056110
  O       0.899730      0.852940      1.193660
  H      -0.237080      0.485340     -1.944230
  H       0.968730     -0.721560     -2.310280
  C       1.657690      0.941350     -1.111580
  C      -2.351580      0.988880     -1.352240
  C      -2.432840      0.630890      1.099970
  C       1.196270      1.735180      0.093710
  H       1.840430      1.628730     -1.949860
  H       2.620560      0.459340     -0.891850
  O      -2.014030      2.132990     -1.173670
  O      -2.604440      0.502420     -2.573090
  H      -1.503920      1.198990      1.214630
  H      -2.487690     -0.107880      1.909780
  H      -3.245350      1.359530      1.219610
  H       0.259800      2.264250     -0.158010
  C       2.215840      2.722490      0.640800
  C      -2.461120      1.406580     -3.655000
  H       3.109740      2.159610      0.962970
  H       1.790870      3.171810      1.552750
  C       2.618150      3.820980     -0.338650
  H      -2.698890      0.840760     -4.562280
  H      -3.148230      2.257680     -3.542750
  H      -1.432340      1.792540     -3.707440
  H       3.113260      3.376190     -1.217900
  H       1.711240      4.322180     -0.718630
  C       3.549530      4.850830      0.291140
  H       3.836980      5.628760     -0.431100
  H       3.071450      5.348180      1.149330
  H       4.473830      4.376250      0.657370
  C      -3.867090     -0.814390     -0.438650
  C      -5.207750     -0.083490     -0.193170
  H      -3.897580     -1.211030     -1.464430
  H      -3.843220     -1.684080      0.233680
  C      -5.352080      1.210840     -0.996400
  C      -5.428630      0.226830      1.287690
  C      -6.336170     -1.057810     -0.594750
  H      -5.206830      1.003730     -2.066550
  H      -4.628040      1.975650     -0.684530
  H      -6.352640      1.641220     -0.854340
  O      -5.850300      1.266310      1.724100
  O      -5.147870     -0.823400      2.068800
  H      -6.251650     -2.010790     -0.053350
  H      -6.283930     -1.265290     -1.674320
  H      -7.323910     -0.622730     -0.379480
  C      -5.313920     -0.633500      3.463540
  H      -5.056980     -1.587670      3.936620
  H      -4.645660      0.160850      3.827060
  H      -6.350360     -0.354930      3.701420
  H       3.291980     -4.646290     -0.467420
85
Coordinates from ORCA-job orca E -1736.087902599744
  C       2.220448     -4.178062     -0.621831
  C       2.185824     -2.678687     -0.261689
  H       1.620347     -4.741604      0.096210
  H       1.830237     -4.348926     -1.624421
  C       3.068601     -2.009266     -1.320604
  C       2.733282     -2.541862      1.173470
  O       2.789156     -2.052028     -2.489009
  O       4.208887     -1.402085     -0.969064
  H       3.360167     -3.415174      1.381274
  H       1.909594     -2.572374      1.885306
  C       3.589359     -1.310632      1.391497
  C       4.708426     -1.277354      0.375706
  H       4.021390     -1.336115      2.393580
  H       3.007771     -0.390523      1.334597
  H       5.370638     -2.137285      0.543192
  C       5.533258     -0.000629      0.385136
  H       4.876190      0.837235      0.122023
  H       6.273663     -0.072425     -0.417127
  C       6.228319      0.287245      1.709144
  H       5.482280      0.428621      2.497189
  H       6.826253     -0.581642      2.006864
  C       7.117238      1.520731      1.635688
  H       7.601091      1.721759      2.592793
  H       7.900247      1.400556      0.883036
  H       6.535445      2.406012      1.365508
  C       0.691566     -2.274003     -0.435375
  C       0.103438     -0.827804     -0.374034
  H       0.383610     -2.657489     -1.410764
  H       0.160404     -2.857482      0.319370
  C      -1.432410     -1.102088     -0.432509
  C       0.414239     -0.225549      0.998870
  C       0.557827      0.028226     -1.575985
  C      -2.536904     -0.010396     -0.268842
  H      -1.613401     -1.604643     -1.387118
  H      -1.641728     -1.832921      0.350952
  O       0.205601     -0.840080      2.011755
  O       0.941633      0.998271      1.097782
  H      -0.288897      0.569675     -1.987302
  H       0.903256     -0.627447     -2.373564
  C       1.623518      1.051963     -1.233859
  C      -2.439935      1.019995     -1.390402
  C      -2.453904      0.718579      1.070789
  C       1.201725      1.862322     -0.029503
  H       1.771555      1.721359     -2.082889
  H       2.589267      0.582246     -1.041411
  O      -2.150653      2.180578     -1.248087
  O      -2.692850      0.489296     -2.593470
  H      -1.552498      1.319187      1.152920
  H      -2.463755      0.002106      1.891732
  H      -3.284167      1.413670      1.191233
  H       0.265074      2.385896     -0.254725
  C       2.241306      2.853069      0.462873
  C      -2.607749      1.376350     -3.699717
  H       3.142923      2.297848      0.752236
  H       1.857101      3.313108      1.378089
  C       2.598458      3.934321     -0.548441
  H      -2.835914      0.782554     -4.581055
  H      -3.323805      2.192510     -3.593921
  H      -1.605591      1.800921     -3.780223
  H       3.056640      3.480189     -1.432495
  H       1.682016      4.422925     -0.897123
  C       3.547748      4.975322      0.027916
  H       3.802693      5.735557     -0.712181
  H       3.103496      5.481934      0.888076
  H       4.479838      4.513843      0.364958
  C      -3.857773     -0.820034     -0.400046
  C      -5.230076     -0.161146     -0.132766
  H      -3.893467     -1.228406     -1.412263
  H      -3.773465     -1.675005      0.273047
  C      -5.459095      1.119122     -0.933020
  C      -5.458731      0.134348      1.348673
  C      -6.305261     -1.191612     -0.524961
  H      -5.314994      0.920625     -1.996721
  H      -4.784926      1.920844     -0.631974
  H      -6.474320      1.485391     -0.782939
  O      -5.941561      1.144803      1.786279
  O      -5.125974     -0.903210      2.127093
  H      -6.164814     -2.133654      0.006658
  H      -6.253206     -1.389442     -1.597549
  H      -7.304864     -0.814088     -0.299292
  C      -5.316161     -0.722122      3.523250
  H      -5.009331     -1.653162      3.993158
  H      -4.703338      0.103433      3.888754
  H      -6.361272     -0.508068      3.749408
  H       3.241808     -4.563221     -0.583465
85
Coordinates from ORCA-job orca E -1736.088327870795
  C       2.225445     -4.229469     -0.572930
  C       2.180850     -2.719138     -0.263114
  H       1.642360     -4.772175      0.170911
  H       1.824011     -4.438135     -1.560994
  C       3.036849     -2.075149     -1.356464
  C       2.741565     -2.512905      1.156106
  O       2.727833     -2.140761     -2.516139
  O       4.160640     -1.417846     -1.045355
  H       3.397312     -3.354420      1.390750
  H       1.927331     -2.539552      1.875505
  C       3.553245     -1.243234      1.311276
  C       4.666333     -1.226356      0.290480
  H       3.988517     -1.205461      2.308795
  H       2.940427     -0.347424      1.208056
  H       5.347482     -2.061335      0.487737
  C       5.462956      0.065279      0.239392
  H       4.787325      0.875724     -0.045290
  H       6.193965     -0.021796     -0.566618
  C       6.167663      0.414473      1.542874
  H       5.430572      0.568218      2.333061
  H       6.787452     -0.427896      1.861969
  C       7.027740      1.663190      1.412419
  H       7.518658      1.907979      2.352720
  H       7.801258      1.532279      0.655456
  H       6.424269      2.523425      1.119899
  C       0.685193     -2.328470     -0.419210
  C       0.094284     -0.886746     -0.341630
  H       0.371982     -2.707058     -1.391658
  H       0.167516     -2.919789      0.335111
  C      -1.440229     -1.149790     -0.434515
  C       0.380716     -0.317602      1.048582
  C       0.586758     -0.007561     -1.508887
  C      -2.529642     -0.044974     -0.285463
  H      -1.606518     -1.643105     -1.393804
  H      -1.672596     -1.879015      0.340151
  O       0.136903     -0.949095      2.042775
  O       0.911613      0.899850      1.190952
  H      -0.241027      0.558301     -1.922021
  H       0.940164     -0.647991     -2.312360
  C       1.660381      0.988816     -1.114615
  C      -2.405290      0.981190     -1.407376
  C      -2.444470      0.682540      1.053031
  C       1.206794      1.783267      0.086629
  H       1.846367      1.669281     -1.943847
  H       2.610843      0.499832     -0.895036
  O      -2.096864      2.135739     -1.263442
  O      -2.650522      0.450829     -2.613086
  H      -1.534224      1.265964      1.141381
  H      -2.472211     -0.032409      1.872042
  H      -3.262735      1.389563      1.167676
  H       0.280525      2.312658     -0.156244
  C       2.229311      2.764238      0.628045
  C      -2.535141      1.339214     -3.718795
  H       3.120036      2.207018      0.930635
  H       1.819170      3.205214      1.538432
  C       2.610940      3.865025     -0.352106
  H      -2.762154      0.749789     -4.600314
  H      -3.237207      2.164700     -3.620593
  H      -1.527125      1.744657     -3.785222
  H       3.095466      3.430591     -1.228428
  H       1.705533      4.357090     -0.716492
  C       3.539285      4.896027      0.273030
  H       3.813529      5.669150     -0.442703
  H       3.067940      5.383583      1.126504
  H       4.459876      4.431268      0.628593
  C      -3.861370     -0.831742     -0.421379
  C      -5.217799     -0.138422     -0.175597
  H      -3.896990     -1.252799     -1.425639
  H      -3.800852     -1.675193      0.264532
  C      -5.418954      1.121474     -1.012989
  C      -5.438112      0.205945      1.295547
  C      -6.314396     -1.156306     -0.536463
  H      -5.280314      0.888018     -2.067945
  H      -4.728749      1.915394     -0.737124
  H      -6.423726      1.512533     -0.875041
  O      -5.892389      1.241448      1.702548
  O      -5.084480     -0.798474      2.108486
  H      -6.191465     -2.085018      0.017187
  H      -6.270106     -1.381446     -1.601272
  H      -7.302749     -0.753595     -0.317343
  C      -5.249688     -0.556482      3.501326
  H      -4.923654     -1.461542      4.002252
  H      -4.639843      0.288313      3.815676
  H      -6.290212     -0.344372      3.736779
  H       3.248677     -4.602234     -0.535411
85
Coordinates from ORCA-job orca E -1736.088522460512
  C       2.246571     -4.215979     -0.589538
  C       2.191731     -2.707558     -0.268715
  H       1.665004     -4.768800      0.150935
  H       1.846833     -4.420193     -1.581553
  C       3.046123     -2.050179     -1.355610
  C       2.747853     -2.508158      1.154258
  O       2.752210     -2.130047     -2.518757
  O       4.178142     -1.408558     -1.039674
  H       3.401817     -3.353544      1.388403
  H       1.929633     -2.535537      1.872204
  C       3.564159     -1.241399      1.315755
  C       4.681999     -1.228349      0.299171
  H       3.995899     -1.207242      2.316941
  H       2.955148     -0.341928      1.210863
  H       5.356308     -2.071542      0.494627
  C       5.489464      0.057591      0.255740
  H       4.819410      0.876608     -0.025414
  H       6.222014     -0.031043     -0.551121
  C       6.195720      0.393630      1.562913
  H       5.457577      0.548150      2.354611
  H       6.810137     -0.456730      1.877382
  C       7.065604      1.637530      1.441716
  H       7.558479      1.872414      2.385918
  H       7.840179      1.505484      0.683197
  H       6.467637      2.505763      1.154236
  C       0.693572     -2.324905     -0.426399
  C       0.095420     -0.885448     -0.347402
  H       0.382144     -2.704858     -1.401037
  H       0.177743     -2.920443      0.328636
  C      -1.438313     -1.154559     -0.425822
  C       0.388224     -0.311332      1.039579
  C       0.571362     -0.004047     -1.520632
  C      -2.525399     -0.047969     -0.272067
  H      -1.611767     -1.652312     -1.383542
  H      -1.662773     -1.882087      0.355346
  O       0.161239     -0.945074      2.036910
  O       0.918337      0.907686      1.175474
  H      -0.263978      0.562811     -1.921838
  H       0.916449     -0.643743     -2.330828
  C       1.647360      0.994603     -1.137500
  C      -2.401797      0.975649     -1.396274
  C      -2.429888      0.683329      1.064279
  C       1.201611      1.790337      0.066593
  H       1.825213      1.675009     -1.971047
  H       2.601415      0.507104     -0.924656
  O      -2.096710      2.131569     -1.254499
  O      -2.646900      0.441778     -2.600648
  H      -1.514263      1.263204      1.145799
  H      -2.456750     -0.030227      1.886789
  H      -3.245352      1.396187      1.181391
  H       0.269810      2.317372     -0.169432
  C       2.226037      2.775555      0.598733
  C      -2.533683      1.328787     -3.708450
  H       3.122630      2.220350      0.895118
  H       1.821555      3.217533      1.513315
  C       2.596665      3.876408     -0.386994
  H      -2.761871      0.735892     -4.589854
  H      -3.238045      2.154836     -3.609778
  H      -1.524112      1.735205     -3.776244
  H       3.075354      3.440780     -1.268315
  H       1.685500      4.366912     -0.744552
  C       3.529179      4.910736      0.228385
  H       3.796645      5.684052     -0.492845
  H       3.063194      5.400388      1.086140
  H       4.455080      4.447221      0.577748
  C      -3.860771     -0.830658     -0.402628
  C      -5.213597     -0.128942     -0.159979
  H      -3.899518     -1.256072     -1.407152
  H      -3.803404     -1.672662      0.288227
  C      -5.400669      1.135405     -0.995110
  C      -5.438452      0.211921      1.311519
  C      -6.315988     -1.139302     -0.529078
  H      -5.257494      0.903214     -2.051764
  H      -4.704440      1.924550     -0.712589
  H      -6.405178      1.534443     -0.861468
  O      -5.905083      1.242421      1.717883
  O      -5.150003     -0.818612      2.117722
  H      -6.200836     -2.072550      0.022774
  H      -6.268836     -1.361331     -1.596561
  H      -7.304433     -0.730286     -0.311956
  C      -5.362936     -0.596214      3.508020
  H      -5.082811     -1.521434      4.004281
  H      -4.740035      0.225858      3.861293
  H      -6.407368     -0.356756      3.706082
  H       3.274126     -4.582869     -0.553233
85
Coordinates from ORCA-job orca E -1736.088518996278
  C       2.237137     -4.186050     -0.615906
  C       2.184669     -2.683337     -0.268911
  H       1.651491     -4.750939      0.114218
  H       1.839132     -4.371829     -1.613787
  C       3.047770     -2.011768     -1.340624
  C       2.736696     -2.515541      1.160910
  O       2.751781     -2.059663     -2.505331
  O       4.187380     -1.390424     -1.009783
  H       3.379826     -3.374307      1.382306
  H       1.914758     -2.546062      1.876361
  C       3.570933     -1.263493      1.348342
  C       4.691449     -1.244885      0.333985
  H       4.000850     -1.254238      2.352286
  H       2.974759     -0.353894      1.259958
  H       5.354663     -2.102105      0.512981
  C       5.515166      0.032139      0.317644
  H       4.854434      0.866652      0.052917
  H       6.248244     -0.048843     -0.491257
  C       6.224481      0.332224      1.632650
  H       5.486494      0.478311      2.428077
  H       6.829665     -0.532785      1.929048
  C       7.109090      1.568837      1.539319
  H       7.604782      1.777194      2.489921
  H       7.883522      1.444244      0.777398
  H       6.520591      2.451175      1.270658
  C       0.686517     -2.296244     -0.432107
  C       0.087334     -0.855596     -0.362059
  H       0.377451     -2.678549     -1.408286
  H       0.165474     -2.889325      0.323333
  C      -1.445987     -1.133067     -0.438920
  C       0.376887     -0.269134      1.020979
  C       0.561983      0.017569     -1.542846
  C      -2.545754     -0.036901     -0.284158
  H      -1.616371     -1.633803     -1.397051
  H      -1.663443     -1.864155      0.342904
  O       0.145006     -0.893010      2.023795
  O       0.908836      0.950784      1.146893
  H      -0.272900      0.585268     -1.944993
  H       0.904091     -0.628515     -2.351175
  C       1.640194      1.017197     -1.167817
  C      -2.438713      0.986963     -1.410078
  C      -2.460067      0.697610      1.051826
  C       1.196208      1.823788      0.030438
  H       1.819813      1.690990     -2.008129
  H       2.593424      0.529495     -0.951312
  O      -2.159870      2.149914     -1.269595
  O      -2.672829      0.446090     -2.613560
  H      -1.550959      1.289385      1.133348
  H      -2.479198     -0.015867      1.876416
  H      -3.285136      1.401661      1.167481
  H       0.265223      2.352845     -0.210541
  C       2.224945      2.808938      0.556223
  C      -2.577958      1.333886     -3.722909
  H       3.120143      2.251012      0.859238
  H       1.820863      3.261477      1.467336
  C       2.602970      3.899393     -0.439188
  H      -2.795653      0.734160     -4.604052
  H      -3.299459      2.146805     -3.623864
  H      -1.575082      1.759875     -3.791583
  H       3.079844      3.452285     -1.317535
  H       1.693967      4.393133     -0.801710
  C       3.542617      4.933458      0.167158
  H       3.816263      5.698853     -0.562342
  H       3.078813      5.435259      1.020853
  H       4.466180      4.466178      0.521941
  C      -3.871457     -0.837255     -0.410869
  C      -5.233535     -0.156688     -0.155248
  H      -3.910314     -1.259749     -1.418207
  H      -3.796924     -1.682566      0.276663
  C      -5.448244      1.107589     -0.984696
  C      -5.451033      0.175868      1.319417
  C      -6.324601     -1.182691     -0.517346
  H      -5.308316      0.881191     -2.044394
  H      -4.762972      1.908525     -0.703714
  H      -6.459941      1.489237     -0.842579
  O      -5.915980      1.203652      1.735185
  O      -5.089698     -0.833196      2.123648
  H      -6.189387     -2.117481      0.030009
  H      -6.284775     -1.399678     -1.587664
  H      -7.318170     -0.789072     -0.288257
  C      -5.255577     -0.602646      3.519410
  H      -4.915004     -1.510037      4.013815
  H      -4.654470      0.251111      3.837664
  H      -6.302188     -0.405997      3.756826
  H       3.265213     -4.556032     -0.583046
85
Coordinates from ORCA-job orca E -1736.088665960089
  C       2.234034     -4.196523     -0.603882
  C       2.184761     -2.690140     -0.273551
  H       1.644854     -4.750960      0.129778
  H       1.839274     -4.391988     -1.599902
  C       3.051656     -2.033222     -1.350757
  C       2.733064     -2.505454      1.155020
  O       2.750005     -2.079806     -2.513922
  O       4.186810     -1.401674     -1.024257
  H       3.377362     -3.358902      1.388119
  H       1.909749     -2.529564      1.867553
  C       3.561540     -1.248064      1.329608
  C       4.685720     -1.239316      0.319834
  H       3.986864     -1.223997      2.334129
  H       2.962537     -0.342225      1.226217
  H       5.348988     -2.092537      0.510960
  C       5.507592      0.038143      0.291473
  H       4.847465      0.867902      0.015725
  H       6.242699     -0.050982     -0.513324
  C       6.212338      0.353060      1.605136
  H       5.472520      0.506422      2.395935
  H       6.817381     -0.507054      1.912049
  C       7.095399      1.589574      1.501337
  H       7.587542      1.808168      2.450179
  H       7.871452      1.457965      0.743827
  H       6.507149      2.467370      1.222049
  C       0.688381     -2.300046     -0.439117
  C       0.091299     -0.859573     -0.359855
  H       0.380675     -2.676148     -1.416876
  H       0.165706     -2.896376      0.311094
  C      -1.442419     -1.134276     -0.437329
  C       0.385491     -0.284835      1.026802
  C       0.566185      0.021709     -1.533692
  C      -2.539701     -0.035820     -0.285949
  H      -1.613103     -1.635634     -1.393939
  H      -1.661618     -1.862579      0.345096
  O       0.153646     -0.915681      2.025082
  O       0.919283      0.933151      1.162010
  H      -0.266966      0.596428     -1.927432
  H       0.903222     -0.617927     -2.347714
  C       1.648297      1.014492     -1.152072
  C      -2.432381      0.982020     -1.417230
  C      -2.450322      0.704696      1.046066
  C       1.205894      1.813706      0.051136
  H       1.829847      1.692807     -1.986929
  H       2.599581      0.522976     -0.938541
  O      -2.145494      2.143615     -1.283765
  O      -2.668392      0.434981     -2.617688
  H      -1.541052      1.294951      1.122938
  H      -2.468843     -0.004148      1.873263
  H      -3.273225      1.409787      1.159968
  H       0.275633      2.344051     -0.185224
  C       2.234238      2.795343      0.582923
  C      -2.569664      1.316992     -3.731895
  H       3.128757      2.236495      0.881407
  H       1.830798      3.241269      1.496338
  C       2.610880      3.892290     -0.405376
  H      -2.790548      0.714071     -4.608646
  H      -3.286570      2.132840     -3.636477
  H      -1.565725      1.737108     -3.802968
  H       3.086934      3.451738     -1.286088
  H       1.702236      4.387596     -0.763477
  C       3.550159      4.922513      0.207260
  H       3.822683      5.692049     -0.516586
  H       3.086909      5.417899      1.063585
  H       4.473234      4.453842      0.558011
  C      -3.866482     -0.835161     -0.406855
  C      -5.228218     -0.153090     -0.154556
  H      -3.906420     -1.262929     -1.410759
  H      -3.791852     -1.675934      0.284433
  C      -5.443475      1.106129     -0.990830
  C      -5.447164      0.186864      1.318098
  C      -6.318541     -1.181061     -0.511585
  H      -5.301993      0.874261     -2.048108
  H      -4.760526      1.908746     -0.713654
  H      -6.454923      1.486522     -0.852568
  O      -5.919700      1.213651      1.727262
  O      -5.105863     -0.825819      2.126588
  H      -6.182911     -2.112292      0.039505
  H      -6.278771     -1.402731     -1.579789
  H      -7.311218     -0.787217     -0.284405
  C      -5.289575     -0.593617      3.520339
  H      -4.962072     -1.502414      4.018452
  H      -4.687790      0.255338      3.846047
  H      -6.337029     -0.390360      3.742628
  H       3.259883     -4.568651     -0.563340
85
Coordinates from ORCA-job orca E -1736.088669382026
  C       2.247400     -4.190970     -0.608330
  C       2.187929     -2.684828     -0.277804
  H       1.665859     -4.749744      0.127388
  H       1.850132     -4.389398     -1.602265
  C       3.044112     -2.020371     -1.358492
  C       2.739798     -2.493806      1.148346
  O       2.746113     -2.083380     -2.521775
  O       4.182867     -1.391844     -1.038846
  H       3.388257     -3.343290      1.382213
  H       1.919115     -2.518876      1.863013
  C       3.563519     -1.232379      1.315220
  C       4.685727     -1.226488      0.303753
  H       3.989942     -1.201197      2.318548
  H       2.961460     -0.329191      1.206738
  H       5.348711     -2.079186      0.495405
  C       5.507635      0.050443      0.269782
  H       4.846881      0.879518     -0.004172
  H       6.239179     -0.040086     -0.537456
  C       6.217875      0.366458      1.580107
  H       5.481839      0.519425      2.373758
  H       6.824894     -0.492630      1.884261
  C       7.099294      1.603657      1.472026
  H       7.595629      1.822272      2.418088
  H       7.871428      1.472630      0.711132
  H       6.509200      2.480585      1.195877
  C       0.689218     -2.304717     -0.437697
  C       0.085532     -0.867540     -0.353897
  H       0.381386     -2.679939     -1.415142
  H       0.172591     -2.905627      0.312301
  C      -1.446757     -1.144783     -0.438200
  C       0.371442     -0.297644      1.036301
  C       0.564622      0.020346     -1.520202
  C      -2.542492     -0.045650     -0.289942
  H      -1.613769     -1.645363     -1.395306
  H      -1.668182     -1.872610      0.343258
  O       0.129424     -0.930186      2.031013
  O       0.907405      0.918437      1.179770
  H      -0.265102      0.603226     -1.908838
  H       0.899193     -0.614557     -2.338356
  C       1.651051      1.004486     -1.129074
  C      -2.434971      0.967765     -1.425059
  C      -2.448756      0.699307      1.038938
  C       1.204528      1.801672      0.073532
  H       1.841687      1.684255     -1.960080
  H       2.598033      0.506829     -0.910623
  O      -2.147423      2.129552     -1.295939
  O      -2.678608      0.417824     -2.622761
  H      -1.538114      1.287642      1.111430
  H      -2.466676     -0.006248      1.868392
  H      -3.269670      1.406126      1.152259
  H       0.278027      2.336130     -0.166725
  C       2.232710      2.777486      0.615588
  C      -2.583727      1.297464     -3.739771
  H       3.122911      2.214662      0.917052
  H       1.825336      3.220953      1.527882
  C       2.619098      3.877035     -0.365856
  H      -2.812443      0.693409     -4.613090
  H      -3.296817      2.115521     -3.641136
  H      -1.579087      1.713198     -3.817819
  H       3.098155      3.438586     -1.245317
  H       1.714852      4.377428     -0.726545
  C       3.558993      4.900639      0.256579
  H       3.838716      5.671661     -0.462147
  H       3.092905      5.394120      1.111821
  H       4.477654      4.426815      0.610438
  C      -3.870706     -0.842900     -0.405463
  C      -5.229517     -0.153164     -0.162215
  H      -3.910707     -1.280084     -1.404760
  H      -3.799767     -1.676209      0.294344
  C      -5.439158      1.095710     -1.014912
  C      -5.447151      0.206531      1.305780
  C      -6.323590     -1.181608     -0.505811
  H      -5.297423      0.849482     -2.068487
  H      -4.753625      1.898921     -0.747704
  H      -6.448879      1.481378     -0.883000
  O      -5.916580      1.239938      1.701375
  O      -5.111766     -0.797818      2.127111
  H      -6.190490     -2.106216      0.055922
  H      -6.285688     -1.415936     -1.570852
  H      -7.314193     -0.781895     -0.282355
  C      -5.296801     -0.547028      3.517979
  H      -4.971024     -1.449523      4.027409
  H      -4.694482      0.304954      3.832692
  H      -6.343858     -0.339801      3.735740
  H       3.275792     -4.554963     -0.571985
85
Coordinates from ORCA-job orca E -1736.088710256435
  C       2.247571     -4.183510     -0.626710
  C       2.187879     -2.679776     -0.285155
  H       1.664691     -4.747709      0.104347
  H       1.851463     -4.374497     -1.622994
  C       3.046618     -2.008617     -1.359761
  C       2.737620     -2.500507      1.143698
  O       2.743900     -2.052577     -2.522768
  O       4.186181     -1.384499     -1.033917
  H       3.383276     -3.353875      1.372688
  H       1.915441     -2.528377      1.857106
  C       3.565312     -1.242989      1.321123
  C       4.688572     -1.232074      0.310591
  H       3.990726     -1.220681      2.325505
  H       2.965933     -0.337202      1.219127
  H       5.348962     -2.088700      0.495487
  C       5.514030      0.042990      0.287789
  H       4.855460      0.876330      0.019800
  H       6.246362     -0.042937     -0.519707
  C       6.223803      0.346605      1.601481
  H       5.487096      0.494305      2.396039
  H       6.829094     -0.516522      1.898856
  C       7.107832      1.583068      1.504906
  H       7.603966      1.792430      2.453618
  H       7.880643      1.457029      0.743312
  H       6.519494      2.463834      1.235807
  C       0.689216     -2.298723     -0.445672
  C       0.084304     -0.861871     -0.359100
  H       0.382209     -2.671519     -1.424738
  H       0.171491     -2.901770      0.302436
  C      -1.447621     -1.142008     -0.438707
  C       0.373140     -0.291418      1.030434
  C       0.556701      0.027746     -1.526974
  C      -2.544811     -0.044027     -0.290967
  H      -1.616159     -1.645220     -1.394550
  H      -1.665706     -1.868745      0.345208
  O       0.137668     -0.925465      2.025839
  O       0.907440      0.925775      1.172072
  H      -0.275754      0.611069     -1.910036
  H       0.887845     -0.605778     -2.348124
  C       1.642959      1.013659     -1.139620
  C      -2.440580      0.965931     -1.429537
  C      -2.450003      0.705850      1.035192
  C       1.198782      1.809809      0.064732
  H       1.829660      1.693953     -1.971584
  H       2.591737      0.517918     -0.924436
  O      -2.156871      2.129152     -1.304197
  O      -2.669618      0.408306     -2.626513
  H      -1.539629      1.295689      1.104054
  H      -2.465922      0.003192      1.867577
  H      -3.271763      1.412516      1.147084
  H       0.269746      2.342120     -0.172448
  C       2.226592      2.788190      0.603361
  C      -2.570292      1.282949     -3.747165
  H       3.119107      2.227133      0.902830
  H       1.820807      3.231573      1.516823
  C       2.608440      3.887882     -0.379917
  H      -2.787989      0.672856     -4.619587
  H      -3.289369      2.097414     -3.658532
  H      -1.567067      1.704226     -3.818464
  H       3.085094      3.449374     -1.261138
  H       1.702135      4.387373     -0.737759
  C       3.549608      4.912806      0.238774
  H       3.826313      5.683879     -0.481659
  H       3.085815      5.406581      1.095578
  H       4.470197      4.439763      0.589856
  C      -3.872193     -0.843802     -0.401182
  C      -5.231810     -0.156257     -0.155212
  H      -3.914217     -1.283541     -1.399693
  H      -3.797448     -1.675639      0.300560
  C      -5.447144      1.090435     -1.009860
  C      -5.445476      0.205947      1.312763
  C      -6.324982     -1.187986     -0.492726
  H      -5.307682      0.842365     -2.063652
  H      -4.762712      1.896217     -0.746021
  H      -6.457872      1.473880     -0.875788
  O      -5.914672      1.239689      1.707944
  O      -5.103655     -0.795453      2.135015
  H      -6.187495     -2.111491      0.070503
  H      -6.290604     -1.424373     -1.557849
  H      -7.315989     -0.789938     -0.266205
  C      -5.282432     -0.541510      3.526230
  H      -4.950100     -1.441614      4.036469
  H      -4.681822      0.314205      3.835308
  H      -6.329646     -0.338008      3.748650
  H       3.276238     -4.548003     -0.591596
85
Coordinates from ORCA-job orca E -1736.088685715543
  C       2.244647     -4.172299     -0.632572
  C       2.187342     -2.668717     -0.289577
  H       1.654449     -4.735577      0.093896
  H       1.854823     -4.360717     -1.632265
  C       3.056171     -2.000744     -1.358169
  C       2.728168     -2.493552      1.143557
  O       2.753016     -2.029702     -2.521597
  O       4.197821     -1.384231     -1.024706
  H       3.366548     -3.351575      1.377146
  H       1.900629     -2.515988      1.851558
  C       3.563490     -1.241744      1.326766
  C       4.693346     -1.237797      0.323278
  H       3.982211     -1.222130      2.334414
  H       2.970661     -0.331951      1.220756
  H       5.346099     -2.100141      0.510784
  C       5.528393      0.031312      0.307158
  H       4.877507      0.869947      0.035136
  H       6.265814     -0.059380     -0.495658
  C       6.231285      0.328952      1.626116
  H       5.489917      0.480561      2.416138
  H       6.829192     -0.538738      1.926529
  C       7.124123      1.559849      1.537335
  H       7.615201      1.764584      2.490155
  H       7.901679      1.429564      0.780729
  H       6.543252      2.445116      1.265226
  C       0.690518     -2.283334     -0.459232
  C       0.085778     -0.846057     -0.370741
  H       0.388950     -2.652223     -1.441899
  H       0.166329     -2.888538      0.283287
  C      -1.446011     -1.129787     -0.450260
  C       0.374707     -0.278359      1.020208
  C       0.558012      0.046536     -1.536606
  C      -2.549427     -0.037142     -0.302048
  H      -1.613356     -1.634227     -1.406013
  H      -1.660507     -1.858050      0.333812
  O       0.138534     -0.914197      2.014393
  O       0.913833      0.936667      1.164095
  H      -0.272313      0.637346     -1.912556
  H       0.882775     -0.584587     -2.362562
  C       1.649427      1.026342     -1.147802
  C      -2.461346      0.966061     -1.447996
  C      -2.452782      0.722421      1.018620
  C       1.208605      1.821877      0.058379
  H       1.839349      1.707480     -1.978864
  H       2.596139      0.526299     -0.933562
  O      -2.198991      2.135275     -1.331180
  O      -2.703453      0.400289     -2.638473
  H      -1.545817      1.318942      1.078392
  H      -2.459760      0.025456      1.856350
  H      -3.278655      1.424945      1.129794
  H       0.281110      2.358208     -0.177865
  C       2.240125      2.795435      0.599117
  C      -2.632581      1.270876     -3.764607
  H       3.130317      2.230012      0.898906
  H       1.835365      3.239658      1.513075
  C       2.628095      3.894576     -0.382584
  H      -2.859864      0.654386     -4.630559
  H      -3.358184      2.078942     -3.666414
  H      -1.634403      1.701318     -3.855235
  H       3.102053      3.454453     -1.264953
  H       1.724329      4.400189     -0.739383
  C       3.575716      4.913034      0.237334
  H       3.857041      5.683612     -0.482462
  H       3.115000      5.408684      1.095227
  H       4.493819      4.433622      0.587540
  C      -3.871538     -0.847834     -0.399070
  C      -5.235805     -0.170255     -0.149578
  H      -3.915739     -1.294465     -1.394953
  H      -3.785486     -1.674898      0.307624
  C      -5.465486      1.070863     -1.008705
  C      -5.446389      0.196180      1.317840
  C      -6.322063     -1.212669     -0.477545
  H      -5.326443      0.819718     -2.062237
  H      -4.787862      1.884471     -0.749817
  H      -6.479887      1.445304     -0.873377
  O      -5.920887      1.228391      1.710927
  O      -5.094564     -0.799731      2.142455
  H      -6.173663     -2.132988      0.088866
  H      -6.291159     -1.453119     -1.542317
  H      -7.315621     -0.821940     -0.247488
  C      -5.268768     -0.541441      3.533603
  H      -4.925606     -1.436749      4.045935
  H      -4.674296      0.321422      3.835950
  H      -6.317214     -0.346585      3.759940
  H       3.272271     -4.540213     -0.590506
85
Coordinates from ORCA-job orca E -1736.088728003034
  C       2.248351     -4.166257     -0.642618
  C       2.186694     -2.663510     -0.296394
  H       1.661310     -4.732914      0.083440
  H       1.857527     -4.353819     -1.641856
  C       3.050704     -1.990347     -1.365445
  C       2.729433     -2.488680      1.135982
  O       2.747230     -2.021620     -2.528692
  O       4.194684     -1.377043     -1.034160
  H       3.368680     -3.346099      1.368441
  H       1.903088     -2.511854      1.844966
  C       3.564056     -1.236292      1.317977
  C       4.692630     -1.232527      0.313240
  H       3.983613     -1.215919      2.325016
  H       2.970624     -0.326940      1.211759
  H       5.344527     -2.095636      0.498953
  C       5.528877      0.035653      0.296906
  H       4.878454      0.875059      0.027151
  H       6.264527     -0.054883     -0.507264
  C       6.234659      0.330855      1.614800
  H       5.495238      0.481582      2.406482
  H       6.832686     -0.537430      1.912468
  C       7.127925      1.561376      1.526097
  H       7.621136      1.764038      2.477993
  H       7.903559      1.431948      0.767697
  H       6.547049      2.447238      1.256894
  C       0.688817     -2.282128     -0.462338
  C       0.080685     -0.846705     -0.367801
  H       0.386997     -2.648036     -1.445765
  H       0.167431     -2.891388      0.278506
  C      -1.450399     -1.132446     -0.448963
  C       0.368446     -0.284145      1.025490
  C       0.551957      0.051843     -1.529032
  C      -2.553738     -0.039644     -0.305110
  H      -1.616205     -1.638681     -1.403787
  H      -1.665261     -1.858924      0.336325
  O       0.127060     -0.921748      2.017237
  O       0.908385      0.929906      1.174662
  H      -0.277626      0.647839     -1.898511
  H       0.873177     -0.574748     -2.359515
  C       1.646274      1.026623     -1.136040
  C      -2.466241      0.957335     -1.456546
  C      -2.455789      0.726833      1.011287
  C       1.205957      1.818599      0.072500
  H       1.838839      1.710156     -1.964232
  H       2.591380      0.523340     -0.922507
  O      -2.202049      2.126732     -1.346317
  O      -2.692522      0.381637     -2.645343
  H      -1.548415      1.322881      1.067098
  H      -2.462747      0.034624      1.852717
  H      -3.280812      1.430517      1.119078
  H       0.279738      2.357327     -0.162708
  C       2.238381      2.788405      0.617919
  C      -2.611456      1.244150     -3.777155
  H       3.127110      2.220516      0.916373
  H       1.833505      3.229725      1.532985
  C       2.629198      3.890593     -0.359099
  H      -2.827656      0.620726     -4.640691
  H      -3.339987      2.050818     -3.692785
  H      -1.613579      1.676248     -3.859886
  H       3.102492      3.453118     -1.242842
  H       1.726924      4.399653     -0.714116
  C       3.578746      4.904324      0.265451
  H       3.862090      5.677015     -0.450922
  H       3.118807      5.397394      1.124956
  H       4.495403      4.421470      0.613997
  C      -3.875971     -0.850848     -0.396215
  C      -5.240111     -0.172067     -0.149729
  H      -3.920946     -1.303972     -1.388889
  H      -3.789060     -1.672965      0.315757
  C      -5.472968      1.061416     -1.018749
  C      -5.447726      0.206514      1.314984
  C      -6.326148     -1.218212     -0.466116
  H      -5.335226      0.801717     -2.070161
  H      -4.796363      1.877992     -0.767755
  H      -6.487538      1.435304     -0.885043
  O      -5.921223      1.242021      1.700457
  O      -5.094108     -0.782500      2.147080
  H      -6.175117     -2.133483      0.107273
  H      -6.298041     -1.467276     -1.528748
  H      -7.319249     -0.826724     -0.236466
  C      -5.265300     -0.512496      3.536518
  H      -4.919861     -1.402885      4.055345
  H      -4.671321      0.353461      3.829948
  H      -6.313277     -0.317130      3.763456
  H       3.277036     -4.530801     -0.602998
85
Coordinates from ORCA-job orca E -1736.088737612879
  C       2.261654     -4.154247     -0.676694
  C       2.191791     -2.655743     -0.313630
  H       1.679968     -4.732434      0.044243
  H       1.869417     -4.332990     -1.676803
  C       3.048376     -1.966016     -1.377830
  C       2.736914     -2.493015      1.119337
  O       2.737677     -1.980287     -2.539451
  O       4.194444     -1.357739     -1.044582
  H       3.377087     -3.351720      1.343357
  H       1.912130     -2.522941      1.829502
  C       3.570965     -1.241639      1.310367
  C       4.696816     -1.228084      0.302786
  H       3.992572     -1.229475      2.316445
  H       2.976387     -0.332140      1.213134
  H       5.348422     -2.093478      0.477392
  C       5.533570      0.039717      0.297081
  H       4.882925      0.881835      0.037346
  H       6.266983     -0.043034     -0.509709
  C       6.242872      0.321225      1.616005
  H       5.505820      0.462896      2.411264
  H       6.842274     -0.549613      1.902537
  C       7.135013      1.553226      1.538071
  H       7.630849      1.745548      2.490508
  H       7.908299      1.432672      0.776116
  H       6.552840      2.441412      1.280439
  C       0.692081     -2.281003     -0.472959
  C       0.077315     -0.849044     -0.367554
  H       0.390266     -2.640810     -1.458380
  H       0.175032     -2.898030      0.264215
  C      -1.452038     -1.139805     -0.449683
  C       0.361875     -0.293627      1.029392
  C       0.544021      0.060083     -1.521762
  C      -2.554825     -0.046811     -0.311452
  H      -1.616440     -1.649439     -1.402642
  H      -1.665759     -1.863218      0.338365
  O       0.118707     -0.936390      2.017289
  O       0.900942      0.919927      1.186326
  H      -0.286292      0.662376     -1.879893
  H       0.860557     -0.558386     -2.359992
  C       1.640278      1.030234     -1.123107
  C      -2.473097      0.936831     -1.474673
  C      -2.449235      0.734445      0.995292
  C       1.199198      1.815006      0.089671
  H       1.834185      1.718305     -1.946951
  H       2.584699      0.524934     -0.911671
  O      -2.214857      2.108763     -1.378501
  O      -2.699266      0.346128     -2.656014
  H      -1.540017      1.328750      1.039531
  H      -2.453856      0.052445      1.844829
  H      -3.271733      1.441454      1.098409
  H       0.272811      2.354413     -0.143307
  C       2.230113      2.782676      0.641480
  C      -2.624163      1.195756     -3.798088
  H       3.118540      2.213920      0.938126
  H       1.823848      3.218778      1.558211
  C       2.621876      3.890218     -0.328928
  H      -2.842117      0.561996     -4.653358
  H      -3.353916      2.001662     -3.720275
  H      -1.627602      1.628620     -3.889205
  H       3.094833      3.457700     -1.215012
  H       1.720276      4.402174     -0.680899
  C       3.572122      4.899355      0.301824
  H       3.856130      5.675911     -0.409753
  H       3.112624      5.387518      1.164090
  H       4.488153      4.413617      0.647359
  C      -3.877745     -0.858508     -0.386505
  C      -5.240293     -0.174172     -0.148503
  H      -3.925350     -1.328029     -1.371246
  H      -3.789851     -1.668098      0.339195
  C      -5.475521      1.041727     -1.041119
  C      -5.441557      0.233680      1.309185
  C      -6.327984     -1.226049     -0.439263
  H      -5.340330      0.761322     -2.087399
  H      -4.798565      1.863026     -0.808026
  H      -6.489673      1.417900     -0.912429
  O      -5.910546      1.277974      1.675949
  O      -5.091010     -0.741221      2.158979
  H      -6.174080     -2.129749      0.151034
  H      -6.305244     -1.495764     -1.496764
  H      -7.319713     -0.830073     -0.212398
  C      -5.258114     -0.444532      3.543569
  H      -4.914982     -1.326305      4.077944
  H      -4.660428      0.424321      3.819506
  H      -6.304733     -0.241162      3.768743
  H       3.292443     -4.512856     -0.643679
85
Coordinates from ORCA-job orca E -1736.088755963536
  C       2.265482     -4.138247     -0.699386
  C       2.191266     -2.641412     -0.329687
  H       1.679543     -4.720590      0.014687
  H       1.880130     -4.312629     -1.702960
  C       3.052801     -1.946781     -1.386528
  C       2.727773     -2.484094      1.107264
  O       2.745989     -1.952687     -2.549221
  O       4.202623     -1.349643     -1.046148
  H       3.361961     -3.346346      1.334408
  H       1.898260     -2.510887      1.811996
  C       3.566913     -1.237216      1.305444
  C       4.698658     -1.227758      0.304383
  H       3.982147     -1.228410      2.314156
  H       2.977076     -0.324836      1.205606
  H       5.343434     -2.098049      0.479867
  C       5.543503      0.034644      0.306741
  H       4.899991      0.881138      0.043601
  H       6.281928     -0.051452     -0.495089
  C       6.245298      0.309643      1.631032
  H       5.503711      0.453840      2.421567
  H       6.837964     -0.565007      1.919910
  C       7.144779      1.536822      1.561768
  H       7.634978      1.724266      2.518067
  H       7.922687      1.413433      0.805020
  H       6.569380      2.428714      1.301865
  C       0.692230     -2.267874     -0.495046
  C       0.072688     -0.838439     -0.379404
  H       0.396970     -2.619173     -1.485437
  H       0.171780     -2.892827      0.233071
  C      -1.455140     -1.135501     -0.462927
  C       0.354796     -0.292495      1.022057
  C       0.536382      0.082089     -1.525306
  C      -2.562148     -0.046917     -0.325763
  H      -1.617570     -1.646075     -1.415584
  H      -1.665247     -1.859832      0.325183
  O       0.109711     -0.941806      2.005149
  O       0.899727      0.917390      1.188218
  H      -0.292401      0.695002     -1.868960
  H       0.844420     -0.527375     -2.373222
  C       1.638840      1.042689     -1.120614
  C      -2.497082      0.924482     -1.500313
  C      -2.449945      0.749002      0.971241
  C       1.201859      1.819575      0.098666
  H       1.835699      1.736173     -1.939171
  H       2.581044      0.531661     -0.913651
  O      -2.257411      2.101431     -1.417924
  O      -2.711735      0.315838     -2.674496
  H      -1.542094      1.346443      1.001811
  H      -2.446453      0.076959      1.828706
  H      -3.273541      1.455020      1.071877
  H       0.277482      2.364563     -0.130161
  C       2.236284      2.779144      0.657966
  C      -2.648785      1.152730     -3.826744
  H       3.121966      2.204567      0.951270
  H       1.831298      3.210344      1.577578
  C       2.633943      3.891904     -0.303943
  H      -2.858351      0.505836     -4.674223
  H      -3.389380      1.949475     -3.758048
  H      -1.658157      1.597750     -3.923313
  H       3.103186      3.463548     -1.193964
  H       1.735321      4.412527     -0.650732
  C       3.591261      4.889838      0.333916
  H       3.879372      5.670293     -0.371673
  H       3.135980      5.373839      1.200727
  H       4.504554      4.395338      0.674185
  C      -3.881329     -0.866570     -0.380257
  C      -5.246175     -0.187153     -0.141447
  H      -3.933346     -1.350072     -1.358055
  H      -3.783099     -1.665206      0.356133
  C      -5.498162      1.011900     -1.051950
  C      -5.436510      0.243614      1.311087
  C      -6.329073     -1.251439     -0.404034
  H      -5.368097      0.715651     -2.094528
  H      -4.826795      1.842605     -0.837082
  H      -6.514608      1.381416     -0.922043
  O      -5.904328      1.292834      1.665125
  O      -5.074467     -0.715976      2.173296
  H      -6.162232     -2.144148      0.199235
  H      -6.315327     -1.538194     -1.457198
  H      -7.321314     -0.859018     -0.173332
  C      -5.229107     -0.397452      3.554494
  H      -4.877546     -1.269275      4.099555
  H      -4.632191      0.477899      3.810692
  H      -6.274332     -0.194476      3.786368
  H       3.296471     -4.495736     -0.661079
85
Coordinates from ORCA-job orca E -1736.088754107343
  C       2.259639     -4.134298     -0.690473
  C       2.187593     -2.636368     -0.324615
  H       1.672529     -4.714056      0.024938
  H       1.874124     -4.310685     -1.693805
  C       3.049471     -1.946288     -1.384186
  C       2.725217     -2.475840      1.111674
  O       2.739831     -1.951602     -2.546139
  O       4.201462     -1.351947     -1.046436
  H       3.356652     -3.339470      1.341785
  H       1.895748     -2.497450      1.816833
  C       3.568266     -1.230824      1.305628
  C       4.698924     -1.226690      0.303084
  H       3.984784     -1.220713      2.313925
  H       2.980490     -0.317121      1.204467
  H       5.342309     -2.097727      0.480800
  C       5.546352      0.034105      0.299977
  H       4.904456      0.880654      0.032654
  H       6.284583     -0.057155     -0.501640
  C       6.248910      0.314138      1.622812
  H       5.507735      0.464140      2.412836
  H       6.839635     -0.560474      1.916239
  C       7.151265      1.538867      1.547068
  H       7.642013      1.730239      2.502465
  H       7.928909      1.409755      0.790813
  H       6.577855      2.430816      1.282460
  C       0.689081     -2.260969     -0.490478
  C       0.070793     -0.830882     -0.376244
  H       0.393898     -2.612542     -1.480937
  H       0.167210     -2.884919      0.237709
  C      -1.457244     -1.128288     -0.461555
  C       0.352871     -0.284890      1.025468
  C       0.538202      0.088434     -1.521567
  C      -2.566280     -0.041010     -0.327533
  H      -1.618160     -1.640316     -1.413754
  H      -1.667508     -1.852544      0.326774
  O       0.097073     -0.929425      2.008966
  O       0.902579      0.922957      1.191555
  H      -0.287787      0.705631     -1.864485
  H       0.843816     -0.522008     -2.369889
  C       1.644710      1.044408     -1.116599
  C      -2.503793      0.926473     -1.505563
  C      -2.457344      0.759417      0.966947
  C       1.210320      1.823287      0.102411
  H       1.844825      1.737086     -1.935218
  H       2.584920      0.529815     -0.909207
  O      -2.274165      2.105714     -1.426829
  O      -2.710582      0.311820     -2.677903
  H      -1.549923      1.357564      0.997357
  H      -2.455434      0.090489      1.827010
  H      -3.281366      1.465638      1.063124
  H       0.288799      2.372827     -0.127951
  C       2.248423      2.778334      0.662718
  C      -2.650362      1.144307     -3.833268
  H       3.131072      2.199631      0.957551
  H       1.844211      3.211722      1.581810
  C       2.652676      3.889025     -0.298817
  H      -2.853859      0.492703     -4.678799
  H      -3.396043      1.936929     -3.769718
  H      -1.662160      1.595152     -3.929432
  H       3.119772      3.458181     -1.188921
  H       1.757065      4.414934     -0.645845
  C       3.615444      4.881384      0.339613
  H       3.907875      5.660750     -0.365607
  H       3.162924      5.367427      1.206899
  H       4.526118      4.381545      0.679541
  C      -3.883629     -0.864211     -0.381233
  C      -5.251643     -0.190925     -0.141040
  H      -3.934296     -1.347090     -1.359634
  H      -3.782028     -1.663621      0.354116
  C      -5.508215      1.010957     -1.046557
  C      -5.445254      0.232907      1.313126
  C      -6.329573     -1.258697     -0.410016
  H      -5.374138      0.720477     -2.090383
  H      -4.842346      1.844644     -0.826006
  H      -6.527246      1.373997     -0.917273
  O      -5.915504      1.279626      1.671398
  O      -5.085333     -0.731103      2.171227
  H      -6.159619     -2.153469      0.189553
  H      -6.313142     -1.540675     -1.464579
  H      -7.323999     -0.871641     -0.178983
  C      -5.244312     -0.420813      3.553520
  H      -4.897216     -1.296944      4.094825
  H      -4.646089      0.451408      3.817909
  H      -6.289981     -0.216519      3.782971
  H       3.290201     -4.493308     -0.651092
85
Coordinates from ORCA-job orca E -1736.088758130626
  C       2.262001     -4.134133     -0.695614
  C       2.189185     -2.636817     -0.327521
  H       1.674960     -4.715286      0.018717
  H       1.876814     -4.309204     -1.699298
  C       3.050907     -1.944924     -1.386077
  C       2.726754     -2.478351      1.109017
  O       2.741731     -1.949016     -2.548150
  O       4.202823     -1.351121     -1.047259
  H       3.357917     -3.342471      1.337964
  H       1.897204     -2.500884      1.814096
  C       3.569873     -1.233735      1.305292
  C       4.700143     -1.227083      0.302285
  H       3.987071     -1.226112      2.313336
  H       2.981842     -0.319907      1.206929
  H       5.344520     -2.097635      0.478821
  C       5.546393      0.034555      0.300797
  H       4.903858      0.880666      0.033635
  H       6.285133     -0.055389     -0.500505
  C       6.248015      0.314388      1.624119
  H       5.506314      0.463595      2.413818
  H       6.839101     -0.559956      1.917605
  C       7.149577      1.539744      1.549249
  H       7.639699      1.731257      2.504932
  H       7.927673      1.411497      0.793318
  H       6.575680      2.431380      1.284620
  C       0.690398     -2.262080     -0.492760
  C       0.070832     -0.832782     -0.375386
  H       0.395481     -2.611884     -1.483931
  H       0.168969     -2.887888      0.234143
  C      -1.456952     -1.131356     -0.459137
  C       0.354516     -0.288815      1.026803
  C       0.534518      0.089296     -1.519983
  C      -2.565237     -0.043288     -0.327273
  H      -1.618284     -1.645220     -1.410241
  H      -1.666696     -1.853931      0.330841
  O       0.104047     -0.936543      2.009546
  O       0.904838      0.918632      1.193889
  H      -0.293584      0.705244     -1.860398
  H       0.839712     -0.519232     -2.369828
  C       1.640143      1.046824     -1.116177
  C      -2.501603      0.921567     -1.507474
  C      -2.456303      0.759594      0.965644
  C       1.208483      1.821888      0.106274
  H       1.835882      1.742039     -1.933700
  H       2.582218      0.533883     -0.913510
  O      -2.270474      2.100668     -1.431465
  O      -2.714162      0.305456     -2.678028
  H      -1.547962      1.356396      0.995957
  H      -2.456308      0.092361      1.827028
  H      -3.279398      1.467192      1.059581
  H       0.285866      2.371234     -0.120112
  C       2.247249      2.776611      0.665923
  C      -2.655317      1.135411     -3.835121
  H       3.131377      2.198072      0.956745
  H       1.845285      3.207171      1.587325
  C       2.647423      3.890254     -0.293850
  H      -2.863819      0.482892     -4.678726
  H      -3.398045      1.930740     -3.770796
  H      -1.665986      1.582850     -3.935716
  H       3.112047      3.462330     -1.186660
  H       1.750242      4.416300     -0.636588
  C       3.611257      4.881749      0.344290
  H       3.900377      5.663641     -0.359490
  H       3.161258      5.364557      1.214683
  H       4.523658      4.381878      0.679513
  C      -3.883493     -0.864976     -0.380458
  C      -5.250619     -0.189337     -0.142139
  H      -3.934117     -1.349114     -1.358248
  H      -3.783616     -1.663507      0.356105
  C      -5.504958      1.011184     -1.050122
  C      -5.443232      0.238182      1.311078
  C      -6.330005     -1.255969     -0.409495
  H      -5.371118      0.718546     -2.093395
  H      -4.837893      1.844265     -0.831006
  H      -6.523474      1.376046     -0.921838
  O      -5.910551      1.286916      1.667224
  O      -5.081928     -0.723361      2.171392
  H      -6.161669     -2.149910      0.191770
  H      -6.313573     -1.539875     -1.463527
  H      -7.323962     -0.867058     -0.179560
  C      -5.238270     -0.409173      3.552895
  H      -4.893334     -1.284902      4.096258
  H      -4.637017      0.461794      3.814640
  H      -6.282948     -0.200968      3.783374
  H       3.292705     -4.492753     -0.656558
85
Coordinates from ORCA-job orca E -1736.088760418080
  C       2.266262     -4.130712     -0.706418
  C       2.190503     -2.634700     -0.333689
  H       1.679594     -4.715134      0.005448
  H       1.882298     -4.303291     -1.710936
  C       3.052097     -1.938226     -1.389306
  C       2.726278     -2.479851      1.103916
  O       2.742642     -1.936707     -2.551295
  O       4.203956     -1.345888     -1.047834
  H       3.356943     -3.344583      1.331545
  H       1.895908     -2.504110      1.807898
  C       3.569133     -1.235773      1.304620
  C       4.700047     -1.225625      0.302436
  H       3.985840     -1.231507      2.312830
  H       2.980901     -0.321855      1.209081
  H       5.344710     -2.096295      0.476968
  C       5.545700      0.036402      0.305568
  H       4.903260      0.882770      0.039238
  H       6.285852     -0.051243     -0.494614
  C       6.244839      0.313351      1.630744
  H       5.501709      0.460325      2.419455
  H       6.835763     -0.561353      1.923242
  C       7.145895      1.539321      1.560308
  H       7.634268      1.728882      2.517198
  H       7.925269      1.413325      0.805412
  H       6.571999      2.431230      1.296827
  C       0.691464     -2.261986     -0.499863
  C       0.069668     -0.833760     -0.380827
  H       0.398443     -2.610269     -1.492059
  H       0.169937     -2.889820      0.225155
  C      -1.457397     -1.134073     -0.466653
  C       0.349534     -0.291690      1.022862
  C       0.534181      0.091207     -1.522627
  C      -2.565633     -0.046613     -0.333131
  H      -1.617999     -1.646710     -1.418442
  H      -1.666622     -1.857898      0.322215
  O       0.098496     -0.941558      2.004009
  O       0.900916      0.914895      1.193031
  H      -0.293480      0.708204     -1.861868
  H       0.840144     -0.515189     -2.373693
  C       1.639478      1.047743     -1.115726
  C      -2.508053      0.916162     -1.515453
  C      -2.451352      0.758581      0.957718
  C       1.206428      1.820207      0.107850
  H       1.835825      1.744768     -1.931483
  H       2.581431      0.534555     -0.913306
  O      -2.278695      2.095771     -1.442478
  O      -2.720414      0.296927     -2.684409
  H      -1.542269      1.354629      0.983667
  H      -2.448565      0.092906      1.820272
  H      -3.273615      1.466819      1.053480
  H       0.284448      2.370436     -0.118871
  C       2.244577      2.773592      0.670918
  C      -2.664391      1.124338     -3.843417
  H       3.128042      2.194296      0.962023
  H       1.841339      3.202396      1.592509
  C       2.646527      3.889021     -0.285959
  H      -2.873118      0.469666     -4.685215
  H      -3.407968      1.918842     -3.779988
  H      -1.675845      1.572823     -3.946442
  H       3.111482      3.462819     -1.179345
  H       1.750176      4.416684     -0.628189
  C       3.610681      4.878132      0.355350
  H       3.900679      5.661705     -0.346087
  H       3.160635      5.358793      1.226821
  H       4.522506      4.376694      0.689620
  C      -3.884016     -0.868392     -0.378912
  C      -5.249674     -0.190598     -0.139371
  H      -3.937857     -1.356587     -1.354407
  H      -3.782419     -1.663582      0.360915
  C      -5.507035      1.003639     -1.054772
  C      -5.434673      0.247786      1.311585
  C      -6.330717     -1.258527     -0.394123
  H      -5.378263      0.703508     -2.096514
  H      -4.838254      1.837606     -0.844720
  H      -6.524604      1.370284     -0.924512
  O      -5.900019      1.299163      1.662363
  O      -5.072005     -0.708604      2.177105
  H      -6.159936     -2.148337      0.212454
  H      -6.319419     -1.549658     -1.446169
  H      -7.323362     -0.867655     -0.162154
  C      -5.223818     -0.385204      3.556887
  H      -4.881160     -1.258757      4.105066
  H      -4.618499      0.484891      3.811888
  H      -6.266992     -0.171342      3.788691
  H       3.297493     -4.487627     -0.667558
85
Coordinates from ORCA-job orca E -1736.088763384723
  C       2.265543     -4.128381     -0.707265
  C       2.189893     -2.632376     -0.334326
  H       1.679451     -4.712957      0.004981
  H       1.880806     -4.300910     -1.711530
  C       3.050497     -1.935938     -1.390744
  C       2.726885     -2.477478      1.102835
  O       2.739675     -1.933881     -2.552369
  O       4.203481     -1.345064     -1.050533
  H       3.357119     -3.342568      1.330369
  H       1.897031     -2.500910      1.807479
  C       3.570595     -1.233795      1.302433
  C       4.700685     -1.224534      0.299296
  H       3.988218     -1.229491      2.310286
  H       2.982643     -0.319648      1.207114
  H       5.345104     -2.095444      0.473661
  C       5.546911      0.037136      0.301201
  H       4.904678      0.883617      0.034615
  H       6.286609     -0.051355     -0.499337
  C       6.246902      0.314620      1.625819
  H       5.504271      0.462480      2.414864
  H       6.837581     -0.560188      1.918584
  C       7.148506      1.540122      1.554074
  H       7.637568      1.730058      2.510565
  H       7.927361      1.413283      0.798753
  H       6.574852      2.432150      1.290379
  C       0.690742     -2.259689     -0.499182
  C       0.068652     -0.831685     -0.378172
  H       0.397218     -2.606898     -1.491621
  H       0.169647     -2.888422      0.225407
  C      -1.458319     -1.132676     -0.463689
  C       0.349688     -0.291286      1.025997
  C       0.532373      0.094783     -1.518969
  C      -2.567243     -0.045632     -0.332527
  H      -1.618514     -1.646900     -1.414707
  H      -1.667249     -1.855478      0.326220
  O       0.095963     -0.940730      2.006733
  O       0.902546      0.914554      1.197160
  H      -0.294981      0.713868     -1.855326
  H       0.836084     -0.510400     -2.371731
  C       1.639608      1.049040     -1.112003
  C      -2.509835      0.914372     -1.517132
  C      -2.454190      0.762852      0.956342
  C       1.208673      1.820637      0.112856
  H       1.836149      1.746831     -1.927090
  H       2.581045      0.534317     -0.911037
  O      -2.284419      2.094887     -1.446559
  O      -2.718304      0.291675     -2.684927
  H      -1.545395      1.359352      0.981387
  H      -2.451697      0.099401      1.820621
  H      -3.276755      1.471052      1.049739
  H       0.287387      2.372594     -0.112729
  C       2.248594      2.771925      0.676265
  C      -2.662448      1.116444     -3.845827
  H       3.131366      2.190992      0.966256
  H       1.846590      3.200409      1.598573
  C       2.651730      3.887700     -0.279701
  H      -2.868293      0.459238     -4.686392
  H      -3.407985      1.909375     -3.785477
  H      -1.674756      1.566972     -3.948339
  H       3.114692      3.461643     -1.174212
  H       1.756081      4.417739     -0.620151
  C       3.618808      4.873924      0.361689
  H       3.909413      5.657950     -0.339023
  H       3.170998      5.354210      1.234545
  H       4.530090      4.370081      0.693893
  C      -3.885001     -0.868786     -0.377333
  C      -5.251999     -0.192562     -0.140134
  H      -3.937538     -1.358993     -1.351931
  H      -3.782944     -1.662492      0.364052
  C      -5.510225      1.000233     -1.057196
  C      -5.439681      0.247087      1.310088
  C      -6.331049     -1.262388     -0.395148
  H      -5.379115      0.699336     -2.098450
  H      -4.843584      1.835826     -0.846817
  H      -6.528813      1.364867     -0.929044
  O      -5.906137      1.298538      1.659171
  O      -5.076862     -0.707916      2.177100
  H      -6.159622     -2.151362      0.212507
  H      -6.317986     -1.554494     -1.446929
  H      -7.324613     -0.872841     -0.164784
  C      -5.230852     -0.383256      3.556317
  H      -4.889142     -1.256319      4.105912
  H      -4.625867      0.487046      3.811540
  H      -6.274397     -0.169108      3.786285
  H       3.296871     -4.485184     -0.669220
85
Coordinates from ORCA-job orca E -1736.088764140538
  C       2.264922     -4.126202     -0.708211
  C       2.189111     -2.630235     -0.335020
  H       1.678876     -4.710963      0.003937
  H       1.880163     -4.298625     -1.712504
  C       3.049658     -1.933803     -1.391438
  C       2.726142     -2.475515      1.102153
  O       2.738387     -1.930902     -2.552939
  O       4.203449     -1.344405     -1.051413
  H       3.355664     -3.341055      1.329948
  H       1.896244     -2.498238      1.806794
  C       3.570619     -1.232337      1.301685
  C       4.700572     -1.223463      0.298367
  H       3.988625     -1.228557      2.309394
  H       2.982977     -0.317954      1.206800
  H       5.344980     -2.094338      0.473017
  C       5.546907      0.038170      0.299857
  H       4.904854      0.884510      0.032336
  H       6.286982     -0.050928     -0.500279
  C       6.246321      0.316498      1.624591
  H       5.503342      0.465396      2.413131
  H       6.836448     -0.558325      1.918465
  C       7.148518      1.541526      1.552192
  H       7.637235      1.732151      2.508734
  H       7.927650      1.413689      0.797312
  H       6.575361      2.433571      1.287426
  C       0.689998     -2.257621     -0.499920
  C       0.067360     -0.829856     -0.377909
  H       0.396873     -2.604057     -1.492751
  H       0.168731     -2.887041      0.223974
  C      -1.459366     -1.131758     -0.464103
  C       0.347886     -0.290610      1.026859
  C       0.531012      0.098020     -1.517503
  C      -2.568707     -0.045051     -0.334982
  H      -1.618779     -1.647196     -1.414577
  H      -1.668267     -1.853842      0.326484
  O       0.092489     -0.940201      2.007046
  O       0.902869      0.914167      1.199206
  H      -0.296007      0.718694     -1.851880
  H       0.833435     -0.506089     -2.371527
  C       1.639647      1.050460     -1.110036
  C      -2.512447      0.912043     -1.522056
  C      -2.455595      0.766570      0.951854
  C       1.210365      1.821025      0.116053
  H       1.836249      1.749186     -1.924324
  H       2.580698      0.534561     -0.910441
  O      -2.290235      2.093320     -1.454343
  O      -2.718772      0.285858     -2.688361
  H      -1.546642      1.362925      0.975505
  H      -2.453208      0.105221      1.817773
  H      -3.278054      1.475134      1.043520
  H       0.290085      2.374990     -0.108781
  C       2.251984      2.769921      0.680462
  C      -2.663951      1.107719     -3.851349
  H       3.133940      2.187217      0.969423
  H       1.850932      3.197743      1.603505
  C       2.656606      3.886446     -0.273981
  H      -2.868176      0.447925     -4.690299
  H      -3.410921      1.899497     -3.793470
  H      -1.676998      1.559738     -3.954572
  H       3.117740      3.460983     -1.169727
  H       1.761782      4.419093     -0.612564
  C       3.626493      4.869397      0.368221
  H       3.917687      5.654404     -0.331158
  H       3.180858      5.348602      1.242798
  H       4.537224      4.362958      0.698024
  C      -3.886092     -0.869015     -0.377483
  C      -5.253509     -0.193726     -0.139552
  H      -3.939166     -1.360230     -1.351578
  H      -3.782754     -1.662020      0.364501
  C      -5.513729      0.998257     -1.057144
  C      -5.440046      0.246874      1.310507
  C      -6.331817     -1.264627     -0.392947
  H      -5.382883      0.697005     -2.098342
  H      -4.848117      1.834840     -0.847544
  H      -6.532760      1.361591     -0.928646
  O      -5.906723      1.298294      1.659355
  O      -5.075619     -0.707298      2.177823
  H      -6.159086     -2.153174      0.214992
  H      -6.319432     -1.557220     -1.444615
  H      -7.325543     -0.875866     -0.161891
  C      -5.228870     -0.382016      3.556913
  H      -4.888774     -1.255522      4.106841
  H      -4.622186      0.487198      3.811920
  H      -6.271960     -0.165807      3.787054
  H       3.296304     -4.482898     -0.670241
