44
Coordinates from ORCA-job orca E -887.582780033413
  O       3.333426     -2.341139     -2.156159
  C       3.787876     -1.832598     -1.162621
  C       3.405362     -2.348984      0.242901
  C       3.928458     -1.484016      1.421272
  H       3.163243     -1.438768      2.210924
  H       4.799653     -1.988090      1.872564
  C       4.355166     -0.080469      1.007669
  H       4.863281      0.415328      1.849593
  H       3.484928      0.543009      0.754543
  C       5.301116     -0.158253     -0.175710
  H       6.182223     -0.772678      0.095549
  C       5.782120      1.184139     -0.712941
  C       6.685894      1.959073      0.248039
  H       6.130563      2.208854      1.168870
  H       7.524398      1.311387      0.565083
  C       7.238216      3.243650     -0.370082
  H       7.882614      3.788477      0.338188
  H       6.423314      3.923080     -0.671389
  H       7.837062      3.028453     -1.270924
  H       4.898888      1.791032     -0.980094
  H       6.320585      0.989133     -1.655987
  C       4.039267     -3.770064      0.332613
  H       3.783281     -4.234251      1.297916
  H       5.138603     -3.707788      0.262187
  H       3.675619     -4.410577     -0.482638
  C       1.904246     -2.549429      0.271355
  H       1.493262     -2.852485      1.238935
  C       0.448934     -0.842577     -0.040195
  C       0.704883     -0.236218      1.302525
  O       0.139539     -0.922494      2.317343
  C       0.315046     -0.372586      3.619919
  H      -0.222237     -1.037346      4.308169
  H       1.382306     -0.329582      3.888878
  H      -0.094815      0.647529      3.675351
  O       1.347334      0.775298      1.485012
  C      -0.725198     -1.555187     -0.218948
  H      -1.298909     -1.923811      0.632267
  H      -1.053493     -1.832204     -1.224222
  C       1.073095     -0.107404     -1.206074
  H       2.104556      0.199013     -1.000243
  H       0.503109      0.813409     -1.415898
  H       1.074399     -0.733802     -2.107865
  H       1.510936     -3.097321     -0.586738
  O       4.655998     -0.814950     -1.291656
44
Coordinates from ORCA-job orca E -887.583993020733
  O       3.335537     -2.338186     -2.153606
  C       3.789234     -1.830581     -1.161539
  C       3.407892     -2.345470      0.241970
  C       3.930642     -1.481811      1.417010
  H       3.167178     -1.435292      2.203602
  H       4.798956     -1.984311      1.867034
  C       4.356155     -0.080950      1.002104
  H       4.862399      0.414580      1.840486
  H       3.488290      0.539811      0.747764
  C       5.301284     -0.161615     -0.178576
  H       6.179018     -0.774707      0.092082
  C       5.780633      1.178579     -0.715874
  C       6.678960      1.952534      0.247048
  H       6.122102      2.201099      1.162592
  H       7.514798      1.308463      0.564786
  C       7.229475      3.235619     -0.369818
  H       7.868375      3.779899      0.337374
  H       6.416784      3.910513     -0.672372
  H       7.829027      3.021174     -1.265388
  H       4.900233      1.782561     -0.984033
  H       6.320763      0.984823     -1.653903
  C       4.040879     -3.763288      0.332811
  H       3.686538     -4.272038      1.238349
  H       5.136795     -3.692745      0.385914
  H       3.775053     -4.363614     -0.543411
  C       1.908207     -2.546038      0.272299
  H       1.501001     -2.849512      1.237343
  C       0.448374     -0.840921     -0.035757
  C       0.704647     -0.235510      1.305858
  O       0.142905     -0.922007      2.319411
  C       0.322030     -0.369370      3.619017
  H      -0.211069     -1.031489      4.306423
  H       1.386349     -0.326004      3.883112
  H      -0.087778      0.646352      3.672813
  O       1.342490      0.776552      1.486930
  C      -0.720781     -1.552954     -0.212673
  H      -1.291340     -1.920949      0.635671
  H      -1.048754     -1.828142     -1.213956
  C       1.070439     -0.106753     -1.200815
  H       2.099445      0.197937     -0.996935
  H       0.502347      0.810482     -1.408979
  H       1.070382     -0.731659     -2.099263
  H       1.515424     -3.093135     -0.581962
  O       4.656830     -0.816136     -1.293664
44
Coordinates from ORCA-job orca E -887.584620089836
  O       3.340267     -2.330023     -2.155427
  C       3.809973     -1.837693     -1.164192
  C       3.427387     -2.350902      0.238860
  C       3.934727     -1.473601      1.410240
  H       3.160216     -1.415095      2.182389
  H       4.793359     -1.967400      1.880078
  C       4.358995     -0.076885      0.986821
  H       4.858121      0.425660      1.822223
  H       3.491173      0.538099      0.721569
  C       5.310097     -0.165162     -0.186153
  H       6.183444     -0.777776      0.090174
  C       5.791269      1.173138     -0.724267
  C       6.676603      1.951988      0.245267
  H       6.109981      2.203361      1.151009
  H       7.510474      1.313779      0.571591
  C       7.227236      3.233141     -0.372805
  H       7.856508      3.782228      0.336187
  H       6.415216      3.901164     -0.684101
  H       7.834079      3.015437     -1.259851
  H       4.913410      1.772825     -1.000854
  H       6.341573      0.979963     -1.653895
  C       4.047579     -3.774298      0.339900
  H       3.620430     -4.297298      1.202565
  H       5.133729     -3.720591      0.477403
  H       3.818784     -4.357978     -0.555864
  C       1.928321     -2.549557      0.266507
  H       1.526041     -2.855211      1.230370
  C       0.430587     -0.825556     -0.030728
  C       0.689485     -0.229816      1.315723
  O       0.140126     -0.926535      2.325211
  C       0.320706     -0.379442      3.628365
  H      -0.202234     -1.052153      4.310422
  H       1.383803     -0.329316      3.885603
  H      -0.100644      0.628468      3.689013
  O       1.313983      0.788752      1.495699
  C      -0.722028     -1.543885     -0.210549
  H      -1.292531     -1.918276      0.632962
  H      -1.047165     -1.814273     -1.212101
  C       1.057096     -0.092106     -1.190916
  H       2.086617      0.202198     -0.987055
  H       0.496333      0.827487     -1.394506
  H       1.051741     -0.715311     -2.088404
  H       1.533020     -3.094526     -0.586323
  O       4.670262     -0.821232     -1.300879
44
Coordinates from ORCA-job orca E -887.584821183494
  O       3.335986     -2.326623     -2.153437
  C       3.804209     -1.834279     -1.162454
  C       3.418295     -2.344745      0.239370
  C       3.933383     -1.475136      1.410912
  H       3.165325     -1.420936      2.188040
  H       4.794068     -1.972905      1.870671
  C       4.359185     -0.078482      0.991269
  H       4.860894      0.419770      1.826132
  H       3.493555      0.538618      0.730439
  C       5.306924     -0.165174     -0.183582
  H       6.180239     -0.777179      0.089577
  C       5.786142      1.172838     -0.721049
  C       6.672841      1.949192      0.247466
  H       6.108886      2.197936      1.154063
  H       7.506128      1.310978      0.570800
  C       7.221938      3.230782     -0.368538
  H       7.851202      3.777692      0.339677
  H       6.410786      3.898652     -0.677279
  H       7.826870      3.015643     -1.255738
  H       4.908859      1.772338     -0.995117
  H       6.333662      0.980333     -1.650973
  C       4.039688     -3.765521      0.338313
  H       3.661523     -4.269334      1.232678
  H       5.130714     -3.707347      0.415237
  H       3.774544     -4.364265     -0.535364
  C       1.919308     -2.542553      0.267843
  H       1.516415     -2.849159      1.229811
  C       0.444883     -0.835278     -0.031885
  C       0.699296     -0.234687      1.311838
  O       0.143688     -0.926259      2.321478
  C       0.323393     -0.375084      3.621588
  H      -0.204210     -1.040621      4.304437
  H       1.384640     -0.329133      3.881715
  H      -0.091427      0.634298      3.677167
  O       1.326527      0.781305      1.492636
  C      -0.714115     -1.548693     -0.210948
  H      -1.283494     -1.920047      0.632430
  H      -1.039743     -1.818979     -1.210500
  C       1.066325     -0.099453     -1.193029
  H       2.093962      0.199158     -0.990824
  H       0.502252      0.816662     -1.395614
  H       1.061992     -0.720778     -2.090097
  H       1.526939     -3.088604     -0.583733
  O       4.665673     -0.819151     -1.298146
44
Coordinates from ORCA-job orca E -887.585060475371
  O       3.342558     -2.328779     -2.153458
  C       3.797244     -1.825197     -1.162391
  C       3.413008     -2.336239      0.238265
  C       3.929874     -1.469253      1.409009
  H       3.163451     -1.415162      2.186516
  H       4.790190     -1.968592      1.866230
  C       4.358269     -0.074100      0.989310
  H       4.859792      0.423049      1.823653
  H       3.495149      0.544019      0.727015
  C       5.306901     -0.164326     -0.183720
  H       6.177415     -0.778128      0.090660
  C       5.789904      1.171451     -0.721529
  C       6.675343      1.946254      0.248336
  H       6.109989      2.197131      1.152214
  H       7.505606      1.307114      0.574085
  C       7.228597      3.225280     -0.367658
  H       7.856390      3.771160      0.340921
  H       6.420481      3.893769     -0.679161
  H       7.834958      3.007808     -1.251976
  H       4.915357      1.772073     -0.998054
  H       6.339011      0.977002     -1.648952
  C       4.037736     -3.753834      0.336595
  H       3.696711     -4.242115      1.253026
  H       5.130054     -3.692564      0.368997
  H       3.743747     -4.365602     -0.517259
  C       1.914727     -2.536677      0.267706
  H       1.513882     -2.846740      1.228480
  C       0.447443     -0.842685     -0.029713
  C       0.696663     -0.240016      1.313578
  O       0.141024     -0.931972      2.322246
  C       0.318944     -0.379270      3.621454
  H      -0.208530     -1.043869      4.303499
  H       1.378922     -0.332572      3.882294
  H      -0.096349      0.628819      3.675291
  O       1.320609      0.777083      1.495182
  C      -0.711422     -1.556596     -0.209927
  H      -1.279883     -1.929120      0.632075
  H      -1.036005     -1.825864     -1.208847
  C       1.065740     -0.102957     -1.189845
  H       2.090926      0.200939     -0.986789
  H       0.497374      0.809245     -1.392230
  H       1.065909     -0.723303     -2.086492
  H       1.525049     -3.084201     -0.582810
  O       4.665391     -0.816672     -1.298550
44
Coordinates from ORCA-job orca E -887.585382080463
  O       3.348577     -2.326819     -2.154269
  C       3.807510     -1.826582     -1.164062
  C       3.416026     -2.330237      0.235172
  C       3.925357     -1.459175      1.403557
  H       3.153244     -1.398813      2.173202
  H       4.780620     -1.957090      1.869568
  C       4.358209     -0.067737      0.978826
  H       4.853827      0.433031      1.812554
  H       3.499130      0.548676      0.706101
  C       5.313569     -0.166079     -0.186757
  H       6.179324     -0.780785      0.094877
  C       5.802476      1.165584     -0.727053
  C       6.678891      1.944058      0.246856
  H       6.105539      2.201718      1.141823
  H       7.504297      1.306877      0.583324
  C       7.239116      3.217584     -0.372426
  H       7.859998      3.766529      0.337281
  H       6.435500      3.883636     -0.694915
  H       7.852419      2.993125     -1.248161
  H       4.931992      1.764737     -1.013780
  H       6.359891      0.966921     -1.646851
  C       4.043848     -3.742698      0.344142
  H       3.750269     -4.200947      1.290541
  H       5.134945     -3.681695      0.318911
  H       3.708512     -4.378233     -0.474145
  C       1.917856     -2.532840      0.260995
  H       1.519315     -2.850365      1.219028
  C       0.436371     -0.838651     -0.024733
  C       0.681353     -0.243555      1.322864
  O       0.131256     -0.945043      2.325853
  C       0.306453     -0.397469      3.627607
  H      -0.215419     -1.068932      4.304458
  H       1.364992     -0.346000      3.886441
  H      -0.116146      0.605452      3.685849
  O       1.295927      0.777136      1.509576
  C      -0.714455     -1.557498     -0.211337
  H      -1.283180     -1.937363      0.625106
  H      -1.035103     -1.821526     -1.211118
  C       1.057351     -0.093162     -1.178756
  H       2.082272      0.206283     -0.972785
  H       0.491780      0.819781     -1.376111
  H       1.057158     -0.708410     -2.077121
  H       1.530165     -3.076787     -0.590834
  O       4.677116     -0.820846     -1.302019
44
Coordinates from ORCA-job orca E -887.585245849845
  O       3.342564     -2.322426     -2.154232
  C       3.800954     -1.824974     -1.162370
  C       3.401480     -2.326241      0.234010
  C       3.924190     -1.467429      1.405280
  H       3.161203     -1.414152      2.184070
  H       4.784097     -1.971292      1.855963
  C       4.356448     -0.073548      0.988888
  H       4.855367      0.421058      1.824247
  H       3.497641      0.545723      0.722764
  C       5.307334     -0.165172     -0.180886
  H       6.176396     -0.777331      0.095811
  C       5.789600      1.170225     -0.718073
  C       6.671727      1.945753      0.253107
  H       6.104780      2.197754      1.153675
  H       7.501155      1.308785      0.579887
  C       7.224318      3.223525     -0.364313
  H       7.849024      3.770741      0.343525
  H       6.416629      3.888997     -0.677801
  H       7.831819      3.004442     -1.245462
  H       4.915872      1.768923     -0.995558
  H       6.340823      0.977323     -1.642787
  C       4.019208     -3.742308      0.338503
  H       3.762215     -4.183516      1.303140
  H       5.109205     -3.688246      0.267074
  H       3.655861     -4.385139     -0.462107
  C       1.901317     -2.518402      0.261351
  H       1.503185     -2.835645      1.219736
  C       0.464491     -0.855231     -0.028146
  C       0.705849     -0.247311      1.313985
  O       0.148754     -0.937631      2.320788
  C       0.323498     -0.381537      3.619399
  H      -0.206053     -1.044303      4.299136
  H       1.381376     -0.336196      3.881762
  H      -0.092074      0.624799      3.668485
  O       1.326386      0.770520      1.494461
  C      -0.695829     -1.564461     -0.209463
  H      -1.265672     -1.936441      0.629875
  H      -1.019331     -1.832127     -1.207550
  C       1.078676     -0.112548     -1.188227
  H       2.103280      0.191233     -0.988048
  H       0.508992      0.797420     -1.387646
  H       1.076185     -0.731408     -2.084081
  H       1.513832     -3.066802     -0.587737
  O       4.671382     -0.819610     -1.297159
44
Coordinates from ORCA-job orca E -887.585297325441
  O       3.360090     -2.331497     -2.156631
  C       3.798035     -1.815367     -1.164852
  C       3.402854     -2.318970      0.231615
  C       3.917734     -1.453033      1.401214
  H       3.149198     -1.394347      2.174355
  H       4.774877     -1.953652      1.860768
  C       4.352973     -0.062083      0.978358
  H       4.846392      0.438169      1.813603
  H       3.496211      0.555559      0.701167
  C       5.312367     -0.163891     -0.183673
  H       6.176326     -0.779037      0.102426
  C       5.804526      1.166494     -0.724121
  C       6.681140      1.944040      0.250637
  H       6.106942      2.204570      1.144141
  H       7.504963      1.305619      0.588428
  C       7.244758      3.215618     -0.370098
  H       7.865870      3.764419      0.339607
  H       6.442484      3.882495     -0.694203
  H       7.858617      2.987962     -1.244590
  H       4.935414      1.767016     -1.012054
  H       6.363379      0.966940     -1.642797
  C       4.027806     -3.732447      0.340263
  H       3.789365     -4.164358      1.313853
  H       5.116093     -3.676402      0.249041
  H       3.651056     -4.385724     -0.445528
  C       1.903791     -2.516963      0.256980
  H       1.508804     -2.841871      1.214239
  C       0.449555     -0.853789     -0.022151
  C       0.687374     -0.250882      1.323733
  O       0.138341     -0.951050      2.327452
  C       0.309786     -0.399159      3.628826
  H      -0.211974     -1.070859      4.305672
  H       1.367770     -0.345045      3.888808
  H      -0.116464      0.602357      3.682653
  O       1.299250      0.771753      1.507343
  C      -0.703775     -1.572058     -0.208716
  H      -1.273852     -1.951563      0.627067
  H      -1.023631     -1.837667     -1.208504
  C       1.065274     -0.104962     -1.177729
  H       2.088113      0.201321     -0.972979
  H       0.493392      0.803834     -1.376322
  H       1.068798     -0.722247     -2.074879
  H       1.518094     -3.063107     -0.594394
  O       4.680034     -0.820347     -1.300748
44
Coordinates from ORCA-job orca E -887.585346594379
  O       3.359086     -2.328295     -2.157953
  C       3.805877     -1.820375     -1.165795
  C       3.401649     -2.317675      0.230390
  C       3.915449     -1.450474      1.399725
  H       3.145550     -1.389576      2.171347
  H       4.771271     -1.951196      1.861660
  C       4.352474     -0.060426      0.975475
  H       4.843317      0.441609      1.811182
  H       3.496828      0.556745      0.694280
  C       5.314979     -0.163992     -0.183895
  H       6.178744     -0.777697      0.105769
  C       5.807262      1.165878     -0.725537
  C       6.681434      1.945592      0.249817
  H       6.105223      2.207414      1.141670
  H       7.504942      1.308185      0.590311
  C       7.245636      3.216524     -0.371955
  H       7.865259      3.766689      0.338006
  H       6.443552      3.882494     -0.698411
  H       7.861126      2.987633     -1.244982
  H       4.938260      1.765329     -1.016094
  H       6.368261      0.965399     -1.642717
  C       4.022337     -3.732424      0.344621
  H       3.792313     -4.155162      1.324195
  H       5.109834     -3.681056      0.241959
  H       3.636067     -4.391062     -0.431916
  C       1.901427     -2.512363      0.252446
  H       1.506657     -2.842627      1.208099
  C       0.453240     -0.855726     -0.020326
  C       0.688392     -0.253235      1.326427
  O       0.140004     -0.955642      2.328665
  C       0.309099     -0.404593      3.630954
  H      -0.211335     -1.078551      4.306545
  H       1.366845     -0.348127      3.891334
  H      -0.120095      0.595630      3.685171
  O       1.297967      0.770591      1.511372
  C      -0.701166     -1.573797     -0.209233
  H      -1.272489     -1.954928      0.624934
  H      -1.019992     -1.837967     -1.209731
  C       1.066784     -0.103070     -1.174630
  H       2.090532      0.201360     -0.971271
  H       0.495183      0.806841     -1.368947
  H       1.066681     -0.717360     -2.073690
  H       1.516864     -3.056569     -0.600791
  O       4.686823     -0.824160     -1.301200
44
Coordinates from ORCA-job orca E -887.585346792333
  O       3.364288     -2.329018     -2.159498
  C       3.811021     -1.820927     -1.167426
  C       3.404229     -2.315698      0.229207
  C       3.911779     -1.443173      1.397378
  H       3.137730     -1.378423      2.164482
  H       4.765216     -1.941417      1.866365
  C       4.350329     -0.054975      0.968769
  H       4.836644      0.451392      1.804457
  H       3.495837      0.560440      0.680128
  C       5.318698     -0.163779     -0.185311
  H       6.180167     -0.777557      0.110928
  C       5.815305      1.163466     -0.729367
  C       6.686140      1.945325      0.247290
  H       6.106204      2.211320      1.135481
  H       7.506984      1.307812      0.593912
  C       7.255311      3.213158     -0.376358
  H       7.873056      3.764447      0.334330
  H       6.455830      3.879560     -0.708228
  H       7.873922      2.980213     -1.246086
  H       4.948498      1.763129     -1.025983
  H       6.380265      0.959043     -1.643225
  C       4.027124     -3.729206      0.348951
  H       3.788891     -4.152748      1.326279
  H       5.115325     -3.676396      0.256357
  H       3.647122     -4.389103     -0.429619
  C       1.904388     -2.512835      0.247958
  H       1.510299     -2.849049      1.201891
  C       0.445456     -0.853422     -0.016802
  C       0.679601     -0.254953      1.331961
  O       0.135806     -0.963536      2.332162
  C       0.302809     -0.415466      3.636098
  H      -0.211925     -1.095205      4.310206
  H       1.360541     -0.352537      3.894917
  H      -0.133315      0.581537      3.693861
  O       1.284336      0.771356      1.519375
  C      -0.705551     -1.575626     -0.208366
  H      -1.276784     -1.960866      0.623980
  H      -1.022717     -1.838261     -1.209780
  C       1.058032     -0.096250     -1.168622
  H       2.082052      0.206888     -0.964791
  H       0.486809      0.814749     -1.358700
  H       1.056425     -0.707065     -2.070073
  H       1.521171     -3.053424     -0.608200
  O       4.694800     -0.827132     -1.303008
44
Coordinates from ORCA-job orca E -887.585361716090
  O       3.368952     -2.330180     -2.161230
  C       3.813408     -1.820875     -1.168849
  C       3.405692     -2.315242      0.227830
  C       3.908605     -1.439613      1.395639
  H       3.132045     -1.373590      2.159987
  H       4.761090     -1.935720      1.868618
  C       4.346867     -0.052192      0.964610
  H       4.829194      0.457478      1.800612
  H       3.492571      0.561226      0.670623
  C       5.320089     -0.163966     -0.185174
  H       6.180077     -0.777286      0.116282
  C       5.819477      1.161696     -0.730427
  C       6.688356      1.944415      0.247224
  H       6.106401      2.212061      1.133608
  H       7.507727      1.306727      0.596993
  C       7.260108      3.210902     -0.376671
  H       7.877023      3.762279      0.334669
  H       6.462099      3.877867     -0.710922
  H       7.880234      2.976429     -1.244905
  H       4.954152      1.761657     -1.030734
  H       6.386757      0.954811     -1.642289
  C       4.031048     -3.727347      0.350620
  H       3.778911     -4.156299      1.322137
  H       5.120377     -3.671265      0.275084
  H       3.663884     -4.384880     -0.436135
  C       1.906448     -2.514725      0.244240
  H       1.512486     -2.854829      1.196843
  C       0.440163     -0.852280     -0.015123
  C       0.676237     -0.255043      1.333697
  O       0.136664     -0.966171      2.334461
  C       0.303758     -0.418208      3.638424
  H      -0.205373     -1.101268      4.313417
  H       1.361672     -0.349276      3.894842
  H      -0.137773      0.576316      3.698061
  O       1.278888      0.772559      1.520691
  C      -0.708816     -1.576932     -0.205531
  H      -1.278678     -1.963453      0.627157
  H      -1.026315     -1.840027     -1.206717
  C       1.050123     -0.093417     -1.167240
  H       2.074489      0.209492     -0.965094
  H       0.478770      0.818129     -1.354230
  H       1.046077     -0.702508     -2.069882
  H       1.523937     -3.052025     -0.614259
  O       4.700250     -0.829638     -1.303677
44
Coordinates from ORCA-job orca E -887.585359977534
  O       3.372920     -2.330168     -2.163437
  C       3.816388     -1.821563     -1.170304
  C       3.405757     -2.315061      0.225847
  C       3.905228     -1.437812      1.393935
  H       3.126776     -1.371291      2.156275
  H       4.757003     -1.932587      1.869546
  C       4.343449     -0.050835      0.961541
  H       4.821724      0.461550      1.798197
  H       3.489510      0.560687      0.662620
  C       5.321430     -0.164525     -0.184069
  H       6.180409     -0.776791      0.122357
  C       5.822578      1.160258     -0.729907
  C       6.689384      1.943775      0.248917
  H       6.105745      2.211589      1.134169
  H       7.508211      1.306436      0.600569
  C       7.261951      3.210162     -0.374361
  H       7.877856      3.761632      0.337783
  H       6.464453      3.877123     -0.709853
  H       7.883340      2.975650     -1.241688
  H       4.958274      1.760204     -1.033176
  H       6.392036      0.951872     -1.640065
  C       4.031974     -3.726424      0.351268
  H       3.769768     -4.158543      1.318695
  H       5.121968     -3.668444      0.287793
  H       3.674217     -4.382270     -0.441271
  C       1.906704     -2.515646      0.239450
  H       1.512649     -2.860341      1.190406
  C       0.437469     -0.853108     -0.014113
  C       0.676214     -0.254740      1.333670
  O       0.141143     -0.966597      2.336381
  C       0.309216     -0.416618      3.639334
  H      -0.193557     -1.102093      4.316633
  H       1.367479     -0.340977      3.892357
  H      -0.138027      0.575340      3.699558
  O       1.277064      0.774317      1.518296
  C      -0.710941     -1.579382     -0.201361
  H      -1.278863     -1.965820      0.632710
  H      -1.029883     -1.844031     -1.201678
  C       1.043086     -0.093362     -1.168024
  H       2.068172      0.209569     -0.969424
  H       0.471151      0.818497     -1.351743
  H       1.035150     -0.701358     -2.071365
  H       1.525127     -3.049565     -0.621570
  O       4.706447     -0.832918     -1.303614
44
Coordinates from ORCA-job orca E -887.585365190414
  O       3.375854     -2.328472     -2.165803
  C       3.819032     -1.821723     -1.171599
  C       3.405518     -2.315315      0.223664
  C       3.902402     -1.437737      1.392661
  H       3.122452     -1.371402      2.153474
  H       4.753562     -1.931935      1.869950
  C       4.340786     -0.050841      0.960072
  H       4.815595      0.463265      1.797619
  H       3.487181      0.559253      0.657341
  C       5.322685     -0.165162     -0.182131
  H       6.181056     -0.776445      0.127915
  C       5.824756      1.159389     -0.727734
  C       6.690155      1.943068      0.252178
  H       6.105699      2.209808      1.137228
  H       7.509242      1.306154      0.604004
  C       7.262125      3.210285     -0.369888
  H       7.877508      3.761529      0.342891
  H       6.464364      3.877066     -0.705077
  H       7.883918      2.976877     -1.237221
  H       4.961020      1.759356     -1.032603
  H       6.395644      0.950518     -1.636879
  C       4.032153     -3.726354      0.350285
  H       3.762374     -4.161093      1.314435
  H       5.122562     -3.667133      0.295748
  H       3.681360     -4.380447     -0.446817
  C       1.906570     -2.516981      0.234704
  H       1.512249     -2.865689      1.184113
  C       0.434839     -0.854787     -0.014116
  C       0.677083     -0.253298      1.331671
  O       0.147482     -0.964597      2.337721
  C       0.317666     -0.410930      3.638806
  H      -0.177053     -1.098569      4.319843
  H       1.376490     -0.327164      3.886860
  H      -0.136282      0.577997      3.699142
  O       1.276002      0.777583      1.512109
  C      -0.713513     -1.582543     -0.196140
  H      -1.278647     -1.967566      0.640461
  H      -1.034991     -1.849986     -1.194909
  C       1.035503     -0.095853     -1.171176
  H       2.061464      0.207272     -0.977137
  H       0.462803      0.815994     -1.352652
  H       1.023359     -0.704090     -2.074297
  H       1.526096     -3.048117     -0.628557
  O       4.712027     -0.835396     -1.302881
44
Coordinates from ORCA-job orca E -887.585369495711
  O       3.378187     -2.324832     -2.168898
  C       3.820999     -1.820511     -1.173295
  C       3.404965     -2.315395      0.220686
  C       3.898760     -1.437954      1.391075
  H       3.117077     -1.372239      2.150105
  H       4.749151     -1.931702      1.870172
  C       4.337435     -0.051023      0.958876
  H       4.808396      0.464612      1.797648
  H       3.484354      0.557733      0.651915
  C       5.323746     -0.165754     -0.179432
  H       6.181223     -0.776436      0.134264
  C       5.827342      1.158679     -0.723937
  C       6.691170      1.941818      0.257814
  H       6.105716      2.207086      1.142635
  H       7.510335      1.305012      0.609593
  C       7.262961      3.210149     -0.362142
  H       7.877612      3.760671      0.351814
  H       6.465126      3.877032     -0.696955
  H       7.885470      2.978206     -1.229361
  H       4.964500      1.759046     -1.030465
  H       6.400027      0.949585     -1.631905
  C       4.032932     -3.725950      0.347344
  H       3.757720     -4.163378      1.308745
  H       5.123551     -3.665071      0.299550
  H       3.687725     -4.378424     -0.453528
  C       1.906297     -2.518997      0.228966
  H       1.511704     -2.872296      1.176591
  C       0.430456     -0.857774     -0.014656
  C       0.677678     -0.250831      1.327855
  O       0.156713     -0.960908      2.339268
  C       0.330451     -0.401067      3.637218
  H      -0.151030     -1.092028      4.324348
  H       1.390072     -0.304226      3.876839
  H      -0.134319      0.582849      3.697764
  O       1.273172      0.783183      1.501386
  C      -0.717636     -1.587827     -0.188389
  H      -1.278395     -1.970198      0.652368
  H      -1.043208     -1.859868     -1.184595
  C       1.024623     -0.101468     -1.176792
  H       2.051622      0.202179     -0.989052
  H       0.450838      0.809971     -1.356836
  H       1.007470     -0.711482     -2.078620
  H       1.527528     -3.047245     -0.636825
  O       4.717635     -0.837136     -1.301873
44
Coordinates from ORCA-job orca E -887.585376427556
  O       3.380727     -2.318750     -2.173602
  C       3.822870     -1.817621     -1.176066
  C       3.403562     -2.314519      0.216190
  C       3.892752     -1.437061      1.388541
  H       3.108493     -1.372095      2.145013
  H       4.741894     -1.930156      1.870493
  C       4.332151     -0.050153      0.956946
  H       4.797922      0.467406      1.797429
  H       3.480101      0.557112      0.643947
  C       5.324627     -0.165790     -0.175901
  H       6.180380     -0.776330      0.142743
  C       5.831423      1.158269     -0.718463
  C       6.693182      1.939868      0.266384
  H       6.105912      2.204091      1.150323
  H       7.511449      1.302328      0.618940
  C       7.266770      3.208880     -0.350523
  H       7.880347      3.757942      0.365489
  H       6.469917      3.876675     -0.685812
  H       7.890835      2.977881     -1.216863
  H       4.970350      1.759843     -1.027584
  H       6.406927      0.948704     -1.624522
  C       4.034148     -3.724087      0.342832
  H       3.756767     -4.163179      1.302835
  H       5.124790     -3.661011      0.298401
  H       3.692516     -4.376190     -0.459891
  C       1.905408     -2.521357      0.220820
  H       1.510691     -2.881295      1.165916
  C       0.423654     -0.863120     -0.015262
  C       0.677461     -0.247947      1.322361
  O       0.170323     -0.956818      2.341578
  C       0.348794     -0.387627      3.634860
  H      -0.110344     -1.084623      4.331123
  H       1.409154     -0.268606      3.860716
  H      -0.134525      0.587275      3.696457
  O       1.266517      0.791398      1.485560
  C      -0.723704     -1.596864     -0.176986
  H      -1.277940     -1.975437      0.669798
  H      -1.055332     -1.875620     -1.169339
  C       1.008582     -0.110909     -1.184703
  H       2.036875      0.193950     -1.005705
  H       0.432911      0.799532     -1.363719
  H       0.985209     -0.724251     -2.084127
  H       1.529324     -3.045854     -0.648479
  O       4.724279     -0.838089     -1.300868
44
Coordinates from ORCA-job orca E -887.585384754021
  O       3.383697     -2.309230     -2.180650
  C       3.824669     -1.812602     -1.180354
  C       3.400474     -2.312317      0.209405
  C       3.881918     -1.434242      1.384619
  H       3.093368     -1.370186      2.136753
  H       4.728878     -1.926159      1.871627
  C       4.322553     -0.047489      0.953791
  H       4.780540      0.473000      1.796715
  H       3.472417      0.557683      0.631395
  C       5.324276     -0.164949     -0.170686
  H       6.176924     -0.775963      0.155280
  C       5.836792      1.158177     -0.709995
  C       6.695776      1.936536      0.279900
  H       6.105428      2.200299      1.161926
  H       7.511407      1.296803      0.634564
  C       7.274481      3.205528     -0.332331
  H       7.886532      3.751741      0.387159
  H       6.480412      3.875751     -0.669345
  H       7.901366      2.974709     -1.196673
  H       4.978844      1.762187     -1.022955
  H       6.416460      0.947723     -1.613180
  C       4.035815     -3.719880      0.336384
  H       3.759047     -4.160034      1.296064
  H       5.126264     -3.653195      0.292841
  H       3.697005     -4.372943     -0.466777
  C       1.903277     -2.524453      0.208604
  H       1.508298     -2.894129      1.149818
  C       0.414089     -0.872208     -0.016272
  C       0.677566     -0.244491      1.313730
  O       0.192854     -0.951940      2.344702
  C       0.378794     -0.368445      3.630595
  H      -0.042659     -1.075142      4.340746
  H       1.439048     -0.212776      3.833312
  H      -0.135014      0.590603      3.695534
  O       1.255613      0.803343      1.461172
  C      -0.732130     -1.611261     -0.159890
  H      -1.276374     -1.983952      0.695951
  H      -1.073102     -1.900009     -1.146185
  C       0.985001     -0.126477     -1.196714
  H       2.014810      0.180847     -1.030659
  H       0.406078      0.781956     -1.375199
  H       0.953314     -0.745536     -2.091963
  H       1.531324     -3.043281     -0.665922
  O       4.732021     -0.837805     -1.299558
44
Coordinates from ORCA-job orca E -887.585388880611
  O       3.382105     -2.311622     -2.178693
  C       3.823294     -1.813463     -1.179267
  C       3.400741     -2.312480      0.211279
  C       3.884045     -1.434392      1.385658
  H       3.096527     -1.370098      2.138716
  H       4.731438     -1.926653      1.871572
  C       4.324594     -0.047607      0.954801
  H       4.785100      0.471764      1.797057
  H       3.474115      0.558502      0.635242
  C       5.323402     -0.164622     -0.172315
  H       6.176663     -0.776108      0.151149
  C       5.834913      1.158681     -0.712169
  C       6.694829      1.937302      0.276679
  H       6.105071      2.201714      1.158907
  H       7.510461      1.297530      0.631279
  C       7.273463      3.205813     -0.336601
  H       7.885808      3.752461      0.382310
  H       6.479358      3.875905     -0.673807
  H       7.900023      2.974391     -1.201023
  H       4.976373      1.762442     -1.024001
  H       6.413442      0.948499     -1.616150
  C       4.035489     -3.720225      0.338106
  H       3.761163     -4.159308      1.298980
  H       5.125873     -3.654204      0.291563
  H       3.694274     -4.373931     -0.463506
  C       1.903283     -2.523656      0.211952
  H       1.508096     -2.890312      1.154216
  C       0.417063     -0.870426     -0.016331
  C       0.678192     -0.245740      1.315475
  O       0.187915     -0.953529      2.343706
  C       0.371915     -0.373984      3.631741
  H      -0.059501     -1.078487      4.338085
  H       1.432184     -0.227525      3.840902
  H      -0.134322      0.589129      3.695800
  O       1.258580      0.800264      1.466708
  C      -0.729811     -1.607672     -0.164212
  H      -1.276397     -1.981507      0.689641
  H      -1.069045     -1.893834     -1.151890
  C       0.991724     -0.123541     -1.194231
  H       2.020938      0.183761     -1.024689
  H       0.413295      0.784988     -1.373908
  H       0.963016     -0.741886     -2.090077
  H       1.530376     -3.044035     -0.661185
  O       4.728087     -0.836507     -1.300187
44
Coordinates from ORCA-job orca E -887.585394324623
  O       3.379555     -2.312976     -2.177016
  C       3.820910     -1.813350     -1.178410
  C       3.400542     -2.312239      0.212880
  C       3.885204     -1.434041      1.386655
  H       3.098368     -1.369583      2.140464
  H       4.732889     -1.926549      1.871807
  C       4.325711     -0.047205      0.955927
  H       4.788797      0.470844      1.797569
  H       3.474941      0.559967      0.639250
  C       5.321544     -0.163767     -0.173852
  H       6.175112     -0.776366      0.146758
  C       5.832796      1.159654     -0.713648
  C       6.693938      1.937661      0.274621
  H       6.104650      2.203069      1.156865
  H       7.508880      1.297094      0.629380
  C       7.273879      3.205271     -0.339250
  H       7.886536      3.751778      0.379501
  H       6.480486      3.875911     -0.677049
  H       7.900435      2.972816     -1.203397
  H       4.974034      1.763739     -1.024221
  H       6.410190      0.949797     -1.618437
  C       4.035564     -3.719837      0.339009
  H       3.764714     -4.158043      1.301270
  H       5.125790     -3.653895      0.288583
  H       3.691688     -4.374341     -0.460812
  C       1.903055     -2.523347      0.215136
  H       1.507712     -2.886885      1.158489
  C       0.419383     -0.869739     -0.016595
  C       0.678640     -0.247143      1.316466
  O       0.184979     -0.955398      2.342756
  C       0.367632     -0.378012      3.631869
  H      -0.069436     -1.081183      4.336063
  H       1.427897     -0.236643      3.844717
  H      -0.134329      0.587385      3.695282
  O       1.260484      0.797633      1.470516
  C      -0.728126     -1.605414     -0.167609
  H      -1.276387     -1.979944      0.684859
  H      -1.066306     -1.889549     -1.156220
  C       0.997262     -0.122435     -1.192626
  H       2.025749      0.185587     -1.019866
  H       0.418766      0.785636     -1.374387
  H       0.971994     -0.740959     -2.088467
  H       1.529419     -3.045440     -0.656619
  O       4.722610     -0.833769     -1.300935
44
Coordinates from ORCA-job orca E -887.585391546212
  O       3.376540     -2.312740     -2.176154
  C       3.818390     -1.812485     -1.178079
  C       3.400401     -2.312109      0.213762
  C       3.885655     -1.433897      1.387337
  H       3.099176     -1.369629      2.141550
  H       4.733528     -1.926530      1.872001
  C       4.325892     -0.046806      0.957040
  H       4.791005      0.470044      1.798334
  H       3.474779      0.561150      0.642813
  C       5.319273     -0.162636     -0.174945
  H       6.172876     -0.776575      0.142943
  C       5.830785      1.160967     -0.713958
  C       6.693345      1.937411      0.274284
  H       6.104603      2.203535      1.156680
  H       7.507322      1.295487      0.628838
  C       7.275169      3.204222     -0.339390
  H       7.888393      3.749855      0.379542
  H       6.482802      3.875979     -0.677376
  H       7.901613      2.970979     -1.203404
  H       4.972072      1.765861     -1.023081
  H       6.407096      0.951637     -1.619562
  C       4.036565     -3.719254      0.338797
  H       3.767604     -4.157819      1.301423
  H       5.126667     -3.652579      0.286625
  H       3.691873     -4.373876     -0.460550
  C       1.903100     -2.524134      0.217645
  H       1.507793     -2.884634      1.162132
  C       0.419900     -0.869762     -0.017318
  C       0.678681     -0.247587      1.315972
  O       0.184473     -0.955981      2.341984
  C       0.366957     -0.378942      3.631238
  H      -0.070579     -1.082027      4.335235
  H       1.427210     -0.237996      3.844431
  H      -0.134540      0.586691      3.694756
  O       1.260664      0.797046      1.470586
  C      -0.727979     -1.604602     -0.169182
  H      -1.276781     -1.978930      0.683039
  H      -1.066110     -1.888129     -1.157987
  C       0.999844     -0.123418     -1.192910
  H       2.027715      0.185592     -1.018147
  H       0.421061      0.783937     -1.377281
  H       0.977349     -0.743147     -2.087984
  H       1.528873     -3.048068     -0.652747
  O       4.717095     -0.830312     -1.301653
44
Coordinates from ORCA-job orca E -887.585393059350
  O       3.374374     -2.311922     -2.175726
  C       3.816221     -1.811057     -1.177962
  C       3.400097     -2.311532      0.214109
  C       3.885240     -1.433204      1.387731
  H       3.098717     -1.369005      2.141901
  H       4.733086     -1.925860      1.872423
  C       4.325484     -0.046003      0.957692
  H       4.791692      0.470147      1.798811
  H       3.474269      0.562442      0.644680
  C       5.317541     -0.161581     -0.175480
  H       6.170897     -0.776746      0.140795
  C       5.829853      1.161988     -0.713788
  C       6.693614      1.936928      0.274590
  H       6.105224      2.203907      1.156950
  H       7.506503      1.293628      0.629157
  C       7.277571      3.202872     -0.338875
  H       7.891321      3.747588      0.380313
  H       6.486355      3.875827     -0.677188
  H       7.904012      2.968688     -1.202638
  H       4.971486      1.767848     -1.022007
  H       6.405504      0.952848     -1.619862
  C       4.037761     -3.718109      0.338226
  H       3.770618     -4.156963      1.301223
  H       5.127735     -3.650458      0.284482
  H       3.692559     -4.373042     -0.460665
  C       1.903039     -2.524773      0.218914
  H       1.507950     -2.883672      1.164074
  C       0.419300     -0.870352     -0.017802
  C       0.677940     -0.247775      1.315311
  O       0.184953     -0.956612      2.341634
  C       0.367451     -0.379206      3.630736
  H      -0.067471     -1.083416      4.335226
  H       1.427614     -0.235628      3.842625
  H      -0.136349      0.585191      3.694892
  O       1.258808      0.797541      1.469537
  C      -0.728505     -1.605192     -0.169506
  H      -1.277324     -1.979188      0.682859
  H      -1.066785     -1.888929     -1.158205
  C       1.000097     -0.124952     -1.193570
  H       2.027431      0.185246     -1.017696
  H       0.420694      0.781576     -1.380059
  H       0.979673     -0.745949     -2.087824
  H       1.528693     -3.049948     -0.650655
  O       4.713205     -0.827398     -1.302105
