44
Coordinates from ORCA-job orca E -887.585393059350
  O           3.37437447999745     -2.31192160772783     -2.17572572901850
  C           3.81622093249827     -1.81105698447066     -1.17796209871747
  C           3.40009683589589     -2.31153216534503      0.21410865223521
  C           3.88523987336952     -1.43320441455999      1.38773134925569
  H           3.09871734009262     -1.36900534297312      2.14190148437764
  H           4.73308637358753     -1.92586029618625      1.87242331484776
  C           4.32548445383753     -0.04600341987831      0.95769224974137
  H           4.79169182315813      0.47014679051054      1.79881071861021
  H           3.47426883122689      0.56244179868080      0.64467982311446
  C           5.31754118616440     -0.16158148512137     -0.17547969660070
  H           6.17089661569129     -0.77674638181351      0.14079516531922
  C           5.82985299615629      1.16198802630535     -0.71378790750770
  C           6.69361352917303      1.93692846183714      0.27458970838215
  H           6.10522361917021      2.20390681667490      1.15695042605660
  H           7.50650294093795      1.29362782720646      0.62915692014012
  C           7.27757116134886      3.20287219137908     -0.33887500678270
  H           7.89132064250211      3.74758788102131      0.38031307794052
  H           6.48635514657664      3.87582676156048     -0.67718776510144
  H           7.90401244006323      2.96868759436861     -1.20263763609415
  H           4.97148568888562      1.76784756920981     -1.02200694046624
  H           6.40550431926127      0.95284788604102     -1.61986176792841
  C           4.03776109229016     -3.71810924440010      0.33822571542618
  H           3.77061848540610     -4.15696323618547      1.30122338859671
  H           5.12773490627780     -3.65045761663461      0.28448176172949
  H           3.69255925134404     -4.37304157374266     -0.46066470789752
  C           1.90303873625760     -2.52477266561165      0.21891415079505
  H           1.50795018171486     -2.88367237350039      1.16407374306698
  C           0.41929955735276     -0.87035242718592     -0.01780222438260
  C           0.67794023100140     -0.24777450737322      1.31531118438998
  O           0.18495260279985     -0.95661180474112      2.34163374104248
  C           0.36745112416376     -0.37920639590050      3.63073568450887
  H          -0.06747051038418     -1.08341565482054      4.33522561156942
  H           1.42761366768793     -0.23562788843802      3.84262529060682
  H          -0.13634850162741      0.58519112049909      3.69489188505380
  O           1.25880791842348      0.79754103371005      1.46953726320104
  C          -0.72850473270324     -1.60519200343637     -0.16950602511144
  H          -1.27732395565923     -1.97918839350043      0.68285868399136
  H          -1.06678536812289     -1.88892940365588     -1.15820466622666
  C           1.00009732768323     -0.12495214238453     -1.19357032396967
  H           2.02743072413871      0.18524611295509     -1.01769620958685
  H           0.42069447909668      0.78157584806447     -1.38005852707298
  H           0.97967299673264     -0.74594876193387     -2.08782364611626
  H           1.52869321366795     -3.04994783367371     -0.65065517011315
  O           4.71320534286224     -0.82739769482904     -1.30210494530487
