64
Coordinates from ORCA-job orca E -1421.333732299533
  C           1.76067875106811      0.76779961031477     -1.05850140058628
  H           1.86549789497219      1.72350231763547     -0.52708742504117
  H           2.71910961764084      0.51979582693179     -1.53230549987030
  C           1.31989629344945     -0.33044868954250     -0.08386158597758
  C           2.35403169420530     -0.54484931444463      1.06451919730842
  H           2.00224684163581     -1.39131634902731      1.67419580651213
  H           2.30433259895526      0.34520716192645      1.70878040856358
  C           3.85034851734508     -0.80187040667486      0.75193109600435
  C           1.14311986196056     -1.63363659790696     -0.86665054653197
  O           1.32022126942640     -1.77188159251704     -2.05249768068411
  O           0.75617360564305     -2.65163778464778     -0.07054884326480
  C           4.53558477872422      0.43493734561855      0.16615828579482
  O           5.29022774624513      0.43784785650956     -0.77539869265680
  O           4.24671426680403      1.55073014537873      0.86816332417050
  C           4.08666826857727     -1.99164357574251     -0.18715425817027
  H           5.16146714485906     -2.20992706486283     -0.26478195563270
  H           3.57682030802373     -2.88512200675448      0.20420736598141
  H           3.72310745734293     -1.79760118124123     -1.20367395241426
  C           4.55158058748407     -1.07732007419801      2.10512436127718
  H           4.15670993123152     -2.00554355255608      2.54806930858942
  H           5.63723252973903     -1.20219795950417      1.96616692880545
  H           4.38636870214773     -0.25475042638872      2.81645918559370
  C           0.55936202954547     -3.90908986358611     -0.71364630753718
  H           0.25945573444858     -4.61283181457655      0.07316603790688
  H          -0.22608788140449     -3.83459343159126     -1.48131874785314
  H           1.48725502192763     -4.24846263277897     -1.19874799412027
  C           4.86457585620618      2.75360287859282      0.41649233519231
  H           4.54489230546883      2.99292693927160     -0.60973488461136
  H           4.54416436174889      3.54251760971961      1.10882416206839
  H           5.96105105334402      2.65881780926336      0.42365295528009
  H           1.04143851520754      0.88923644963548     -1.87688321699802
  C          -0.00234927212085      0.02538255660776      0.66228472791766
  C          -1.32046719463045      0.36769889034985     -0.09758727973911
  H           0.22777337489816      0.88164563283068      1.31342925106665
  H          -0.23629949055468     -0.81903416903060      1.32742363546420
  C          -2.35845439329097      0.60554398599650      1.04221795428302
  C          -1.13969546496994      1.65670517817515     -0.90336152981101
  C          -1.75609396207317     -0.74824802884016     -1.05416517816539
  C          -3.85494598092154      0.85576243566029      0.71095207639449
  H          -2.31633079404971     -0.27174014734412      1.70408738894079
  H          -2.01497447681815      1.46501096288802      1.63675803289680
  O          -1.31193219269495      1.77274040401582     -2.09239483571927
  O          -0.75711065219679      2.68866041774021     -0.12435312090468
  H          -1.03294744657407     -0.88210449340154     -1.86716622472575
  H          -1.86146786777203     -1.69445586097635     -0.50649964667174
  H          -2.71311079208795     -0.51085570267679     -1.53666965462175
  C          -4.09315754796637      2.01683134542339     -0.26610951836681
  C          -4.54015791771420     -0.40577068609093      0.15362022692865
  C          -0.55899664397178      3.93512102096441     -0.78817901385995
  H          -3.60160689556092      2.92685094242767      0.10826403180423
  H          -3.71126837601637      1.79363336338193     -1.26976751817085
  H          -5.16987891061273      2.21450800395005     -0.36502673475446
  O          -5.31395937583928     -0.42615383653087     -0.77113403128603
  O          -4.22377727551729     -1.50520681246127      0.86788554707405
  H          -1.48539770579495      4.26499436837479     -1.28258071348367
  H          -0.26320935588292      4.65250038527296     -0.01226012852741
  H           0.22957128828929      3.84839337305048     -1.55135401552942
  C          -4.84812509947894     -2.71939397706308      0.45726478712774
  H          -4.50747386637943     -3.49196765589014      1.15828834107963
  H          -5.94440654004569     -2.62743635264609      0.49076164831341
  H          -4.55361076807245     -2.98081800505135     -0.57116829317919
  C          -4.56969191896691      1.12478617720744      2.00964608874595
  H          -4.27570560379060      0.59630762183027      2.91988932698580
  H          -5.50980654479475      1.68242102959938      2.00729660539501
