64
Coordinates from ORCA-job orca E -1421.300343121881
  C           1.59082111566097      0.51503370535564     -1.04356283813825
  H           1.73229113349212      1.55451571537471     -0.71837479958178
  H           2.45369274357308      0.21423131855356     -1.65159661533252
  C           1.41906755427572     -0.40016710320048      0.17398643145584
  C           2.65211785325221     -0.34645548624679      1.12781069098241
  H           2.47636777454668     -1.07052457344311      1.93820828424956
  H           2.64995884481646      0.65021289114419      1.59272516207802
  C           4.08552452682056     -0.60123567971425      0.59469908727976
  C           1.21133802000330     -1.83311391050525     -0.32191561274956
  O           1.18921148897313     -2.18201188533192     -1.47714781981897
  O           1.05149699792299     -2.70233303032387      0.69743742503231
  C           4.55769731297117      0.51729485779694     -0.33701827062155
  O           5.11901833665640      0.35939992586725     -1.39344394682621
  O           4.32411743716286      1.73957396921039      0.18519294172989
  C           4.24262276857753     -1.94627224351480     -0.12612263010596
  H           5.29996482742451     -2.13205434654455     -0.36369437684998
  H           3.88156918393840     -2.76163829662950      0.51905701064601
  H           3.68994949791025     -1.97682565471157     -1.07304290681184
  C           5.03270659964722     -0.56851129425561      1.81975471879154
  H           4.79020392127361     -1.40008589880543      2.50036181675503
  H           6.08296140840615     -0.67993615746178      1.50668576415309
  H           4.93497222449329      0.37594911587481      2.37479301217236
  C           0.85145381084270     -4.06577368892164      0.33087427285886
  H           0.73692212542952     -4.62268373894346      1.26945019662201
  H          -0.04986700934085     -4.17294073343957     -0.29185321374557
  H           1.71321603635141     -4.44661256764084     -0.23831380669291
  C           4.74929382279292      2.84975024229306     -0.60192472117328
  H           4.21584985060362      2.86912214238173     -1.56513612489218
  H           4.51343650451924      3.74867486119746     -0.01826809518907
  H           5.82944713465818      2.79650795876010     -0.80586451180731
  H           0.72079266593176      0.46476008240129     -1.70998489963545
  C           0.22076231431678      0.02893903771266      1.07422404667511
  C          -1.20948490459426      0.19569183887353      0.49193800608934
  H           0.49965613145680      0.98881207263050      1.53272958127228
  H           0.14791076165005     -0.70135712017389      1.89440272922738
  C          -2.11639556959515      0.52872932605588      1.72869735385750
  C          -1.27035071527578      1.37143163163697     -0.48147802995848
  C          -1.72823312591713     -1.06065627859766     -0.21301314997648
  C          -3.58436222470826      0.78420310360174      1.46718306607924
  H          -2.02007738137089     -0.32308562896280      2.42021413713815
  H          -1.68340302794141      1.40673033514769      2.23601813431522
  O          -1.73628324895072      1.34025675718118     -1.59450221766809
  O          -0.76428273010081      2.49825125195347      0.06171738618885
  H          -1.16550433824758     -1.27914027180206     -1.12837862648151
  H          -1.65489341475250     -1.92458875339747      0.46517609747570
  H          -2.77665316145055     -0.93157382787631     -0.50694240150991
  C          -3.97684236208985      2.11880744953358      0.88364531902938
  C          -5.31458256077716      0.43788397707265     -1.89264222320983
  C          -0.79075110515393      3.66037570002720     -0.76403771076401
  H          -3.50015857535797      2.94495231341074      1.43795231382743
  H          -3.66074455969239      2.20747502155020     -0.16777179884407
  H          -5.06644517290891      2.25724584219877      0.90067670146506
  O          -6.25380643655307      0.78978840826102     -1.24941017514596
  O          -4.81730699523713     -0.75999010709628     -2.07899540535183
  H          -1.82433746634444      3.92364814736969     -1.03579744505248
  H          -0.33540259412403      4.46602353414276     -0.17427098564934
  H          -0.21980005227412      3.49207059115448     -1.68991471467189
  C          -5.49449891335316     -1.86107024498991     -1.41962166002896
  H          -4.94105763433293     -2.76459958229742     -1.69980855441295
  H          -5.47110937073797     -1.71130784801955     -0.33102354572138
  H          -6.53651140550912     -1.92023871592705     -1.76747929165828
  C          -4.50755200325740     -0.13857540245157      1.77933109706787
  H          -4.22752078285827     -1.10242959869528      2.21602397583348
  H          -5.57301388754368      0.04595654419579      1.61479636572898
