64
Coordinates from ORCA-job orca E -1421.289127873132
  C           1.83741609181990      0.83284810654767     -1.04516409706048
  H           1.95663714649527      1.77914793004669     -0.49983645746949
  H           2.79136873784539      0.57928416134206     -1.52504308741237
  C           1.38377094254641     -0.27317885315219     -0.08521974040613
  C           2.41608903548239     -0.51698094658671      1.05913048407834
  H           2.05497529787776     -1.36904780416854      1.65532926670470
  H           2.37653476522350      0.36329107171495      1.71735790474820
  C           3.90908672454707     -0.78562187581842      0.74084242176046
  C           1.18947584003802     -1.56327004468783     -0.88546901191897
  O           1.36350018078120     -1.68739992279606     -2.07329779152111
  O           0.79278208636148     -2.58692383755615     -0.10198917158328
  C           4.60744056775925      0.45251439515088      0.17359909981197
  O           5.36308308681273      0.46156281532150     -0.76711430727449
  O           4.32930156428307      1.56100861709991      0.89153843481294
  C           4.13039395672129     -1.96305985544690     -0.21725877984795
  H           5.20252980252030     -2.19194498322228     -0.30104647507864
  H           3.61131633584342     -2.85678230869860      0.16120495417581
  H           3.76619109546192     -1.74887037646487     -1.22947529385622
  C           4.60937709864314     -1.08945184729657      2.08829896467382
  H           4.20430220068683     -2.01914059030177      2.51887802508669
  H           5.69316050351369     -1.22541289293588      1.94512979267262
  H           4.45568048235058     -0.27529266615960      2.81184329118180
  C           0.57220195639697     -3.83154143749237     -0.76202649172816
  H           0.26646651201637     -4.54188559198880      0.01655386443006
  H          -0.21769491168106     -3.73355915803834     -1.52237962942317
  H           1.49161851513335     -4.17790670266563     -1.25826231574811
  C           4.95908843954280      2.76405250778812      0.45748645062262
  H           4.63896874173685      3.02364854740293     -0.56374088187054
  H           4.64930376570541      3.54518852319118      1.16336807282373
  H           6.05447436151545      2.65725413650912      0.45961550601873
  H           1.11738917100890      0.97574812836243     -1.85912811532261
  C           0.06796187662590      0.09271903505773      0.66655270157387
  C          -1.24654171151409      0.46125890500579     -0.08874111390271
  H           0.31208909189168      0.93886386677151      1.32576627657920
  H          -0.17762462536722     -0.75485197489311      1.32379836946582
  C          -2.28458142288506      0.68054479798490      1.05549540924944
  C          -1.05024642216914      1.76533828229113     -0.86514111700116
  C          -1.68847480972123     -0.63441260251810     -1.06225079824879
  C          -3.71791928532684      1.11548714511008      0.77758296789074
  H          -2.32322376770254     -0.25332451441928      1.63760617936590
  H          -1.85567384435480      1.44392309023006      1.72664920238747
  O          -1.20389774575249      1.90858133122666     -2.05331040322590
  O          -0.67501682156066      2.77987911773694     -0.05780291657794
  H          -0.97864207274342     -0.74949107352922     -1.88990607417656
  H          -1.79031012498373     -1.59083761471532     -0.53173382239631
  H          -2.66150447111127     -0.39220378460025     -1.50781128332666
  C          -4.01993327666095      2.02822318490316     -0.38195705379425
  C          -4.78787282878381     -0.93952343151864     -0.32303329939993
  C          -0.44752169027685      4.03550067307729     -0.69418158802571
  H          -3.48450314023151      2.98550692101442     -0.26042152760533
  H          -3.70051590672566      1.60443217150897     -1.34326228798712
  H          -5.09623061834307      2.24057113475567     -0.44224768994108
  O          -5.87534029589771     -0.75277532432910     -0.77718301964681
  O          -4.37006887946193     -1.95018885074575      0.42597035505839
  H          -1.35531533640881      4.38201941197439     -1.21138874650242
  H          -0.16931412068845      4.73761821987055      0.10196313508022
  H           0.36299513472848      3.95455498527657     -1.43479002319054
  C          -5.37382342547849     -2.90243392385570      0.83827782164865
  H          -4.84099486214670     -3.69807707369024      1.37303666719556
  H          -6.10274093435661     -2.41565911292608      1.50479591214763
  H          -5.89950637006607     -3.30937347808172     -0.03832800842219
  C          -4.65011068603258      0.87291114306031      1.72235657726761
  H          -4.42496173636906      0.26351365172895      2.60276524337036
  H          -5.67168496511465      1.24793844623745      1.62055906900974
