64
Coordinates from ORCA-job orca E -1421.300055983936
  C           1.60508176871851      0.48248989118225     -1.05227641928372
  H           1.73079375407025      1.52788594949326     -0.74023856177712
  H           2.47380972712075      0.18550350420202     -1.65388500094086
  C           1.44194321920455     -0.41880997198217      0.17678638394587
  C           2.66922138810070     -0.33186949376667      1.13577051108210
  H           2.50187664267502     -1.04941487713224      1.95363216932511
  H           2.64765197260857      0.67001532539051      1.58875509292161
  C           4.10926648113943     -0.56770371154057      0.61184136709676
  C           1.26064111277440     -1.86170905773836     -0.30026844173620
  O           1.24884119435798     -2.22661883644441     -1.45068465896303
  O           1.11388426010659     -2.71999561157950      0.73036263759626
  C           4.56519407407677      0.54751016124592     -0.33187758518600
  O           5.13469575301988      0.38681733249489     -1.38351435646018
  O           4.30803308525014      1.77177083668503      0.17441094778712
  C           4.29317764114498     -1.91837654044435     -0.09213151002888
  H           5.35441788868097     -2.08767263010668     -0.32458171406562
  H           3.94497686219701     -2.73212929350116      0.56204367216004
  H           3.74358288888854     -1.96992577414005     -1.03982936801900
  C           5.05095783213534     -0.50307275805553      1.83976689391622
  H           4.82060837592403     -1.33031092132805      2.52981505621033
  H           6.10422716547236     -0.59975706029352      1.53189403895385
  H           4.93456157405595      0.44621330198476      2.38292982309109
  C           0.93798428077580     -4.09132595011372      0.38153548849597
  H           0.82987939217616     -4.63751047890080      1.32716263806970
  H           0.04053512847889     -4.22186408264192     -0.24229379830333
  H           1.80786899805044     -4.46514081980228     -0.17996441291918
  C           4.71826743822409      2.87960158155942     -0.62368892492858
  H           4.18598387291966      2.88131442592602     -1.58778796866365
  H           4.46849972051333      3.78114176125000     -0.04992081409605
  H           5.79934827833566      2.83985259023419     -0.82571232296120
  H           0.73750076032145      0.41179606052657     -1.72032045195704
  C           0.23223114034641      0.00415725519821      1.06456675643486
  C          -1.19670051735843      0.13872652498857      0.47130321906753
  H           0.49404729476642      0.97487732303494      1.50975976443013
  H           0.16632812591575     -0.71480721310673      1.89544131672711
  C          -2.11815747125280      0.46712719018092      1.69824669630626
  C          -1.27748555327642      1.30428800611724     -0.51206814630698
  C          -1.68494845776363     -1.13620032229448     -0.22194619393540
  C          -3.57498729835303      0.77495201720952      1.42273719408665
  H          -2.05622374889607     -0.40486496811309      2.36843199274273
  H          -1.67033395511256      1.31882375547938      2.23617842357574
  O          -1.76089871483523      1.26161006525953     -1.61686433760716
  O          -0.76898089626734      2.43939215183870      0.01389412930324
  H          -1.12230906565033     -1.34135197022350     -1.14074254448532
  H          -1.57450283577069     -1.99462943246358      0.45836083873573
  H          -2.73936563484361     -1.04587129371499     -0.50803038146009
  C          -3.92012281153777      2.17003393746686      0.96267774980184
  C          -5.18183050902210      0.50248387013718     -1.54408622584494
  C          -0.81064378718161      3.59269369472319     -0.82261190289698
  H          -3.43327092462273      2.92263888443529      1.60568972355219
  H          -3.57851800433041      2.35204754301898     -0.06836915778791
  H          -5.00543975293502      2.33777110902908      0.97286026812646
  O          -6.21533770762729      0.92405807793635     -1.12696436835965
  O          -4.81154714974368     -0.73052590686778     -1.79100351499505
  H          -1.84839781207882      3.84965116380419     -1.08468578361220
  H          -0.35150999476501      4.40631806873962     -0.24681263524280
  H          -0.25051135503686      3.41772371648522     -1.75391945982944
  C          -5.77068984980967     -1.77603425962800     -1.49841668594263
  H          -5.34045949655829     -2.70123748202115     -1.89911795780656
  H          -5.91194381719705     -1.85711864135254     -0.41053354493399
  H          -6.73249189575858     -1.55115604415411     -1.98205341302747
  C          -4.52294720417318     -0.14927910725684      1.64168295651925
  H          -4.26849388713589     -1.15005983462234      2.00436623786485
  H          -5.58168898365244      0.06956726807325      1.47770857643745
