64
Coordinates from ORCA-job orca E -1421.290878209933
  C           1.83565745987747      0.81238235678193     -1.04647070947049
  H           1.96249794526900      1.77186194501106     -0.52647910096438
  H           2.78057225014560      0.55045812628430     -1.53953849329656
  C           1.40644754355541     -0.27237785093793     -0.05191297012096
  C           2.46301136389733     -0.48348463585749      1.07663636946823
  H           2.11703071988150     -1.32050272323151      1.70249640144014
  H           2.43402196207370      0.41368088121467      1.71226645761982
  C           3.95022669054940     -0.75711201033635      0.73552900108393
  C           1.20348055994184     -1.58213013757572     -0.81745264696629
  O           1.35864953547097     -1.73431005167636     -2.00463230689422
  O           0.82289904452609     -2.58773616134545     -0.00321901274871
  C           4.63269029623396      0.46646099549350      0.11967006768980
  O           5.36491717490780      0.45177148646351     -0.83932639052917
  O           4.36902504352764      1.59329856220573      0.81408927707322
  C           4.15588089943209     -1.96018978484135     -0.19383353402207
  H           5.22667428170389     -2.19040372946609     -0.29037857015323
  H           3.64491290621894     -2.84366896103786      0.21821694899321
  H           3.77359571711612     -1.77440857998183     -1.20497282876488
  C           4.67763114640596     -1.02296160192896      2.07673147334760
  H           4.28298020448669     -1.94174021575385      2.53906217801102
  H           5.75876631766562     -1.16053776238778      1.91622605260027
  H           4.53582802326725     -0.19032643145491      2.78141952177831
  C           0.59381663652149     -3.84800791126586     -0.62998502058465
  H           0.30063896875143     -4.53978899799332      0.16985290781469
  H          -0.20751855991962     -3.76848096727040     -1.38041020439271
  H           1.50605218399257     -4.20545312328021     -1.13159363113773
  C           4.98025988079839      2.78634648895839      0.32871592689782
  H           4.62865997776446      3.01555057108489     -0.68940935252225
  H           4.68734923640439      3.58561734730084      1.02135746119832
  H           6.07570301967505      2.68402540828400      0.30143485011279
  H           1.09941162009623      0.93464815400090     -1.84947287564489
  C           0.10333734639188      0.10305502446604      0.71670828308737
  C          -1.22441440686663      0.44916410182581     -0.02423486082432
  H           0.35392826140495      0.96289594194266      1.35554279862236
  H          -0.12614563357613     -0.73340318556378      1.39363064434841
  C          -2.25048608103008      0.68495155463249      1.12831450450934
  C          -1.05132378229445      1.73879722623112     -0.82980883257337
  C          -1.68170443304498     -0.66604068455138     -0.96666864658215
  C          -3.69878378878949      1.05674937035958      0.85025234886436
  H          -2.24521397508951     -0.22143226282257      1.75362211726437
  H          -1.83822359825995      1.49336239421302      1.75729064687497
  O          -1.24105128147935      1.86033274166869     -2.01531963126251
  O          -0.65369794932620      2.76845404663506     -0.05303296857194
  H          -0.98417006062398     -0.80131827300325     -1.80153821416889
  H          -1.78123865395400     -1.61100941341321     -0.41519421302341
  H          -2.66064680129283     -0.42846487554836     -1.40246276895075
  C          -4.00947516285938      2.05405247795628     -0.23434540745137
  C          -4.88891769438835     -0.88723394643774     -0.53541233213131
  C          -0.44953381430218      4.01292135845556     -0.71866883163544
  H          -3.47093809835543      2.99885700184304     -0.04602350837404
  H          -3.69505064905980      1.69992063801171     -1.22591712305206
  H          -5.08576928343603      2.27006081288367     -0.27710764322271
  O          -5.98373118557555     -0.56090688376591     -0.87889641770928
  O          -4.51298518825328     -1.98097676760079      0.10653348681255
  H          -1.37308506763554      4.34629979680989     -1.21609955082096
  H          -0.15160273205919      4.73053288747527      0.05624491216914
  H           0.34019274790092      3.92122323917686     -1.48022873961644
  C          -5.56951250786426     -2.84368894641994      0.57875303244826
  H          -5.07998513741078     -3.73964373998863      0.97927092443017
  H          -6.14164174526693     -2.33590757140656      1.37105567908417
  H          -6.24761035721549     -3.10768133572147     -0.24627613709934
  C          -4.64174693920943      0.66267790654429      1.72641762909317
  H          -4.40611941627245     -0.01772391123972      2.55035081431305
  H          -5.67924298114449      0.99315259089176      1.63204075823251
