64
Coordinates from ORCA-job orca E -1421.286712164012
  C           1.81573162322551      0.82292749167553     -1.04919835772865
  H           1.93399759414502      1.76879290785258     -0.50285601921885
  H           2.77053811048202      0.56983888962437     -1.52762320438072
  C           1.36059655726442     -0.28378247275337     -0.09079774130880
  C           2.39117077960502     -0.52834592138171      1.05513529360467
  H           2.02846529331597     -1.38004525817909      1.65086713718498
  H           2.35112845554703      0.35203292831462      1.71317417731480
  C           3.88453160074060     -0.79799302962824      0.73952170112031
  C           1.16819385484609     -1.57354182788987     -0.89185317896545
  O           1.34564214513546     -1.69775012528820     -2.07919762182558
  O           0.76898390182499     -2.59735008132661     -0.10973416901206
  C           4.58458895207508      0.43928580148241      0.17254671975742
  O           5.34159451681949      0.44714734375983     -0.76708556928626
  O           4.30620245327776      1.54840615591208      0.88936823641682
  C           4.10716952800767     -1.97632547886761     -0.21714999633883
  H           5.17934330045253     -2.20595432618490     -0.29830841854487
  H           3.58675715290843     -2.86942846741578      0.16094232207076
  H           3.74548236781160     -1.76274595126432     -1.23038234121963
  C           4.58229545833852     -1.10111650419236      2.08850211267336
  H           4.17600980347086     -2.03024470350166      2.51913733788297
  H           5.66625570208399     -1.23770869940961      1.94732182064294
  H           4.42772821833517     -0.28630469579371      2.81111615401262
  C           0.55330591756029     -3.84255361557067     -0.77012645601118
  H           0.23857692874790     -4.55134323703655      0.00629215141830
  H          -0.22799159504077     -3.74473119584203     -1.53933185216259
  H           1.47742151972308     -4.19115886487308     -1.25605394270301
  C           4.93766517088486      2.75067750133860      0.45553845855571
  H           4.62017656528694      3.00928387693302     -0.56675082829998
  H           4.62660543475266      3.53273240356724      1.15983185129180
  H           6.03298611126536      2.64331056602828      0.46045462024378
  H           1.09697075368399      0.96666614771025     -1.86409597758878
  C           0.04396362521215      0.08183978518735      0.65978712249127
  C          -1.27009951162095      0.45537778415359     -0.09469955621357
  H           0.28872970336041      0.92608162088162      1.32110628304142
  H          -0.20372293648330     -0.76649371224420      1.31521122624773
  C          -2.30298183847589      0.67672170188632      1.05381820759870
  C          -1.07039634643988      1.76140701476715     -0.86740901900940
  C          -1.70810845116650     -0.63684347107291     -1.07482008735687
  C          -3.73487439804707      1.13073962199507      0.78390179990649
  H          -2.35252196077968     -0.25984467344613      1.63012893246345
  H          -1.86457084847201      1.43071113115054      1.72805711532175
  O          -1.21727587958223      1.90653120287920     -2.05623651277351
  O          -0.70063688141309      2.77445651791223     -0.05613875822483
  H          -0.98891628324295     -0.75215785510740     -1.89445488508416
  H          -1.81463126654897     -1.59423549658043     -0.54713157716005
  H          -2.67288040230474     -0.39111388598623     -1.53575556794815
  C          -4.04375184854421      2.01176757353767     -0.40172793922808
  C          -4.66230331442639     -0.84267443298805     -0.11893397553055
  C          -0.47131870509767      4.03171436731871     -0.68867194661231
  H          -3.52978001697469      2.98170195630765     -0.28849816710404
  H          -3.71122998589180      1.57806192361060     -1.35270252694986
  H          -5.12336406861993      2.20317786961632     -0.47299852338983
  O          -5.63551846758601     -0.76551701442568     -0.80634943143738
  O          -4.31006682851389     -1.84112357160126      0.68425311757042
  H          -1.37710910513226      4.37848653081498     -1.20920042717721
  H          -0.19744253766174      4.73226240797239      0.11033350137553
  H           0.34256011157237      3.95311421490686     -1.42582533847945
  C          -5.22625255192129     -2.95217117716997      0.76762382929364
  H          -4.76087817094331     -3.68371490014600      1.43944561242508
  H          -6.19275218054037     -2.61814438392290      1.17542342122853
  H          -5.38883082625465     -3.39192823587897     -0.22786737126807
  C          -4.62101054016669      1.05487846376545      1.81742110005433
  H          -4.37958967398218      0.51109055955840      2.73516799350900
  H          -5.62538178988794      1.47767300454861      1.73194792882393
