64
Coordinates from ORCA-job orca E -1421.292836901834
  C           1.82157764788970      0.76752985995822     -1.04931714245674
  H           1.95467835970611      1.74947348733376     -0.57480672556055
  H           2.74990218494480      0.49707950350279     -1.56861218583363
  C           1.44681897530195     -0.28082209208529      0.00430617375614
  C           2.54608518877260     -0.42790629954593      1.10198417502258
  H           2.23094991437401     -1.23665646438279      1.77906883103736
  H           2.52959203358722      0.49911768491757      1.69374824083437
  C           4.02354356477586     -0.70413884381792      0.72242502871092
  C           1.23898651331615     -1.62423600131326     -0.69886402820458
  O           1.36179413771334     -1.82465257114274     -1.88277845897820
  O           0.89623193207318     -2.59909659119156      0.16768231969542
  C           4.66645858623529      0.48873294006175      0.01135900210707
  O           5.35661032871440      0.42702298300179     -0.97653331262970
  O           4.42039237918502      1.64994183157167      0.65356761241239
  C           4.21270636697689     -1.95786268124005     -0.14100614438662
  H           5.28272293975523     -2.17912216522233     -0.26398363434971
  H           3.73166009402842     -2.82162554651516      0.34281321855286
  H           3.79115077018777     -1.83967999989243     -1.14670233424264
  C           4.80186435865103     -0.88247912257923      2.04959548068721
  H           4.43494387161802     -1.77590151850481      2.57943793633063
  H           5.87807379453948     -1.01887222594763      1.85808216673274
  H           4.67541893198578     -0.01085014871843      2.70842676451462
  C           0.66624324308362     -3.88749200498793     -0.39890430077063
  H           0.40298855940948     -4.54784122901587      0.43706478294301
  H          -0.15540078175050     -3.84860126957552     -1.13028515601532
  H           1.56923429521199     -4.25576428709220     -0.90933688177521
  C           4.99614765311795      2.81977743195457      0.07713692268252
  H           4.59539935013842      2.99136331832400     -0.93419334035624
  H           4.72723357461360      3.65286932290002      0.73898381434449
  H           6.09014378866675      2.72473052428297      0.00420554210515
  H           1.05319775414486      0.84710863480735     -1.82734322685269
  C           0.16562730890072      0.10558991216983      0.80365575710358
  C          -1.18939751850165      0.40479309033131      0.09518922468572
  H           0.42400371884090      0.99235527584040      1.40133466903712
  H          -0.02716299700874     -0.70795137603901      1.51900162262938
  C          -2.18887168862348      0.66411678149444      1.26745686592278
  C          -1.06756424312907      1.66736339101166     -0.76022363882221
  C          -1.66985668843563     -0.74732728188258     -0.78892248902863
  C          -3.65191604010477      0.96443601838482      0.99566144488390
  H          -2.13505759123862     -0.21213798553208      1.93217864533243
  H          -1.79021858148182      1.51609030880771      1.84624380046391
  O          -1.31418496472436      1.74721790764146     -1.93902197455635
  O          -0.64979486639395      2.72711948831911     -0.03661514371155
  H          -0.99023766852560     -0.92418951853610     -1.63072535645963
  H          -1.76486346514365     -1.66825658597934     -0.19609852050770
  H          -2.65516336149632     -0.51850150406384     -1.21563476480553
  C          -3.98972101853031      2.08022486284221      0.04168390672372
  C          -4.98214570590611     -0.72042743679997     -0.75494530497998
  C          -0.50066356075142      3.95308582687062     -0.74948352440354
  H          -3.46918974406691      3.00546887584319      0.34371203849383
  H          -3.66963218276805      1.85154826197595     -0.98484706406709
  H          -5.07047990205182      2.27303061328190      0.01912575256465
  O          -6.00963529434381     -0.18018057853174     -1.02908452611393
  O          -4.78103071999900     -1.93999456798257     -0.29291654463527
  H          -1.45491819306171      4.25850372321751     -1.20507138661240
  H          -0.17234602926885      4.69804639543385     -0.01361422634107
  H           0.24812168318562      3.84890022666858     -1.54974936516586
  C          -5.95936249877970     -2.70581217955163      0.04260309067156
  H          -5.61172611855270     -3.72117049189236      0.26782908355727
  H          -6.45070337231483     -2.26662055779404      0.92476256301196
  H          -6.66371659158035     -2.71347796678707     -0.80219792510277
  C          -4.58903697594993      0.37875396827184      1.76145396492031
  H          -4.32694144036552     -0.39807594863885      2.48586749188185
  H          -5.64438399879672      0.65084259175938      1.67758069337248
