64
Coordinates from ORCA-job orca E -1421.287678688942
  C           1.83131280388590      0.83358434257462     -1.04666338848373
  H           1.94670956021625      1.77670135786686     -0.49501833925940
  H           2.78810638730489      0.58376918861933     -1.52284212291671
  C           1.37332631675181     -0.27838845924124     -0.09566388429651
  C           2.39952073300453     -0.52838777590206      1.05296254755377
  H           2.03561187988469     -1.38425107959577      1.64193513452057
  H           2.35572481830506      0.34790791697291      1.71618846001717
  C           3.89442647703575     -0.79388995509316      0.74136257185539
  C           1.18442967034289     -1.56400520254607     -0.90426851555515
  O           1.36522369178981     -1.68144815096805     -2.09178381343501
  O           0.78393250593712     -2.59232035907957     -0.12882868995795
  C           4.59497629774043      0.44817299812521      0.18543612808222
  O           5.35649586686207      0.46328464862505     -0.75044446741117
  O           4.31113319317531      1.55232157312118      0.90783085011691
  C           4.12214697681511     -1.96548485074814     -0.22234497313365
  H           5.19498924130195     -2.19250972084997     -0.30195837315574
  H           3.60235661559128     -2.86204516629631      0.14838106987729
  H           3.76279234507592     -1.74599760460933     -1.23515972539044
  C           4.58766092587962     -1.10478561130330      2.09086226937786
  H           4.18118734317078     -2.03720589373461      2.51417523211058
  H           5.67232768361326     -1.23896445034007      1.95278051480652
  H           4.42934120103835     -0.29479603603129      2.81807262540519
  C           0.56954356943118     -3.83375034173873     -0.79677634113685
  H           0.26114922207422     -4.54898413338426     -0.02374090432726
  H          -0.21642452296541     -3.73337771596533     -1.56092591723983
  H           1.49228469882853     -4.17548451881219     -1.29002922287208
  C           4.94317890947216      2.75827980404073      0.48533346686371
  H           4.62981461843114      3.02409855282811     -0.53639893569991
  H           4.62831177498453      3.53493603993479      1.19391224653049
  H           6.03857992313294      2.65197658921015      0.49414809847183
  H           1.11536070423664      0.98055502876592     -1.86342215905749
  C           0.05371095842057      0.08298416294676      0.65170552254194
  C          -1.25826089531751      0.45704658928783     -0.10609330711643
  H           0.29523935020315      0.92544553680974      1.31650761973904
  H          -0.19499050587957     -0.76787900416151      1.30351686416797
  C          -2.29679177223554      0.67144808903530      1.03845196739343
  C          -1.05746739406723      1.76545799403381     -0.87392721847469
  C          -1.69382119780663     -0.63335289364106     -1.08912870590483
  C          -3.72514986632158      1.13098803013315      0.76602732816788
  H          -2.35027962588215     -0.27114433085952      1.60483392344774
  H          -1.85960865725732      1.41732401248542      1.72289620804493
  O          -1.20113743053419      1.91464665371199     -2.06260501371366
  O          -0.69043189799636      2.77601261850974     -0.05800571309539
  H          -0.97649347339916     -0.74386442714482     -1.91105696811443
  H          -1.79761156867648     -1.59269801118585     -0.56429843322481
  H          -2.66179531084472     -0.38966375221251     -1.54445484563285
  C          -4.03033042100391      2.00984801377775     -0.41996189763502
  C          -4.71334121224344     -0.90835476330322     -0.19754147291882
  C          -0.45891814695474      4.03526153808566     -0.68568169030035
  H          -3.50316405955123      2.97398601823890     -0.31868971437623
  H          -3.70698383833259      1.56578157994395     -1.36997135005331
  H          -5.10796562669438      2.21352580253336     -0.48639674727177
  O          -5.75349578710188     -0.78525197662385     -0.76997124710109
  O          -4.32815939953469     -1.89897946964592      0.59783562336480
  H          -1.36278731689432      4.38382404945051     -1.20838439399057
  H          -0.18787514037349      4.73329290565941      0.11649332596291
  H           0.35759499456046      3.95898739194523     -1.42016906731941
  C          -5.30864421094016     -2.92208595508611      0.87177289916119
  H          -4.79898342634399     -3.68097861380639      1.47786641210024
  H          -6.15625837964730     -2.49377311376385      1.42898095189356
  H          -5.67804401200029     -3.36085723042788     -0.06711586101107
  C          -4.63577539942343      0.98402773515508      1.75757124080824
  H          -4.40512580824723      0.41684737344116      2.66414243153646
  H          -5.64720495402715      1.38714643223233      1.66114988666375
