64
Coordinates from ORCA-job orca E -1421.322749946819
  C           1.76598674754167      0.77480711244964     -1.05676731874637
  H           1.87679610235004      1.72977963598110     -0.52518278415851
  H           2.72217397018465      0.52227324524559     -1.53271837506125
  C           1.32174559550324     -0.32145065980352     -0.08143497189871
  C           2.35762824458745     -0.54214979254093      1.06425859840198
  H           2.00317738310305     -1.38759740607047      1.67378879386490
  H           2.31369949734118      0.34737479264525      1.70964618431089
  C           3.85179518592294     -0.80604045455991      0.74746519991387
  C           1.13624972583305     -1.62330080919980     -0.86424338358960
  O           1.30967605237540     -1.76226062072209     -2.05054929314012
  O           0.74680008668136     -2.63996878732389     -0.06741226100363
  C           4.54149132818466      0.42826585839868      0.16160664568071
  O           5.29433438912936      0.42870088636295     -0.78140930501820
  O           4.25938448877341      1.54453004588470      0.86556807406058
  C           4.07940968234772     -1.99555252857435     -0.19410192509964
  H           5.15284093743288     -2.21917254763832     -0.27532218395587
  H           3.56615323277727     -2.88703091719312      0.19741430432868
  H           3.71367417192286     -1.79804012304741     -1.20918896575355
  C           4.55536433575489     -1.08693619717315      2.09829177553258
  H           4.15672605450535     -2.01347876735832      2.54139994131308
  H           5.63991617214909     -1.21754800050698      1.95604553703766
  H           4.39670637774240     -0.26428179506341      2.81103585143311
  C           0.54351537145292     -3.89626874469866     -0.71049412183193
  H           0.23779893642370     -4.59796199853295      0.07593755285371
  H          -0.23956207629651     -3.81737123747917     -1.48013690229036
  H           1.47042447544811     -4.24160225781950     -1.19337034300231
  C           4.88027884332257      2.74543974171902      0.41284709330596
  H           4.55646494897815      2.98771596625067     -0.61141730527324
  H           4.56652366212837      3.53461133572116      1.10792527869351
  H           5.97635025079114      2.64596563591093      0.41446753966700
  H           1.04545034039059      0.90021676141684     -1.87330297800862
  C           0.00357393947379      0.04197899216509      0.66805008338442
  C          -1.31471874392475      0.39311517169871     -0.08764566170558
  H           0.24079399911625      0.89660329246011      1.31876510321973
  H          -0.23393157011420     -0.80090176451994      1.33398041400177
  C          -2.34871819204870      0.63395541394810      1.05469422305510
  C          -1.12854507304058      1.68317557120649     -0.89044286582802
  C          -1.75746965958384     -0.71819787682994     -1.04576059370980
  C          -3.82816784754943      0.92905238551611      0.73877802680251
  H          -2.32647102638296     -0.25490234592596      1.70351756445791
  H          -1.97974413345631      1.47293160329166      1.66519716270154
  O          -1.29546623785921      1.80189587209800     -2.08001478889466
  O          -0.74730043039925      2.71304289064308     -0.10798821579897
  H          -1.03718417666189     -0.85348328706937     -1.86109306115661
  H          -1.86521053031232     -1.66528629044447     -0.49984987549656
  H          -2.71509606166047     -0.47504240958253     -1.52364209510056
  C          -4.09038017619885      2.02744897584883     -0.28941414469298
  C          -4.58909979871730     -0.50718164001054      0.10376670179028
  C          -0.54148367134842      3.95968482521832     -0.76905514554443
  H          -3.62181008790646      2.96854964207420      0.03852533608282
  H          -3.70124268626351      1.77010770244435     -1.28209950606944
  H          -5.17162418664720      2.19703387568737     -0.39565911032934
  O          -5.35109756034045     -0.51983975732869     -0.82186650050502
  O          -4.26386122320417     -1.56937003203560      0.84861867139412
  H          -1.46357826231794      4.29257305856124     -1.26944331788785
  H          -0.24912624966218      4.67543748008152      0.00966203834463
  H           0.25208253731252      3.87173601342308     -1.52694045234508
  C          -4.86747845768490     -2.81061890254925      0.47166818198836
  H          -4.52047928443643     -3.55392938967764      1.20015084825271
  H          -5.96485091753950     -2.73183627767912      0.49562148424755
  H          -4.55854784084940     -3.09830532570622     -0.54521584411699
  C          -4.56885549344472      1.16566942000903      2.00444556597983
  H          -4.27111472610166      0.65714241998526      2.92500142040601
  H          -5.52759068502842      1.69060332031815      1.98845240050626
