64
Coordinates from ORCA-job orca E -1421.303813954248
  C           1.77304563063645      0.78434484950691     -1.05428525643422
  H           1.89002553208186      1.73760183370166     -0.52082378703398
  H           2.72709456793435      0.52778353730028     -1.53236806458555
  C           1.32451014905258     -0.31139062834641     -0.08030373650549
  C           2.36126408362088     -0.54017169668810      1.06318008093791
  H           2.00399028329942     -1.38590001487360      1.67064778169893
  H           2.32213079398731      0.34752177941078      1.71135542512644
  C           3.85374341564433     -0.80955478402324      0.74313595112666
  C           1.13018092035230     -1.61074660188725     -0.86504578553785
  O           1.30058447845626     -1.74873335500786     -2.05189073853080
  O           0.73646822223237     -2.62657986293557     -0.06915295271307
  C           4.54801619988491      0.42361034010870      0.16025422227169
  O           5.30043022518400      0.42362042730232     -0.78310241881802
  O           4.27016984263826      1.53919970561277      0.86698820730026
  C           4.07448903294274     -1.99696088864720     -0.20270336167801
  H           5.14677014753340     -2.22503285588274     -0.28671783907119
  H           3.55804451607460     -2.88745158135228      0.18688371172416
  H           3.70754634603484     -1.79451787525305     -1.21636436709835
  C           4.55843994300157     -1.09775470656230      2.09179986657115
  H           4.15646783346148     -2.02381303090302      2.53292352237815
  H           5.64212725478272     -1.23281778528070      1.94713817561816
  H           4.40484486728794     -0.27653978137637      2.80732641926275
  C           0.52380887662825     -3.88027115944990     -0.71411607054777
  H           0.21821381822483     -4.58225138303411      0.07212773161221
  H          -0.26261177995712     -3.79559955391859     -1.47977738110296
  H           1.44658871065024     -4.22922710892205     -1.20225451753463
  C           4.89582591432826      2.73882714121453      0.41749579371093
  H           4.57297374321621      2.98520329380828     -0.60609924676082
  H           4.58520233895873      3.52736493113321      1.11470027161914
  H           5.99149560253442      2.63501442708249      0.41881696881655
  H           1.05163015049676      0.91543633248067     -1.86909794148300
  C           0.01026931932064      0.05900602047052      0.67235430542649
  C          -1.30849132942582      0.41822138555366     -0.07932209649193
  H           0.25440451587290      0.91208952176457      1.32249883696152
  H          -0.23048085352413     -0.78238816317513      1.33907571087321
  C          -2.33554087234558      0.66469289549011      1.06776946323728
  C          -1.11635122836385      1.70802207815396     -0.88131049949962
  C          -1.75874438235867     -0.69054525460160     -1.03629710373513
  C          -3.79931879586497      1.01010631647565      0.77094830891163
  H          -2.33497740577809     -0.23414096887090      1.70372592957751
  H          -1.93839450194220      1.48262842843064      1.69073704809960
  O          -1.27845896400297      1.82768846311959     -2.07139540180962
  O          -0.73535694204751      2.73682494726647     -0.09710237230073
  H          -1.04061103011707     -0.82929844634870     -1.85299400845286
  H          -1.86980247566251     -1.63677210262337     -0.48944781033483
  H          -2.71681968726209     -0.44329808119233     -1.51054011323368
  C          -4.08668751144070      2.03618852942792     -0.31259364020709
  C          -4.62786803999646     -0.60518297440627      0.05901667284712
  C          -0.52204862948264      3.98262333613519     -0.75739153723327
  H          -3.62872635734696      3.00292141776326     -0.04537856855753
  H          -3.70149501798967      1.73271253744860     -1.29348668422119
  H          -5.17115088869986      2.18717791266449     -0.41486771766219
  O          -5.38903878017170     -0.61979507935550     -0.86204969754517
  O          -4.29636303169332     -1.63709795975956      0.83224462875514
  H          -1.43955141344863      4.31715668472110     -1.26505890656857
  H          -0.23396205930823      4.69829518119117      0.02299225275552
  H           0.27700449871098      3.89246724486476     -1.50925605271382
  C          -4.89481774714542     -2.89858178004733      0.49703028667361
  H          -4.54692572876699     -3.61281477010377      1.25336115381625
  H          -5.99228766935461     -2.82153934355804      0.51531577094030
  H          -4.57862507319403     -3.21963985720386     -0.50742543736371
  C          -4.56847498918339      1.19785955101476      1.99244623375652
  H          -4.27517861302977      0.69768556351118      2.91905582768379
  H          -5.54345997616167      1.69102282146052      1.96008455327607
