64
Coordinates from ORCA-job orca E -1421.297083259086
  C           1.79439300271483      0.72267227414847     -1.04355693353559
  H           1.94139638602057      1.72224469438493     -0.61224596335976
  H           2.69941205398320      0.43844635219784     -1.59569834520644
  C           1.47433395295680     -0.28803949036771      0.06362065081428
  C           2.61590038094268     -0.38368082704185      1.12286081018417
  H           2.33299817145913     -1.16637459505397      1.84330902097448
  H           2.61443317054188      0.56658707029308      1.67678141484103
  C           4.07974681467142     -0.66547637154076      0.69782465702272
  C           1.25269664239446     -1.65860718840808     -0.58041764029224
  O           1.32926912189511     -1.90195027781545     -1.76021953018684
  O           0.95611550527755     -2.60385955398391      0.33464717393583
  C           4.68242244373956      0.49846383722043     -0.09197130154329
  O           5.33185521438484      0.39728309891324     -1.10392086524990
  O           4.45413477540508      1.68535863147959      0.50850637296213
  C           4.24644097876697     -1.95614024795838     -0.11424376669422
  H           5.31269948151248     -2.17288181921265     -0.27276322075529
  H           3.79618659824726     -2.80092766077281      0.42908049848111
  H           3.78145906444634     -1.88867007933324     -1.10540563334312
  C           4.91264560188616     -0.77544160172732      1.99890658028283
  H           4.57664839732061     -1.64513324931114      2.58588687756882
  H           5.98127581781343     -0.91294118687190      1.76955009284573
  H           4.80516129676563      0.12595814401277      2.61984010790594
  C           0.72130700961265     -3.91532504725092     -0.17387003806271
  H           0.50703069401344     -4.54813441205848      0.69669100911907
  H          -0.13336050803451     -3.91570895742769     -0.86757842706124
  H           1.60585562546335     -4.28921091074761     -0.71170089993016
  C           5.00069315886923      2.83183276767965     -0.13866453325144
  H           4.56277971451297      2.95819129716115     -1.14120755471246
  H           4.75081614222750      3.69142116759975      0.49622903453523
  H           6.09196985736326      2.73905880550908     -0.24726265498992
  H           0.98927408124851      0.76621213096269     -1.78631261652195
  C           0.21973534006195      0.11706944656767      0.89605077304334
  C          -1.15903878314346      0.38343969326274      0.22540900307303
  H           0.49180961814256      1.02634864154583      1.45246198895547
  H           0.05952776410487     -0.67172281190385      1.64649770065729
  C          -2.13065092766949      0.67290874564395      1.41729856114685
  C          -1.08248274959330      1.61948161322874     -0.67209751609457
  C          -1.67148598906992     -0.79782342475793     -0.60094773619901
  C          -3.59899549563298      0.90937399319146      1.12987963897015
  H          -2.04450920757435     -0.17976361475938      2.10871643775949
  H          -1.74071571991350      1.55533117736603      1.95372858919640
  O          -1.38695590463257      1.66393238995898     -1.83935250705283
  O          -0.63825491116247      2.70196610355411      0.00014301002537
  H          -1.02354037580998     -1.00707329271247     -1.46035042846937
  H          -1.74200958370282     -1.69882278824676      0.02620971407211
  H          -2.67078080407735     -0.58199902080978     -1.00052874781654
  C          -3.97093647727493      2.10005846174144      0.28521420427087
  C          -5.12430175867843     -0.60504962438733     -1.07261165765528
  C          -0.53390583048817      3.90818066673284     -0.75305978018867
  H          -3.46261230543602      3.00786975867438      0.65252580745659
  H          -3.66287160743679      1.96021589145130     -0.76218448665554
  H          -5.05555434006782      2.27274864660003      0.28734491491516
  O          -6.10489825186164      0.06201726116775     -1.18557363172012
  O          -5.00281429863634     -1.87515590724057     -0.75529174001968
  H          -1.51281948063028      4.19740412598656     -1.16474446420019
  H          -0.17080815083778      4.67444782999137     -0.05644818945835
  H           0.17151594506391      3.78460532784647     -1.58913743883850
  C          -6.22055092194002     -2.58038993882057     -0.41817902570934
  H          -5.94075402230359     -3.63422384441995     -0.30351124652736
  H          -6.62933686680561     -2.18807185649460      0.52544012426393
  H          -6.96457783543829     -2.45984000609501     -1.21931744997123
  C          -4.52746976397183      0.13762063722654      1.71689409456597
  H          -4.24677746175449     -0.71531936273339      2.34197884209988
  H          -5.59498949025119      0.33951828696457      1.59425826532778
