64
Coordinates from ORCA-job orca E -1421.290090344009
  C           1.77745693467785      0.79338617022880     -1.05501623850408
  H           1.90506829557416      1.74715953045876     -0.52474629951541
  H           2.72615114803203      0.52914997494986     -1.53948759622553
  C           1.32880553731805     -0.29677616095697     -0.07489128131939
  C           2.37037729339458     -0.52646264129152      1.06420478315656
  H           2.01030544389871     -1.36620092648542      1.67833917062241
  H           2.34081674813474      0.36511779492324      1.70755645900332
  C           3.85931028267669     -0.80892368694436      0.73825418454038
  C           1.12480782545047     -1.59841853703324     -0.85340518995227
  O           1.29283741920656     -1.74319568851031     -2.03974548696263
  O           0.72570368189237     -2.60767308659412     -0.05188818984164
  C           4.55971706352911      0.41489846947375      0.14331479156110
  O           5.30446754319355      0.40325736632598     -0.80603238060417
  O           4.29576430038567      1.53709235157777      0.84493171677712
  C           4.06629759353446     -2.00424238091046     -0.20075423445461
  H           5.13617176356830     -2.24284030420174     -0.28631434786082
  H           3.54271562982822     -2.88743576147599      0.19583067630549
  H           3.69843430478217     -1.80456011656455     -1.21458697655854
  C           4.56846760819434     -1.09393874902593      2.08520559636071
  H           4.16132256876186     -2.01392283798957      2.53420213352457
  H           5.65028243247558     -1.23869915136942      1.93594945709064
  H           4.42517034465922     -0.26698810321214      2.79624262823523
  C           0.49965662982495     -3.86217722331165     -0.69061830912513
  H           0.19685040062252     -4.55958143029470      0.10075832484953
  H          -0.29370480093220     -3.77503620160478     -1.44892121403855
  H           1.41562659385097     -4.21837755260862     -1.18619929357839
  C           4.92555741126345      2.72920441556648      0.38141428452739
  H           4.59517971211213      2.97038931288615     -0.64101963080506
  H           4.62650918118151      3.52478238317227      1.07566694649054
  H           6.02046428207220      2.61790495304039      0.37369355246496
  H           1.05086162951648      0.92818856424660     -1.86457013792833
  C           0.02037743645306      0.08302935538582      0.68293288559486
  C          -1.29892061204582      0.45049067270857     -0.06488938575662
  H           0.27274134566365      0.93481171558596      1.33157225522306
  H          -0.22360857036686     -0.75635166724496      1.35099070970688
  C          -2.32268260109636      0.68860004140171      1.08752425338651
  C          -1.10411519331742      1.74704585507003     -0.85528966661472
  C          -1.74746390470474     -0.65013400676439     -1.03120226536323
  C          -3.77163571241810      1.09035265556284      0.81061859454011
  H          -2.34504844273265     -0.22729322434729      1.69778053716243
  H          -1.89937471950475      1.47704743641699      1.73132607981604
  O          -1.26468594659329      1.87793223617627     -2.04419216808947
  O          -0.72188843899073      2.76841535623882     -0.06130283578137
  H          -1.03014260735642     -0.77996838780245     -1.85003107558985
  H          -1.85599342361586     -1.60106644905285     -0.49216720894717
  H          -2.70797738072498     -0.40225340146419     -1.49913354434835
  C          -4.07713079723856      2.03733108431443     -0.33036220002688
  C          -4.62701762568927     -0.70757873648444     -0.01387480216293
  C          -0.50113327613749      4.01839379000120     -0.71121577558775
  H          -3.59284224298586      3.01134176487618     -0.14562070593868
  H          -3.72245061378387      1.66483468611551     -1.29861229632390
  H          -5.16059519030369      2.20493041409656     -0.41077397554391
  O          -5.40624381437279     -0.71513574428736     -0.91839573960980
  O          -4.31529396844829     -1.71995513065382      0.78925181263512
  H          -1.41464836734911      4.35986653140503     -1.22152174803361
  H          -0.21465322365757      4.72740673312138      0.07580444656176
  H           0.30147559035268      3.93095098335259     -1.45964050434446
  C          -4.95746170566354     -2.97788873229255      0.50857365221994
  H          -4.63824401700543     -3.66787962797837      1.29922653308700
  H          -6.05140581049702     -2.86034707807296      0.51642036877014
  H          -4.64577933481070     -3.35496583557473     -0.47766383917536
  C          -4.59081382820357      1.16919625753512      1.95226217186067
  H          -4.31743829292924      0.65752488322157      2.87888072424403
  H          -5.58017751260598      1.63074482296923      1.89876681419409
