64
Coordinates from ORCA-job orca E -1421.300809442111
  C           1.51857774114597      0.46628863295698     -1.03965692760775
  H           1.64840621545194      1.51350623988690     -0.73560185866367
  H           2.37306975579697      0.16889976061373     -1.66103781039583
  C           1.38929462921307     -0.42986791369314      0.19739673619557
  C           2.64076532922457     -0.33592949857428      1.12432174894512
  H           2.49450934088721     -1.04911232803262      1.94993916723172
  H           2.62947469890048      0.66860583760584      1.57185341721432
  C           4.06701974211143     -0.57366308041989      0.56521638358632
  C           1.19907873593801     -1.87533899979878     -0.26842393281667
  O           1.15586999879500     -2.24453131183582     -1.41663169140252
  O           1.08224217833338     -2.72958783267708      0.76930537783096
  C           4.49700290395660      0.53463629256630     -0.39869912171932
  O           5.03890653732892      0.36617483514878     -1.46356509775432
  O           4.25066606609883      1.76245588045887      0.10425169958246
  C           4.23467412707600     -1.92981484673253     -0.13224366111653
  H           5.28960306744669     -2.09913758593084     -0.39174673817715
  H           3.90613114199697     -2.73849740473631      0.53818483945536
  H           3.66001667033730     -1.99068638114907     -1.06446929691525
  C           5.03997526428464     -0.49758899260142      1.76781748632191
  H           4.82889212753328     -1.31885921459383      2.47107376340373
  H           6.08506237325411     -0.59589210114718      1.43369146278072
  H           4.93655389954254      0.45634930817794      2.30539001774020
  C           0.90333750179133     -4.10341284717850      0.43080535820559
  H           0.81835098173326     -4.64537938501930      1.38117182378397
  H          -0.00706352446501     -4.24005046346986     -0.17254531505155
  H           1.76203476587902     -4.47659476453144     -0.14804465489501
  C           4.63934959131254      2.86477844535257     -0.71217143025132
  H           4.08087163638297      2.86062930548666     -1.66136797526761
  H           4.40568127067190      3.77020623468895     -0.13775409492121
  H           5.71446206310828      2.82302979228948     -0.94337857159518
  H           0.63562178983349      0.38927529924921     -1.68653523345067
  C           0.20201164148666     -0.00559623102203      1.11387023686281
  C          -1.24202455956350      0.11698966864027      0.55726293155231
  H           0.46980025090568      0.97032786840495      1.54404220447738
  H           0.16177875152870     -0.71749648733036      1.95248819875436
  C          -2.13614314903145      0.45186700270528      1.80252491036820
  C          -1.35579998010835      1.27221815946394     -0.43377813718367
  C          -1.74361212019746     -1.16585246836375     -0.11123343255740
  C          -3.60031706950923      0.74614298138776      1.55357742209791
  H          -2.05283700729612     -0.41269189486879      2.47999412934470
  H          -1.68263631643366      1.31250180511935      2.32089171057960
  O          -1.86915209048376      1.21253789296747     -1.52523702658233
  O          -0.84342290969836      2.41547952084234      0.06366579300837
  H          -1.22140265524387     -1.37110625374290     -1.05315777162513
  H          -1.60220312973959     -2.01987690803998      0.56832253064987
  H          -2.81039970307302     -1.08302812682173     -0.34845770444046
  C          -3.97037008297885      2.13224465699951      1.08820584236599
  C          -4.64836059787311      0.49804404039645     -2.29870138649469
  C          -0.92550634973668      3.56118130815261     -0.78210943255316
  H          -3.46182539436869      2.89628955186711      1.70013645610474
  H          -3.68319609228580      2.30001251829933      0.03958362481568
  H          -5.05568553040215      2.29497791060555      1.14468242082005
  O          -5.37627689447863      1.15429331954996     -1.62075792776261
  O          -4.52817497736617     -0.80568857792253     -2.38738403228696
  H          -1.97459288978333      3.80369400130588     -1.00976252179122
  H          -0.45524945084401      4.38418720979570     -0.22929872562877
  H          -0.39591885021632      3.38225786090213     -1.73015456835279
  C          -5.42037028875588     -1.59967927857970     -1.56504552137276
  H          -5.13892871019551     -2.64510819859540     -1.73685988558920
  H          -5.29365302744972     -1.32803666367327     -0.50767696630846
  H          -6.46367939510384     -1.42629324738384     -1.86926907807456
  C          -4.53596433423494     -0.18498871025430      1.79556844565032
  H          -4.26919372793778     -1.18294741819060      2.15689540360649
  H          -5.59995198043281      0.02676227502324      1.65403598726889
