64
Coordinates from ORCA-job orca E -1421.298956225537
  C           1.60661633979819      0.46773081662330     -1.05588510009962
  H           1.72131967277681      1.51649872925273     -0.75109742529595
  H           2.47868142401340      0.17537516275622     -1.65491438745309
  C           1.45189513763876     -0.42647797696451      0.17947573136595
  C           2.67878040527909     -0.32226750183517      1.13734687779652
  H           2.51883619069440     -1.03754825388233      1.95859697640094
  H           2.64794346569991      0.68148778993595      1.58559459085299
  C           4.12041399276536     -0.54694244782544      0.61308410719070
  C           1.28367421813478     -1.87415174846101     -0.28775700488678
  O           1.27155873026016     -2.24626977370706     -1.43583980628583
  O           1.14915170495344     -2.72739360790958      0.74873892374205
  C           4.56616703654222      0.56925090197436     -0.33433505254556
  O           5.13755976657150      0.41037506124531     -1.38523336924396
  O           4.29626596846539      1.79279439413655      0.16708939185415
  C           4.31519504117199     -1.89819196530597     -0.08684210182974
  H           5.37740717224222     -2.05878282680487     -0.32098003852953
  H           3.97556612691128     -2.71274013513717      0.57082171688077
  H           3.76375201391033     -1.95791068726164     -1.03300713709761
  C           5.06282011705976     -0.47039764719471      1.83976206430773
  H           4.84030900106634     -1.29735238477090      2.53271682490641
  H           6.11654219810905     -0.55910948627277      1.53102286195349
  H           4.93908413398741      0.47957372726973      2.38012802148126
  C           0.98454599383527     -4.10237856465715      0.40879900209834
  H           0.88769631685339     -4.64414188101927      1.35818238859003
  H           0.08442372229223     -4.24515009589353     -0.20846295794446
  H           1.85446592428770     -4.47084087388076     -0.15616603854989
  C           4.69582417165664      2.90170941783539     -0.63481887055441
  H           4.16605192255739      2.89331901175489     -1.60026774432509
  H           4.43447059709108      3.80280845583389     -0.06552434894180
  H           5.77782410998663      2.87345607699949     -0.83394106419130
  H           0.74025131535891      0.38332384856247     -1.72393189184507
  C           0.23917091109479     -0.00713857461299      1.06493856547321
  C          -1.19281853523661      0.10553950373261      0.47381088996485
  H           0.49206034434550      0.97100130060314      1.49884770429414
  H           0.18247909606646     -0.71770433999386      1.90382780831804
  C          -2.11342576140256      0.44040400013212      1.69890454163594
  C          -1.28654426002144      1.25673178939057     -0.52478640397606
  C          -1.66896139615361     -1.18554418049766     -0.19800400810351
  C          -3.56908634115286      0.76792739045126      1.43217405330805
  H          -2.05958457058059     -0.43427458320412      2.36635029922042
  H          -1.65731111719154      1.28521585145990      2.24053695146703
  O          -1.77173847892418      1.19583762241634     -1.62775072206829
  O          -0.78458287984912      2.40292721148391     -0.01560156293052
  H          -1.11670990196574     -1.39125502140592     -1.12303596419214
  H          -1.53114098594938     -2.03346317281694      0.49040309219726
  H          -2.72939480548288     -1.12085539834261     -0.46735728738613
  C          -3.89961316987209      2.18452576455158      1.03281785110020
  C          -5.00506700738173      0.44978330088510     -1.38724860472129
  C          -0.83232261083831      3.54300567149298     -0.86929598640340
  H          -3.42525369614197      2.90037697940318      1.72552798256309
  H          -3.53042985522130      2.41678791353075      0.02225600046462
  H          -4.98381707875320      2.35780241337730      1.02360393665211
  O          -6.02614497243885      1.01851615049634     -1.15422386992771
  O          -4.79447238832377     -0.81836010705635     -1.65510930607815
  H          -1.87017380187922      3.78302064819493     -1.14668134586159
  H          -0.38921698623520      4.37086064308728     -0.30125743002226
  H          -0.26005180927954      3.36137790996686     -1.79203330153468
  C          -5.94172178710793     -1.69863852170293     -1.59422289666346
  H          -5.59873811280141     -2.67115342294779     -1.96623908056386
  H          -6.28763527854597     -1.78592342519212     -0.55318736263382
  H          -6.75461906745554     -1.30499548175945     -2.22173737224115
  C          -4.52429999627211     -0.15269696411773      1.63498448316909
  H          -4.27651854509288     -1.16818215948910      1.95873565715483
  H          -5.58222908592604      0.08339775308692      1.49110754852335
