64
Coordinates from ORCA-job orca E -1421.295962296060
  C           1.77562293079043      0.78929205520653     -1.05352689623359
  H           1.89741678923585      1.74240063620056     -0.52079181383047
  H           2.72750852297663      0.52920369290908     -1.53400516595235
  C           1.32592127836550     -0.30437077695614     -0.07776381023121
  C           2.36443989150776     -0.53518472149375      1.06376067186654
  H           2.00539992577383     -1.37865586651256      1.67332954588837
  H           2.32989307425968      0.35366727849551      1.71061244218188
  C           3.85523761947763     -0.81071456644632      0.74093932352606
  C           1.12644742167452     -1.60397284157841     -0.86081781225972
  O           1.29569742336063     -1.74407532295612     -2.04756972894788
  O           0.72992883877011     -2.61740110277710     -0.06327762371450
  C           4.55261436328213      0.41850273557907      0.15350796654393
  O           5.30221689131801      0.41361690487882     -0.79207146203984
  O           4.28120780493587      1.53665475515676      0.85870260329410
  C           4.06950678091084     -2.00109616202452     -0.20267451432652
  H           5.14067604718056     -2.23398439026073     -0.28772376880610
  H           3.54979901559058     -2.88851532738642      0.18956298737724
  H           3.70200158749579     -1.79918609623241     -1.21621719613243
  C           4.56187028747509     -1.09848640743889      2.08866336442199
  H           4.15736257389770     -2.02199641114654      2.53279978466726
  H           5.64469582345841     -1.23806760539813      1.94183078544120
  H           4.41310146883571     -0.27507043565440      2.80268205094474
  C           0.51106874150355     -3.87086730255992     -0.70655540419402
  H           0.20566197626203     -4.57120049479592      0.08123163520532
  H          -0.27771617460651     -3.78410156267874     -1.46958351899374
  H           1.43103920302377     -4.22326114240917     -1.19749404392060
  C           4.90965847307484      2.73296251731231      0.40428572540780
  H           4.58411152226793      2.97810600303096     -0.61875361204674
  H           4.60431697333612      3.52423239387849      1.10072370661963
  H           6.00494354034235      2.62517972639292      0.40202271294085
  H           1.05246440282787      0.92275781930613     -1.86638325870612
  C           0.01440991872434      0.07064445505147      0.67726364865950
  C          -1.30453271506392      0.43419043364329     -0.07242434318940
  H           0.26264279499388      0.92291543096111      1.32690524090193
  H          -0.22812143607321     -0.76983929830913      1.34449213059468
  C          -2.32932316232384      0.67901533348364      1.07713306576740
  C          -1.11064900757907      1.72647737918252     -0.87009436286428
  C          -1.75546644456658     -0.67118972501994     -1.03254121110234
  C          -3.78576652689874      1.05067062471419      0.78924787282470
  H          -2.33950318180442     -0.22633699484039      1.70364683311917
  H          -1.91932020136199      1.48462995934486      1.70813917388095
  O          -1.27125245885644      1.85028038929360     -2.05988145197961
  O          -0.72954473589242      2.75249489060016     -0.08204976459071
  H          -1.03740012792360     -0.80804532792574     -1.84962665725642
  H          -1.86729736227986     -1.61872250747044     -0.48819654558021
  H          -2.71374019705021     -0.42223036188475     -1.50498336774784
  C          -4.08371978409659      2.03666999884512     -0.32405681137388
  C          -4.63370333989569     -0.65625548622979      0.02756377609564
  C          -0.51263222122212      3.99976999182134     -0.73839567512517
  H          -3.62137781627046      3.01149458493384     -0.09427755599486
  H          -3.70680517555330      1.70259022642975     -1.29799618397261
  H          -5.16868277748587      2.18733266103022     -0.41979070882659
  O          -5.40024996011256     -0.67117468252137     -0.88786786058686
  O          -4.30510836871977     -1.67673633751718      0.81432824667311
  H          -1.42797210372315      4.33674575360366     -1.24836215102984
  H          -0.22622277377821      4.71310627497669      0.04474065812592
  H           0.28878170210691      3.91054266119752     -1.48787263074885
  C          -4.91496274846132     -2.94149235766237      0.50350419713260
  H          -4.57006838152184     -3.64439764513676      1.27167213952089
  H          -6.01164018741311     -2.85467870322304      0.52414200780462
  H          -4.60359092815876     -3.28249402061696     -0.49582977379272
  C          -4.57661624450096      1.19530120532799      1.97666898722322
  H          -4.29071337137488      0.69381689061964      2.90492941408572
  H          -5.55878569446736      1.67304632165632      1.93383398736108
