64
Coordinates from ORCA-job orca E -1421.294583873623
  C           1.81085830750110      0.75007810421782     -1.04650934074554
  H           1.95080937842646      1.73969643515236     -0.59041596133949
  H           2.72862890143062      0.47348633304318     -1.58109859899578
  C           1.46012449529856     -0.28253056332839      0.03069990745224
  C           2.57821006283753     -0.40648847193999      1.11216175165918
  H           2.27635206719642     -1.20317935894055      1.80922854637384
  H           2.56872298157604      0.53158177958402      1.68643805309511
  C           4.05004083858292     -0.68610571722783      0.71357015508124
  C           1.24715011277644     -1.63810438251598     -0.64711855805625
  O           1.35170959899893     -1.85717820166441     -1.82951563042342
  O           0.92342993234713     -2.60044626152829      0.24047296473664
  C           4.67549348219783      0.49212502532609     -0.03634951528970
  O           5.34588387375621      0.41038816154336     -1.03631253074102
  O           4.43949351937120      1.66644611489616      0.58547678916485
  C           4.22932097483396     -1.95915438278121     -0.12327782038131
  H           5.29793877314755     -2.17881503463107     -0.26057251705761
  H           3.76131227208460     -2.81314304172495      0.38981253013834
  H           3.78909679673848     -1.86671558679048     -1.12365067686611
  C           4.85220619233199     -0.82985214774898      2.03060786935773
  H           4.49847981786845     -1.71120677761417      2.58896874149389
  H           5.92531072276508     -0.96738268640389      1.82315142254625
  H           4.73427439813487      0.05734587683410      2.66986685757087
  C           0.69207004840777     -3.89918293102950     -0.30141016261839
  H           0.44812364506813     -4.54774556310536      0.54950730735517
  H          -0.14265027475240     -3.87736145630809     -1.01857806784407
  H           1.58827800460509     -4.26980069327482     -0.82197164656095
  C           5.00264892168357      2.82457810344112     -0.02576673625673
  H           4.58436868341587      2.97433254604837     -1.03346320009723
  H           4.74371907190170      3.67114622343287      0.62284083776384
  H           6.09544370021921      2.72977165056428     -0.11552606601935
  H           1.02582926327701      0.81438077808734     -1.80913332637207
  C           0.19026761209687      0.11086281566955      0.84490506666925
  C          -1.17540062634202      0.39422346533608      0.15249711623832
  H           0.45397586734865      1.00776772524610      1.42490385731328
  H           0.01238262046822     -0.69228908930070      1.57578286567921
  C          -2.16361623516017      0.66588757481143      1.33285387687753
  C          -1.07458760364629      1.64521746982665     -0.72198249875464
  C          -1.66952176239179     -0.77138158961491     -0.70615485492012
  C          -3.63034758479095      0.93408075631847      1.05454920762457
  H          -2.09252343814182     -0.19841644018444      2.01141984200093
  H          -1.77134546429610      1.53400681349047      1.89138234784874
  O          -1.34792267092651      1.70909089739000     -1.89597545649334
  O          -0.64509469206344      2.71553859342817     -0.02136205654366
  H          -1.00230778365880     -0.96371677157202     -1.55457075000027
  H          -1.75580647586185     -1.68308133303860     -0.09742847077706
  H          -2.65984820959332     -0.54690360141411     -1.12328623560613
  C          -3.98209316886892      2.08573411572050      0.14967973640897
  C          -5.03691129293989     -0.66477140021042     -0.87327517789242
  C          -0.51763186693164      3.93309318087028     -0.75255086847887
  H          -3.46352686244607      3.00153695177882      0.48163895692022
  H          -3.66881606743655      1.89562948018098     -0.88735144524039
  H          -5.06401644564025      2.27267854843844      0.13935067761639
  O          -6.04097937317344     -0.05920327903673     -1.08916738811678
  O          -4.88257170804051     -1.91446350625304     -0.48503939879526
  H          -1.48404587902703      4.23033972793797     -1.18742224164708
  H          -0.17323889321486      4.68783341556896     -0.03420021372375
  H           0.21103736412938      3.82115025895489     -1.57012719018725
  C          -6.08777748032828     -2.64853226015433     -0.17144218769083
  H          -5.77868567902985     -3.68697713801174     -0.00280494090331
  H          -6.54960108934705     -2.23525541627691      0.73850673612940
  H          -6.80187211200504     -2.58519712866407     -1.00571541538004
  C          -4.56451775806382      0.26334667118665      1.74913676551320
  H          -4.29384668688335     -0.54743964646901      2.43198999378138
  H          -5.62670711782158      0.50315626443350      1.65253636640551
