64
Coordinates from ORCA-job orca E -1421.296007698780
  C           1.80261167073894      0.73808059191398     -1.04422825500490
  H           1.94704630419859      1.73250573563871     -0.60022485452666
  H           2.71336947203679      0.45757253779781     -1.58874717621941
  C           1.46788449890207     -0.28396976571014      0.04805900305538
  C           2.59819624984417     -0.39391291633615      1.11809737877627
  H           2.30563133938077     -1.18334025470875      1.82727177732734
  H           2.59343879312771      0.55050382711597      1.68193504496523
  C           4.06579835289505     -0.67542608190583      0.70579216898734
  C           1.25020603609439     -1.64694707668590     -0.61316234091271
  O           1.34115776906405     -1.87803105206976     -1.79440535400566
  O           0.93947378784221     -2.60087009418272      0.28807039533170
  C           4.68006254063576      0.49489649755997     -0.06541265605167
  O           5.33899691104435      0.40240980858037     -1.07203548790852
  O           4.44941471571041      1.67606296326975      0.54536573615840
  C           4.23776391526436     -1.95808975870618     -0.11779650443695
  H           5.30510620668986     -2.17683510562628     -0.26595713984952
  H           3.77837545081542     -2.80693129216243      0.41138157047455
  H           3.78478140508950     -1.87871259146170     -1.11360506536169
  C           4.88400396579504     -0.80148547304348      2.01473672180664
  H           4.53897852180725     -1.67642145319811      2.58850122622869
  H           5.95475466366626     -0.93963599737179      1.79587226227693
  H           4.77213655312547      0.09348342057723      2.64414661128627
  C           0.70621914869912     -3.90596278511326     -0.23738660789778
  H           0.47730242962211     -4.54690023296075      0.62343769555808
  H          -0.13879652127599     -3.89516869293569     -0.94270050590411
  H           1.59652352282220     -4.27800220617152     -0.76694832041213
  C           5.00453907329058      2.82776344567782     -0.08503680006308
  H           4.57492358627636      2.96611742487646     -1.08959568729490
  H           4.75207968102588      3.68125800930194      0.55700925160875
  H           6.09635863116526      2.73289442783261     -0.18597133158490
  H           1.00663105510950      0.79258259776174     -1.79612244561486
  C           0.20585871435717      0.11475720538669      0.87189709106482
  C          -1.16655081122802      0.38921846802206      0.19053960347205
  H           0.47360073403989      1.01793903381866      1.44021382828912
  H           0.03725716194427     -0.68140930209647      1.61258221895157
  C          -2.14666941000758      0.66954475258366      1.37650825066889
  C          -1.07819432185359      1.63279218981166     -0.69559376572827
  C          -1.67001607962883     -0.78411543016345     -0.65213036468345
  C          -3.61434009940161      0.91806604163426      1.09189801472255
  H          -2.06685889774314     -0.18814484441351      2.06245805423105
  H          -1.75710999679941      1.54610594002371      1.92318233801606
  O          -1.36741790072742      1.68686065257184     -1.86629168498386
  O          -0.64152917520742      2.70941042833104     -0.00917567087558
  H          -1.01067379387681     -0.98698051474908     -1.50429824599747
  H          -1.75222841753847     -1.68982487124912     -0.03358484055741
  H          -2.66325813110487     -0.56215951875461     -1.06361073261967
  C          -3.97725510080627      2.09020556884149      0.21783356655796
  C          -5.07694719140477     -0.63921625832510     -0.97843457601039
  C          -0.52610330116348      3.92136683398916     -0.75153345195932
  H          -3.46439202174246      3.00254290621815      0.56745651012735
  H          -3.66692462064389      1.92637378426655     -0.82504781577449
  H          -5.06066723527552      2.26930697631228      0.21443019111203
  O          -6.06663643108703      0.00321986461975     -1.14618109229353
  O          -4.94567859960275     -1.89887706380050     -0.62050052641651
  H          -1.49894415862659      4.21399458767302     -1.17504531806389
  H          -0.17279064350636      4.68212756163466     -0.04394871410842
  H           0.19120586023136      3.80398888392464     -1.57834193091260
  C          -6.16169332013989     -2.61027104895950     -0.29324101268027
  H          -5.87196373712057     -3.65681949920155     -0.14179763444753
  H          -6.59842809158036     -2.19719417287106      0.62890044712503
  H          -6.88795747543276     -2.52217787506878     -1.11467566527344
  C          -4.54587131376286      0.19020089470766      1.72894312817175
  H          -4.26898900630110     -0.64303016080401      2.38166559815584
  H          -5.61162291776203      0.40721952853186      1.61799389192780
