64
Coordinates from ORCA-job orca E -1421.300400113455
  C           1.59744419817499      0.49640203612655     -1.04571896054317
  H           1.73233158176151      1.53914905432367     -0.72858658057171
  H           2.46177355697189      0.19606444913992     -1.65192224666875
  C           1.43195902761068     -0.41032890231240      0.17900745510540
  C           2.66398135657348     -0.33873106166648      1.13313598597822
  H           2.49360761536928     -1.05803407475538      1.94888420169565
  H           2.65323912367624      0.66148166468175      1.59022723622425
  C           4.09971208764921     -0.58544479333478      0.60248079297709
  C           1.23742495381305     -1.84913284674862     -0.30521993054877
  O           1.22193226889496     -2.20816437310291     -1.45747628482338
  O           1.08195549604744     -2.71093994511089      0.72105468168315
  C           4.56111223452399      0.52854579049722     -0.34004005818223
  O           5.12370347659089      0.36592701623781     -1.39506582233853
  O           4.31804263442184      1.75347775463317      0.17155390506969
  C           4.26906371150615     -1.93566544792233     -0.10593326687526
  H           5.32802292780270     -2.11403346078025     -0.34199476239869
  H           3.91549729201283     -2.74817449850170      0.54695487686894
  H           3.71636065305529     -1.97967619782222     -1.05222913335479
  C           5.04670186874117     -0.53240766943002      1.82691321489564
  H           4.81195001804590     -1.35960132417040      2.51552794665608
  H           6.09788243830932     -0.63725800491894      1.51464135371546
  H           4.94054719594661      0.41633666258906      2.37305817553612
  C           0.89434585254832     -4.07909016517635      0.36562089090100
  H           0.78072976409618     -4.62874361747377      1.30857165630881
  H          -0.00367139834920     -4.19890434785261     -0.25955209229370
  H           1.76136754287638     -4.45781121038701     -0.19697848870515
  C           4.73347701687206      2.86008667713276     -0.62565486262327
  H           4.19739513029159      2.86800271002766     -1.58759796712974
  H           4.49283900087933      3.76210966957227     -0.04875987304934
  H           5.81343366934618      2.81269342328555     -0.83202764478969
  H           0.72727275255782      0.43591196202829     -1.71129919128355
  C           0.22939399556473      0.01659705258717      1.07467557073470
  C          -1.20021535328233      0.17036964671250      0.48777955139740
  H           0.50143024660653      0.98100370996513      1.52751243668425
  H           0.15971139434423     -0.70885515773896      1.89946414164938
  C          -2.11379322116958      0.49799572748129      1.72134249054418
  C          -1.27165523194333      1.34482641732955     -0.48611453204619
  C          -1.70445647796383     -1.09234945121938     -0.21595965372036
  C          -3.57586838006433      0.77803004066955      1.45221389445689
  H          -2.03409120361478     -0.36535860700351      2.40067823998216
  H          -1.67354154390965      1.36245973950492      2.24515415181476
  O          -1.75000392847567      1.31272883253380     -1.59363197544612
  O          -0.75970594328531      2.47254393693647      0.05080297614185
  H          -1.13420039800427     -1.30747461310922     -1.12770071153965
  H          -1.62308804018541     -1.95468858470884      0.46338586323557
  H          -2.75235086274424     -0.97778669938320     -0.51806917463160
  C          -3.94831228274867      2.14393913345864      0.93029623510525
  C          -5.31981606238434      0.48902716767703     -1.78964972477836
  C          -0.79385105273230      3.63347923733890     -0.77594031536209
  H          -3.46385645253678      2.93548978900397      1.52683452709688
  H          -3.62457300797636      2.27963613707775     -0.11387644293554
  H          -5.03592861602858      2.29737007211312      0.94984175157654
  O          -6.30140588456574      0.84535930160964     -1.21583433599061
  O          -4.85188987914431     -0.71722857337291     -1.99724724419564
  H          -1.83012883515483      3.89979576219056     -1.03432845545957
  H          -0.32844246669705      4.43870540565330     -0.19346030974071
  H          -0.23591769852802      3.46248237154346     -1.70924252447763
  C          -5.62589842619344     -1.82273316120335     -1.46637379496844
  H          -5.12133273053714     -2.73418767946649     -1.80698686800962
  H          -5.63865690199257     -1.77381163749548     -0.36824638973479
  H          -6.65482664366289     -1.78036830000245     -1.85309211133611
  C          -4.51161029806887     -0.15070270305238      1.70277323441069
  H          -4.24490159206943     -1.13753502150647      2.09410922368041
  H          -5.57247126946937      0.05170377906721      1.53072506842619
