64
Coordinates from ORCA-job orca E -1421.300325793969
  C           1.60235317986552      0.49319093402087     -1.05203360727472
  H           1.73147815445400      1.53656982581167     -0.73461297109493
  H           2.47075487565878      0.19622364819376     -1.65408004138259
  C           1.43450455747076     -0.41392123458579      0.17212482378815
  C           2.66117209536984     -0.33753452618212      1.13265612230970
  H           2.48980355447583     -1.05842686877413      1.94675686937638
  H           2.64385723495933      0.66209115604944      1.59081278863672
  C           4.10057677557064     -0.57766606077397      0.60900425126847
  C           1.24745346563601     -1.85335913370012     -0.31305210586001
  O           1.23380050267704     -2.21160243586621     -1.46552019128910
  O           1.09521828147206     -2.71659462309764      0.71263789299798
  C           4.56415016226554      0.54153038579413     -0.32625440661521
  O           5.13333249184750      0.38493564813716     -1.37867082611318
  O           4.31336751312066      1.76365634860191      0.18832849932037
  C           4.27783449547167     -1.92445365929088     -0.10392424135174
  H           5.33843897934036     -2.09817734691414     -0.33598875137911
  H           3.92401420614720     -2.74075618485369      0.54403407059422
  H           3.72947490112583     -1.96654968254926     -1.05286935636928
  C           5.04076252172688     -0.52698898660518      1.83877727211539
  H           4.80466388544830     -1.35778396282519      2.52257730051216
  H           6.09392299599055     -0.62742589396357      1.53178364519073
  H           4.92879327461381      0.41912668368489      2.38830896222844
  C           0.91326934726251     -4.08513813324392      0.35595170606479
  H           0.80158178044790     -4.63611100187718      1.29837556776642
  H           0.01593833495662     -4.20806101421483     -0.26960664205769
  H           1.78200741641349     -4.45984471910976     -0.20671223079439
  C           4.73010323123594      2.87475712740846     -0.60188905018321
  H           4.19946470543899      2.88509789193665     -1.56682178787230
  H           4.48354037297676      3.77367403223708     -0.02264765635669
  H           5.81134486755915      2.83131179039863     -0.80229996279644
  H           0.73546433026392      0.42878819987270     -1.72156205188840
  C           0.22585929591551      0.00936358339151      1.06123379821542
  C          -1.20224823838443      0.15288895503269      0.46803289119625
  H           0.49115986943353      0.97680921752922      1.51153326942919
  H           0.15647759098157     -0.71358558886967      1.88835423978493
  C          -2.12242229121375      0.48160434915463      1.69565208922762
  C          -1.27605850190861      1.32197453075019     -0.51181746109005
  C          -1.69705198320535     -1.11684410337284     -0.22997224727171
  C          -3.58116192863214      0.78073996869698      1.42230817839531
  H          -2.05539704736643     -0.38673974222099      2.36998370912365
  H          -1.67804831262651      1.33824421730986      2.22878375257002
  O          -1.75354475459400      1.28375682754071     -1.61938053922623
  O          -0.76785984402469      2.45398486174768      0.02060305669855
  H          -1.13742032849158     -1.32095225793960     -1.15077362670081
  H          -1.59051358983398     -1.97872027213394      0.44651771564078
  H          -2.75146584879300     -1.01916102776574     -0.51373673170757
  C          -3.93471481819821      2.16268058500044      0.93058781215686
  C          -5.22423298069879      0.49240409579334     -1.64034367929930
  C          -0.80246139532020      3.61035246115685     -0.81217658916508
  H          -3.45134362126999      2.93271007702271      1.55549330225829
  H          -3.59558119604520      2.32395207655921     -0.10475473637531
  H          -5.02099987995750      2.32451515982301      0.93952553348548
  O          -6.24448353636416      0.88203724139088     -1.16379683657630
  O          -4.80697979026729     -0.73067083282260     -1.85945458289833
  H          -1.83835135223436      3.87121092392868     -1.07769257393996
  H          -0.34341190550797      4.42055931578765     -0.23153002110805
  H          -0.23880086318239      3.43685903658136     -1.74161176372239
  C          -5.67708541129870     -1.80848522584804     -1.43318645004229
  H          -5.21294427417816     -2.73243963822565     -1.79708278722843
  H          -5.74313409479601     -1.81511922144563     -0.33592955695568
  H          -6.67941891223241     -1.67766925357038     -1.86676665573149
  C          -4.52682101881812     -0.13896452316766      1.66891128924111
  H          -4.26992776163060     -1.13135657208450      2.05384501348864
  H          -5.58687376651924      0.07801257154979      1.50846729663583
