64
Coordinates from ORCA-job orca E -1421.299637300085
  C           1.60515676686610      0.47758028131929     -1.05551018692802
  H           1.72688938469473      1.52405901687993     -0.74561455772882
  H           2.47566253307280      0.18206257908692     -1.65524956977956
  C           1.44307880166881     -0.42150995414514      0.17531244664668
  C           2.66853506090928     -0.32855678647050      1.13600754398623
  H           2.50189983146702     -1.04470806865729      1.95523020002161
  H           2.64351263600431      0.67430488294578      1.58664048356101
  C           4.10981851554284     -0.56189846980035      0.61459203833907
  C           1.26779996596059     -1.86610615306207     -0.29888672205433
  O           1.25879800586577     -2.23348738404337     -1.44853541733867
  O           1.12227823605578     -2.72268096578666      0.73334943959953
  C           4.56440217132154      0.55262945684434     -0.33059914238607
  O           5.13529406937352      0.39135209691748     -1.38139349165302
  O           4.30325462498040      1.77724364740628      0.17283547927064
  C           4.29743872215747     -1.91342009543904     -0.08675493362276
  H           5.35926642298764     -2.08077862075162     -0.31792355935680
  H           3.95039054747816     -2.72673041841163      0.56859004311107
  H           3.74871769194674     -1.96788640673018     -1.03481611441439
  C           5.04984718335340     -0.49307867314071      1.84355959756944
  H           4.82040547349105     -1.31958391945916      2.53479410479432
  H           6.10367459130988     -0.58811327415331      1.53710615858242
  H           4.93085228801038      0.45690492503180      2.38494102762652
  C           0.95123341867515     -4.09528893052712      0.38713828759240
  H           0.84275966172961     -4.63973568278092      1.33372863537688
  H           0.05554207410069     -4.22987723987123     -0.23833970179297
  H           1.82346945801312     -4.46768554622050     -0.17167049199453
  C           4.71103060583507      2.88456800375307     -0.62719894232471
  H           4.17976250006064      2.88265663827961     -1.59186965684218
  H           4.45796984713604      3.78657509065049     -0.05561072716852
  H           5.79244763921384      2.84764933372952     -0.82797542332361
  H           0.73871312925665      0.40253477579650     -1.72459702538249
  C           0.23058097278909     -0.00025154833091      1.06016886022329
  C          -1.19751085575146      0.12848412586119      0.46376739588047
  H           0.48882180831530      0.97219870261105      1.50361145710851
  H           0.16537505915843     -0.71754166193557      1.89257820421753
  C          -2.12267070347416      0.45482913394029      1.68790900267915
  C          -1.28070186132806      1.29240143081214     -0.52115081011766
  C          -1.68068579199223     -1.14977739611714     -0.22701849389469
  C          -3.57828377956411      0.77356141651489      1.41429979509730
  H          -2.06700833569892     -0.42107119162529      2.35352554831459
  H          -1.67293399976910      1.30120217909754      2.23266270033736
  O          -1.76540799213395      1.24798809166461     -1.62522641352940
  O          -0.77220721973182      2.42876064788519      0.00265898884706
  H          -1.11992312937085     -1.35356083770682     -1.14728886904427
  H          -1.56341618871537     -2.00655520243521      0.45420851381405
  H          -2.73634840906118     -1.06471004796062     -0.50926473687734
  C          -3.91391354131778      2.17956418076804      0.98150293483889
  C          -5.12469742056461      0.49501389743744     -1.46768254476715
  C          -0.81395642443127      3.58036489938544     -0.83599989194278
  H          -3.42991919852677      2.91476404802958      1.64656758897129
  H          -3.56017623424490      2.38283328052584     -0.04115833877184
  H          -4.99833919267299      2.35243144039817      0.98400664647552
  O          -6.16745919185168      0.94644913553989     -1.10851234095079
  O          -4.79164974906824     -0.74486628505432     -1.73552649568663
  H          -1.85137328273750      3.83474042479116     -1.10191817827302
  H          -0.35820151616461      4.39604715603899     -0.26042133509430
  H          -0.25056119654692      3.40487786658044     -1.76528711907180
  C          -5.80037787232541     -1.75882041305433     -1.50850247778247
  H          -5.39277911606153     -2.68954727473490     -1.91995446126865
  H          -5.98207934014429     -1.86294554112370     -0.42844355482979
  H          -6.73531803794692     -1.48251463640300     -2.01747121073448
  C          -4.53139318340167     -0.14658028324692      1.62837206988361
  H          -4.28092884174648     -1.15492208652969      1.97244627396020
  H          -5.58927809245685      0.08266820918623      1.47467147000173
