64
Coordinates from ORCA-job orca E -1421.300456474846
  C           1.59595020692875      0.49691435176301     -1.04798119535343
  H           1.72989728470159      1.53956005164510     -0.73010179098905
  H           2.46125989994434      0.19728200435919     -1.65311431608037
  C           1.42901728020194     -0.41056179020794      0.17600651809905
  C           2.65940034744577     -0.33908702968944      1.13224617028824
  H           2.48766006091922     -1.05864758336131      1.94748022422512
  H           2.64778485490313      0.66095790409355      1.58968502053452
  C           4.09611792577096     -0.58569384722693      0.60415358649851
  C           1.23540956019154     -1.84908968463801     -0.30940069984230
  O           1.21975368430417     -2.20714059516032     -1.46193545279050
  O           1.08081381985755     -2.71190800702397      0.71621320020189
  C           4.56010093651062      0.52921430504875     -0.33600270775939
  O           5.12450051467188      0.36760830362722     -1.39022752156809
  O           4.31586708102890      1.75366531157287      0.17617135731895
  C           4.26636283584301     -1.93513068989961     -0.10551472924102
  H           5.32568856471201     -2.11344454440648     -0.33996854235406
  H           3.91143095974326     -2.74832886226131      0.54576864929287
  H           3.71531261955846     -1.97788742514386     -1.05284459365313
  C           5.04065702434299     -0.53463985628405      1.83055897024687
  H           4.80404792404264     -1.36257185126162      2.51764482291682
  H           6.09240784667640     -0.63965172354445      1.52027386756492
  H           4.93386732817526      0.41349256317220      2.37763044108444
  C           0.89408875971273     -4.07985035964185      0.35965182527343
  H           0.78138117483982     -4.63046059090083      1.30216006533601
  H          -0.00415730730932     -4.19984531643941     -0.26516883059735
  H           1.76110922296014     -4.45739416442656     -0.20375323439944
  C           4.73300239964384      2.86097593297607     -0.61916150996051
  H           4.19919698537109      2.86958135328305     -1.58236145631081
  H           4.49089047616697      3.76249041350312     -0.04209420488779
  H           5.81344989830703      2.81387737922346     -0.82303071631874
  H           0.72674053665925      0.43634042610045     -1.71482160626770
  C           0.22476099173483      0.01566522785332      1.06963585586714
  C          -1.20360504012081      0.16824455670795      0.47974180841565
  H           0.49542710020770      0.98028050568315      1.52289614331773
  H           0.15382930859587     -0.70979409260628      1.89433662142819
  C          -2.12039664778611      0.49715736454284      1.71033295284375
  C          -1.27365589566674      1.34187086367804     -0.49532425297542
  C          -1.70678984701662     -1.09512834943416     -0.22346205773996
  C          -3.58205139149904      0.77856307947168      1.43735155148608
  H          -2.04354440042550     -0.36587946479161      2.39039275005829
  H          -1.68112492517195      1.36152629540758      2.23510246947654
  O          -1.75043897200372      1.30916388084959     -1.60347486362974
  O          -0.76418615355559      2.47050690238262      0.04224613491386
  H          -1.14130216423632     -1.30617213209055     -1.13915895155999
  H          -1.61837890759973     -1.95941369217822      0.45250298770412
  H          -2.75660942967867     -0.98206445063622     -0.51874076679271
  C          -3.95152991672960      2.14668800755156      0.91941988957598
  C          -5.27349430285005      0.49526595167624     -1.71651326443546
  C          -0.79827370285261      3.63107304266398     -0.78495637388606
  H          -3.46211419147304      2.93541570663464      1.51553537792353
  H          -3.63021966921280      2.28231690574325     -0.12552647435672
  H          -5.03840090082885      2.30380081893534      0.94220126283802
  O          -6.26531960132844      0.84969808653593     -1.15936822256495
  O          -4.81499039230184     -0.71121257396207     -1.94286900675478
  H          -1.83447024020755      3.89650918365288     -1.04460064280758
  H          -0.33412760836784      4.43686795014977     -0.20225261354820
  H          -0.23920908120453      3.46015849168596     -1.71759898168740
  C          -5.60693807263368     -1.82024389976437     -1.44797023100191
  H          -5.10350921464032     -2.72875187357421     -1.79812542885928
  H          -5.63811975829992     -1.79383997735144     -0.34934098229882
  H          -6.62869158074195     -1.76161606457017     -1.85124896525058
  C          -4.51783459091412     -0.14971574860952      1.68997814708202
  H          -4.24975371687888     -1.13402897469996      2.08670218482154
  H          -5.57876779113734      0.05097209361230      1.51740433188899
