64
Coordinates from ORCA-job orca E -1421.330462789498
  C           1.76307230650018      0.77081176570560     -1.05759943482268
  H           1.87074758345512      1.72623173747561     -0.52621240398932
  H           2.72042061345372      0.52062635439693     -1.53245337934455
  C           1.32069358747068     -0.32639324319727     -0.08250720769170
  C           2.35577796015287     -0.54385029888809      1.06447903231570
  H           2.00274892784896     -1.38981116768902      1.67413401342373
  H           2.30894223391501      0.34596258343866      1.70928083691717
  C           3.85100668984145     -0.80415024488413      0.74962276576002
  C           1.13962706976031     -1.62896310578262     -0.86524912000472
  O           1.31474758480111     -1.76759353578031     -2.05134897661046
  O           0.75167668648895     -2.64636765502978     -0.06873774514112
  C           4.53808534288758      0.43142451646321      0.16336081159001
  O           5.29199917014981      0.43295312703393     -0.77879291878305
  O           4.25291192085578      1.54746663310977      0.86644857921914
  C           4.08301154191279     -1.99397463235880     -0.19048298970885
  H           5.15715590027793     -2.21471703463900     -0.27010958031251
  H           3.57172611540373     -2.88647627148487      0.20126344656373
  H           3.71807603592270     -1.79850888901110     -1.20624304100050
  C           4.55370792052000     -1.08185372283264      2.10158110635580
  H           4.15710932120339     -2.00912278333590      2.54498907178811
  H           5.63879519073480     -1.20954751200881      1.96080028597897
  H           4.39184695013693     -0.25901367465699      2.81338572352366
  C           0.55197071638438     -3.90330387395703     -0.71182221411257
  H           0.24794198103659     -4.60576027727805      0.07457062960740
  H          -0.23122299020754     -3.82649903448325     -1.48155056957112
  H           1.47990547450905     -4.24607770140555     -1.19451997251975
  C           4.87199077994830      2.74936729883567      0.41384158406635
  H           4.54957487911154      2.99007456703921     -0.61122485490466
  H           4.55527460803179      3.53842338777684      1.10770568818809
  H           5.96827248243214      2.65227722603738      0.41756663405794
  H           1.04315664093846      0.89402729571367     -1.87506881590110
  C           0.00047892146923      0.03326258576928      0.66531323235251
  C          -1.31756130986075      0.38047711642412     -0.09250246282969
  H           0.23422745991532      0.88851151072093      1.31647942329583
  H          -0.23544837898532     -0.81050700789046      1.33062326594146
  C          -2.35399259565778      0.61964481134435      1.04826536963473
  C          -1.13365157067252      1.67022752238733     -0.89631548105739
  C          -1.75683776380083     -0.73266327806802     -1.05039656898185
  C          -3.84188144032717      0.89171521804383      0.72428043110851
  H          -2.32151528221652     -0.26351881454305      1.70372272085023
  H          -1.99800165699526      1.46897304477608      1.65104323135916
  O          -1.30291030432338      1.78804302618286     -2.08563621458316
  O          -0.75286899807865      2.70106334951926     -0.11495381823605
  H          -1.03510350249315     -0.86707694153113     -1.86456652050903
  H          -1.86364709657339     -1.67957890080851     -0.50410633403339
  H          -2.71399702734698     -0.49186668955554     -1.53067551327233
  C          -4.09184567611983      2.02181417279135     -0.27874705302513
  C          -4.56555209549157     -0.45701619237469      0.12843598253497
  C          -0.55085574641225      3.94790842989843     -0.77683777412045
  H          -3.61262201288785      2.94797497829486      0.07318107498568
  H          -3.70540465938287      1.78186790393793     -1.27682484690851
  H          -5.17094472168644      2.20486983495713     -0.38257445700090
  O          -5.33255076654183     -0.47247784065859     -0.79706707820260
  O          -4.24421708801939     -1.53677855257005      0.85834894919429
  H          -1.47501749347233      4.27938864941105     -1.27434968007331
  H          -0.25712308376669      4.66418304938488      0.00088055679124
  H           0.24044963892174      3.86098788010653     -1.53717609543742
  C          -4.85669871818342     -2.76534188137246      0.46422204593603
  H          -4.51163537891381     -3.52321399751364      1.17870173742641
  H          -5.95364166191380     -2.68126511830058      0.49333914234975
  H          -4.55502736623184     -3.03915642346506     -0.55876057908936
  C          -4.56931633985316      1.14679362635791      2.00716101095226
  H          -4.27291924292515      0.62970413192524      2.92328472560616
  H          -5.51793826705081      1.68989896209518      1.99851059210421
