64
Coordinates from ORCA-job orca E -1421.313240431749
  C           1.76985321933264      0.78058021438008     -1.05475322744957
  H           1.88332928108221      1.73453817257391     -0.52185526097887
  H           2.72522573628161      0.52638982604581     -1.53145749209351
  C           1.32326359485472     -0.31583959947696     -0.08065186002635
  C           2.35926780020257     -0.54102464852309      1.06410469246872
  H           2.00303597783717     -1.38663918822920      1.67234626522989
  H           2.31790637144625      0.34745714311979      1.71107662109780
  C           3.85249255173398     -0.80818764834614      0.74579632759787
  C           1.13374311483751     -1.61613538153744     -0.86501048639173
  O           1.30579903933088     -1.75404258053486     -2.05163289064608
  O           0.74217370128829     -2.63283236698788     -0.06918551604062
  C           4.54516437847081      0.42546208065868      0.16204379371247
  O           5.29744859540617      0.42583777902574     -0.78141709391657
  O           4.26418889491896      1.54156212998642      0.86672377393308
  C           4.07608458143471     -1.99634145877138     -0.19842767530841
  H           5.14883404857115     -2.22262916134593     -0.28123411340208
  H           3.56086107023224     -2.88726397375129      0.19178471133205
  H           3.70971918765575     -1.79577361037070     -1.21269400453226
  C           4.55636145732332     -1.09371612672410      2.09547236767673
  H           4.15556995960004     -2.02003849690071      2.53710462823151
  H           5.64043726809739     -1.22699525775536      1.95206919165519
  H           4.40054873361655     -0.27205103991956      2.80998784960252
  C           0.53476260068981     -3.88761125566711     -0.71381908495736
  H           0.22863611320662     -4.58978017576667      0.07204189343635
  H          -0.24943231913464     -3.80563078416756     -1.48202160223238
  H           1.45999589887027     -4.23449821521278     -1.19879343956005
  C           4.88705718224501      2.74198053480811      0.41544031446351
  H           4.56411252723744      2.98572658624761     -0.60875268256431
  H           4.57409065234809      3.53095413129025      1.11110115653159
  H           5.98298168745753      2.64091487880934      0.41751463997358
  H           1.04918925872743      0.90895019478469     -1.87068387671941
  C           0.00680845671920      0.05060580918895      0.67023129746680
  C          -1.31184380649257      0.40519907526584     -0.08347710955307
  H           0.24711506236476      0.90462169134482      1.32059251449340
  H          -0.23200751335593     -0.79153155819110      1.33668055874941
  C          -2.34243420387028      0.64922036390625      1.06105165895966
  C          -1.12310940894642      1.69473144661663     -0.88658861975948
  C          -1.75845120072724     -0.70536317027698     -1.04039544096422
  C          -3.81383741197286      0.96876339308317      0.75452673571800
  H          -2.33081125622984     -0.24450270328276      1.70387059488086
  H          -1.95950195675534      1.47805240606154      1.67776248637828
  O          -1.28743005540938      1.81314083911591     -2.07653871084996
  O          -0.74112041651783      2.72431901790486     -0.10404919931088
  H          -1.03950173665089     -0.84265516499162     -1.85660040150133
  H          -1.86748008302732     -1.65182339677552     -0.49356679295400
  H          -2.71649718967053     -0.46043359050945     -1.51625869323252
  C          -4.08891839367998      2.03239904142937     -0.30050385263952
  C          -4.61094075821961     -0.55630529955042      0.08218159874313
  C          -0.53133821230329      3.97007151016013     -0.76554117025724
  H          -3.62797850478270      2.98737337040008     -0.00075597866478
  H          -3.70007581367420      1.75415834727886     -1.28758106349504
  H          -5.17203049113226      2.19065061225287     -0.40619711361263
  O          -5.37094183775516     -0.56923036242642     -0.84199487089467
  O          -4.28142952705470     -1.60234999702891      0.84137852559768
  H          -1.45129605817541      4.30396692930120     -1.26917064252131
  H          -0.24028265691235      4.68606127532061      0.01344690023292
  H           0.26446596383934      3.88022555046451     -1.52086651773276
  C          -4.87944493447639     -2.85498137577515      0.48395107155636
  H          -4.53108607013511     -3.58354215343669      1.22638846399846
  H          -5.97703722734557     -2.77937582619098      0.50419675649434
  H          -4.56531680535481     -3.15814919829182     -0.52674794094722
  C          -4.56769535565767      1.18422440275811      2.00055233150371
  H          -4.27076598721289      0.68137444419280      2.92452465721296
  H          -5.53530677462713      1.69227156893964      1.97669004678132
