64
Coordinates from ORCA-job orca E -1421.300148746296
  C           1.59319009727813      0.51311202875237     -1.04129923293313
  H           1.73579246840424      1.55280540834350     -0.71735288043543
  H           2.45503480316242      0.21097031913688     -1.65012654452059
  C           1.42252709634188     -0.40071575269627      0.17742676770497
  C           2.65716723646813     -0.34635714033549      1.12925314821767
  H           2.48278770994663     -1.06988657834477      1.94043492676864
  H           2.65548460739744      0.65066586844509      1.59340487663501
  C           4.08982410897069     -0.60079756969279      0.59402950842720
  C           1.21377816492241     -1.83420715811291     -0.31655057932347
  O           1.19178545827132     -2.18471211370424     -1.47131223983556
  O           1.05282235395047     -2.70182842914902      0.70393812039225
  C           4.55839233949987      0.51632873387757     -0.34118436972114
  O           5.11780958172425      0.35691767612399     -1.39837247566265
  O           4.32585642530123      1.73935005180622      0.17977083288966
  C           4.24727960356338     -1.94722249857643     -0.12415922893766
  H           5.30446392127487     -2.13233812901065     -0.36296363183445
  H           3.88822638175139     -2.76158466071562      0.52341667815802
  H           3.69316391486996     -1.98042134803100     -1.07011869606776
  C           5.03921555554790     -0.56402890934058      1.81723885470428
  H           4.79900980012879     -1.39429661069270      2.50025103999794
  H           6.08903212868405     -0.67489340792431      1.50249994812499
  H           4.94134786806192      0.38160699064060      2.37025573298344
  C           0.85199303034579     -4.06569499949457      0.33927964843550
  H           0.73670477461319     -4.62113723643019      1.27862349756139
  H          -0.04913531471756     -4.17314644313762     -0.28367229774261
  H           1.71373021146441     -4.44791590065918     -0.22900920431592
  C           4.74841134238949      2.84848551597049     -0.61022219596058
  H           4.21163880412629      2.86664834919217     -1.57161796607993
  H           4.51456309304420      3.74818682561308     -0.02694672539481
  H           5.82785160894931      2.79495911895161     -0.81779210954755
  H           0.72233914855165      0.46288032377264     -1.70666200674961
  C           0.22591738024043      0.02963757790684      1.07933635338485
  C          -1.20511130044026      0.19729958869861      0.49931706446780
  H           0.50616156625574      0.98938997256018      1.53723627768035
  H           0.15387908935610     -0.70028097864316      1.89988822539279
  C          -2.10946270096844      0.52980042039593      1.73830924915665
  C          -1.26796553452491      1.37391189179552     -0.47299806242575
  C          -1.72464582235140     -1.05812255852139     -0.20619204273664
  C          -3.57790927317187      0.78343412670122      1.48072305498476
  H          -2.01094372759683     -0.32203483266365      2.42953259109617
  H          -1.67570426474601      1.40812733498631      2.24440909862662
  O          -1.73772039175126      1.34374458562981     -1.58444848621953
  O          -0.75878580381129      2.49973469905001      0.06918552488832
  H          -1.15724499734885     -1.27978174975516     -1.11805663433568
  H          -1.65785771448027     -1.92261678648648      0.47188605401209
  H          -2.77056963409163     -0.92662681900965     -0.50846906581422
  C          -3.97449454021202      2.11738775803223      0.89822778372626
  C          -5.36933132876086      0.43143546379918     -1.96273594758268
  C          -0.78623995961558      3.66234194602660     -0.75590008140955
  H          -3.49816877370732      2.94354451128527      1.45312269441432
  H          -3.65977437484177      2.20929118142142     -0.15332017005280
  H          -5.06420338675743      2.25565872395626      0.91904018547636
  O          -6.29468994996905      0.78820389692177     -1.30241530391414
  O          -4.86204437182943     -0.76469842160103     -2.13343643833811
  H          -1.82043203494765      3.92827255326331     -1.02273111785725
  H          -0.32627104937885      4.46661363559901     -0.16785045929055
  H          -0.21999487964720      3.49312693386670     -1.68448778088205
  C          -5.51516420319036     -1.86058578176155     -1.44254336253802
  H          -4.95845772756952     -2.76343607575060     -1.71847401257325
  H          -5.47418411791830     -1.69503580988899     -0.35665281183824
  H          -6.56300971057332     -1.93695570317226     -1.76914137600835
  C          -4.49968056671141     -0.14233427529890      1.78771654603077
  H          -4.21747822907733     -1.10745660390080      2.22027922422883
  H          -5.56532599014982      0.04178726997953      1.62459203031160
