101
Coordinates from ORCA-job orca E -2005.481112462361
  C          -0.05790090652330     -0.13727062936933     -1.59584227109199
  C           1.11186051393924     -0.19166243697767     -0.71887758111933
  O           1.75188761453357     -1.21707201067280     -0.52732409240660
  O           1.53007051456635      0.94555201005171     -0.12953297293096
  C          -0.69616587340419      1.16506117995324     -1.95132559420903
  H          -1.68254062444781      1.20033737157407     -1.45112044462989
  H          -0.90988920770917      1.19140788436775     -3.03574532032739
  C           0.67678120121174      2.12073646372903     -0.10904920832490
  H          -0.16047889391692      1.89046528647887      0.57687250837539
  C           0.13345254653236      2.36967141832953     -1.50880443504825
  H          -0.48999105203565      3.27651270282113     -1.50894266921535
  H           0.97971971015184      2.55063706813840     -2.18868116402118
  C          -0.62105548983361     -1.44696074414114     -2.04173540523204
  H           0.17945379631291     -2.19214203356918     -1.96765763495332
  H          -0.92823659373658     -1.38990810498081     -3.09977066459812
  C           2.97699338760792      0.07302252298329     -3.48141068735884
  C           3.79402788823364      0.41373392470475     -2.47539019963867
  H           2.39085985980697      0.83562138551807     -3.99877048608961
  H           2.88373450336733     -0.96761775602829     -3.80376127146240
  C           3.81667071712273      1.85863279016013     -2.06560814711003
  C           4.65209588774688     -0.56658909081152     -1.71603225118128
  O           3.17953187028477      2.72102139673946     -2.62975303031028
  O           4.55123067115920      2.20634799495688     -0.99517110278404
  H           5.64648021692390     -0.62558693032419     -2.19931182683137
  H           4.20272347401903     -1.56859690024311     -1.76805532315503
  C           4.82377528109815     -0.12258364715912     -0.26586312489189
  C           5.36477365191440      1.29631342155402     -0.21431520631085
  H           5.52482506069439     -0.79143872068956      0.25691072085355
  H           3.85587162094659     -0.17638773197447      0.25440575225366
  H           6.37585202675942      1.31967312687811     -0.66592704292384
  C           1.52253441895364      3.24519092025104      0.47189740680187
  H           2.34397633565751      3.47433027695374     -0.22564989117463
  H           1.98919042200861      2.86108795472731      1.39540921548792
  C           5.42725774209326      1.90433285063103      1.18209036813291
  H           4.41366954304246      1.87072625803580      1.61828506482983
  H           5.68318186770011      2.97169402873193      1.06951948709173
  C          -4.58306687097179     -1.56034288688985     -1.30034609428400
  C          -4.56838107798618     -1.90393135918303      0.19982925808885
  O          -4.15300667093709     -2.97048439169419      0.59222249876925
  O          -5.09249399949674     -1.05407504578498      1.08706420887392
  C          -5.39034105951669     -0.26987944952772     -1.55448831779310
  H          -6.46980925136204     -0.49233067667440     -1.48484802499714
  H          -5.21154272366431      0.07439688308983     -2.58661820799837
  C          -5.41910917444401      0.33882377126864      0.85821933285003
  H          -6.51973540186210      0.39016911140548      0.95612783953258
  C          -5.03033874268379      0.80443071851045     -0.53791948110323
  H          -5.55871453495798      1.74528658341244     -0.75614224036888
  H          -3.95050836810533      1.01410262604745     -0.56374222374910
  C          -5.29681133594014     -2.73305862456237     -2.00488989030775
  H          -4.76906362201255     -3.68314792381679     -1.85887244203542
  H          -5.36870882643166     -2.52989118607788     -3.08570902416298
  C          -3.14093407913944     -1.35849576525975     -1.88428689474095
  C          -1.88683563887564     -1.98370532536591     -1.23296682795547
  H          -2.96337362153188     -0.27946437242880     -1.94670515365865
  H          -3.16975717527715     -1.71792353071914     -2.92633578586383
  C          -1.70250843567365     -1.42288335311861      0.18339510360090
  C          -1.87552120769753     -3.53765435750732     -1.29333543836367
  O          -2.18650348205300     -0.35936878495709      0.51693308302438
  O          -0.89719513356885     -2.06332668124970      1.02120337826299
  H          -1.27323353597578     -3.84133840875000     -2.16532602004429
  H          -2.88924938561197     -3.90833552283184     -1.47091902852031
  C          -1.34223375036863     -4.19848471442319     -0.01628761376783
  C          -0.29709687481750     -3.34327805625939      0.67963372745308
  H          -0.91447255545988     -5.18533554096397     -0.25034204063551
  H          -2.17508251641540     -4.34887692830713      0.68691483482773
  H           0.55820278947519     -3.12683733425815      0.01977187086468
  C          -4.77048193613418      1.11938825360027      1.99708899209697
  H          -3.68033029892931      0.97671952168499      1.92331546327860
  H          -5.08615733231450      0.65090327599307      2.94484600877975
  C           0.23021801893597     -3.90504240003946      1.99194781084763
  H          -0.62371937738612     -4.11746733402414      2.65956935411552
  H           0.81732011962702     -3.10619563027970      2.47559206250966
  H          -6.31918629575468     -2.86002076442053     -1.61491376497235
  C          -5.12426842701323      2.60794106297429      2.01373813179801
  H          -6.22391645123356      2.72910734706743      2.01803484942518
  H          -4.77016424258228      3.08913172383766      1.08493650791281
  C           1.10195602923293     -5.15146710973705      1.82631379697157
  H           0.51224159426369     -5.96791173830010      1.37336341864176
  H           1.91698325040403     -4.93247132601133      1.11223816362101
  C           0.72965496599350      4.51349316428472      0.79435405104681
  H          -0.12801936045050      4.25924483413418      1.44488059150369
  H           0.29634642869083      4.93175010801551     -0.13114302253955
  C           6.43060176976198      1.22959007893455      2.11954695633155
  H           6.15536719356308      0.17079972383405      2.26737677958597
  H           7.42872652582457      1.22070549316644      1.64348057679085
  C           6.51873753115438      1.92007764632479      3.48077179978673
  H           7.24420018828468      1.42007850048228      4.14221261768074
  H           6.83043473529606      2.97295813760400      3.37611394229948
  H           5.54157785217097      1.91552300734132      3.99228519629256
  C           1.58818646770944      5.58130581943233      1.47241173564534
  H           2.43869969673432      5.87155310216960      0.83325237724207
  H           1.00640929901723      6.49121512208995      1.69083539362771
  H           2.00378104481032      5.21248682764566      2.42540955688099
  C          -4.52395254521646      3.33853647700677      3.21528432624650
  H          -4.77884830301425      4.41052882965811      3.20798380812617
  H          -4.88940775267588      2.91303160711664      4.16494796128692
  H          -3.42426415947307      3.25424471684709      3.21993854726814
  C           1.69612877569988     -5.63511894380302      3.14915400932043
  H           0.90367869748968     -5.88809806459439      3.87359824268324
  H           2.31929614930217     -6.53294494499086      3.00903738911375
  H           2.32745270879339     -4.85736909949655      3.61076050845972
