101
Coordinates from ORCA-job orca E -2005.472460774226
  C           0.15842804734951     -0.09115729396208     -1.32456452653911
  C           1.16214296484901     -0.16652679683405     -0.25739892113869
  O           1.73664975403974     -1.20116035935824      0.04433887336828
  O           1.54527579239065      0.97646504423377      0.34399027227962
  C          -0.56933171300409      1.18908434297292     -1.59019969180181
  H          -1.54654843604331      1.11121807243924     -1.07975696857880
  H          -0.79572555463554      1.28289065141739     -2.66693022524357
  C           0.70717883910900      2.16217675897948      0.33135696356440
  H          -0.13082878476088      1.95709463337373      1.02353810083567
  C           0.15991607998420      2.42314198393650     -1.06444550070463
  H          -0.54095164833983      3.27082398187085     -1.01759891636631
  H           0.97973157302665      2.71971073438717     -1.73335298357485
  C          -0.36630793969081     -1.40038342112032     -1.83304015207867
  H           0.42090001800480     -2.14869855830736     -1.68578835681672
  H          -0.56008276314816     -1.33101906508230     -2.91689718498960
  C           2.07462514019545      0.12857802595372     -2.95717426567517
  C           3.23018967518295      0.45396947092822     -2.33697079436478
  H           1.46807212607259      0.90631573119969     -3.42069020153884
  H           1.83656577506714     -0.91558825501114     -3.16001557116478
  C           3.53315588362151      1.90680335649750     -2.14844313407906
  C           4.18532494639591     -0.55214875509897     -1.75474316159315
  O           2.90977797330989      2.79313992626371     -2.69098095979559
  O           4.51845608101277      2.24631668337966     -1.29727066129708
  H           5.02613289312443     -0.70280623895726     -2.46014315595051
  H           3.68254763573376     -1.52136060077546     -1.63122879546304
  C           4.73129307826258     -0.04799677837783     -0.41969561376717
  C           5.38014932106046      1.31526928818152     -0.59509374548022
  H           5.48342643704706     -0.74961030258359     -0.02701300582573
  H           3.91703922869636      0.00865308064100      0.31824706548080
  H           6.28642402960534      1.20941198268722     -1.22245875186357
  C           1.58039393355980      3.27811211109637      0.89045628634218
  H           2.42597473596229      3.44171016644978      0.20082960861863
  H           2.01229275951585      2.91554421527891      1.83928677626447
  C           5.75125242448140      2.01177092512654      0.70939213966992
  H           4.83038793428889      2.13178119831736      1.30690652949436
  H           6.09601698393641      3.02935678917681      0.45840494996017
  C          -4.38695494215859     -1.56611446916770     -1.54324510256323
  C          -4.53982985233465     -1.95044022050717     -0.06100253673796
  O          -4.16251179581829     -3.02524847601085      0.34682346749081
  O          -5.16695789881820     -1.12750685577069      0.78356444329192
  C          -5.17795673814512     -0.27819770004462     -1.85511129827036
  H          -6.25522136775630     -0.51422991587596     -1.91258889175274
  H          -4.88944936557285      0.09453883341221     -2.85194930032938
  C          -5.48167864523764      0.26790049498314      0.55478405058568
  H          -6.58690579039063      0.30725083076954      0.53412107472782
  C          -4.95012635924513      0.77390273638916     -0.77919778921578
  H          -5.46761617158685      1.71235526964223     -1.03114196691868
  H          -3.87813556282109      1.00178347878315     -0.68202184105737
  C          -5.00065708931638     -2.72664458375896     -2.35449552127065
  H          -4.48670117729764     -3.67681990812994     -2.16644393875750
  H          -4.94507706093369     -2.49903166826442     -3.43135843166369
  C          -2.89038838218863     -1.33190718443575     -1.95247278693109
  C          -1.70732334534790     -1.96512506077904     -1.18275364155167
  H          -2.72176065224145     -0.25017226412273     -1.96648086205654
  H          -2.79611471345744     -1.66186433902569     -3.00056332783627
  C          -1.70130460856803     -1.46336036218844      0.26793229494602
  C          -1.67146488010740     -3.51725099942428     -1.30189923945617
  O          -2.23100880096247     -0.41505244476336      0.58113903670344
  O          -1.01611126637490     -2.14136724742906      1.17753910891719
  H          -0.95577238782941     -3.78204292427818     -2.09737162537520
  H          -2.64820872888930     -3.88481887370739     -1.63008238690006
  C          -1.30506562238826     -4.23179860956469      0.00438555702837
  C          -0.36749134435390     -3.40436302123333      0.86683583035538
  H          -0.84052461557124     -5.20540927540636     -0.21485663505992
  H          -2.22159752797420     -4.41627164630489      0.58406358899556
  H           0.56523671717780     -3.15712903933676      0.33538770848047
  C          -4.96904435547814      1.02563179750750      1.77552741255775
  H          -3.87568492118139      0.89527052025555      1.81625851116078
  H          -5.37866389322550      0.53011134287750      2.67219330238227
  C          -0.01609989180792     -4.01891916756444      2.21411689591182
  H          -0.95071152836593     -4.25439501773861      2.75341488298150
  H           0.50036324857086     -3.24153701929260      2.80191439965373
  H          -6.06100465807716     -2.86810345054878     -2.09183556368025
  C          -5.34119279637816      2.50969481549193      1.78967755799598
  H          -6.43669641872953      2.61995190873770      1.68170337540471
  H          -4.89832526020471      3.01718102714790      0.91444922287922
  C           0.87189145224208     -5.26117100911796      2.11726600978605
  H           0.34609097186674     -6.05963948640675      1.56450777737426
  H           1.77137140768509     -5.01970902514787      1.52173210096658
  C           0.83775069274425      4.59328473119049      1.13450601980663
  H          -0.05219770904109      4.40313119073581      1.76305524822214
  H           0.45711549443050      4.99145579714356      0.17795725262455
  C           6.82300362744603      1.28988685502341      1.52855618856615
  H           6.46021436346566      0.29025209040021      1.82426955670456
  H           7.71364798360241      1.11642961068739      0.89636540094489
  C           7.22739341995140      2.06918588804355      2.78022065018430
  H           7.99485730835802      1.53297487365635      3.36091692229062
  H           7.63534788867261      3.06028414149955      2.51972865260374
  H           6.36086865622134      2.23354630683616      3.44244282553857
  C           1.72082299513965      5.64836103990167      1.80085858280036
  H           2.60429203221280      5.87515885641184      1.18093661423152
  H           1.17387482818187      6.59114050204247      1.96192702501652
  H           2.08662499183352      5.30128412185842      2.78200156353639
  C          -4.87872386485512      3.21662735641463      3.06407208064095
  H          -5.14579087837885      4.28563885100763      3.05555229350709
  H          -5.33520682277268      2.76362226528797      3.96009482039438
  H          -3.78443911800237      3.14384045175479      3.18150763035423
  C           1.29295565048143     -5.79198967769354      3.48775853359642
  H           0.41472845656433     -6.06608660689100      4.09626894663711
  H           1.92936382776897     -6.68694303750148      3.39746541340435
  H           1.86001757030504     -5.03264012778077      4.05198053501444
