101
Coordinates from ORCA-job orca E -2005.478153258076
  C           0.08288883881217     -0.07948058001229     -1.31035538747844
  C           1.15995455317295     -0.14208413066274     -0.32296401895976
  O           1.75609373777367     -1.17470310583660     -0.05130106061402
  O           1.57100234802034      1.00412592424638      0.25518018147746
  C          -0.60521234834763      1.20986699625322     -1.61776703045816
  H          -1.58705432737605      1.17944385348510     -1.10870823171309
  H          -0.82822757817446      1.26996487725376     -2.69810935285271
  C           0.73743409247293      2.19243779278936      0.25146642332098
  H          -0.08950443875887      1.99704643335757      0.96023797612020
  C           0.16778080649662      2.43738913099888     -1.13834869030041
  H          -0.50592327299951      3.30708396719316     -1.10143887329430
  H           0.98598747639025      2.69090853847120     -1.82758633623419
  C          -0.42469103087769     -1.38515083155806     -1.83298870498680
  H           0.37012886700295     -2.12713249820114     -1.69607813915336
  H          -0.62358452221147     -1.30522396884057     -2.91554089297552
  C           2.27581894623753      0.13224214661075     -3.10664461515155
  C           3.36998930337231      0.45026088015617     -2.39569223166070
  H           1.65558978162190      0.91645973479284     -3.54275414478673
  H           2.02142868103288     -0.91055694380803     -3.30673241368992
  C           3.62616401897763      1.90528091503996     -2.13536181615651
  C           4.30643954607147     -0.55911940238136     -1.78629671178840
  O           2.99788826522590      2.79657436570111     -2.66268759448734
  O           4.56615400631580      2.23360539715853     -1.23197936235218
  H           5.18158348127242     -0.68736166439648     -2.45252028050363
  H           3.80616770568405     -1.53460907979166     -1.70812920899038
  C           4.78361060022368     -0.07996445550259     -0.41649560824635
  C           5.42104053259806      1.29455183701884     -0.53197292338068
  H           5.52638912721629     -0.78158768866995     -0.00643061127391
  H           3.93530440942657     -0.05034282646071      0.28376311222250
  H           6.34711662125283      1.21824867483406     -1.13453250492770
  C           1.62270209880571      3.31155665696633      0.78471176501829
  H           2.44621320632540      3.48101610922641      0.07096217255667
  H           2.08379128084468      2.94922696463638      1.71983078595037
  C           5.74449111100623      1.95928937804614      0.80120380853294
  H           4.80558644410459      2.05208295444808      1.37492308380085
  H           6.08274587850306      2.98756060029525      0.58751353066941
  C          -4.44095519339074     -1.57383661395926     -1.51806303971584
  C          -4.57925885779849     -1.96801371762302     -0.03685321109281
  O          -4.18970042902603     -3.04171820753367      0.36246194952319
  O          -5.20847753949420     -1.15592999421748      0.81661633191561
  C          -5.24205182132872     -0.28879015639336     -1.81612345113884
  H          -6.31809709263399     -0.53143725025022     -1.86898142631354
  H          -4.96173946393475      0.09245086396244     -2.81206884296173
  C          -5.53682119882488      0.23806996292611      0.59840651668156
  H          -6.64245323748324      0.26772816562275      0.58207623511842
  C          -5.01472895754533      0.75724149585755     -0.73413820760395
  H          -5.53919898579086      1.69430633583247     -0.97680964684268
  H          -3.94351348652458      0.99019463030000     -0.64041635004270
  C          -5.05377858831203     -2.73277485239751     -2.33235202631726
  H          -4.52893312639526     -3.68002439587481     -2.16000894168383
  H          -5.01246249370252     -2.49464543797091     -3.40760138077675
  C          -2.94910013569690     -1.32947344952361     -1.93742330683934
  C          -1.75916513680307     -1.95836695380437     -1.17679473636654
  H          -2.78551364105737     -0.24650171392194     -1.94693255319546
  H          -2.86005433448490     -1.65470080846838     -2.98742872059935
  C          -1.73912452232087     -1.44804089343909      0.27076336591588
  C          -1.71528303528182     -3.50956084051249     -1.28833958933953
  O          -2.28053801941961     -0.40752267225085      0.58810046859375
  O          -1.02095758791533     -2.10830117589745      1.16937797456037
  H          -1.01821014224608     -3.77413419115096     -2.10030329621025
  H          -2.69810130971244     -3.88644753007924     -1.58572677128484
  C          -1.31134302780176     -4.20997241851457      0.01487061565677
  C          -0.36530086400722     -3.36677232318681      0.85297647658552
  H          -0.84114131517739     -5.18031324158683     -0.20664885508108
  H          -2.21366174913432     -4.40014895942978      0.61501528938591
  H           0.55456718292673     -3.11410611805514      0.30196484965240
  C          -5.02682966999474      0.99145346015375      1.82286849307019
  H          -3.93189156489947      0.87257628632087      1.85802836092732
  H          -5.42755077982316      0.48420174737752      2.71701073820005
  C           0.01971373120390     -3.97022142293467      2.19616731044986
  H          -0.90120934318696     -4.21378140981001      2.75506307554048
  H           0.53879269793198     -3.18412335873394      2.76994305253379
  H          -6.10978906674943     -2.88609239953665     -2.05913655739488
  C          -5.41501495041379      2.47115181511130      1.85079551561066
  H          -6.51146763872458      2.57060299502332      1.74174912310079
  H          -4.97598456625107      2.99177439074007      0.98136544734172
  C           0.92019497063419     -5.20247137458473      2.08694047221374
  H           0.39271131216805     -6.00961724167503      1.54860068257243
  H           1.80432263429781     -4.95320569109543      1.47193527271647
  C           0.88139720351193      4.62241412257802      1.05480342457947
  H           0.01689275643796      4.42841271616914      1.71671221511396
  H           0.46227402793532      5.01724946111537      0.11294102870579
  C           6.80252424487905      1.22953819915873      1.63118006310980
  H           6.44488468970688      0.21827397177189      1.89139322671835
  H           7.71227351632478      1.08317166846514      1.01967079272118
  C           7.16229230477085      1.98119669166771      2.91303478742223
  H           7.92054716041260      1.43968315236570      3.50086915121803
  H           7.56416050073781      2.98367965878016      2.68927906659496
  H           6.27584989875337      2.11749079229534      3.55496778796606
  C           1.78338487034763      5.68352553843844      1.68543970425897
  H           2.64090702293553      5.91388914115289      1.03147238098197
  H           1.23780474687151      6.62343208445093      1.86668539253960
  H           2.18886550321818      5.33958234104139      2.65199399767514
  C          -4.96312381424493      3.17026417914260      3.13328348099655
  H          -5.23977494397406      4.23686815453031      3.13396250162864
  H          -5.41861803632012      2.70468477791757      4.02335548328200
  H          -3.86869254830628      3.10614400507227      3.25391991129680
  C           1.37580626887483     -5.72211988724848      3.45057449717512
  H           0.51394330685238     -6.00475428808323      4.07831609894698
  H           2.02135633919802     -6.60947559346599      3.35060098387991
  H           1.94493707768705     -4.95350317498938      3.99998122286966
