101
Coordinates from ORCA-job orca E -2005.481126773010
  C          -0.06915652720823     -0.14057085874652     -1.61819587747666
  C           1.10779511223701     -0.19539878600189     -0.75042116000992
  O           1.75342753388101     -1.21929475689614     -0.56941976986570
  O           1.52392399944918      0.93947628414142     -0.15530342822581
  C          -0.70190126689042      1.16321504418787     -1.97811923449378
  H          -1.69101174363863      1.20352383511222     -1.48382312993067
  H          -0.90954157817124      1.18855192444189     -3.06388983516085
  C           0.66843682031430      2.11299918252320     -0.13208402664435
  H          -0.17112929241322      1.87846265324565      0.54955907655144
  C           0.13096418192291      2.36499075275173     -1.53357448392440
  H          -0.48798457270063      3.27480514659993     -1.53744609143701
  H           0.98212227009722      2.54024552404795     -2.20904435906224
  C          -0.63823959907166     -1.45005260902306     -2.05698581927512
  H           0.16189618926343     -2.19614746692154     -1.98784214903921
  H          -0.95376773438076     -1.39507815725859     -3.11265576886834
  C           3.07281952114982      0.07410987218701     -3.53034581861289
  C           3.84317831272630      0.41033217944170     -2.48681143752020
  H           2.50153208533753      0.83745534606515     -4.06312341640852
  H           3.00349765186708     -0.96340407911387     -3.86865046136163
  C           3.83852128759285      1.85183099741874     -2.06356851021124
  C           4.68027195458140     -0.57215574306419     -1.70611436417356
  O           3.19778494991649      2.70997930264663     -2.63018640406109
  O           4.55434703413987      2.20100029033462     -0.98106305755779
  H           5.68440529387374     -0.63698072026394     -2.16787886667527
  H           4.22702973972282     -1.57204704161601     -1.76635173297598
  C           4.82321291901827     -0.12704517644127     -0.25354206595642
  C           5.36249153221862      1.29209967506973     -0.19339733986831
  H           5.51327480378542     -0.79563116468651      0.28393509216438
  H           3.84504241714115     -0.17902461873770      0.24738493409556
  H           6.37829809903592      1.31761422223607     -0.63425985369788
  C           1.51038731533921      3.23661542831144      0.45556573746979
  H           2.33648218850822      3.46435605420720     -0.23675926393465
  H           1.97013637348689      2.85252853832418      1.38256629148669
  C           5.40911901954687      1.89860951985339      1.20418790258913
  H           4.39078231932523      1.86356939285189      1.62897323025110
  H           5.66482254863519      2.96642183169376      1.09534636347510
  C          -4.59415976162672     -1.55797887289634     -1.28273545735782
  C          -4.56708687552667     -1.89949743723182      0.21772937039604
  O          -4.14813678416296     -2.96532502712931      0.60828997088153
  O          -5.08497298980724     -1.04895508394778      1.10797800096932
  C          -5.40263960419925     -0.26731202993008     -1.53207677935541
  H          -6.48170048262738     -0.48906381204766     -1.45428217253837
  H          -5.23134755993011      0.07585355613997     -2.56584737415106
  C          -5.41412808518596      0.34347868354057      0.87985593305746
  H          -6.51417984177458      0.39422537991311      0.98443834189348
  C          -5.03435730227266      0.80768276983602     -0.51915037396829
  H          -5.56315563061652      1.74895398031955     -0.73456220378052
  H          -3.95441857793068      1.01566314333924     -0.55251801306287
  C          -5.31445548247160     -2.73132738102511     -1.97958778930107
  H          -4.78501454230817     -3.68121692422618     -1.83824286252530
  H          -5.39666812225521     -2.52881562981867     -3.05980261427077
  C          -3.15684714195452     -1.35834836147166     -1.87913237510582
  C          -1.89808553055712     -1.98278611432268     -1.23642833774300
  H          -2.97922032097621     -0.27952214631752     -1.94564719607779
  H          -3.19453158481087     -1.72025264566088     -2.92004089599373
  C          -1.70165817771611     -1.41766468632721      0.17649424659400
  C          -1.88878084373138     -3.53692429729130     -1.29182459186825
  O          -2.18221949830479     -0.35291814261534      0.51101405766358
  O          -0.88820220850441     -2.05525844911257      1.00876791675128
  H          -1.29518383877562     -3.84385850328202     -2.16859689915441
  H          -2.90456357647214     -3.90715670853417     -1.45819408897449
  C          -1.34378939661573     -4.19395988543773     -0.01780430794981
  C          -0.29241257970198     -3.33708188847788      0.66670806478025
  H          -0.91773464728807     -5.18129937921383     -0.25291272664223
  H          -2.17022448953808     -4.34286933249212      0.69329249609927
  H           0.55787955933755     -3.12406951494874     -0.00073099651047
  C          -4.75924743726212      1.12539053144657      2.01417897464178
  H          -3.66946220979624      0.98266647438657      1.93484962872800
  H          -5.06987657712077      0.65805463323844      2.96417675055426
  C           0.24479854387699     -3.89495183492565      1.97669989532723
  H          -0.60407738565676     -4.10460942641576      2.65163115889768
  H           0.83606236854662     -3.09486643307554      2.45319801958028
  H          -6.33306089703407     -2.85831120058668     -1.57986955563660
  C          -5.11297376629475      2.61396163687893      2.03096939058315
  H          -6.21261054781336      2.73506313641644      2.03900072648827
  H          -4.76210840920015      3.09440842955519      1.10055792899962
  C           1.11460069088981     -5.14237060099102      1.80853277322291
  H           0.52106794772616     -5.96000134588455      1.36277728354683
  H           1.92430905970714     -4.92615694127190      1.08759203095527
  C           0.71612994452251      4.50544151224299      0.77242862909848
  H          -0.14780218050103      4.25147137353396      1.41474009588276
  H           0.29189959632611      4.92560924996361     -0.15637664713381
  C           6.40323288979776      1.22443179172581      2.15178016935011
  H           6.12725211069166      0.16543606714776      2.29670349247948
  H           7.40612821274905      1.21621351672707      1.68582897426891
  C           6.47719719886050      1.91485917494661      3.51387893187138
  H           7.19597332522571      1.41501318434852      4.18269926742454
  H           6.78968801893687      2.96782290681189      3.41246585020521
  H           5.49486013723206      1.91006125145753      4.01538032704635
  C           1.56977477679964      5.57129445836080      1.45971883170302
  H           2.42684537016954      5.86066786286667      0.82897326259763
  H           0.98737087349502      6.48195557550517      1.67332538514566
  H           1.97564698128297      5.20101075525134      2.41633258905788
  C          -4.50869167999554      3.34549438927435      3.22995785965703
  H          -4.76327326337246      4.41755804913431      3.22242690256957
  H          -4.87139543169218      2.92100623581203      4.18113441885479
  H          -3.40903077942242      3.26087366488384      3.23141251745590
  C           1.71847705930612     -5.62194640788289      3.12847251970086
  H           0.93134311733974     -5.87233516125422      3.85957644316730
  H           2.34032622362922     -6.52041161361541      2.98662929957769
  H           2.35343087671698     -4.84290197426504      3.58286462972174
