101
Coordinates from ORCA-job orca E -2005.469550849569
  C           0.20937422830005      0.26300077582563     -1.36044752964726
  C           0.96264220438272      0.30448584600832     -0.06295336628877
  O           1.61402953653914     -0.64284859940709      0.33481607682773
  O           1.01969909284414      1.45174783842615      0.61606037704589
  C          -0.72105073861651      1.41768228793657     -1.65467288975978
  H          -1.69185522864625      1.19072671558727     -1.18845522985979
  H          -0.89662740851681      1.49371319159308     -2.74105504325212
  C           0.09323828464190      2.55183196535774      0.40782845071851
  H          -0.83070212417012      2.27123577300015      0.94589599765631
  C          -0.21345635260639      2.73212354257009     -1.07119650589991
  H          -0.98510639363446      3.50959126870612     -1.18273611801419
  H           0.69556596537687      3.08056686443120     -1.58192490811075
  C          -0.19845075152015     -1.14019201004268     -1.77468494095043
  H           0.65302551982849     -1.79485715985116     -1.55418771026338
  H          -0.35100475346615     -1.16760349144224     -2.86587096801719
  C           1.83340677935446      0.62473053342173     -2.65167644786214
  C           3.07254652989723      0.63407321482188     -1.96888363633380
  H           1.49008934327190      1.58474720203038     -3.04020563410549
  H           1.63986679132413     -0.23766354913151     -3.29480274529233
  C           3.54485685454276      1.92046069188050     -1.41626593124864
  C           3.85656668859787     -0.62133855983933     -1.72370705155551
  O           2.94389306054001      2.96813062576583     -1.56912215064893
  O           4.68689750402972      1.93651305997537     -0.70020273513582
  H           4.51107089644526     -0.81371774139385     -2.59932811544273
  H           3.17283901581695     -1.47996238583625     -1.65029614169685
  C           4.71127109272518     -0.49575365399588     -0.46473831637589
  C           5.53507264378066      0.78040624633351     -0.52245454674131
  H           5.38381853476532     -1.36175894174711     -0.36854446036440
  H           4.05553799801512     -0.47526097036464      0.42031096499943
  H           6.21038825539384      0.73982961634328     -1.40039791922153
  C           0.74061301165633      3.75712219569108      1.07554694084235
  H           1.66047313390792      4.00712116451826      0.51997374978599
  H           1.05384534194580      3.44635824643727      2.08687340149082
  C           6.36188572087329      1.06690642299649      0.72538538528738
  H           5.68178969425766      1.08914815803930      1.59521261326382
  H           6.76903969552499      2.08722580268118      0.62399676370022
  C          -4.19424585914904     -1.66380465470229     -1.59012280043434
  C          -4.36103358051699     -2.00130967181989     -0.09836154981311
  O          -3.91365677374783     -3.02632842309440      0.36289385054451
  O          -5.07706883897726     -1.19900442502683      0.69409249819673
  C          -5.08575591508562     -0.46504494743612     -1.97574870013765
  H          -6.13695920239959     -0.79670602382711     -2.04318167711547
  H          -4.80728212304543     -0.11135556624894     -2.98235922600259
  C          -5.48983181187984      0.15886040091252      0.40202474896877
  H          -6.59417146744658      0.11328476592420      0.36290417524222
  C          -4.97450452768549      0.64885690513394     -0.94445611504849
  H          -5.56584431688493      1.52604481590089     -1.24909894087756
  H          -3.92922609784352      0.97632098154975     -0.84047767538678
  C          -4.67840521288943     -2.90608768894689     -2.36729570302846
  H          -4.09318576135076     -3.79955678703511     -2.11860730564305
  H          -4.60332422317181     -2.72135815281260     -3.45120146310444
  C          -2.71215401314460     -1.31134641480874     -1.96813999119937
  C          -1.49665567624098     -1.80256419552764     -1.14229964446371
  H          -2.64330398330580     -0.22178554644325     -2.02822269492895
  H          -2.55733009723318     -1.67508910836218     -2.99760730012338
  C          -1.59742903052317     -1.27608928872274      0.29578301105510
  C          -1.32089794237358     -3.34965881214598     -1.22743121115556
  O          -2.19492805234507     -0.24744374404866      0.55088214392716
  O          -0.95161368863925     -1.90586370832444      1.26418217985683
  H          -0.53677168906845     -3.56251060608007     -1.97252104396792
  H          -2.23857764170486     -3.80322898397941     -1.61430055807459
  C          -0.97714848672048     -4.02103349762668      0.10735435927434
  C          -0.17201830897795     -3.10358417249865      1.01033862886264
  H          -0.41474177605326     -4.95029839854077     -0.07178260952954
  H          -1.90650384436878     -4.28192424840763      0.63418792533430
  H           0.76090460314009     -2.77354197146910      0.52621958811771
  C          -5.05505744524551      1.00182977550607      1.59728463663922
  H          -3.95823809348538      0.93149205379297      1.67282689758027
  H          -5.46355621713191      0.52953941218501      2.50691873466383
  C           0.16045030951027     -3.66880017911216      2.38329518485335
  H          -0.77605101275820     -3.98717143946470      2.87471451392077
  H           0.56700864195120     -2.83947150420624      2.98606638358404
  H          -5.73189562082716     -3.12674562905658     -2.13295884052595
  C          -5.50020302573852      2.46393606927164      1.52887783136811
  H          -6.59804729735553      2.51524243035376      1.40185422432903
  H          -5.06917832077978      2.94707359891200      0.63424192011404
  C           1.16625898208490     -4.82126777959831      2.35214912703617
  H           0.74974131624303     -5.67155958464885      1.78372091410140
  H           2.06967571068880     -4.50047173429053      1.80136496841355
  C          -0.17677728687671      4.97770207283829      1.17558807544782
  H          -1.12137829650954      4.68902339192019      1.67391754149120
  H          -0.45928096197349      5.32077790297344      0.16476164554277
  C           7.50366408995943      0.07760547195698      0.96808379532741
  H           7.09815429040042     -0.93884927798376      1.11437852773792
  H           8.13953808869516      0.02381920698697      0.06486216287365
  C           8.36176326993643      0.45461712604840      2.17590926393832
  H           9.17652910976144     -0.26961810390826      2.33552998053281
  H           8.81859656000049      1.45011418075767      2.04638612436529
  H           7.75788030685826      0.48749659778768      3.09823342620628
  C           0.47048915919903      6.13632829410464      1.93448176999284
  H           1.40261933578386      6.45976504112171      1.44193631827875
  H          -0.19971777249342      7.00915600602934      1.99168112509714
  H           0.72819165320330      5.84306065477744      2.96613337844485
  C          -5.08984224599435      3.25768496861574      2.76966568480932
  H          -5.41534417274856      4.30847812739805      2.70602859682136
  H          -5.52866162431347      2.82510439684181      3.68440530578559
  H          -3.99421407076211      3.25192594490755      2.89753120766898
  C           1.56155947728460     -5.29677755089989      3.75029434789665
  H           0.68251665979296     -5.65250512056446      4.31370356700495
  H           2.28758167518640     -6.12456048722221      3.70672505559040
  H           2.01788050068429     -4.48008535294335      4.33443002419287
