101
Coordinates from ORCA-job orca E -2005.480662658079
  C          -0.00076659995236     -0.09746030215663     -1.40963487437751
  C           1.13414690980640     -0.15935098198576     -0.49010530148057
  O           1.74869838010512     -1.19150624577417     -0.25774246301744
  O           1.56306578102188      0.98291278170274      0.08364308222292
  C          -0.65735275363090      1.20211780241094     -1.73999659375836
  H          -1.63727171005793      1.21422519825427     -1.22573416757914
  H          -0.88494175846231      1.24137934302069     -2.82069089200335
  C           0.73003061145031      2.17142345493382      0.09409342537934
  H          -0.09694153115968      1.97086791533286      0.80167642679516
  C           0.15989778658680      2.41462532680309     -1.29562915062740
  H          -0.48119731821267      3.30899405654028     -1.27442123115417
  H           0.98587208929379      2.62063450700658     -1.99245084172891
  C          -0.52705402718845     -1.40155316031574     -1.91336212676792
  H           0.27222050366308     -2.14365211652902     -1.80601760326738
  H          -0.76692627472911     -1.32223710642895     -2.98762327369991
  C           2.64580221275503      0.03922974282749     -3.31417677102406
  C           3.59754759623285      0.39115182515490     -2.43798900455234
  H           2.03904742806073      0.80233400090867     -3.80577142102604
  H           2.46601758823720     -1.01092295612605     -3.55905529658054
  C           3.73130680704793      1.85213321639964     -2.11728137209705
  C           4.49604928274380     -0.58829730036765     -1.72764724810616
  O           3.09272014630004      2.71675499632130     -2.67565587246207
  O           4.56729995581238      2.21315396265877     -1.12841119956099
  H           5.43455092237246     -0.69793941519209     -2.30494812795499
  H           4.01510869862150     -1.57619976172406     -1.69325067099962
  C           4.82650766343841     -0.09432499067215     -0.32145240007442
  C           5.41551536318974      1.30475556652583     -0.38228424825150
  H           5.55646765490108     -0.76651446413244      0.15545920691856
  H           3.91711140992678     -0.09689638992218      0.29819144071866
  H           6.38167962218143      1.27148416287652     -0.92293782995527
  C           1.61241490567778      3.28797516946905      0.63593149483531
  H           2.43857455122428      3.46388599208302     -0.07208685444652
  H           2.07039836983251      2.92060734430667      1.57064541139643
  C           5.62687815096696      1.96905839852020      0.97327240425691
  H           4.65262265680834      2.01864630240642      1.49017923602492
  H           5.93441995412333      3.01248429562679      0.78808806036803
  C          -4.52654270163521     -1.56515881260149     -1.43218367173961
  C          -4.60490137603397     -1.94923360734752      0.05622684688698
  O          -4.20419566779105     -3.02221689850554      0.44634918938597
  O          -5.19530212984888     -1.12890538176195      0.92945416429835
  C          -5.33067587838396     -0.27621846941272     -1.70392516462508
  H          -6.40961783122375     -0.51148143420151     -1.70922550823226
  H          -5.09022923106308      0.09724745827196     -2.71313163600150
  C          -5.52165924954526      0.26658787411583      0.71721582652839
  H          -6.62676926825056      0.30505532322874      0.74638467260621
  C          -5.04999938863985      0.77390945603593     -0.63845953541010
  H          -5.57537192175241      1.71445740452618     -0.86525722520958
  H          -3.97369230529440      0.99685676619296     -0.58893364254351
  C          -5.18069511381318     -2.72482859801400     -2.21243426129794
  H          -4.65459829092019     -3.67427381059523     -2.05676698606429
  H          -5.18342942899420     -2.49338804745726     -3.28993479105569
  C          -3.05225685336212     -1.33413401414684     -1.91549691919795
  C          -1.83640507885878     -1.96625495462761     -1.20095878426796
  H          -2.88160587920561     -0.25229569065924     -1.93831263017836
  H          -3.00834756927939     -1.66595039255700     -2.96622698475153
  C          -1.74908553033677     -1.44288281477336      0.23913508694832
  C          -1.80549409750839     -3.51780569940507     -1.30118171741866
  O          -2.27045720306518     -0.39688314270825      0.57116261668218
  O          -0.98948924734917     -2.09701447740648      1.10836287896237
  H          -1.14830159977836     -3.79327069295660     -2.14235356686832
  H          -2.80297672879765     -3.89232727123406     -1.54846180025834
  C          -1.34401795993306     -4.20754615915974     -0.01125356306948
  C          -0.35457813732982     -3.36122009731754      0.77187328657804
  H          -0.89071439704513     -5.18319222787557     -0.24425817337094
  H          -2.21764665413588     -4.38553020886970      0.63355734869783
  H           0.53835425266828     -3.11812704525537      0.17416282621889
  C          -4.95531186800491      1.02188840446321      1.91550057592239
  H          -3.86079433616382      0.89498970148424      1.90482367206908
  H          -5.32176425755997      0.52194783532124      2.82826765853396
  C           0.09418169755681     -3.95397477072475      2.09984269190351
  H          -0.79855758310944     -4.18800260717555      2.70654919484807
  H           0.64492000622269     -3.16518862990032      2.63943759873979
  H          -6.22513081771546     -2.86980893393675     -1.89386667854730
  C          -5.33119288130147      2.50456221241154      1.95246928311551
  H          -6.43059820276797      2.61156740240519      1.89082369670866
  H          -4.92666120639965      3.01761533470159      1.06207115045487
  C           0.98258943990034     -5.19152726371016      1.95686038746219
  H           0.42514371368816     -6.00074140786133      1.45295926645192
  H           1.83565901323072     -4.95200192167219      1.29579556043222
  C           0.86662793146039      4.59441246119566      0.91509082522415
  H          -0.00153928027824      4.39259590467109      1.56992954342145
  H           0.45221352878416      4.99882289515454     -0.02487190485179
  C           6.66281321546967      1.27597554387929      1.86072304620654
  H           6.32739902929727      0.25238450435737      2.10167765511320
  H           7.60921324965309      1.16201813180874      1.30000450937994
  C           6.92628441460080      2.03777656363186      3.15985383937821
  H           7.66907844995457      1.52128422385073      3.78855183947020
  H           7.30603769940993      3.05336929933701      2.95763950469745
  H           6.00239253843883      2.14390665553400      3.75294042717114
  C           1.76303890390790      5.65035757031365      1.56219801321486
  H           2.62515969821350      5.88767629695200      0.91682608356566
  H           1.21535592942227      6.58801300021820      1.74886695556764
  H           2.16197650511354      5.29728816282158      2.52820031860449
  C          -4.81860861951361      3.20632431993068      3.21045220991025
  H          -5.08617755166642      4.27523178233933      3.21733538515315
  H          -5.23898288169646      2.74909046726023      4.12187869056666
  H          -3.72055573646144      3.13362004190652      3.28392367228376
  C           1.50400883637130     -5.70152868370902      3.30030721420115
  H           0.67371437624759     -5.97414148723526      3.97342985743285
  H           2.13930249459325     -6.59318097030432      3.17587690812998
  H           2.10402598862080     -4.93131654400563      3.81343981346884
