101
Coordinates from ORCA-job orca E -2005.474792030955
  C           0.13552258604158     -0.08854934773745     -1.30844471855530
  C           1.16877900679126     -0.16155874589666     -0.27272167526021
  O           1.75031575832950     -1.19661240726067      0.01667796486591
  O           1.56465221290686      0.98148739520897      0.32110362861371
  C          -0.57404471620651      1.19708153823932     -1.58895396295950
  H          -1.55447556656712      1.13777880115173     -1.08112240261999
  H          -0.79697386657886      1.28038907197874     -2.66751755900886
  C           0.73053080781474      2.16963342476693      0.31434498015788
  H          -0.10237917665299      1.96963110755902      1.01439412588896
  C           0.17258523830002      2.42748706114845     -1.07786894108232
  H          -0.51830659712291      3.28325107064451     -1.03135376979236
  H           0.99060911178883      2.71019308790651     -1.75533198967573
  C          -0.38361479416451     -1.39451329370532     -1.82523715868882
  H           0.40458601909317     -2.14218056214619     -1.68067259784769
  H          -0.57650686445694     -1.31953203057050     -2.90902691780569
  C           2.13753389243196      0.12559290791426     -3.00386004690064
  C           3.27680628740007      0.44978297897873     -2.36232518666181
  H           1.51892949043169      0.90445331277530     -3.44981392893960
  H           1.88753835497334     -0.91868370940653     -3.19457433330378
  C           3.56611955816931      1.90460127024736     -2.15428895227087
  C           4.22934075403930     -0.55576906594811     -1.77376832650465
  O           2.94056827372815      2.79163651263330     -2.69241259692136
  O           4.53818729045633      2.24201086232083     -1.28777648225514
  H           5.08040875344140     -0.69748937347434     -2.46825138687541
  H           3.72902122622383     -1.52797238697540     -1.66349749456226
  C           4.75488480612129     -0.05791766822188     -0.42825165441278
  C           5.39924197816252      1.30937827204983     -0.58651161274694
  H           5.50519713235168     -0.75860336541183     -0.03042609625086
  H           3.93062286349360     -0.00990454234409      0.29911788023007
  H           6.31110597045231      1.21310366005072     -1.20736442892719
  C           1.61251173024550      3.28424954514904      0.86244091551858
  H           2.45095292370900      3.44496594994419      0.16370901538906
  H           2.05362715318860      2.92154151916825      1.80699485313417
  C           5.75650861392258      1.99720031694322      0.72632817999234
  H           4.83059524227767      2.10795702478835      1.31773178380202
  H           6.09803752944324      3.01845985702505      0.48603002510392
  C          -4.40396465338424     -1.56586445088896     -1.54245352287374
  C          -4.55754122255905     -1.95849364486747     -0.06241332266913
  O          -4.17705919170685     -3.03403245939950      0.34060627194648
  O          -5.18913055052794     -1.14252745887454      0.78553819086670
  C          -5.19675891073727     -0.27772551170918     -1.84909144030041
  H          -6.27326767298969     -0.51578044815633     -1.91239885568904
  H          -4.90518052428107      0.10174153143493     -2.84247818138640
  C          -5.51218543676716      0.25175652836280      0.56216839192040
  H          -6.61754169325672      0.28404928456111      0.53448046569004
  C          -4.97564798476691      0.76811921581445     -0.76567079200887
  H          -5.49437152475048      1.70694828990510     -1.01373057858072
  H          -3.90453409379419      0.99736313679323     -0.66219867925612
  C          -5.01421273501809     -2.72295115220807     -2.36129016151915
  H          -4.49599818207304     -3.67252037534367     -2.18190203793184
  H          -4.96096408227845     -2.48678837635613     -3.43644028830578
  C          -2.90718538554122     -1.32758583862003     -1.94834275860238
  C          -1.72538154083708     -1.96049294184293     -1.17742042697844
  H          -2.73999913297259     -0.24535407065988     -1.95845873454532
  H          -2.81034889850746     -1.65449138733938     -2.99714672849302
  C          -1.71921323761007     -1.45547823105141      0.27215080873974
  C          -1.68779542569023     -3.51228807879607     -1.29300676947934
  O          -2.25628684538150     -0.41137935143282      0.58604587227989
  O          -1.02204226151706     -2.12576237901840      1.17910672693132
  H          -0.97943188177842     -3.77786349567366     -2.09476974300823
  H          -2.66749347587588     -3.88253822197701     -1.60863179368659
  C          -1.30814329137163     -4.22104709161654      0.01286891502423
  C          -0.36954828933144     -3.38697730322495      0.86798783600542
  H          -0.84006635397538     -5.19293139233631     -0.20641391605114
  H          -2.22020165468245     -4.40875102097675      0.59872510022394
  H           0.55953724323510     -3.13751728205105      0.33129154820504
  C          -5.01322907439034      1.00579532543918      1.79072627050238
  H          -3.91901691419989      0.88412139908358      1.83802114891099
  H          -5.42479617248882      0.50106604382201      2.68135965767444
  C          -0.00825000294781     -3.99691554779767      2.21478651103209
  H          -0.93885772855007     -4.23573449693970      2.75951337995384
  H           0.50766524492243     -3.21591886387227      2.79826624253959
  H          -6.07364893791289     -2.87065762594592     -2.09842076253993
  C          -5.39824359703969      2.48648211687248      1.81177891141695
  H          -6.49294767080089      2.58816844082952      1.68816245197224
  H          -4.94674685362651      3.00491224819657      0.94743827082805
  C           0.88524382684240     -5.23506182988265      2.11556919061181
  H           0.36028193740951     -6.03716082646226      1.56729491131896
  H           1.78020020626674     -4.99038570200856      1.51456795813796
  C           0.87641648087425      4.60174313669606      1.11346208740333
  H          -0.00557435718282      4.41550509928958      1.75416591579375
  H           0.48419841416616      4.99909283969263      0.16123535825219
  C           6.82577886510902      1.27446733497569      1.54798292712164
  H           6.46630363072244      0.27046183330417      1.83267691262309
  H           7.72232674900545      1.11111918219417      0.92147541607981
  C           7.21577314331313      2.04568555139638      2.80920383204576
  H           7.98181100599326      1.50913670489199      3.39146819007277
  H           7.61987164862482      3.04128766872967      2.56013992897262
  H           6.34307889995642      2.19937803380860      3.46585898396343
  C           1.77149764379062      5.65566387346378      1.76556590789299
  H           2.64708691106798      5.87828560882917      1.13313236306760
  H           1.22961391349507      6.60041401254808      1.93208196838670
  H           2.14961409325422      5.30947097138211      2.74235046411252
  C          -4.96199527389767      3.18662342606707      3.09909154092145
  H          -5.23666736265789      4.25372514876012      3.09442310978792
  H          -5.43015136337979      2.72328108878566      3.98374015789890
  H          -3.86940535887161      3.12077951582299      3.23449665051234
  C           1.31658287061586     -5.76120130862568      3.48464939778492
  H           0.44323183672518     -6.03886053725423      4.09855454476360
  H           1.95713462108725     -6.65299056266837      3.39234658732676
  H           1.88283863145362     -4.99793537536841      4.04438308452189
