101
Coordinates from ORCA-job orca E -2005.476687002963
  C           0.10835137529194     -0.08501839820323     -1.30530664758849
  C           1.16536688089341     -0.15361509604007     -0.29566346386829
  O           1.75504280974268     -1.18764184968022     -0.01707407667375
  O           1.56968363604805      0.99054296982692      0.29087840454925
  C          -0.58888883082814      1.20314099661461     -1.59963623543623
  H          -1.57077564647881      1.15865988638959     -1.09228576334172
  H          -0.81070663106899      1.27531949747863     -2.67937976495783
  C           0.73576099001666      2.17869044459833      0.28732814598801
  H          -0.09380352565332      1.98029783470172      0.99201378352671
  C           0.17120526555768      2.43162733652349     -1.10312655424307
  H          -0.51106594060314      3.29439204245313     -1.05990305385015
  H           0.98891621777144      2.70088271868011     -1.78667681431040
  C          -0.40414372241846     -1.38999382005054     -1.82738204883300
  H           0.38711643692305     -2.13510227162879     -1.68668938749803
  H          -0.59925672504917     -1.31117223491351     -2.91060912738691
  C           2.20358189401952      0.12972866950530     -3.05379288093012
  C           3.32214958857003      0.45103696805971     -2.38032835414655
  H           1.58211317767062      0.91140054021712     -3.49176199932742
  H           1.94850415109971     -0.91391231023181     -3.24502080290401
  C           3.59563883610976      1.90646644960276     -2.14688974901902
  C           4.26777550762805     -0.55602732846987     -1.78230246850851
  O           2.96783249390320      2.79559127613733     -2.67853499292175
  O           4.55315350622763      2.23961731022929     -1.26331356075084
  H           5.13028224360032     -0.69075902137150     -2.46372164011322
  H           3.76770975965050     -1.53003489736611     -1.68730498387588
  C           4.77056543180623     -0.06688571132925     -0.42511857071115
  C           5.41187175132236      1.30390114694897     -0.56340451758509
  H           5.51727968595919     -0.76798972728177     -0.02135834511439
  H           3.93482942430880     -0.02722045706132      0.28958342324065
  H           6.33007959315425      1.21710216095393     -1.17636319162752
  C           1.61968771017231      3.29507411756035      0.82854643660771
  H           2.44999558648826      3.46119466171119      0.12164600468573
  H           2.07179227501301      2.93148261272780      1.76754897349131
  C           5.75412098453448      1.98075639378770      0.75903287491036
  H           4.82250050162594      2.08251605903924      1.34303314053834
  H           6.09356942066295      3.00557471711555      0.53120443786115
  C          -4.42280151703095     -1.57058574280421     -1.53234453776107
  C          -4.57034581843944     -1.96390592631897     -0.05182927896186
  O          -4.18502512956222     -3.03818861626166      0.34999615406911
  O          -5.20170561055639     -1.14983582309383      0.79813644180881
  C          -5.21983974981307     -0.28426690320768     -1.83566347867625
  H          -6.29601042631767     -0.52492948291350     -1.89469993578637
  H          -4.93307479512362      0.09600077379333     -2.83014715732426
  C          -5.52707331883753      0.24434133267347      0.57698038880142
  H          -6.63255896451352      0.27540581316944      0.55431348746375
  C          -4.99688990022605      0.76194454950303     -0.75297105619423
  H          -5.51860261151664      1.69967675102665     -0.99895265180033
  H          -3.92586368958327      0.99342148431101     -0.65359848962376
  C          -5.03313829513304     -2.72882019053144     -2.34948876826396
  H          -4.51155276919237     -3.67709414308083     -2.17298711997177
  H          -4.98475409701392     -2.49171718657760     -3.42466907382938
  C          -2.92808670336310     -1.32888458435809     -1.94345285317333
  C          -1.74284822855440     -1.95974652669394     -1.17664795182619
  H          -2.76279594361258     -0.24624652306827     -1.95291718261823
  H          -2.83410990802956     -1.65475450832309     -2.99283265610572
  C          -1.73039096708325     -1.45150759134338      0.27173576748251
  C          -1.70199262682765     -3.51124528890421     -1.28964391484592
  O          -2.26971615085668     -0.40905854731613      0.58667732452499
  O          -1.02258739058233     -2.11620457278170      1.17498913265997
  H          -0.99868719964752     -3.77662381074324     -2.09592868529422
  H          -2.68308574131360     -3.88498409150382     -1.59665727737805
  C          -1.31111626608215     -4.21521418924279      0.01554266106134
  C          -0.36880996384397     -3.37646757294797      0.86213695512367
  H          -0.84234876185268     -5.18670234656058     -0.20400385638040
  H          -2.21872188018792     -4.40335608437796      0.60823430648779
  H           0.55603932232342     -3.12602393169359      0.31854549481799
  C          -5.02316487627436      0.99821658516586      1.80364591008785
  H          -3.92862819845954      0.87777512898486      1.84541315241824
  H          -5.42983896925631      0.49248852106516      2.69595858841906
  C           0.00357810831424     -3.98268630131801      2.20762261930692
  H          -0.92253349443857     -4.22367899658231      2.75901284492395
  H           0.52078523736868     -3.19895096089794      2.78628149031265
  H          -6.09112806611078     -2.87958583219624     -2.08257508919629
  C          -5.40946235905903      2.47849617766326      1.82764267867076
  H          -6.50508367249174      2.57928360400103      1.71170627701138
  H          -4.96441354506807      2.99759514947474      0.96036236139367
  C           0.90064005470605     -5.21793096961461      2.10434055701528
  H           0.37477502961301     -6.02265819152574      1.56081465654579
  H           1.79065306144738     -4.97107640260202      1.49691654178563
  C           0.88090967999626      4.60879333817567      1.09137650208179
  H           0.00817963681029      4.41764908348261      1.74324143743854
  H           0.47430807275588      5.00602480775497      0.14510060383247
  C           6.81912200712226      1.25500820372755      1.58357500319252
  H           6.46145307523366      0.24699827114702      1.85610871878991
  H           7.72178304011233      1.10095610485703      0.96352405587180
  C           7.19479847597393      2.01642568277247      2.85506093533658
  H           7.95804136356300      1.47787077231031      3.43914278315916
  H           7.59674317500417      3.01594434489994      2.61852797156625
  H           6.31574723068537      2.16043741096299      3.50540424068497
  C           1.77983702236554      5.66566981540382      1.73334414581004
  H           2.64580642410376      5.89331414213569      1.08959445216451
  H           1.23594513962777      6.60761036228723      1.90898994184217
  H           2.17266792586421      5.31937639618846      2.70427187903436
  C          -4.96460428640511      3.17851024838758      3.11208338276519
  H          -5.24012450974797      4.24540342738286      3.10987599862001
  H          -5.42601903827247      2.71440773919648      3.99987343964078
  H          -3.87099723787875      3.11340031614916      3.23951112711945
  C           1.34314233753118     -5.74057213982927      3.47116980096612
  H           0.47506848225156     -6.02063183872688      4.09144819204714
  H           1.98629659372226     -6.63015596026385      3.37567387776739
  H           1.91045606799177     -4.97451824708335      4.02600010321183
