101
Coordinates from ORCA-job orca E -2005.486451080867
  C           0.32574987201024      0.45759648723388     -1.33291272790413
  C           0.91743331883615      0.50488114200778      0.07671396363479
  O           1.69519251401809     -0.35123492379312      0.45106968492436
  O           0.64009945627522      1.51546190512718      0.88715408466608
  C          -0.70795222142601      1.54686214338118     -1.61837538175335
  H          -1.68506250808680      1.23139721188383     -1.23379373881863
  H          -0.81223796251232      1.67992776004920     -2.70811403446965
  C          -0.24682709308392      2.62173894708434      0.57639314037822
  H          -1.23627583903467      2.32309745542431      0.96557018408711
  C          -0.33644554061634      2.85248318481816     -0.92407477488873
  H          -1.10698130610415      3.61460279965567     -1.11849841993548
  H           0.62739175770811      3.24566239721124     -1.28157637336248
  C          -0.07343245439483     -0.98760277446462     -1.68966432288772
  H           0.78934043733069     -1.61168210082870     -1.42783953874737
  H          -0.18440725986620     -1.05613028361970     -2.78374413617778
  C           1.71937325511379      0.81831392419665     -2.39750349777385
  C           3.03614097288776      0.63337339676127     -1.77243747124512
  H           1.56873635612359      1.86099806683650     -2.69565951810309
  H           1.57029234057363      0.14563965572125     -3.25266385776860
  C           3.57140147282930      1.76193388394727     -1.00800202026745
  C           3.75171727085035     -0.67837656455040     -1.80630762494118
  O           2.95720821964096      2.80738496395575     -0.86808023224427
  O           4.78052228720905      1.63943373249989     -0.41917811819652
  H           4.28503411509350     -0.77816200871298     -2.77571240861537
  H           3.02292883901846     -1.50394226162727     -1.77910372433974
  C           4.74553666388643     -0.78621389513115     -0.65215359539378
  C           5.60512586608942      0.46816046443373     -0.59107862103888
  H           5.38786104658716     -1.67155767353105     -0.77344442143195
  H           4.19174706804742     -0.88812722382937      0.29502782552012
  H           6.14665596471398      0.58550991707000     -1.55140656582027
  C           0.29340606286272      3.80276276902289      1.37246467798703
  H           1.29746950691157      4.04700046735653      0.98546590266069
  H           0.43023393632080      3.46450469208250      2.41368310048006
  C           6.61219503747540      0.50188082985731      0.55211576926228
  H           6.06590160220591      0.36091579536338      1.50150974605625
  H           7.03448577179557      1.52045700235837      0.58741224202495
  C          -4.04685371737638     -1.68819463698410     -1.66701411032164
  C          -4.26739485608405     -1.99970081110768     -0.17629803426806
  O          -3.78761474783197     -2.98674180660101      0.33281907749775
  O          -5.06585481091871     -1.22112231766516      0.55949274247522
  C          -4.97633551367611     -0.54399302840203     -2.12297881695488
  H          -6.00520147797863     -0.92964346931098     -2.23413190720198
  H          -4.66601758712685     -0.19774735873217     -3.12285133949620
  C          -5.53140133453414      0.10717693677108      0.21575965686188
  H          -6.62850397259172      0.00353882373397      0.12114313924639
  C          -4.97214750232741      0.59528578835205     -1.11385551316900
  H          -5.58946792389110      1.43528240664178     -1.46776318738452
  H          -3.95048845717894      0.97510844704158     -0.96501805779524
  C          -4.43545913903881     -2.96925276023371     -2.43502187551514
  H          -3.81459498903028     -3.82583007471400     -2.14641079703471
  H          -4.32722422736067     -2.80163276460105     -3.51894387217796
  C          -2.56646112735390     -1.27463349209889     -1.98795970422789
  C          -1.36823726285537     -1.67175574318397     -1.08743946933620
  H          -2.54768337509417     -0.18634866983107     -2.09249819884188
  H          -2.34243168764625     -1.67052334764763     -2.99244842066269
  C          -1.56508829146695     -1.10726199213212      0.32427137022209
  C          -1.12648360949085     -3.21402743637243     -1.09944976652528
  O          -2.25332338360944     -0.12535059910124      0.52659647201645
  O          -0.90287464272057     -1.65148184817943      1.33458297202578
  H          -0.32104963121967     -3.42501654661643     -1.82193630935012
  H          -2.01814726130332     -3.72295682688386     -1.47662701081235
  C          -0.78241071437866     -3.80983454261939      0.27109114231986
  C          -0.05191688965436     -2.81385523022834      1.15420978956727
  H          -0.16801381099108     -4.71488422374101      0.14799687882920
  H          -1.71133467424181     -4.09722726346306      0.78523677251194
  H           0.87648668812321     -2.45668047407457      0.68135525873772
  C          -5.20399803999504      0.99641927899190      1.41197427064442
  H          -4.11088084977583      0.98354285776618      1.54730846716513
  H          -5.63727913974381      0.52372865248028      2.30985911925161
  C           0.27318655410229     -3.29994979892110      2.55865733536648
  H          -0.65673162929467     -3.64998376837178      3.04095373173895
  H           0.61730148332440     -2.42358301590219      3.13298045400713
  H          -5.48447765320687     -3.24109633468486     -2.23699032207781
  C          -5.71643229709176      2.43235913245589      1.28460877777137
  H          -6.80712040547354      2.42529093153579      1.09934853330534
  H          -5.26249919061204      2.91674422610192      0.40207920565201
  C           1.34264505690810     -4.39317618474336      2.60262100573133
  H           0.99087409550559     -5.28898895488945      2.06084447659409
  H           2.24144560698084     -4.04386988959320      2.06175159040348
  C          -0.61474612766790      5.03396592446488      1.34785552529797
  H          -1.63702030136776      4.74231974849149      1.65447321452720
  H          -0.70456129829244      5.41552317935318      0.31554670280602
  C           7.74294041784632     -0.52159281414923      0.43080646129635
  H           7.32910612635859     -1.54534103551511      0.43834333438872
  H           8.24082586827066     -0.40305815821590     -0.54953854118338
  C           8.77807956435175     -0.39036312914196      1.54834342712525
  H           9.58167260973897     -1.13700412216978      1.44544485138817
  H           9.24554526323401      0.60854591382437      1.54396430415495
  H           8.31433084878962     -0.53181471517596      2.53897096531641
  C          -0.10903752265030      6.15628166647961      2.25430021073653
  H           0.90105713196192      6.48285040944291      1.95535205662204
  H          -0.77067244788334      7.03673167985927      2.21752627544146
  H          -0.04979602005516      5.82483672501518      3.30463188767331
  C          -5.41214366503286      3.27280476258233      2.52520301243195
  H          -5.78497798935685      4.30428183317242      2.41920012231083
  H          -5.87696893378375      2.83881082915562      3.42629225834196
  H          -4.32593326601777      3.32504357803526      2.71009216824765
  C           1.72528590134461     -4.78686022727958      4.02944568884885
  H           0.85178590521218     -5.16594059644440      4.58620380340987
  H           2.49533155160139     -5.57501967092721      4.03964032793716
  H           2.12191389532939     -3.92282533635029      4.58850122053474
