101
Coordinates from ORCA-job orca E -2005.492254310542
  C           0.36331252096552      0.48617778300521     -1.33336874513971
  C           0.91518343978700      0.53076664612561      0.10113795626670
  O           1.69684269635828     -0.31733642295952      0.48473124945542
  O           0.59147212066581      1.51936822118982      0.91909073936010
  C          -0.69747586343439      1.55943378574647     -1.61070115778663
  H          -1.66906578571598      1.22578729013818     -1.23049452687647
  H          -0.79999637007960      1.69967430127442     -2.69971988253640
  C          -0.28647225785627      2.62914157518654      0.59549204502038
  H          -1.28287587889378      2.33011075855766      0.96541003837646
  C          -0.34915701830137      2.86557676254327     -0.90537719324638
  H          -1.12176598544093      3.62278542946188     -1.11053181719388
  H           0.61773674015160      3.26823238603600     -1.24412177484996
  C          -0.04674468666627     -0.96872431753540     -1.67110969218085
  H           0.81460156400648     -1.59115313248709     -1.40077904507327
  H          -0.14959477190083     -1.04570194585846     -2.76550568953726
  C           1.67749498763879      0.83323594606847     -2.32957792942139
  C           3.01686862417098      0.62596016275721     -1.73189097401502
  H           1.56844851157515      1.88497949173491     -2.61861286396691
  H           1.54569247322589      0.20021712002639     -3.21927527456539
  C           3.57075233549631      1.73701112344930     -0.95862928640346
  C           3.72835749912145     -0.68504601894063     -1.81076734735141
  O           2.96042897588147      2.78006072420947     -0.78401996788550
  O           4.79264308836807      1.60201691770605     -0.39872487342672
  H           4.23983557685211     -0.76526497299330     -2.79380258123994
  H           2.99974167038203     -1.51088090599141     -1.78561250238518
  C           4.74717094582828     -0.81858168323221     -0.68116880111120
  C           5.61043769949460      0.43297273108939     -0.61132250962792
  H           5.38507511447387     -1.70203038053310     -0.83498355138669
  H           4.21433003215877     -0.94005813025463      0.27578746033659
  H           6.13326518355899      0.56847590788826     -1.57961811617853
  C           0.24105788417855      3.80610376032736      1.40598676841082
  H           1.25287801694229      4.04960925008216      1.03908199439913
  H           0.35741280617190      3.46400486665966      2.44841357687404
  C           6.63972469875904      0.44123196233902      0.51242251754155
  H           6.11067770194903      0.28629340918698      1.46940286896595
  H           7.06747357613798      1.45712515682695      0.55771857015118
  C          -4.01789137911956     -1.68548339770268     -1.67964204668151
  C          -4.25124345310985     -1.99741017137631     -0.19092470860513
  O          -3.77173170627890     -2.98186972110543      0.32337135794260
  O          -5.06199937758505     -1.22344640501678      0.53630404113151
  C          -4.94858570031671     -0.54591660622294     -2.14494181408237
  H          -5.97430549382660     -0.93674943867506     -2.26666636691730
  H          -4.62988852470598     -0.19808559288470     -3.14161861120735
  C          -5.53149363223835      0.10210992383749      0.18759678110414
  H          -6.62692717319837     -0.00774305678285      0.08112192931878
  C          -4.96061623560136      0.59336067955831     -1.13591084387347
  H          -5.57847051700323      1.43023428225952     -1.49624154977554
  H          -3.94251932570037      0.97815017988090     -0.97608642863890
  C          -4.39396928876220     -2.96862822968342     -2.45050267937706
  H          -3.77125989062763     -3.82211297260057     -2.15681893363337
  H          -4.27775432076627     -2.80064327650789     -3.53354447469472
  C          -2.53650249157110     -1.26522239602401     -1.98808234314196
  C          -1.34341324459115     -1.65249367649417     -1.07571274644462
  H          -2.52303659313588     -0.17740130880490     -2.09696067451772
  H          -2.30099480440906     -1.66355791938565     -2.98896829973527
  C          -1.55748719623582     -1.08783120235607      0.33329657890302
  C          -1.09604024307412     -3.19457591795010     -1.08151675684057
  O          -2.25606275613237     -0.11182977636141      0.52864259895286
  O          -0.90134989256289     -1.62669370082475      1.35044936835306
  H          -0.28535413378987     -3.40450648994483     -1.79832937377084
  H          -1.98349668973096     -3.70754505510730     -1.46286845754413
  C          -0.75894346360121     -3.78614479466308      0.29266213042509
  C          -0.04182417002245     -2.78414927974202      1.17978859413584
  H          -0.13777758666591     -4.68741568558632      0.17590581764292
  H          -1.69003236732268     -4.07869351512519      0.79990248933581
  H           0.88832363526054     -2.42274003452120      0.71384589926837
  C          -5.22226147595304      0.99287478628684      1.38751215491936
  H          -4.13066075276533      0.98612000950667      1.53476473135874
  H          -5.66254902767232      0.51735412940667      2.28048201687342
  C           0.27483403241151     -3.26506437714815      2.58793258071823
  H          -0.65663295574474     -3.62014125821205      3.06350110808085
  H           0.60864828421018     -2.38518365296718      3.16294951936918
  H          -5.44321109801385     -3.24557867354468     -2.26095547187830
  C          -5.74162432318729      2.42587492215749      1.25510223837133
  H          -6.83026993077032      2.41246482604484      1.05854938682879
  H          -5.28137619517611      2.91309448285585      0.37741666766255
  C           1.35107032149200     -4.35113058784333      2.64291289330033
  H           1.00967486218279     -5.25040463725645      2.10019734465535
  H           2.25188525105656     -3.99696958558214      2.10858670184510
  C          -0.66399539323824      5.03925757150793      1.36830917916933
  H          -1.69196296074498      4.74893922629367      1.65655766534726
  H          -0.73518293872015      5.42314561313028      0.33541147554372
  C           7.76316189812920     -0.58492855068330      0.35235305428348
  H           7.34508003197884     -1.60697929718491      0.35107306046185
  H           8.24297781180197     -0.45245643737095     -0.63519962999493
  C           8.81984469671878     -0.47617517237156      1.45201015062225
  H           9.61816864603767     -1.22424269063021      1.32195612101028
  H           9.29143985991635      0.52079729877710      1.45490600296264
  H           8.37422841997887     -0.63178246569644      2.44881824586489
  C          -0.17178950088657      6.15862835402694      2.28576012942067
  H           0.84391157177399      6.48382056239307      2.00487357790967
  H          -0.83099026614317      7.04044681962528      2.23945105717915
  H          -0.13126099556624      5.82487078985981      3.33623968780906
  C          -5.45506724799253      3.26775319503347      2.49893323152790
  H          -5.83283838227761      4.29705783550118      2.38932160718521
  H          -5.92657999973633      2.83080915160520      3.39510542247248
  H          -4.37114019617279      3.32631791830801      2.69500791846661
  C           1.72482067464165     -4.73925664136778      4.07361556055171
  H           0.84934941203225     -5.12270971565115      4.62424333059205
  H           2.49979422519261     -5.52242931456482      4.09169560184439
  H           2.11146379162093     -3.87147543716271      4.63385551886090
