101
Coordinates from ORCA-job orca E -2005.494241449622
  C           0.40349127301622      0.52690476934778     -1.31773280211023
  C           0.91136693690327      0.56569389411031      0.14188794989356
  O           1.70109301555038     -0.27106141284499      0.53335828592703
  O           0.53070313321416      1.52397147770866      0.96932816970059
  C          -0.68624684516889      1.58141233492632     -1.58753903903143
  H          -1.65230908144112      1.22672545954935     -1.21499717178732
  H          -0.78471203774410      1.73132073525878     -2.67568581524988
  C          -0.33254059140888      2.64131058594822      0.63291912020415
  H          -1.33738601849410      2.34493252631754      0.98079598014584
  C          -0.36451106924586      2.88643614610695     -0.86743232017844
  H          -1.13835584899351      3.63914632772034     -1.08405588259244
  H           0.60553585614231      3.30016132629906     -1.18409953134128
  C          -0.01185598353434     -0.93862713531485     -1.63993814487538
  H           0.84854128521701     -1.55656338846617     -1.35709332058670
  H          -0.10101608398898     -1.02277087118540     -2.73514404167021
  C           1.63853578564239      0.86676746737478     -2.24269680174165
  C           2.99825456335782      0.62224183658623     -1.68049310068322
  H           1.57552727209623      1.93145037158813     -2.50181051450820
  H           1.51686305968166      0.29093958331286     -3.17432568445205
  C           3.57809361191059      1.70589436143821     -0.88967441523325
  C           3.69848399196692     -0.68892911961597     -1.81968531589974
  O           2.97732525006259      2.74597702897044     -0.66848461429977
  O           4.81304544505059      1.54831960419051     -0.36432077552209
  H           4.18152001837472     -0.74281594670483     -2.81884336128662
  H           2.96712389133723     -1.51262881414946     -1.79996031144421
  C           4.74815098804464     -0.86128112771618     -0.72396614460680
  C           5.61872787575501      0.38448706691354     -0.63935950784682
  H           5.37758329329719     -1.74184243160129     -0.92266381873890
  H           4.24309999152312     -1.01071562479303      0.24422645928765
  H           6.11278989143550      0.54872355307244     -1.61830346312632
  C           0.18446973348464      3.81132495319907      1.46026904185862
  H           1.20569172214961      4.04995056338343      1.11672213788200
  H           0.27611224064744      3.46405117972939      2.50342652991262
  C           6.68159649835485      0.35219189233887      0.45233106414404
  H           6.18076453409834      0.16955530014165      1.41957758341254
  H           7.11564474801886      1.36437080924326      0.51674928524726
  C          -3.97693979519808     -1.68721825356157     -1.70058351677557
  C          -4.22904073935274     -1.99984121477037     -0.21500428017510
  O          -3.74995906955327     -2.98071467545271      0.30650620449884
  O          -5.05595590106496     -1.23199343712202      0.50034920640225
  C          -4.91070594574865     -0.55628985531676     -2.18084791702520
  H          -5.93074184423802     -0.95658338939913     -2.31867735931135
  H          -4.57961320280952     -0.20594856053808     -3.17260798231747
  C          -5.53624223049482      0.08676522132352      0.14173191764781
  H          -6.62841807691734     -0.03655366495754      0.01733265075765
  C          -4.94953710407607      0.58324496378371     -1.17284915829212
  H          -5.57002232386788      1.41375146549046     -1.54330148061017
  H          -3.93801338827592      0.97816444265957     -0.99683048054548
  C          -4.33065399765427     -2.97430292379235     -2.47543213749870
  H          -3.70509577408236     -3.82208683875093     -2.17154753719577
  H          -4.20009083099246     -2.80660359158992     -3.55688256150635
  C          -2.49507242003088     -1.25398388720307     -1.98838231907751
  C          -1.31105089746696     -1.62650485279268     -1.05768251462471
  H          -2.49068432793456     -0.16649910970773     -2.10094036890627
  H          -2.24096692852215     -1.65325599347078     -2.98435507630496
  C          -1.55255602414858     -1.06135615891367      0.34669288072845
  C          -1.05156069562015     -3.16734050770196     -1.05356349894462
  O          -2.26939055970982     -0.09657442366224      0.53062518083497
  O          -0.90243086575444     -1.58859899833605      1.37384368278629
  H          -0.22952770281380     -3.37348521495069     -1.75836905902742
  H          -1.92957370644967     -3.68898836180108     -1.44477910523296
  C          -0.72797143296877     -3.75079329000224      0.32731263148289
  C          -0.03085869390185     -2.73934108978277      1.21950524149854
  H          -0.09787182891368     -4.64729639374885      0.22219351529247
  H          -1.66327696416001     -4.04916381248556      0.82330018941718
  H           0.90229810009225     -2.37235540306409      0.76414853786032
  C          -5.25865077443881      0.98317402103235      1.34520141433036
  H          -4.16932854437769      0.99428963085301      1.50847819223913
  H          -5.70396832500484      0.50082653959724      2.23199225975039
  C           0.27143296162684     -3.21099400314625      2.63393091120895
  H          -0.66354203883852     -3.56989804012824      3.09964759818928
  H           0.59194872888236     -2.32574130038093      3.20828518219459
  H          -5.38012534068322     -3.26004092487952     -2.30082806671090
  C          -5.80040511758652      2.40703914021553      1.20368914544006
  H          -6.88517590339942      2.37420131756397      0.98886597794309
  H          -5.33422920769334      2.90200642227470      0.33347578911359
  C           1.35440722994221     -4.28913528498975      2.70828997065026
  H           1.02544755369454     -5.19436608823094      2.16773656961841
  H           2.25885656332738     -3.93231506362261      2.18190205536014
  C          -0.71195845370676      5.05024841811824      1.40814737261996
  H          -1.74707162156587      4.76546147616263      1.67559392350249
  H          -0.76078885913710      5.43708557532714      0.37503262860157
  C           7.79459645879071     -0.67297601061190      0.22633948941105
  H           7.37203968888570     -1.69303329585842      0.20746360226560
  H           8.24364005034486     -0.51267154859160     -0.77148667283727
  C           8.88561981325675     -0.60097975450996      1.29498233036556
  H           9.67648785118250     -1.34723739524273      1.11752643895577
  H           9.36113750926374      0.39397654178130      1.31306842691485
  H           8.47088112684140     -0.78523515576573      2.30021541901851
  C          -0.23082923275982      6.16430072363905      2.33783731913155
  H           0.79195276223534      6.48415310080972      2.07726974055030
  H          -0.88381185331409      7.05013654616735      2.28122403841073
  H          -0.21239155770000      5.82768799939051      3.38801699667754
  C          -5.55009769107816      3.25443818983220      2.45156992419835
  H          -5.94506328109264      4.27650645462848      2.33491457976744
  H          -6.02842143698150      2.80921722895206      3.34003372357512
  H          -4.47093780874014      3.33348712438525      2.66593890385080
  C           1.71441716028846     -4.66509995600485      4.14575539911646
  H           0.83508155633475     -5.05000555590306      4.68918568602803
  H           2.49380893208546     -5.44342234100085      4.17804592871286
  H           2.08944392743136     -3.79110220462984      4.70422660719649
