101
Coordinates from ORCA-job orca E -2005.481116220537
  C          -0.08989422782825     -0.15043685311137     -1.65005790720972
  C           1.10015863585917     -0.20879800375706     -0.80034836927321
  O           1.74881723801312     -1.23333927633713     -0.63457607873994
  O           1.52260720639957      0.92286467769767     -0.20356404526638
  C          -0.72160385812570      1.15581128733294     -2.00301608133269
  H          -1.70387390171442      1.20207471188631     -1.49560355391065
  H          -0.94355283242064      1.18142752886197     -3.08590655047725
  C           0.66947676653705      2.09813320474793     -0.17111651528026
  H          -0.16622258031055      1.86254749049742      0.51494138112183
  C           0.12303753925509      2.35308759097679     -1.56857722800046
  H          -0.48968326834962      3.26711786650974     -1.56886674774510
  H           0.97009156048168      2.52116032806164     -2.25116016287343
  C          -0.66871680563845     -1.45793916850049     -2.08187755809111
  H           0.13018189425127     -2.20623343946918     -2.02311841798329
  H          -0.99750682058365     -1.40235438924641     -3.13345877131881
  C           3.18044513730556      0.04009703212697     -3.55515161318010
  C           3.89962903455931      0.38803033271868     -2.47947457432882
  H           2.61549424065471      0.79358406392622     -4.10824715015612
  H           3.14415280843257     -0.99798767648222     -3.89696457349092
  C           3.85044946780640      1.82885963094767     -2.05639980268911
  C           4.72269477100520     -0.58119845904693     -1.66719832019549
  O           3.20616388955036      2.67315823565794     -2.63951646118919
  O           4.53098053288493      2.19363916051344     -0.95609054713936
  H           5.74000520930972     -0.64141665391987     -2.09969281055523
  H           4.27997687330090     -1.58545912746252     -1.73284557215551
  C           4.82091116795709     -0.12532142146688     -0.21439849165458
  C           5.33932789806524      1.30122314819487     -0.15030954511454
  H           5.50468867194470     -0.78197876260421      0.34537661882795
  H           3.83001513790886     -0.18603349641810      0.26002438071842
  H           6.36223108326242      1.33943106004977     -0.57365968886102
  C           1.51447121724420      3.21900467409062      0.41702970647867
  H           2.33900558152401      3.45128609492770     -0.27551448434904
  H           1.97773498521720      2.83011532619542      1.34024885073434
  C           5.35487219911227      1.91485863099126      1.24475531283428
  H           4.33266289945301      1.86179131914256      1.65814597982574
  H           5.59083805070871      2.98698163074698      1.13377330558433
  C          -4.61446954801134     -1.55269929753934     -1.25703451427426
  C          -4.56957611875260     -1.89163038417904      0.24360123408656
  O          -4.14921810497707     -2.95817260521422      0.63070374731695
  O          -5.07209924124471     -1.03715265749754      1.13893291226454
  C          -5.42207282606062     -0.26002140805233     -1.49837645587601
  H          -6.50073340446739     -0.47800128862275     -1.40563984932925
  H          -5.26359614278539      0.08033776530727     -2.53511969260239
  C          -5.39855454877019      0.35617638822810      0.91226879890338
  H          -6.49683298948159      0.41166442441550      1.03188427029171
  C          -5.03649699768437      0.81588073151570     -0.49290413194770
  H          -5.56493961980520      1.75848910894406     -0.70321432479350
  H          -3.95642394008950      1.02004661767434     -0.54171841412341
  C          -5.34697892530734     -2.72485827660886     -1.94296015321537
  H          -4.81935235698549     -3.67640314428075     -1.80618763547992
  H          -5.44130854414322     -2.52403121610591     -3.02250190862354
  C          -3.18419789707067     -1.35786329386532     -1.87170028952130
  C          -1.91939163629316     -1.98588263863561     -1.24475814498328
  H          -3.00384409978519     -0.27963132852160     -1.94091195609911
  H          -3.23653967400146     -1.72013013782888     -2.91187958276539
  C          -1.70242802982085     -1.41959342245312      0.16473359826935
  C          -1.91545291402149     -3.54010587256036     -1.29819760614825
  O          -2.17597124487199     -0.35346776289340      0.50460921310577
  O          -0.87905874170398     -2.05823687750451      0.98663844643965
  H          -1.33539011988601     -3.84970993237767     -2.18301481379478
  H          -2.93456522006560     -3.90762207573658     -1.44936302864096
  C          -1.35371707896993     -4.19682685962644     -0.03141467618183
  C          -0.29068623041448     -3.34142240319482      0.63704316077130
  H          -0.93336906600337     -5.18548444094279     -0.27124534064467
  H          -2.17009750289004     -4.34327514998984      0.69181092826398
  H           0.55017244210442     -3.13066066096755     -0.04297064000500
  C          -4.72459823430021      1.13813842939175      2.03540716276145
  H          -3.63677203025544      0.98912307776610      1.94217191850034
  H          -5.02519925383473      0.67575973111840      2.99103510187073
  C           0.26432259321067     -3.89942154173178      1.93948774195427
  H          -0.57528591378105     -4.10974704562677      2.62575358234748
  H           0.86150819484502     -3.09922171788629      2.40832999880879
  H          -6.36123491426907     -2.84752117151072     -1.53097732812473
  C          -5.06951676775023      2.62880046295950      2.05168441270333
  H          -6.16819522588247      2.75638605719825      2.07501178525551
  H          -4.72922527561874      3.10373257720628      1.11455650460310
  C           1.13220266374497     -5.14649303241913      1.75936905437624
  H           0.53361045964904     -5.96349339016770      1.31928702469147
  H           1.93346668217189     -4.92907018488459      1.02940107344015
  C           0.72042237451165      4.48557762996875      0.74354130265346
  H          -0.14066812866276      4.22831858511682      1.38842448970844
  H           0.29185977925705      4.90957712477816     -0.18156322871883
  C           6.35050330128922      1.26473715692809      2.20762055051344
  H           6.09408332239813      0.20092791421219      2.35338616012832
  H           7.35896468230098      1.27474767435388      1.75391551077022
  C           6.39422031743476      1.96199770088332      3.56748350915800
  H           7.11502980835180      1.47960431865030      4.24684341554077
  H           6.68662334561951      3.02062193226750      3.46508750869092
  H           5.40639809599819      1.93950900027133      4.05763741195329
  C           1.57636325315528      5.54881173905241      1.43202743628703
  H           2.43048779374242      5.84162259813997      0.79887219108018
  H           0.99443640508733      6.45813896894374      1.65254174329876
  H           1.98675667229157      5.17425001822002      2.38503737013414
  C          -4.44359613096722      3.36134465300848      3.23890477278657
  H          -4.69267503285465      4.43470328593682      3.23130606033008
  H          -4.79422376923033      2.94214518675778      4.19693207823178
  H          -3.34446843153717      3.27101836340532      3.22415164981453
  C           1.75109307846992     -5.62793261923012      3.07165641358598
  H           0.97215173354079     -5.87884035646336      3.81129334018221
  H           2.37094436947292     -6.52643738388579      2.92165718851257
  H           2.39141310162797     -4.84965594259510      3.51978802794204
