101
Coordinates from ORCA-job orca E -2005.480887883024
  C          -0.01981080352843     -0.10906892102898     -1.48484457541777
  C           1.13096043588028     -0.16204438680660     -0.58394490262474
  O           1.76094064287625     -1.18891596031134     -0.36910208355874
  O           1.55081641176579      0.97995663595253     -0.00406520992895
  C          -0.67547189695839      1.18854802117833     -1.82491694776356
  H          -1.65727940420409      1.20625749018027     -1.31473633987203
  H          -0.89917822036864      1.22104307208484     -2.90688310809651
  C           0.70453190509115      2.15993565150848      0.01066006138844
  H          -0.12407745545325      1.94468952973928      0.71185298014409
  C           0.14258144646787      2.40105565749947     -1.38298397652208
  H          -0.49366391334005      3.29904028767634     -1.37201496215968
  H           0.97738514159482      2.59841551223536     -2.07198258646942
  C          -0.55731701172745     -1.41863385387875     -1.96193521261905
  H           0.24498781970432     -2.15911484507691     -1.86582959919948
  H          -0.82473667636431     -1.35246347087013     -3.03040396880838
  C           2.74730925570969      0.10631258128713     -3.39397198491555
  C           3.66280700499563      0.43404617743710     -2.47143178135201
  H           2.14448350514995      0.88035887726527     -3.87343769909294
  H           2.59231450766632     -0.93510722149945     -3.68854704533874
  C           3.76692889726742      1.88209054034489     -2.08707318700551
  C           4.55298051858008     -0.56202462565784     -1.77328624777979
  O           3.12911492427967      2.76058211392962     -2.62487055578156
  O           4.57695277089751      2.21433550323674     -1.06774267415159
  H           5.50958127477375     -0.63922736957364     -2.32550959835921
  H           4.08298986220202     -1.55572948893626     -1.79144209465015
  C           4.83262919175285     -0.11998287790426     -0.33921706096515
  C           5.40640952401133      1.28672582675797     -0.32420327959392
  H           5.55357633321485     -0.80309712745011      0.13591393686177
  H           3.90215874501205     -0.15571035001848      0.24688251495797
  H           6.39336293438211      1.28578492863681     -0.82667855410800
  C           1.56865166283599      3.28564304641000      0.56264849790455
  H           2.37178665459939      3.50438979192089     -0.15951248393150
  H           2.05680679066146      2.90685684345037      1.47712688408409
  C           5.55188806332504      1.89861183976136      1.06451354758620
  H           4.55686679205656      1.90290719986994      1.54272125293487
  H           5.84049878742174      2.95562187664136      0.93453284317138
  C          -4.54369503035844     -1.57319853825400     -1.37823004223084
  C          -4.58490938762659     -1.93297733788146      0.11770106530554
  O          -4.17583234466943     -3.00023049751203      0.51481956905953
  O          -5.15098371679304     -1.09729340901782      0.99242954204886
  C          -5.35336230362826     -0.28791093727398     -1.65066339846653
  H          -6.43229592207786     -0.52192237057360     -1.62520461272236
  H          -5.13793057295960      0.06891269479350     -2.67147987417768
  C          -5.48227268705083      0.29471296903120      0.76541250021749
  H          -6.58628285649049      0.33456927442346      0.82188618087263
  C          -5.04503181225129      0.77920407203295     -0.60994215649691
  H          -5.57540618645951      1.71644208779518     -0.83875656712541
  H          -3.96767429541615      1.00190945758683     -0.59148375674217
  C          -5.21766409633589     -2.74471882647022     -2.12289269087483
  H          -4.68766176133390     -3.69168991291710     -1.96546959372076
  H          -5.24790610734980     -2.53065932847233     -3.20356995681909
  C          -3.08174673036943     -1.35159245835378     -1.90190234847946
  C          -1.84867083107467     -1.97333702967370     -1.20842512945019
  H          -2.91134117581823     -0.27044652634582     -1.94596350790716
  H          -3.06466499684728     -1.69969289899454     -2.94810357326037
  C          -1.72451830680261     -1.42730748902787      0.22042366496432
  C          -1.82050041548142     -3.52634099466688     -1.28431462152450
  O          -2.23628435800063     -0.37546438592358      0.54891540393104
  O          -0.94163573645935     -2.06722083223448      1.07976696841644
  H          -1.18325822769926     -3.81591503140316     -2.13604564320966
  H          -2.82349934687242     -3.90433670502196     -1.50257269746277
  C          -1.32929282619484     -4.19516039040764      0.00548420532091
  C          -0.31813084512340     -3.33855450560908      0.74848973581181
  H          -0.88504380926836     -5.17633763317041     -0.22163009595930
  H          -2.18684481794377     -4.35860083569982      0.67526512128951
  H           0.55975126264126     -3.10854209620726      0.12388504849735
  C          -4.88541057459832      1.06949930130584      1.93613020620312
  H          -3.79159936377441      0.94119593694329      1.89989730664386
  H          -5.22897718615540      0.58553071043126      2.86622730607212
  C           0.16365379216999     -3.90962133231820      2.07439078199547
  H          -0.71336965308203     -4.13263780884668      2.70764460318535
  H           0.72816620808860     -3.11229458526028      2.58656726791530
  H          -6.25362971742242     -2.88440144117001     -1.77556054172489
  C          -5.25946269353526      2.55300894272605      1.95728604441247
  H          -6.36002918173935      2.65975632840878      1.92120750845731
  H          -4.87706897128186      3.05054594151355      1.04849822375619
  C           1.04780491068593     -5.14999253010097      1.92988994537325
  H           0.47864179853941     -5.96620474920738      1.45096951769999
  H           1.88574574185431     -4.92120005275990      1.24605802984851
  C           0.79072267390685      4.56112364192962      0.89302625323506
  H          -0.04676431368823      4.31801988953733      1.57326341025925
  H           0.32963080411995      4.96886192774756     -0.02370672885320
  C           6.56948327783199      1.19236017601943      1.96245840502660
  H           6.25642246578634      0.14857526649920      2.13846817014451
  H           7.54229566415698      1.13422166584081      1.43967455486612
  C           6.75269543783700      1.89502190857162      3.30789954386642
  H           7.48551180894056      1.37084106940810      3.94194247262102
  H           7.10598430107295      2.93123542211352      3.17338549174616
  H           5.80167351358212      1.94138212474130      3.86465773014803
  C           1.67379947448225      5.63453088702077      1.52954543542347
  H           2.50316840835558      5.91461572194439      0.85890465328581
  H           1.10171432705017      6.54856821039155      1.75603230544170
  H           2.11985573332352      5.27607353528204      2.47266684683203
  C          -4.71559831238187      3.27622238138488      3.18977142247966
  H          -4.98450670683739      4.34480626853038      3.18545104639101
  H          -5.11181781566611      2.83410238047627      4.11930451728962
  H          -3.61590148554802      3.20623643773277      3.23635524685667
  C           1.59913316597904     -5.64018050816012      3.26875736693830
  H           0.78405204376965     -5.90265629853791      3.96413669165996
  H           2.23161919625160     -6.53368788828615      3.14341481412855
  H           2.21026504781038     -4.86258697239516      3.75703061230208
