101
Coordinates from ORCA-job orca E -2005.467802722497
  C           0.19017824012262     -0.00630886817495     -1.36968122119804
  C           1.10173769323937     -0.04723594578741     -0.20801029924554
  O           1.66443080907082     -1.06591529983877      0.15488769113622
  O           1.42373561934232      1.11206290936617      0.39159910364496
  C          -0.60875444419534      1.23797588245923     -1.62900075697241
  H          -1.57580044473442      1.10776451956986     -1.11310419412847
  H          -0.84034804229565      1.32622004733093     -2.70452439271246
  C           0.55893435929365      2.27860966092322      0.32353838492567
  H          -0.29716782925627      2.06328061301170      0.98958444847192
  C           0.05565430963678      2.50313877888004     -1.09493113999180
  H          -0.67709898383032      3.32480545325176     -1.08274964363750
  H           0.89187868872566      2.81937690685644     -1.73365604047493
  C          -0.31567157076231     -1.34529443055080     -1.83831134004028
  H           0.48725506789969     -2.07235030732827     -1.66972915065405
  H          -0.50434768919394     -1.31010064420506     -2.92439880062524
  C           1.95520374969758      0.24733235450182     -2.84840495541411
  C           3.14455168116408      0.50672119751992     -2.21866125396449
  H           1.42702387525513      1.06705009408476     -3.33516840556837
  H           1.74408921968907     -0.76947754508054     -3.17953032496078
  C           3.50836821280938      1.92964184358015     -1.96959990489546
  C           4.05487371845109     -0.56959393080550     -1.69563942818728
  O           2.89588443467932      2.86631916890678     -2.43965055568531
  O           4.55217195039461      2.19297571202832     -1.16148222689894
  H           4.85387130496409     -0.76131991124493     -2.43994251174672
  H           3.49651704547715     -1.50765859498321     -1.57076314251835
  C           4.68939752897467     -0.13323047151137     -0.37592963148830
  C           5.40681248615387      1.19400499584259     -0.55461340062160
  H           5.41461754832751     -0.88759983222410     -0.03395780105822
  H           3.91206078814547     -0.04742999859649      0.39907448508096
  H           6.25861636882571      1.05562482199275     -1.24890279147786
  C           1.38273280170581      3.42585993276643      0.89332177747715
  H           2.24347427585942      3.60547282343128      0.22675814617481
  H           1.79372038005812      3.08981048364043      1.86084026766278
  C           5.91448132393867      1.82245064804413      0.73806966067396
  H           5.05098466650229      1.97258494849665      1.41002975399260
  H           6.29626032879651      2.82776740933612      0.49125076106249
  C          -4.33357799703174     -1.58878918807809     -1.55044225877043
  C          -4.48145251494853     -1.96716797307778     -0.06630469766413
  O          -4.08888865342373     -3.03420428289849      0.34726700134882
  O          -5.12146560354814     -1.14928580295184      0.77358684612425
  C          -5.14821107420652     -0.31751299404717     -1.86977928049253
  H          -6.22111328002665     -0.57338874223782     -1.92371290973427
  H          -4.86799987008070      0.05377152958601     -2.86951064042523
  C          -5.45855494421683      0.23960293141965      0.53686398414192
  H          -6.56428937058976      0.26113059636562      0.51774929071959
  C          -4.93753315561250      0.74566661406544     -0.80118609449978
  H          -5.47169689856484      1.67317670179476     -1.05881327004157
  H          -3.86970113694089      0.99372239076710     -0.70736723803359
  C          -4.92535195317486     -2.76572042593522     -2.35429626006422
  H          -4.39727062474616     -3.70575179676994     -2.15475647290027
  H          -4.86879262327717     -2.54698934166863     -3.43294037538997
  C          -2.84139194286161     -1.32759102353679     -1.96024641368281
  C          -1.64454493661782     -1.93228991457487     -1.18663145481862
  H          -2.69669363043556     -0.24324450048085     -1.98206790758743
  H          -2.74007461238759     -1.66253950878140     -3.00609443034022
  C          -1.66015684910910     -1.43456414308749      0.26548055079788
  C          -1.57872439451044     -3.48438973347835     -1.31156999404044
  O          -2.19162596161761     -0.38356730330571      0.56881316488998
  O          -1.00520095586325     -2.11945911311572      1.19015046308257
  H          -0.84026949357556     -3.73225505910128     -2.09149319908671
  H          -2.54003336437793     -3.86641285536752     -1.66827511995570
  C          -1.23012982510633     -4.20514507652498     -0.00384877671540
  C          -0.32850888746125     -3.36793344692256      0.88630812502567
  H          -0.74083072983792     -5.16676692903712     -0.22247932813683
  H          -2.15526666060929     -4.41375078521833      0.55307360996842
  H           0.61116787425691     -3.09982082352985      0.37765807502494
  C          -4.95613203365747      1.01255633724916      1.75230244463255
  H          -3.86136064636412      0.89518576266142      1.79505754931110
  H          -5.36074666055683      0.51907321149541      2.65237425934460
  C           0.00251548948094     -3.98546754255312      2.23732932296697
  H          -0.94027641803831     -4.23813338116710      2.75416855979166
  H           0.49335777430235     -3.20356061280094      2.84083129087744
  H          -5.98443781541522     -2.92150107391044     -2.09466466900611
  C          -5.34520734037441      2.49232042504493      1.75506898305032
  H          -6.44169905318226      2.58957312881783      1.64444811947364
  H          -4.90646946785033      2.99842102204734      0.87697104489317
  C           0.91102271057712     -5.21367886193996      2.15390098659418
  H           0.40929104797170     -6.01740698451183      1.58657128859860
  H           1.81928761768659     -4.95615901053898      1.57861972350979
  C           0.59305404577242      4.72127609832710      1.09263193241595
  H          -0.31141258888917      4.51302851170861      1.69427198322403
  H           0.23267883013654      5.09357370692500      0.11791957136726
  C           7.00460851547746      1.01427159606503      1.44497235703498
  H           6.60522169142499      0.03201948643793      1.75191459164082
  H           7.82241412113981      0.80079239770111      0.73167332737867
  C           7.56965519363151      1.73318864511755      2.67016888429327
  H           8.34740572055855      1.13269252637928      3.16837999056283
  H           8.01927163964784      2.70148901004502      2.39314837884602
  H           6.77904310380440      1.93768865409665      3.41155925816576
  C           1.41989959817950      5.81301814394848      1.77174023886482
  H           2.31681983973568      6.05848389857179      1.17878442476734
  H           0.83888631926659      6.74046044296428      1.89959311116337
  H           1.76237517197712      5.49187402760352      2.76997317834178
  C          -4.89300045737613      3.21367041847994      3.02507132606688
  H          -5.17151455968393      4.27965275588711      3.00795815674753
  H          -5.34638676424537      2.76254873496824      3.92360685966617
  H          -3.79825846871671      3.15357165718021      3.14522213930573
  C           1.31099825079260     -5.74440969086389      3.53075545566104
  H           0.42428393465737     -6.03527568747374      4.11881069829082
  H           1.96343415988310     -6.62871917563073      3.45036559288165
  H           1.85331209581736     -4.97872400409324      4.11051348439432
