101
Coordinates from ORCA-job orca E -2005.481034851463
  C          -0.03890505280872     -0.12348745217379     -1.54580112946823
  C           1.12077300151984     -0.17594472588262     -0.65587106516221
  O           1.75534831950176     -1.20195296772786     -0.45030512244309
  O           1.53942024259701      0.96461850391837     -0.07288494669411
  C          -0.68493327794535      1.17620046048954     -1.89668780119510
  H          -1.67051929866940      1.20352251439633     -1.39446836935450
  H          -0.90068527655977      1.20426658166648     -2.98055800663265
  C           0.68850994327258      2.14115742505538     -0.05648075474081
  H          -0.14586909311217      1.91740820384092      0.63516187818071
  C           0.13767912820693      2.38557433109304     -1.45404912166883
  H          -0.49318591977451      3.28732913978302     -1.44927134485788
  H           0.97829199766642      2.57561855644771     -2.13824483477238
  C          -0.58950448413315     -1.43396578058653     -2.00497869297743
  H           0.21231343046198     -2.17643033787863     -1.91956208970477
  H          -0.87787174142041     -1.37410942163519     -3.06824221950039
  C           2.86418143709113      0.09398153314420     -3.44128735210109
  C           3.73092694609467      0.42692633344502     -2.47484089206782
  H           2.27060093461145      0.86330451878235     -3.93971214273291
  H           2.73822539119160     -0.94704862857935     -3.75092653422282
  C           3.79474233850893      1.87316248773972     -2.07447786527361
  C           4.60445311422125     -0.56250113851918     -1.74624589430354
  O           3.15931044198580      2.74487462981298     -2.62597380178188
  O           4.56354040520279      2.21092230800344     -1.02529576727153
  H           5.58183378248150     -0.62861281103740     -2.26228281127667
  H           4.14541803697876     -1.56071011907379     -1.78507981262587
  C           4.82704332545178     -0.12222024775258     -0.30171780643095
  C           5.38495287361526      1.29050985298901     -0.26450537916019
  H           5.53719314358120     -0.79933141913196      0.19762622453739
  H           3.87604012493774     -0.16755470698413      0.24954288914372
  H           6.38464417954311      1.30246556373159     -0.74110137251153
  C           1.54072838321510      3.26701163847914      0.51273959444859
  H           2.35766073748942      3.48950219403356     -0.19237522741316
  H           2.01233161800213      2.88730138628029      1.43553208754518
  C           5.48844697517449      1.89751861889331      1.12994335270769
  H           4.48382656178250      1.88238411325453      1.58741207183206
  H           5.76137339766408      2.96005193867795      1.01166674653407
  C          -4.56367316300554     -1.56670255323149     -1.33658844964349
  C          -4.57495617536860     -1.91768493025137      0.16193761228819
  O          -4.16189412603481     -2.98426473090289      0.55669770172801
  O          -5.11963550703513     -1.07480967877444      1.04338362346461
  C          -5.37203364947419     -0.27858693043668     -1.59922924753748
  H          -6.45150432083922     -0.50640021478419     -1.55044675569070
  H          -5.17581186052663      0.07162904785482     -2.62618551905596
  C          -5.44830583239236      0.31776216642971      0.81556245472855
  H          -6.55075382265633      0.36367620075539      0.89370946867321
  C          -5.03607750628495      0.79226052106066     -0.57088755275663
  H          -5.56500120359318      1.73165349894778     -0.79410657978659
  H          -3.95705808449505      1.00759028392564     -0.57547086004041
  C          -5.25938930719502     -2.73901478693225     -2.05968194653067
  H          -4.73041046786224     -3.68758899045681     -1.90852477616512
  H          -5.31232473138584     -2.53086739598371     -3.14064230593573
  C          -3.11205194996061     -1.35592709618422     -1.89289906485555
  C          -1.86743035298326     -1.97885864209644     -1.22155144911510
  H          -2.93797628092067     -0.27589317762445     -1.94767093606509
  H          -3.11946464617170     -1.71084897284739     -2.93688553951640
  C          -1.71100206400025     -1.42401381688617      0.20062349143117
  C          -1.84815602662215     -3.53244470551969     -1.28847828354355
  O          -2.20762302137848     -0.36553471362213      0.53136547891969
  O          -0.91621346810292     -2.06388641496488      1.04890407685732
  H          -1.22930980420271     -3.82993738503688     -2.15098522818868
  H          -2.85699954216099     -3.90671936616817     -1.48519343031156
  C          -1.33463550093943     -4.19637866232250     -0.00493778026990
  C          -0.30533354927708     -3.34006784216436      0.71293274683456
  H          -0.89881115972981     -5.18055382018321     -0.23534295487159
  H          -2.17920989219605     -4.35277416588454      0.68276797909000
  H           0.56090913796405     -3.11780905203455      0.06951082782530
  C          -4.82416931686307      1.09537127086028      1.97004510790559
  H          -3.73210820413045      0.95936821464822      1.91421012294414
  H          -5.15345399918229      0.61943563908733      2.90941143107956
  C           0.20032926348332     -3.90539174054426      2.03231409960676
  H          -0.66476016615829     -4.12099083664441      2.68433156317495
  H           0.77805311057660     -3.10737289549078      2.52844402898497
  H          -6.28816818053351     -2.87194660992672     -1.68905503698737
  C          -5.18734051909775      2.58162259121544      1.98931259540002
  H          -6.28761939764451      2.69603021366563      1.97433815134177
  H          -4.81945426694121      3.07084652226014      1.07010396008198
  C           1.07641610054757     -5.15020254079448      1.87774042304058
  H           0.49489779723788     -5.96665313573993      1.41432614642848
  H           1.90199868356287     -4.92868207708638      1.17668168325610
  C           0.75389565567217      4.53989263638347      0.83194973179937
  H          -0.09995937877185      4.29251188734517      1.49003963102070
  H           0.31542555828009      4.95313200749739     -0.09335766487139
  C           6.49878973978358      1.20462889547165      2.04641778339746
  H           6.20554949160802      0.15203976504554      2.20335608476793
  H           7.48571541692370      1.17447979439782      1.54835897723506
  C           6.63108747499818      1.89618921981923      3.40354672867772
  H           7.36046591283751      1.38276753440496      4.05023007263014
  H           6.96199824559459      2.94218633800400      3.28929707738687
  H           5.66551480039130      1.91292222387330      3.93637228118167
  C           1.62019869360314      5.60982772033863      1.49669674387465
  H           2.46683555943941      5.89339518029012      0.84945866847526
  H           1.04244510285681      6.52278548333493      1.71300956300310
  H           2.04160331945451      5.24639983507823      2.44921271507302
  C          -4.61390512980731      3.30828423409606      3.20627404473597
  H          -4.87515391122130      4.37875877596165      3.20076553328480
  H          -4.99456579157930      2.87465277222850      4.14624614674311
  H          -3.51403397935251      3.23046587220028      3.23122826959958
  C           1.65112547115403     -5.63545500225307      3.20856675046916
  H           0.84824734548424     -5.89095987249728      3.92054081480222
  H           2.27764927893232     -6.53213410607409      3.07620889966130
  H           2.27433203006519     -4.85769256113232      3.68105338225060
