101
Coordinates from ORCA-job orca E -2005.480960202646
  C          -0.11981018378141     -0.15530074025637     -1.69013425186489
  C           1.08556247551995     -0.21702685141898     -0.86168098726218
  O           1.74137580281902     -1.24036407624616     -0.71706276458348
  O           1.51146462066749      0.90959524909695     -0.25836081349150
  C          -0.74767396200027      1.15403011269052     -2.03898154603235
  H          -1.72627373023200      1.20689518911728     -1.52518963403541
  H          -0.97656186892340      1.18017821603944     -3.12050919458893
  C           0.65889709507364      2.08493584693557     -0.21562924684016
  H          -0.17477093086500      1.84560491436914      0.47159664570667
  C           0.10872456344012      2.34528568000450     -1.61062668634739
  H          -0.49539731153945      3.26497372889800     -1.60985424131752
  H           0.95550032582254      2.50316148122536     -2.29640917468121
  C          -0.70924326068147     -1.46110069724945     -2.11225635105323
  H           0.08871005677802     -2.21131539730777     -2.06626165634756
  H          -1.05484491327484     -1.40529739758745     -3.15842057364476
  C           3.37982624799328      0.01053716429534     -3.62017126591262
  C           3.99433385205750      0.35791286954269     -2.48128078754438
  H           2.84460301076270      0.75925667285204     -4.20820430090116
  H           3.40065809108617     -1.02198615868311     -3.98000035601297
  C           3.87641031656679      1.79227588178765     -2.04854192430786
  C           4.77332355450163     -0.60613921592069     -1.61872916921689
  O           3.22443725609575      2.61826954575555     -2.64915510617045
  O           4.50713004148728      2.17252436464912     -0.92385529544807
  H           5.80751903144545     -0.68059847606398     -2.00619919918056
  H           4.32529129113559     -1.60771483971579     -1.69162971473004
  C           4.81341739798820     -0.13561446433339     -0.16827591117653
  C           5.31519486909827      1.29669158704080     -0.10089087261742
  H           5.48137273578620     -0.78084808775735      0.42295437218332
  H           3.80625461255216     -0.19877523694629      0.27040816980773
  H           6.34494361241387      1.34525729375819     -0.50658883061574
  C           1.50459498900936      3.20330500410671      0.37573264673822
  H           2.32534201570090      3.44099046867981     -0.31923144475300
  H           1.97340079228840      2.80920910058963      1.29383675991917
  C           5.30078099472214      1.91707483558552      1.29113642599859
  H           4.27496240780164      1.84633110239425      1.69254908355154
  H           5.51749538340125      2.99299000499214      1.17747245410775
  C          -4.64093218963985     -1.54836895270315     -1.22291466964536
  C          -4.57135148343006     -1.88336317679209      0.27765307070038
  O          -4.14536464368604     -2.94918016136980      0.66060532022169
  O          -5.05837068595869     -1.02606534914000      1.17890996086747
  C          -5.45111709303800     -0.25552128641570     -1.45416793628532
  H          -6.52830128326884     -0.47206990802829     -1.34272792966058
  H          -5.30982672110095      0.08185261559893     -2.49437195394875
  C          -5.38663276394349      0.36714084697866      0.95399383168462
  H          -6.48269666206687      0.42444293723100      1.09164465900335
  C          -5.04749107440135      0.82262039721675     -0.45823830972611
  H          -5.57817340475461      1.76533189434353     -0.66230009820230
  H          -3.96811978337931      1.02513006289099     -0.52573879227491
  C          -5.38592124718799     -2.72146309975817     -1.89368267143248
  H          -4.85691360574553     -3.67324344129593     -1.76397345707766
  H          -5.49833015506496     -2.52290880399609     -2.97192277101867
  C          -3.22087292043723     -1.35662053019142     -1.86165684686961
  C          -1.94693760195900     -1.98485693971978     -1.25389506174451
  H          -3.04022291312179     -0.27871671847603     -1.93618095991158
  H          -3.29082564439123     -1.72117456346411     -2.90001863049790
  C          -1.70625188251362     -1.41491695565564      0.15012293155010
  C          -1.94588720362565     -3.53913899793196     -1.30289566864046
  O          -2.17395444788895     -0.34799005632708      0.49536934771771
  O          -0.86862314119601     -2.05141542162370      0.95941277747205
  H          -1.38265189405995     -3.85169478920691     -2.19745253530059
  H          -2.96811110037655     -3.90566129100754     -1.43368691379655
  C          -1.36133379483385     -4.19277993570948     -0.04489792675299
  C          -0.28678592530660     -3.33582806608902      0.60313739507786
  H          -0.94479081680020     -5.18178327299885     -0.28991869952744
  H          -2.16471205568392     -4.33845289892202      0.69302791815161
  H           0.54242277876118     -3.12711777811215     -0.09172557740298
  C          -4.69305713655079      1.15130809079048      2.06360727546601
  H          -3.60729768249730      0.99819246698446      1.95452163022476
  H          -4.98065244040818      0.69399759997245      3.02566128247230
  C           0.28993786628539     -3.89078237128220      1.89734883993138
  H          -0.53835402934857     -4.10212123008287      2.59695202393849
  H           0.89247071445314     -3.08858566620188      2.35583334776937
  H          -6.39320339805818     -2.84229896264913     -1.46440253730481
  C          -5.03225040138696      2.64330868720344      2.07889365340216
  H          -6.12994550835306      2.77523959142562      2.11878777505295
  H          -4.70477261993454      3.11283679235858      1.13451788478516
  C           1.15788290032396     -5.13603467524175      1.70533905343881
  H           0.55489562682398     -5.95451038441364      1.27406935617661
  H           1.94822552510098     -4.91713870750382      0.96401498629417
  C           0.70911683420501      4.46540878443754      0.71553671165862
  H          -0.14624930901406      4.20164962455719      1.36542879660151
  H           0.27192794217349      4.89369838572464     -0.20359046450447
  C           6.29706403333214      1.29123255088834      2.26929549018136
  H           6.05920366149672      0.22348507196465      2.41793635625198
  H           7.31033472907356      1.31781683476161      1.82717690040507
  C           6.31192463123303      1.99663303649309      3.62552719573089
  H           7.03370958674594      1.53160849095640      4.31588387934124
  H           6.58584461219661      3.05991641061146      3.52032206895458
  H           5.31916823125844      1.95862657952281      4.10465819241237
  C           1.56697561026463      5.52721775961639      1.40380055840997
  H           2.41502604782532      5.82686737322929      0.76570164488648
  H           0.98387679502763      6.43318419853921      1.63485027204226
  H           1.98632721802884      5.14793774693618      2.35102103818699
  C          -4.38494784514134      3.37853572767134      3.25289839149035
  H          -4.63010603517133      4.45279557220818      3.24457661805277
  H          -4.72183836044688      2.96480056018536      4.21819873998564
  H          -3.28652162595284      3.28402187752892      3.22102490412153
  C           1.79627322096252     -5.61542849949915      3.00904204336369
  H           1.02826907789359     -5.86716643936829      3.75973366353945
  H           2.41567542982875     -6.51284871494750      2.85097723577253
  H           2.44127617511304     -4.83553519762208      3.44755013140257
