101
Coordinates from ORCA-job orca E -2005.473680947639
  C           0.25622445761547      0.40061649107291     -1.31310482297324
  C           0.93195699375882      0.45439967072600      0.03925074334866
  O           1.68264864486827     -0.42929745998261      0.40707975146808
  O           0.77719588637155      1.52369219963617      0.81311343063248
  C          -0.72333580315410      1.51930425518306     -1.61795166149541
  H          -1.70843009281583      1.24181546876271     -1.21771140985592
  H          -0.83811945700625      1.62928714892144     -2.70945817348610
  C          -0.14137630358598      2.61315391474944      0.53923272653832
  H          -1.10860308791211      2.30609416250423      0.97616767862923
  C          -0.30320237034768      2.82821326471852     -0.95774701232067
  H          -1.07401355727147      3.59622272391239     -1.12574826075321
  H           0.64700562520184      3.20477937107210     -1.36513594523651
  C          -0.12000247621561     -1.02475635899465     -1.70949944071998
  H           0.74346352834630     -1.65335068914782     -1.46167403892607
  H          -0.24393045539463     -1.07383985050233     -2.80319917813643
  C           1.80596946676020      0.79375225167633     -2.51610677649340
  C           3.07095345619649      0.65091073078538     -1.85063117973720
  H           1.56310311711288      1.81791486130653     -2.80825845612537
  H           1.60646798567035      0.05216407175952     -3.29720030403235
  C           3.58213520312797      1.82149014316058     -1.11958612298404
  C           3.79458515905474     -0.65918819756621     -1.79464656962194
  O           2.97301851552749      2.87542085534020     -1.05946730337532
  O           4.76483303581186      1.72211567337795     -0.47787602888256
  H           4.36888258139220     -0.79549287305614     -2.73511024077364
  H           3.06753706752031     -1.48547058958946     -1.76003431283156
  C           4.74203962652625     -0.71189495109906     -0.59889313194579
  C           5.59711453371312      0.54586494644092     -0.56393037497968
  H           5.39037599873636     -1.59941358546371     -0.65691999260157
  H           4.15322238692283     -0.77535315037611      0.33012552074052
  H           6.17286510775074      0.62190759802730     -1.50826523080059
  C           0.41904957221409      3.80879815587401      1.29814667501612
  H           1.39773331156450      4.06598604982653      0.85833198543155
  H           0.61465999658243      3.48058626789719      2.33323166694766
  C           6.56256700030508      0.63512734615596      0.61172334645509
  H           5.98498225077762      0.52820582381522      1.54688054126933
  H           6.97753230302508      1.65729737775098      0.61939414369951
  C          -4.09869314797344     -1.69030395857305     -1.64581103832660
  C          -4.30462396243616     -2.00566981402786     -0.15387704319562
  O          -3.83044320496826     -3.00073519893998      0.34477606428371
  O          -5.08415823468578     -1.22066441323387      0.59510786146022
  C          -5.02102192979484     -0.53445253695030     -2.08605502159172
  H          -6.05543261738973     -0.90827964718902     -2.18539890254246
  H          -4.71952314993683     -0.18790136746588     -3.08852263311147
  C          -5.53838450344656      0.11446252378154      0.26230089602558
  H          -6.63777382335113      0.02424207777405      0.18203904111535
  C          -4.99112840652586      0.60089890138353     -1.07288425153908
  H          -5.60342067137471      1.44907220759754     -1.41580705921656
  H          -3.96341867845990      0.96903896435378     -0.93610888640374
  C          -4.50876165427158     -2.96425812499250     -2.41434462708997
  H          -3.89419065193608     -3.82842937033304     -2.13490025637137
  H          -4.40988029152389     -2.79392526150916     -3.49873369565351
  C          -2.61800520983760     -1.29052517106217     -1.98135244740205
  C          -1.41472660841277     -1.71216483858906     -1.10054304440492
  H          -2.58704168232296     -0.20098285705810     -2.07192226802591
  H          -2.41207008721858     -1.67659546792559     -2.99352170753023
  C          -1.58425963045000     -1.15436441475700      0.31786721742817
  C          -1.18403842174979     -3.25453100667752     -1.13099517408106
  O          -2.25082304980190     -0.16024519793916      0.53387666896086
  O          -0.91820273579681     -1.71538387599807      1.31584454299934
  H          -0.38472090310223     -3.46399042141554     -1.86077741420651
  H          -2.08165048132390     -3.75342005921960     -1.50802351344589
  C          -0.83449669542348     -3.86593428158143      0.23118131885807
  C          -0.08335481226866     -2.88651856040891      1.11568969512203
  H          -0.23236409778161     -4.77722981464313      0.09430909726650
  H          -1.76191823123647     -4.14656402749309      0.75169550712099
  H           0.84398387670502     -2.53474370187763      0.63659003958058
  C          -5.18341756010199      0.99512598638427      1.45697278415186
  H          -4.08904022400180      0.96525438609124      1.57849580201921
  H          -5.61257192665867      0.52639276712210      2.35890267151254
  C           0.24939557383144     -3.38982930571092      2.51228818581473
  H          -0.68037843092037     -3.73168503406582      3.00071498387655
  H           0.61088465371516     -2.52354638532930      3.09125238388241
  H          -5.55855203006605     -3.22554814578958     -2.20645695223337
  C          -5.67506617171714      2.43915884993616      1.34016391285014
  H          -6.76856165764106      2.44986835825136      1.17239222142388
  H          -5.22768251732049      2.91807186089184      0.45134500612627
  C           1.30426936090498     -4.49774561266784      2.53594123488473
  H           0.93443850471615     -5.38419486576768      1.99087439310859
  H           2.20197601924624     -4.15636219061448      1.98828250189579
  C          -0.50897634799179      5.02522509973111      1.31219801587628
  H          -1.50985599594770      4.71985061285997      1.67168219669594
  H          -0.65675712499422      5.39870811101672      0.28359448225808
  C           7.70261795486351     -0.38446771378092      0.56946183586776
  H           7.29413505206856     -1.40978144145759      0.60420764060525
  H           8.23134531850225     -0.30130140442642     -0.39824507544007
  C           8.69993569772001     -0.20213094140744      1.71385249273482
  H           9.51051023080031     -0.94676927290708      1.66628506587931
  H           9.16178746633995      0.79899528068970      1.68515916182686
  H           8.20513709955157     -0.30788846379031      2.69385838367265
  C           0.02360566694148      6.16135289725473      2.18545290998813
  H           1.01211118579912      6.50180457561032      1.83430580803087
  H          -0.65304642767016      7.03106697840030      2.17698613035248
  H           0.14081244822703      5.83779719350622      3.23339057627889
  C          -5.33729301000567      3.27245930928090      2.57690600613814
  H          -5.69735504288346      4.30929112624286      2.47935323118715
  H          -5.79236950609633      2.84315653498914      3.48519895388189
  H          -4.24731527547988      3.30906522440190      2.74263051846398
  C           1.69649116381183     -4.90820496547673      3.95541752253034
  H           0.82394822121074     -5.28055351870587      4.51819476017489
  H           2.45627456335094     -5.70630912628364      3.95113504675624
  H           2.11007755724091     -4.05403116818459      4.51734399975597
