101
Coordinates from ORCA-job orca E -2005.479486484316
  C           0.29029663819082      0.42383019267149     -1.32394803607354
  C           0.92798120360623      0.47481252135890      0.05635845606089
  O           1.68574805473230     -0.40000401297864      0.42906773093634
  O           0.72610486121452      1.52332705046118      0.84412439542535
  C          -0.71657459912560      1.52855840622350     -1.61681840156880
  H          -1.69650968845462      1.23318368002790     -1.22027423698309
  H          -0.82944814260474      1.64838949540308     -2.70731747517577
  C          -0.18402196209237      2.61654903623599      0.55557018165078
  H          -1.15910367449295      2.30950176063681      0.97402358141162
  C          -0.31811262887749      2.83724943719750     -0.94317003062503
  H          -1.09111001180815      3.60085231788582     -1.12129559138977
  H           0.63666870292070      3.22317540921049     -1.33103427309058
  C          -0.09877803267027     -1.01109438995345     -1.70012058869367
  H           0.76375581300274     -1.63835871047988     -1.44547793965498
  H          -0.21646347402609     -1.07009562549899     -2.79400143525603
  C           1.76125339052605      0.80039063217956     -2.45884257950860
  C           3.05476919010768      0.64284155189097     -1.81146043681235
  H           1.56447414580977      1.83245932686262     -2.76262530580403
  H           1.59264923645384      0.08883153435299     -3.27643903644981
  C           3.57737209781119      1.79713653606191     -1.07129342847728
  C           3.77613972692115     -0.66751560895424     -1.79495933665841
  O           2.96617662329303      2.84882847798687     -0.97997979823882
  O           4.77277309489767      1.68952488774417     -0.45322931741893
  H           4.33039325714602     -0.78846076161623     -2.74991022934833
  H           3.04928883605325     -1.49421777731538     -1.76117058411593
  C           4.74707490370397     -0.74191847062196     -0.61908725272865
  C           5.60281541799800      0.51548133481433     -0.57638150358105
  H           5.39370109993293     -1.62836816985391     -0.70489167285973
  H           4.17534233718006     -0.82155255441533      0.31943442544477
  H           6.16166839969931      0.60840650327797     -1.52937389131615
  C           0.36516923357981      3.80787960232904      1.32949006807737
  H           1.35436528580789      4.06183459431700      0.91173497707853
  H           0.53678995811252      3.47649858938469      2.36780685723843
  C           6.58900914441351      0.58295116437561      0.58339118661959
  H           6.02754867902077      0.46045006547813      1.52644941887597
  H           7.00500789102135      1.60455476499540      0.60171544972030
  C          -4.07586574957551     -1.68797624765737     -1.65556055067981
  C          -4.28921523331525     -2.00164831669391     -0.16430570076647
  O          -3.81497449054140     -2.99445713246540      0.33872164063581
  O          -5.07655088320274     -1.21869267723747      0.57871204976046
  C          -4.99969064303641     -0.53590960304778     -2.10282350052595
  H          -6.03213784133428     -0.91356218244304     -2.20803023139398
  H          -4.69331712215084     -0.18958433010054     -3.10387861823603
  C          -5.53416614453525      0.11398609311450      0.24115685346795
  H          -6.63262578104438      0.01907332261411      0.15368626364358
  C          -4.98007864942348      0.60086152363379     -1.09101963147599
  H          -5.59316173137840      1.44648273440235     -1.43882308006575
  H          -3.95450644669304      0.97257083858294     -0.94826634851796
  C          -4.47800491276815     -2.96432918705342     -2.42440329653651
  H          -3.86222399895523     -3.82627080306274     -2.14087265759372
  H          -4.37414657741992     -2.79507786467638     -3.50849839727837
  C          -2.59468137414239     -1.28367066386024     -1.98402903189556
  C          -1.39396825412138     -1.69565857539271     -1.09431424250818
  H          -2.56804897730099     -0.19468016126135     -2.08064266235891
  H          -2.38090438524003     -1.67421153582627     -2.99283646783165
  C          -1.57576930857474     -1.13561493433196      0.32146273347645
  C          -1.15954257556921     -3.23830566492373     -1.11754448518360
  O          -2.25045729308388     -0.14574825141103      0.53169259640872
  O          -0.91377151681347     -1.69133247175626      1.32529752526490
  H          -0.35672262272870     -3.44841594388865     -1.84323066494291
  H          -2.05432103928864     -3.74066743106521     -1.49635669575009
  C          -0.81461082229723     -3.84463978312043      0.24809233528252
  C          -0.07293573432493     -2.85952257588539      1.13410594389029
  H          -0.20747376864815     -4.75345314059628      0.11692130360366
  H          -1.74355206646503     -4.12825445691988      0.76420942102439
  H           0.85596150912344     -2.50595113549662      0.65946066086966
  C          -5.19121230605243      0.99747305334357      1.43721899311735
  H          -4.09749295353159      0.97328099594668      1.56593480774741
  H          -5.62384539145817      0.52726174782823      2.33671653860474
  C           0.25355438916471     -3.35689717277942      2.53430108157266
  H          -0.67769174800401     -3.70089375276961      3.01839729714103
  H           0.60822989727385     -2.48727537263402      3.11246995486927
  H          -5.52802943405617     -3.22863171515770     -2.22154639339862
  C          -5.68966768298032      2.43880966222724      1.31602868105192
  H          -6.78168777551521      2.44348273654987      1.13866347769667
  H          -5.23710744346309      2.92013637321096      0.43114369882287
  C           1.31266325780847     -4.46052578915735      2.56770182994628
  H           0.94968793901462     -5.35011060798541      2.02311333341513
  H           2.21230563615171     -4.11721905468989      2.02441249062717
  C          -0.55758237689512      5.02838636222589      1.32607861261648
  H          -1.56761173020478      4.72637452368379      1.66190060676356
  H          -0.68034473556202      5.40520913454353      0.29542717118106
  C           7.72719136486342     -0.43650253420377      0.50428830368161
  H           7.31847139763094     -1.46206081207925      0.52752278256705
  H           8.24047232517205     -0.33662376450846     -0.47014974851410
  C           8.74299638059188     -0.27504178125883      1.63550685048595
  H           9.55203634517464     -1.01923309287115      1.56188420601276
  H           9.20523217336333      0.72614304672773      1.61698180560343
  H           8.26386518379262     -0.39765503399084      2.62131353613815
  C          -0.03996691207519      6.15974803107750      2.21437009360059
  H           0.95770931031533      6.49675468936322      1.88662761328346
  H          -0.71243781486423      7.03246848256080      2.19291770654477
  H           0.05199515095735      5.83290990852662      3.26380107585579
  C          -5.36756141653114      3.27374985017818      2.55583504415146
  H          -5.73103276205329      4.30903919134408      2.45464203569231
  H          -5.82965151382503      2.84258860707853      3.45969499457802
  H          -4.27946319821458      3.31491404785580      2.73227295204173
  C           1.69799335814881     -4.86509517479048      3.99074788069565
  H           0.82353328805254     -5.23907973984980      4.54944959459825
  H           2.46085202072855     -5.66026620314666      3.99346073837252
  H           2.10492720292635     -4.00761107624920      4.55248294233795
