101
Coordinates from ORCA-job orca E -2005.479915028665
  C           0.04339529585606     -0.08741249773374     -1.34003457214678
  C           1.15371126669912     -0.15029090278439     -0.39117454057631
  O           1.75840496030029     -1.18340740026940     -0.13927255902245
  O           1.57850290393507      0.99478945348088      0.18016588526296
  C          -0.62616832693897      1.20800100606358     -1.66068738725928
  H          -1.60788086798355      1.19996664970214     -1.14994271821526
  H          -0.85017289287210      1.25754361069109     -2.74149275060458
  C           0.74475342107438      2.18276970538526      0.18834841580340
  H          -0.07976742618448      1.98397807082650      0.89923076576328
  C           0.17036345137320      2.42769477881063     -1.19933274403077
  H          -0.48649892343300      3.31033066086601     -1.16856558986168
  H           0.99150786775656      2.65768620573847     -1.89395161806244
  C          -0.46989769440445     -1.39068528922941     -1.85986340300045
  H           0.32714555416740     -2.13271412399365     -1.73687623313292
  H          -0.68388868250156     -1.30795852077384     -2.93941260607609
  C           2.44484147438921      0.08903519417331     -3.21699933465310
  C           3.47569450325832      0.42438546407787     -2.42699766575256
  H           1.82505222426163      0.86255292925342     -3.67396706338059
  H           2.22008765846528     -0.95832181839532     -3.43339222325437
  C           3.67529823145226      1.88350570237838     -2.13602997964275
  C           4.39821822246272     -0.57048126795465     -1.77210913761337
  O           3.04012307520568      2.76225648075773     -2.67577649645548
  O           4.56728636458111      2.22771456082214     -1.19108294027846
  H           5.30257532424736     -0.68995903012787     -2.39962395058837
  H           3.90614834899554     -1.55164089718377     -1.71347816009524
  C           4.81067293949349     -0.08401393726481     -0.38456708144288
  C           5.42387473909787      1.30316078733441     -0.47411479030417
  H           5.55086603710467     -0.77109620786993      0.05387797567591
  H           3.93495543115633     -0.07135096979893      0.28169013423635
  H           6.36730263148295      1.24920915993462     -1.05189971839803
  C           1.63006446527700      3.30051932176996      0.72379642769784
  H           2.45128233261276      3.47582152299530      0.00926047412488
  H           2.09457956734985      2.93383859316652      1.65555168530606
  C           5.69883345822864      1.96677867978163      0.87025402281030
  H           4.74463839940282      2.03575491029584      1.42148694189390
  H           6.01923399421119      3.00353088881955      0.67029875759444
  C          -4.48066167397530     -1.57064267190904     -1.48475532306617
  C          -4.59689942138789     -1.96232215601188     -0.00090914388215
  O          -4.20299274475773     -3.03600004962016      0.39428588636105
  O          -5.21122626077802     -1.14764461967776      0.86091603665714
  C          -5.28282164324369     -0.28390540487406     -1.77204780600473
  H          -6.36020672194523     -0.52374715494749     -1.80743623304558
  H          -5.01721428884137      0.09515216547579     -2.77283689891756
  C          -5.53955876856528      0.24685048187536      0.64570438844868
  H          -6.64525449017722      0.27920494842574      0.64569016771472
  C          -5.03563543307339      0.76279260202018     -0.69502958104168
  H          -5.56028278781260      1.70145263139250     -0.93109082177246
  H          -3.96225731484663      0.99170788913739     -0.61717021795195
  C          -5.10882224531268     -2.72909471435073     -2.28795708306692
  H          -4.58291310021863     -3.67711951501067     -2.12334493354123
  H          -5.08417612434760     -2.49199795729458     -3.36394730317732
  C          -2.99491352254598     -1.33100526555963     -1.92746229854186
  C          -1.79558608993186     -1.96175805890655     -1.18407683887241
  H          -2.82831499155037     -0.24839289368763     -1.94080465566622
  H          -2.92237681292881     -1.65778078440950     -2.97824788324650
  C          -1.75003251359692     -1.44642301595369      0.26108006969024
  C          -1.75621847307611     -3.51297682188862     -1.29118616726784
  O          -2.28574703015904     -0.40507640042797      0.58487212314391
  O          -1.01180784831279     -2.10199815317775      1.14726506427031
  H          -1.07435670285446     -3.78153241659908     -2.11471828438797
  H          -2.74493182681462     -3.88969286942291     -1.56844816028265
  C          -1.32917184850881     -4.20796212366069      0.00761145846749
  C          -0.36493589862638     -3.36326195885659      0.82331400168205
  H          -0.86639883460766     -5.18097394972796     -0.21771290443865
  H          -2.22046210237495     -4.39214290110839      0.62593015037369
  H           0.54457834142435     -3.11540727449585      0.25322049239687
  C          -5.00975318618275      1.00037705192610      1.86162909656793
  H          -3.91463984403421      0.87948840650817      1.88030830884725
  H          -5.39791467799887      0.49468355031055      2.76217728943617
  C           0.04527445553254     -3.96197926770867      2.16117260047780
  H          -0.86489715711732     -4.20083842636236      2.73937197089762
  H           0.57769975342109     -3.17482605733238      2.72113544398439
  H          -6.16064223006430     -2.88016331339174     -1.99785398208931
  C          -5.39490800296118      2.48077589377791      1.89422826038600
  H          -6.49271882173886      2.58192564610300      1.80179046681530
  H          -4.96820519789522      2.99994059806637      1.01782009600042
  C           0.94034961930484     -5.19697435845600      2.03912298064188
  H           0.40007530187589     -6.00498951597620      1.51498634054712
  H           1.81244042932125     -4.95259355313580      1.40524663373951
  C           0.88601192924425      4.60754078173568      1.00471163271826
  H           0.02372366863841      4.40703465969618      1.66759155434453
  H           0.46320359457869      5.00781005128384      0.06675719029753
  C           6.75259765541369      1.25608647245737      1.72193351477579
  H           6.40950359481275      0.23734696079721      1.97239870219284
  H           7.67814905115409      1.12890700763896      1.13014808469243
  C           7.06978092360149      2.01158955745799      3.01272098447846
  H           7.82551089007897      1.48346956221465      3.61580215468564
  H           7.45693415438124      3.02214464131653      2.79958881192674
  H           6.16733305935112      2.12938130901119      3.63579729167822
  C           1.78685537425367      5.66676244096321      1.64015222795530
  H           2.64243682974073      5.90339108697930      0.98587632644056
  H           1.23948160485993      6.60416431703254      1.82884575815429
  H           2.19536662485513      5.31741216617718      2.60349531973372
  C          -4.92245552014141      3.18015548071076      3.16912637311431
  H          -5.19715983136182      4.24726645392366      3.17293301029770
  H          -5.36524090437782      2.71628566497320      4.06647253179517
  H          -3.82643729768794      3.11430562519040      3.27318124766957
  C           1.42225902887689     -5.71210276208156      3.39537336651876
  H           0.57268015138449     -5.98980304232868      4.04180514432885
  H           2.06325851776884     -6.60164917201054      3.28601129668206
  H           2.00458630327896     -4.94285897796156      3.92987844591168
