101
Coordinates from ORCA-job orca E -2005.479193099698
  C           0.06683084439515     -0.08615822797677     -1.31880609304391
  C           1.16176089834589     -0.15005854033558     -0.35218604468258
  O           1.76362667606573     -1.18303765150347     -0.09350260082621
  O           1.57780100979380      0.99425969701013      0.22653927852985
  C          -0.60841075044947      1.20725302777898     -1.63553390543571
  H          -1.59322364608434      1.18932465564589     -1.13148242381989
  H          -0.82558204244226      1.26238896378064     -2.71743960871573
  C           0.74377402899337      2.18211104838345      0.22966159575739
  H          -0.08314876186796      1.98345851499677      0.93766135195278
  C           0.17435721724448      2.43032963388044     -1.15949364795774
  H          -0.49341834312864      3.30463704462012     -1.12454387682165
  H           0.99521701834674      2.67779737265120     -1.84818337814623
  C          -0.44422228086000     -1.38987177995013     -1.84131841562561
  H           0.35097925384765     -2.13247369339017     -1.71002419507859
  H          -0.64841517193511     -1.30822168086962     -2.92281473398788
  C           2.35443920348010      0.11838659626302     -3.16669362566169
  C           3.42045772344179      0.44233141755504     -2.41884815079143
  H           1.73572288523112      0.89878259215328     -3.61284053603374
  H           2.11073458511166     -0.92569599128233     -3.37630598182563
  C           3.65241761161503      1.89926636182832     -2.14314963819966
  C           4.35008848324085     -0.56147841068020     -1.78931324287102
  O           3.02093108810559      2.78555836494898     -2.67476582263366
  O           4.57163643183280      2.23338380963487     -1.22083910119788
  H           5.23914369917519     -0.68578316946559     -2.43747615464451
  H           3.85278668604406     -1.53930235590766     -1.72092788767482
  C           4.79749718286412     -0.07972656543119     -0.41055428529018
  C           5.42649694876552      1.29944156032400     -0.51368798211692
  H           5.53683664035372     -0.77671566767999      0.01332422434734
  H           3.93527390606284     -0.05538845628622      0.27263737646624
  H           6.36033275122309      1.23251878667829     -1.10539614503724
  C           1.62828037186052      3.29921806842897      0.76809519037861
  H           2.45513952944151      3.46973342260540      0.05860142804254
  H           2.08537001086108      2.93448956599117      1.70428164426323
  C           5.72939861264498      1.96285098127033      0.82486097787920
  H           4.78398115783470      2.04567019569856      1.38925695816634
  H           6.06075639598226      2.99472586984422      0.61775898670849
  C          -4.45865870125267     -1.57178727546550     -1.50449129352179
  C          -4.58849371284445     -1.96464883090461     -0.02209967358054
  O          -4.19714545116845     -3.03819213094745      0.37597479518739
  O          -5.21167097010198     -1.15129211458144      0.83456133340683
  C          -5.25936764364060     -0.28568846657521     -1.79896455295497
  H          -6.33603429956104     -0.52677338932362     -1.84617884241518
  H          -4.98360563018834      0.09465436317311     -2.79652202509648
  C          -5.54190791521110      0.24223166088709      0.61640872179676
  H          -6.64763233119165      0.27137524155871      0.60427427719436
  C          -5.02507437494468      0.76039967791830     -0.71849077473419
  H          -5.54907594113174      1.69830151013957     -0.95894116204216
  H          -3.95299249590017      0.99122440581221     -0.62949727642992
  C          -5.07784128575942     -2.73034969321204     -2.31451880548742
  H          -4.55222800233755     -3.67788951704294     -2.14607805496040
  H          -5.04367931668404     -2.49212593231488     -3.38999712848484
  C          -2.96888329920647     -1.33041290715359     -1.93267428757850
  C          -1.77617714111715     -1.96030352185110     -1.17772711396128
  H          -2.80322636224842     -0.24768284830388     -1.94433715344116
  H          -2.88596295853570     -1.65709061482851     -2.98273603650019
  C          -1.74605300804949     -1.44601473886617      0.26836812491903
  C          -1.73557688033579     -3.51149381142730     -1.28528054895327
  O          -2.28541514631068     -0.40497270996928      0.58715168411876
  O          -1.01870126768922     -2.10279154349465      1.16247596816840
  H          -1.04730216171242     -3.77942240124848     -2.10364737856457
  H          -2.72208027646424     -3.88787343352829     -1.57066312329290
  C          -1.31932409265940     -4.20783673569698      0.01636077201861
  C          -0.36576580695947     -3.36222195615881      0.84362416005943
  H          -0.85103642807117     -5.17883213099982     -0.20624779366176
  H          -2.21615659827084     -4.39617366320721      0.62534049947768
  H           0.54928584135078     -3.11164863214309      0.28374446403151
  C          -5.02803351594058      0.99688977715009      1.83843751429253
  H          -3.93271324191831      0.87994136689576      1.86919252968249
  H          -5.42431003788245      0.48921778175221      2.73432456646419
  C           0.03109542384512     -3.96202522311501      2.18499311688082
  H          -0.88489323645647     -4.20299387115332      2.75304553143621
  H           0.55618187646257     -3.17475040089843      2.75165619306903
  H          -6.13206663719412     -2.88309239961342     -2.03418184764914
  C          -5.41923668885554      2.47578539934434      1.86730764188577
  H          -6.51592886978945      2.57276254925051      1.75845459031647
  H          -4.98152602547882      2.99776442865583      0.99802292415678
  C           0.92939059763800     -5.19545235643937      2.07120597547098
  H           0.39607478359118     -6.00378120057444      1.54045984211370
  H           1.80789278654650     -4.94899804985203      1.44706843428449
  C           0.88688074580152      4.61000948040424      1.03846401946477
  H           0.01832979430368      4.41480020243556      1.69469440153864
  H           0.47373592702273      5.00847785640440      0.09550713010380
  C           6.78536004720692      1.24003061440322      1.66355782291242
  H           6.43335647129579      0.22550208410890      1.91869416738167
  H           7.70187752957198      1.10185414907608      1.06030747569238
  C           7.12732311513011      1.99218556618773      2.94996863863330
  H           7.88431452057945      1.45554716616062      3.54387965179211
  H           7.52343477445739      2.99814508307184      2.73162487716101
  H           6.23400730755589      2.12050140490089      3.58398943813913
  C           1.78625530015532      5.66794292995608      1.67806994100158
  H           2.64807446301011      5.89954140921011      1.03019250631488
  H           1.24067688458302      6.60789134896407      1.85913376747325
  H           2.18542736252628      5.32032858183060      2.64594097818894
  C          -4.96932117673640      3.17552978432394      3.15014170821562
  H          -5.24883246298377      4.24139002908542      3.15103838196292
  H          -5.42394181790984      2.70853362320321      4.03992709198861
  H          -3.87481309610616      3.11439400819186      3.27139955106953
  C           1.39736966202524     -5.71122576351070      3.43210088016088
  H           0.54124168931670     -5.99100836896305      4.06891467326946
  H           2.04105171017158     -6.59955717184680      3.32882113212003
  H           1.97247983721511     -4.94149504045848      3.97366144392139
