101
Coordinates from ORCA-job orca E -2005.469946271458
  C           0.18627162580733     -0.08845230220734     -1.34326249061149
  C           1.15655588655243     -0.16482347512211     -0.24083677167483
  O           1.71907532431251     -1.19936175442257      0.07935515165338
  O           1.52816481128698      0.97927968802039      0.36423865164084
  C          -0.56218975661138      1.18537050982701     -1.59287906842005
  H          -1.53370594851017      1.08949090347606     -1.07601352738535
  H          -0.79572325206246      1.28734331601888     -2.66706113756008
  C           0.69084648420260      2.16590137238445      0.34071784922606
  H          -0.15091970260443      1.96313687595769      1.02873102952753
  C           0.15151243123300      2.42433032938061     -1.05862541410132
  H          -0.55884456022582      3.26427249828165     -1.01351876167683
  H           0.97209399901396      2.73132860086200     -1.72161216804168
  C          -0.34713998940952     -1.40253970364159     -1.83812932493504
  H           0.43855415840546     -2.15153017013783     -1.68581742322637
  H          -0.54026104064955     -1.34204235560706     -2.92252012007526
  C           2.01940130523840      0.12327213615111     -2.91158278355361
  C           3.19052204599387      0.45109105078015     -2.30699494601604
  H           1.43240921329044      0.89846694454419     -3.40354441792141
  H           1.80075286545251     -0.92064590427494     -3.13456267566104
  C           3.50730464252911      1.90055860343414     -2.13958936516735
  C           4.14420098396803     -0.55638715366526     -1.72636151547068
  O           2.88688835480323      2.78595205657283     -2.68841182859732
  O           4.50703977608482      2.24281519279311     -1.30563079009679
  H           4.97527234015030     -0.72104154551559     -2.44063081281698
  H           3.63628678521552     -1.52068482212104     -1.58702148345500
  C           4.71030796521359     -0.04332847367966     -0.40304929913872
  C           5.36668819495043      1.31358389319391     -0.59908193445045
  H           5.46212027962380     -0.74654741858951     -0.01260182998051
  H           3.90551310103716      0.02571510658514      0.34419327530736
  H           6.26756157184043      1.19417433859508     -1.23173046399522
  C           1.56184892676879      3.28282269224045      0.90139636962822
  H           2.41351991601460      3.44065584496480      0.21783701975760
  H           1.98507781910018      2.92478203937273      1.85582469932926
  C           5.75242573387294      2.02152337048624      0.69505883231023
  H           4.83666925913498      2.15481067464636      1.29765912619935
  H           6.10294568355081      3.03370454978266      0.43060413296400
  C          -4.36840527229125     -1.56104097274404     -1.54709568670935
  C          -4.52204823169798     -1.94620189871757     -0.06520208738908
  O          -4.14822932567316     -3.02267402740533      0.34138338274784
  O          -5.14698000420043     -1.12248616808553      0.78027072983747
  C          -5.15672897234115     -0.27125353632130     -1.85792200761834
  H          -6.23451960581729     -0.50484674550314     -1.91546583124471
  H          -4.86748957189738      0.10165484640824     -2.85447969920603
  C          -5.45931537484126      0.27353802005458      0.55229858671239
  H          -6.56446998054629      0.31483192869229      0.53113570144883
  C          -4.92638529351524      0.77943068284621     -0.78113182421262
  H          -5.44149798664619      1.71939468348506     -1.03228585184426
  H          -3.85383671219569      1.00459257178743     -0.68368761192107
  C          -4.98459457453640     -2.71991112612338     -2.35883198883367
  H          -4.47350638653347     -3.67143510741591     -2.16988528875344
  H          -4.92742690777867     -2.49271085325360     -3.43569840541364
  C          -2.87139303406139     -1.32895277783273     -1.95626642630090
  C          -1.68842649355284     -1.96381409257600     -1.18696639214243
  H          -2.70211108557273     -0.24757541684285     -1.97101937809734
  H          -2.77765084466881     -1.65932799461172     -3.00427555624991
  C          -1.68507974441341     -1.46731592527244      0.26552209520165
  C          -1.65575661175835     -3.51624506363130     -1.31143089013568
  O          -2.20844689304216     -0.41575400930191      0.57933822487622
  O          -1.01333690975360     -2.15451712488821      1.17765035355260
  H          -0.93504000365979     -3.77973587496560     -2.10274910154804
  H          -2.63076527135834     -3.87967902215354     -1.64936123383855
  C          -1.30061474233257     -4.23862279101253     -0.00641316154521
  C          -0.36671392172274     -3.41792801795441      0.86612497019056
  H          -0.83684410750458     -5.21212275444370     -0.22784436096702
  H          -2.22136321296010     -4.42397736101523      0.56611494289129
  H           0.57012002716480     -3.17090840262434      0.34190661765248
  C          -4.94610854266977      1.02955953823016      1.77382984777745
  H          -3.85303097845722      0.89688659744848      1.81556789899389
  H          -5.35756698491060      0.53441347208933      2.66986405956943
  C          -0.02644720853841     -4.03904686471650      2.21322274726441
  H          -0.96547305144165     -4.27258777408626      2.74564716320227
  H           0.48943048016438     -3.26597732550914      2.80717602391098
  H          -6.04557466833368     -2.85840185883461     -2.09712037105912
  C          -5.31537558313444      2.51437445161824      1.78832197198453
  H          -6.41031113568131      2.62683712027031      1.67686818061297
  H          -4.86866061318489      3.02179200944341      0.91501280684268
  C           0.85682339805796     -5.28473954956841      2.11758582173962
  H           0.33099095756016     -6.07912580411031      1.55901124444239
  H           1.76095784294979     -5.04521709703636      1.52832250312240
  C           0.82036832039340      4.60118855233012      1.13117407641077
  H          -0.07520243804643      4.41690419985022      1.75341572077498
  H           0.44876349718423      4.99420822431459      0.16898882605557
  C           6.82442955741066      1.30017013639049      1.51436936399426
  H           6.45492897896770      0.30774716468373      1.82573377930017
  H           7.70801662203578      1.11044432605130      0.87695598167864
  C           7.24700879224395      2.09130909133142      2.75248156101890
  H           8.01404071428913      1.55490922839819      3.33357697953394
  H           7.66259933763419      3.07482115802129      2.47578152160997
  H           6.38796399818476      2.27303721435333      3.41990523114850
  C           1.70030054295721      5.65829681814683      1.79843112163404
  H           2.58951318043476      5.87914954900455      1.18459727161229
  H           1.15426576193508      6.60335596333878      1.94890953242165
  H           2.05692238636607      5.31656738635554      2.78481626810502
  C          -4.85587517132064      3.21925449483472      3.06492545439354
  H          -5.12003871789842      4.28898796023668      3.05601103155702
  H          -5.31697022848800      2.76694811703354      3.95892953784461
  H          -3.76225791765391      3.14353682301434      3.18649854837687
  C           1.26719436487173     -5.82181935523148      3.48889711992457
  H           0.38398703280449     -6.09361226019409      4.09119201184703
  H           1.89995243377392     -6.71946152096751      3.39967538213331
  H           1.83432485467373     -5.06685336447980      4.05890517556582
