101
Coordinates from ORCA-job orca E -2005.467322791153
  C           0.18844742679784      0.20366032090763     -1.34426335571277
  C           0.99732595315315      0.23324710607335     -0.09295533078784
  O           1.62803873965064     -0.73269691172547      0.29699246201117
  O           1.13351985681870      1.39382070080825      0.55821785225310
  C          -0.69649747312030      1.38457366827079     -1.64721264861998
  H          -1.67440686368405      1.18844203344836     -1.17815590263621
  H          -0.87652448581931      1.45599351507581     -2.73356780667812
  C           0.20892757347877      2.50204314536137      0.38904636765017
  H          -0.69827953892815      2.22977975328063      0.95968344203854
  C          -0.14868841259032      2.68929660480813     -1.07789365977013
  H          -0.91184765616849      3.47842980631927     -1.16144380235821
  H           0.74620981699529      3.02612693775541     -1.62010141995808
  C          -0.22972707554509     -1.18201223897603     -1.78161696708234
  H           0.61247502868547     -1.85198751738349     -1.57199366260433
  H          -0.38999356662872     -1.19182188077378     -2.87226209474207
  C           1.88800846120836      0.55699436171279     -2.71412265540861
  C           3.10102940063786      0.61577311819992     -2.03711744722490
  H           1.47604317115594      1.48952961171747     -3.09942875518974
  H           1.65789750980610     -0.35309544989648     -3.27085419127203
  C           3.55242654385259      1.93954013369480     -1.53851409182332
  C           3.91334571520717     -0.61061064750545     -1.72826290633787
  O           2.95147052548025      2.97287254628990     -1.75977843923312
  O           4.67276065548839      1.99910554564405     -0.79363540257930
  H           4.60493010981706     -0.80687527273988     -2.57306129444352
  H           3.25277199888108     -1.48620060527941     -1.64977085586934
  C           4.72081954182425     -0.42064407728492     -0.44643612708784
  C           5.52834760817282      0.86365704716350     -0.53101839827422
  H           5.40254253214077     -1.27108518865522     -0.29230813051479
  H           4.03551249434470     -0.37706896598258      0.41502611805280
  H           6.23508480031522      0.79496842111005     -1.38187104122831
  C           0.88977637393328      3.70040614271891      1.03539725338996
  H           1.79220530877738      3.94460337269686      0.44933985699727
  H           1.23434623229220      3.38558714516673      2.03525326336324
  C           6.30663728334423      1.21750143684904      0.73062922283479
  H           5.59777690208111      1.26432992074046      1.57609317782333
  H           6.70158838468338      2.23921061523455      0.59927537323111
  C          -4.23245885728635     -1.65149851082391     -1.58933436919856
  C          -4.39864745266154     -2.00110480092128     -0.10025039573703
  O          -3.96111249080819     -3.03522090520254      0.35008374241057
  O          -5.10282798265695     -1.19839947515184      0.70214665724065
  C          -5.10850924482511     -0.43699207128571     -1.96138280586383
  H          -6.16386791328840     -0.75441283492323     -2.03242558054611
  H          -4.82559787428623     -0.07614944353973     -2.96420546517954
  C          -5.50538266925580      0.16500992150925      0.42241038253521
  H          -6.60999674964977      0.12811952085861      0.38018726766622
  C          -4.98336537709736      0.66411991556077     -0.91797851757318
  H          -5.56397904044599      1.55180934856581     -1.21275306972554
  H          -3.93410762000825      0.97719441808809     -0.80976911164200
  C          -4.73585169151070     -2.87938558624805     -2.37714965457210
  H          -4.16055119335556     -3.78279475185790     -2.14153202111718
  H          -4.66393620374107     -2.68372872603255     -3.45935056802218
  C          -2.74666349690261     -1.31650722014859     -1.96848596152943
  C          -1.53739500592367     -1.83131858917679     -1.14912024601318
  H          -2.66261498926965     -0.22717596825994     -2.01780880424392
  H          -2.59956919675064     -1.67309348243542     -3.00159330399572
  C          -1.62471155140951     -1.30651428022248      0.29057786406167
  C          -1.38213043876848     -3.37962669538745     -1.23895312518620
  O          -2.21357177732293     -0.27476390074625      0.55229978132451
  O          -0.97405492366483     -1.94220718756811      1.25206802793217
  H          -0.60775508272469     -3.60122756388141     -1.99162062009849
  H          -2.30952147956146     -3.82079195813547     -1.61669932400974
  C          -1.03547198958647     -4.05644326217229      0.09255013663028
  C          -0.21316195565877     -3.15111796926441      0.99238021664004
  H          -0.48513801640243     -4.99184708465207     -0.09205647903327
  H          -1.96425452347029     -4.30788982014207      0.62507419260794
  H           0.72239822091745     -2.83372188650596      0.50499819031865
  C          -5.06851512489194      0.99279860822014      1.62727613246006
  H          -3.97178074344646      0.91937080457718      1.70288084411333
  H          -5.47887372269706      0.51064588497771      2.53088611422299
  C           0.11661782296031     -3.72295789670653      2.36340477517282
  H          -0.82262295664178     -4.02732590872748      2.85847687015607
  H           0.53829307516399     -2.90055932791810      2.96531141954603
  H          -5.79082663681912     -3.08936518124331     -2.13979409206761
  C          -5.51158548155180      2.45625294100758      1.57535216267930
  H          -6.60787324049382      2.51011738917457      1.43633046463856
  H          -5.06997110949916      2.95186570341676      0.69275079056147
  C           1.10444753485321     -4.89069253367566      2.32750053578913
  H           0.67250235087330     -5.73426029038162      1.76057005743300
  H           2.01042861657251     -4.58363384603451      1.77318217839838
  C          -0.01126146657422      4.93017912832862      1.16689025199267
  H          -0.94301582723177      4.65027318438777      1.69336274723615
  H          -0.32081538902996      5.27859428002896      0.16592422461258
  C           7.45465268937188      0.25774080933912      1.05067455503793
  H           7.05928450891973     -0.75779301814513      1.22765711335745
  H           8.11848881285392      0.17616115921652      0.16999679775516
  C           8.27003288381546      0.69821480938409      2.26662102116218
  H           9.08939416195210     -0.00647204095421      2.48066668198855
  H           8.71674188550584      1.69420763219311      2.10873875071890
  H           7.63804843390548      0.76046475202903      3.16837352886675
  C           0.67161385455079      6.07996844448066      1.90772277718275
  H           1.59157962026314      6.39450094032254      1.38731397209390
  H           0.01297510864137      6.95982674559803      1.98705087027232
  H           0.95759256789295      5.78171479073182      2.93046655209870
  C          -5.11617780284769      3.23157203315756      2.83251146654953
  H          -5.43696903892749      4.28434457200651      2.77835376690376
  H          -5.57011317848105      2.78834330997446      3.73469787172439
  H          -4.02269137362125      3.21994610614283      2.97662729009031
  C           1.49798203645551     -5.37270614711011      3.72393861517774
  H           0.61585920334675     -5.71515918912397      4.29074946927870
  H           2.21113839779882     -6.21141838637494      3.67725337617503
  H           1.96900721789428     -4.56321366704252      4.30642500833165
