101
Coordinates from ORCA-job orca E -2005.480364972178
  C           0.02693412792177     -0.09184154288618     -1.35624515019579
  C           1.15129290517916     -0.15580801119182     -0.42421906458148
  O           1.76436260598614     -1.18787813353616     -0.18775824628464
  O           1.57571778371010      0.98620359290468      0.15332493428816
  C          -0.63424984831755      1.20655519302396     -1.68113496374440
  H          -1.61800830959239      1.20747102808757     -1.17424363848390
  H          -0.85428393409028      1.25340932874591     -2.76307663773636
  C           0.74106602746303      2.17353248721841      0.16667772560842
  H          -0.08458630392297      1.97087674172033      0.87516820013182
  C           0.16945062321422      2.42240871326540     -1.22147290085906
  H          -0.48270816571469      3.30855824490818     -1.19217035298595
  H           0.99383544030236      2.64771061130368     -1.91386808653066
  C          -0.49057663967817     -1.39455202226903     -1.87296985245824
  H           0.30762470958756     -2.13617298978945     -1.75512683008890
  H          -0.71177512610741     -1.31198084782347     -2.95107743303923
  C           2.52845370041980      0.08212251682269     -3.27633573105224
  C           3.52634529913244      0.41907289858478     -2.44626310098632
  H           1.91546411631042      0.85469688603220     -3.74468715409054
  H           2.32038086043001     -0.96496973518027     -3.51125722101013
  C           3.70011710953888      1.87786217666211     -2.13522308671009
  C           4.43765773885788     -0.57380364955991     -1.77227537023400
  O           3.06001555526507      2.75320529202899     -2.67467645939742
  O           4.57439648212423      2.22442130164405     -1.17482918989316
  H           5.35468802560934     -0.69145972724840     -2.38146963328364
  H           3.94619307242629     -1.55587190471071     -1.72420778499442
  C           4.82065025877577     -0.08782093330333     -0.37625839117827
  C           5.42919706015310      1.30195531327850     -0.45305217720533
  H           5.55363371573274     -0.77321799631366      0.07651333538760
  H           3.93060482660795     -0.07787595595294      0.27066968202285
  H           6.37900451756073      1.25495090639625     -1.02094659639938
  C           1.62513729016690      3.28883121189338      0.70903539101518
  H           2.45040429306095      3.46387122125287     -0.00072082238152
  H           2.08370543174316      2.91912662434050      1.64257307725828
  C           5.68716648739704      1.96224115661368      0.89638024504094
  H           4.72702022889891      2.02710609196228      1.43758039630362
  H           6.00640279149789      3.00060676766433      0.70288554460071
  C          -4.49827564237227     -1.57055714298562     -1.46919073909814
  C          -4.60394213016801     -1.95867628284973      0.01643023844754
  O          -4.20587887160198     -3.03073900156934      0.41182689875720
  O          -5.21263694362356     -1.14213670637340      0.88056215748659
  C          -5.30213778374292     -0.28428393888129     -1.75402118115564
  H          -6.37976667392771     -0.52402460178948     -1.78190310726793
  H          -5.04292508178814      0.09255363053595     -2.75732168014677
  C          -5.54359947723858      0.25150499286639      0.66400252585290
  H          -6.64932089604732      0.28292610604595      0.67033620924943
  C          -5.04783556573561      0.76463668411408     -0.68080917996765
  H          -5.57367864111314      1.70297089605415     -0.91555033735684
  H          -3.97392112628911      0.99325454627338     -0.60985707374223
  C          -5.13235219795662     -2.73069565565554     -2.26522557376846
  H          -4.60457692400200     -3.67823236267813     -2.10367611274540
  H          -5.11651651269154     -2.49527303578909     -3.34175934017590
  C          -3.01563646863959     -1.33270099867370     -1.92288162693540
  C          -1.81180540528385     -1.96238923485584     -1.18622292362620
  H          -2.84832675543262     -0.25016877326607     -1.93978209491847
  H          -2.95044794030759     -1.66181519946185     -2.97340569722502
  C          -1.75401942075826     -1.44155657827081      0.25635050946150
  C          -1.77491741216947     -3.51382678635301     -1.28718937863150
  O          -2.28876155563247     -0.40039511992875      0.58199617470681
  O          -1.00394659931370     -2.09179137811580      1.13695301002872
  H          -1.10378377615096     -3.78662263052435     -2.11811829106048
  H          -2.76755550570841     -3.89079055518624     -1.54955817656640
  C          -1.33299806615208     -4.20290014168204      0.00987404117744
  C          -0.36038618520468     -3.35454544579254      0.81176020610730
  H          -0.87227616791220     -5.17674361639763     -0.21599995676290
  H          -2.21750344241574     -4.38465574098078      0.63866995927296
  H           0.54333340207337     -3.10962658774691      0.23124116748469
  C          -5.00765582475042      1.00837342789318      1.87513947093466
  H          -3.91221472787189      0.88943982642590      1.88745321341864
  H          -5.38952172755265      0.50380115959155      2.77900633623343
  C           0.06386252750492     -3.94734906506611      2.14787817034567
  H          -0.84008590288864     -4.18303970094187      2.73703362334950
  H           0.60272923598928     -3.15794063187774      2.69845000954837
  H          -6.18171593196540     -2.88183464376063     -1.96638106023219
  C          -5.39551652885790      2.48811072211290      1.90679684113492
  H          -6.49380300213868      2.58689026388197      1.81730657084865
  H          -4.97235722942066      3.00679708777425      1.02838783565330
  C           0.95699954793063     -5.18334005785504      2.02170740778986
  H           0.41061315991603     -5.99352517300684      1.50734301002724
  H           1.82210394768354     -4.94232418371087      1.37706285108709
  C           0.88191194612349      4.59646272300130      0.98911553215507
  H           0.01451620673725      4.39581108459906      1.64526850773776
  H           0.46673074101219      5.00085791164951      0.04952761103782
  C           6.73419018518889      1.25252084756714      1.75712231406870
  H           6.39084668699579      0.23273729866202      2.00295402490813
  H           7.66558594366380      1.12795222095450      1.17400997470652
  C           7.03770844712574      2.00682842178666      3.05189082425491
  H           7.78855575244618      1.47918586421041      3.66145594603056
  H           7.42517379543559      3.01830340505318      2.84376893379291
  H           6.12922381566611      2.12235205261896      3.66657983628210
  C           1.78060036406818      5.65143584029971      1.63460763681310
  H           2.64156766669449      5.88825174277558      0.98749447677695
  H           1.23405958448482      6.58951155208152      1.82243710027979
  H           2.18118485156399      5.29792658005514      2.59976655591389
  C          -4.92127131637642      3.19052064280897      3.17935937255943
  H          -5.19808298233997      4.25709277805840      3.18197883807975
  H          -5.36112298826288      2.72731744473954      4.07849610972352
  H          -3.82491009647995      3.12713719601289      3.28116651871557
  C           1.45360596416603     -5.69248652547259      3.37489404453920
  H           0.61112457392787     -5.96683339253387      4.03196734630243
  H           2.09295824258121     -6.58283624411305      3.26253704520345
  H           2.04214608165608     -4.92109067294719      3.89940388724469
