101
Coordinates from ORCA-job orca E -2005.481037026884
  C          -0.09889253435300     -0.15152093870153     -1.66304339384588
  C           1.09721881858522     -0.21085568083829     -0.82169276835351
  O           1.75015583968111     -1.23410009705302     -0.66469140651820
  O           1.51943803855968      0.91898148176189     -0.22110181249660
  C          -0.72875809878570      1.15586318224429     -2.01574725455437
  H          -1.71197544923829      1.20323062527548     -1.51042553678281
  H          -0.94826122806573      1.18224104141995     -3.09921384165970
  C           0.66363277295729      2.09191613442479     -0.18265507149353
  H          -0.17229225054809      1.85126084457520      0.50137410169017
  C           0.11810173044602      2.35107680619658     -1.57975869951091
  H          -0.49219252503916      3.26669049674272     -1.57948121337638
  H           0.96623079399896      2.51664842567407     -2.26168939971126
  C          -0.68121746653559     -1.45872144987547     -2.09079991916329
  H           0.11740228459885     -2.20757525162874     -2.03584198197721
  H          -1.01563567227435     -1.40361074995448     -3.14065201378549
  C           3.27159409624505      0.05084818385049     -3.60422805162322
  C           3.94230630444341      0.38960493045070     -2.49477800444228
  H           2.72347900991186      0.80787954735690     -4.16930480653555
  H           3.25873149638786     -0.98239568487457     -3.96222853400524
  C           3.86656683522394      1.82539409028443     -2.05823717566364
  C           4.74184037553526     -0.58534571222300     -1.66463021347819
  O           3.21711414200914      2.66556580700279     -2.64162644674568
  O           4.53064721755502      2.19004789843462     -0.94793446756505
  H           5.76554579869687     -0.65719242848356     -2.07962759460169
  H           4.28933072971868     -1.58480818728378     -1.73679267816440
  C           4.82025680188225     -0.12884623422127     -0.21111854853104
  C           5.33765994288339      1.29788133519714     -0.14105398899525
  H           5.49634838416917     -0.78504133449949      0.35841519866713
  H           3.82347242202691     -0.18816366760156      0.25096307413556
  H           6.36271046542000      1.33786284927163     -0.55919497600887
  C           1.50607348254425      3.21220682970769      0.41019186914750
  H           2.33151755561610      3.44417663958231     -0.28116151424257
  H           1.96733416443317      2.82274731019694      1.33419360207603
  C           5.34521119962578      1.90865933893221      1.25533734546884
  H           4.32023089958065      1.85465576123917      1.66159228181231
  H           5.58134694193251      2.98111170110986      1.14776705174904
  C          -4.62270885786692     -1.55304898542972     -1.24532392777666
  C          -4.56985949136781     -1.88989769746965      0.25552949437528
  O          -4.14668125166666     -2.95557283419567      0.64197390072192
  O          -5.06893201848801     -1.03480719121901      1.15221724006025
  C          -5.43200757495696     -0.26101811343656     -1.48432940223705
  H          -6.51012360156430     -0.47936639206153     -1.38625491918356
  H          -5.27864114028134      0.07819493332277     -2.52221620364774
  C          -5.39784395679687      0.35789201577011      0.92530500576653
  H          -6.49567633145737      0.41240099619575      1.04941947654774
  C          -5.04215067736184      0.81619990790616     -0.48191122733471
  H          -5.57180738210968      1.75841887026083     -0.69092848409856
  H          -3.96234099642168      1.02051675061364     -0.53580506361006
  C          -5.35834715414817     -2.72646989399179     -1.92580134441223
  H          -4.82932062472540     -3.67751725596444     -1.79096104124885
  H          -5.45883015798341     -2.52694751171559     -3.00503194542576
  C          -3.19573567273692     -1.35870055457420     -1.86781509866909
  C          -1.92742580982230     -1.98478227722942     -1.24609468590339
  H          -3.01635990249324     -0.28047476916483     -1.94016986860856
  H          -3.25322547595272     -1.72305477651342     -2.90699260057812
  C          -1.70275167955116     -1.41454948907726      0.16044285470155
  C          -1.92311132503411     -3.53907949179404     -1.29531480548515
  O          -2.17593289720528     -0.34840213019898      0.50070200492976
  O          -0.87331840672094     -2.04996105774617      0.97884135653041
  H          -1.34793944671684     -3.85079108174561     -2.18257260549393
  H          -2.94292542532496     -3.90736189299445     -1.43960754893618
  C          -1.35394592625732     -4.19211365301687     -0.02995471565361
  C          -0.28755504862118     -3.33485478054664      0.63080050363396
  H          -0.93420210282357     -5.18105304061423     -0.26968064498686
  H          -2.16630554086105     -4.33747959546202      0.69803482944215
  H           0.55045627371150     -3.12699185573287     -0.05370987556374
  C          -4.72025895479389      1.14192662381454      2.04479796173212
  H          -3.63263302965034      0.99379533510925      1.94775624035187
  H          -5.01688297222822      0.68056018092827      3.00216111100857
  C           0.27239796777998     -3.88867936505202      1.93294554137672
  H          -0.56465619511058     -4.09320657589379      2.62405082278831
  H           0.87409172057787     -3.08808702758357      2.39534485964237
  H          -6.37021865915204     -2.84931732934173     -1.50804475492005
  C          -5.06660615385594      2.63227930629094      2.06042842959472
  H          -6.16536651481423      2.75876395864624      2.08606970449834
  H          -4.72887404290619      3.10658754499025      1.12205619147665
  C           1.13578843780614     -5.13911973069004      1.75479924289277
  H           0.53251005746225     -5.95685711568327      1.32257487250504
  H           1.93368877757108     -4.92813648871815      1.01931855021168
  C           0.71093923290290      4.47792999930105      0.73690977860412
  H          -0.15189992025396      4.21894393975708      1.37876945288004
  H           0.28488017889014      4.90423133522286     -0.18828572828597
  C           6.33526105597277      1.25754261511811      2.22310199735327
  H           6.07756924389649      0.19381682368147      2.36722291349010
  H           7.34612215901687      1.26715674476541      1.77475613775692
  C           6.37207482264482      1.95429909055452      3.58344510079343
  H           7.08856602738047      1.47093894485436      4.26668302482620
  H           6.66611402366804      3.01266193148316      3.48309052324947
  H           5.38150235730118      1.93265313174897      4.06805139938644
  C           1.56474470217101      5.53978255880912      1.43018692371649
  H           2.42069001051848      5.83396369410153      0.80013730620840
  H           0.98205844819446      6.44857306018489      1.65091450134131
  H           1.97237417448698      5.16324864359026      2.38360573234209
  C          -4.43896346488429      3.36665883974013      3.24560657919720
  H          -4.68901023601799      4.43978660487664      3.23730286734321
  H          -4.78733620006481      2.94823335930181      4.20479176730761
  H          -3.33979196174438      3.27731589114718      3.22886153041348
  C           1.76061148711320     -5.61499190756679      3.06632791893772
  H           0.98514458498605     -5.86021286579883      3.81150173393698
  H           2.37763037925483     -6.51569135054495      2.91778988219606
  H           2.40509473965913     -4.83579139701249      3.50681601507536
