101
Coordinates from ORCA-job orca E -2008.259489655060
  C           0.43294201162638      0.56746817374704     -1.21094665550303
  C           0.93372172399425      0.64211968300228      0.24362728397310
  O           1.70434053527663     -0.18978914445037      0.66351347508384
  O           0.57809800933101      1.63009362715261      1.04169478726835
  C          -0.64779287892064      1.61295546345158     -1.50881635528294
  H          -1.60940861780086      1.27214916723795     -1.13285846088717
  H          -0.73845850260717      1.73830211754994     -2.59151002133136
  C          -0.32847816916798      2.69686787144563      0.68097625089956
  H          -1.32026473418646      2.36094919900793      1.00390646546716
  C          -0.33298429213620      2.92633661512706     -0.81416499859204
  H          -1.09718993392998      3.66805213384838     -1.05236696260703
  H           0.63497481882380      3.33396438523029     -1.11845858979290
  C           0.02928423036634     -0.89916569485109     -1.51714592849504
  H           0.87420931821895     -1.50743671630199     -1.19970805975434
  H          -0.02817885855810     -1.00017723908459     -2.60479209700405
  C           1.67077402828500      0.90183173834894     -2.13876720124773
  C           3.03052628121017      0.61370850347405     -1.60982938828224
  H           1.62884749026935      1.96470892929447     -2.36950422813009
  H           1.52095041979933      0.35344347769288     -3.07303977595785
  C           3.69785746051192      1.69427296701995     -0.89849056955318
  C           3.67296420874991     -0.72009579979994     -1.75387555126363
  O           3.16702425455014      2.76895252109492     -0.70407712080628
  O           4.94034889995688      1.50068439730483     -0.42102087564082
  H           4.09725472652161     -0.80942463444336     -2.76518632990710
  H           2.92151668095654     -1.50798850893266     -1.67297521008566
  C           4.76532030336467     -0.90592732282681     -0.71271973013301
  C           5.67902186476056      0.30254247279540     -0.71024570332575
  H           5.34699544704962     -1.80449841110332     -0.92324449568631
  H           4.31227797770689     -1.01514144590040      0.27639972525707
  H           6.11985166663338      0.42514587749836     -1.70975937492122
  C           0.11155285965249      3.89363614000138      1.50257675256297
  H           1.11908532969923      4.17968467049432      1.18458605767904
  H           0.18923367983784      3.57209686858875      2.54490620094296
  C           6.79309105773903      0.25023397424047      0.31999024745284
  H           6.34325439943579      0.13295322949841      1.31107310373637
  H           7.28952309150331      1.22465812575007      0.31827922992719
  C          -3.91802602529912     -1.65022928751943     -1.70117144977582
  C          -4.23368463555715     -1.98012499806229     -0.23897003911512
  O          -3.78361517143779     -2.96761127195579      0.28501234033587
  O          -5.07715630734921     -1.22549254834897      0.45886245722232
  C          -4.82187825842513     -0.51632110598299     -2.20608275455334
  H          -5.82574724634334     -0.90985409926076     -2.39767250453539
  H          -4.44201427883050     -0.15383914018273     -3.16490739286311
  C          -5.56073684304946      0.08088580173808      0.07921881205263
  H          -6.63216555804766     -0.06175595146554     -0.10654238866839
  C          -4.90923275768262      0.60074053109693     -1.18613670050475
  H          -5.50639702201880      1.43012972018710     -1.56849028143702
  H          -3.91619669832485      0.98940340836274     -0.94800347622566
  C          -4.24762661826464     -2.91606093323703     -2.50758215735489
  H          -3.64232895623094     -3.76697972498163     -2.20579803531571
  H          -4.08193244098818     -2.72479925019694     -3.57040330406562
  C          -2.43317691359430     -1.21510496327259     -1.92516431519398
  C          -1.27483257366158     -1.59083529428485     -0.97235267994937
  H          -2.43252116275299     -0.13494693784365     -2.03039660036126
  H          -2.14797698982198     -1.60391486349043     -2.90817025401281
  C          -1.53945153564021     -1.05503638553896      0.43269054164273
  C          -1.01286042498428     -3.12185569358883     -0.99392082306667
  O          -2.24942523331971     -0.09404227020223      0.62377618114046
  O          -0.92506170936798     -1.60650159861793      1.46318653157815
  H          -0.20168875967810     -3.31168034463227     -1.70178817847457
  H          -1.88836657386104     -3.62997982315358     -1.38430514705937
  C          -0.68433361172591     -3.72914538120386      0.36885702770101
  C          -0.02709472119229     -2.72543425888134      1.28840488596541
  H          -0.03209091681323     -4.59542115888289      0.24705061072776
  H          -1.60550710932032     -4.06913435147734      0.84596385000895
  H           0.89691441996363     -2.32840922504094      0.85883045616547
  C          -5.36877248063830      0.97356529391428      1.29355999761877
  H          -4.29772833391419      1.02714660049134      1.50592246599348
  H          -5.83572347059288      0.48056339225367      2.15075257404419
  C           0.26453402982527     -3.23265199395586      2.68681806815346
  H          -0.65095324276832     -3.65880686793973      3.10993246905511
  H           0.52489176058146     -2.36612708092555      3.30056328323985
  H          -5.29463104373895     -3.19507877421830     -2.37316377218726
  C          -5.95357245579241      2.37121123163280      1.12441054390602
  H          -7.01104413546003      2.29814500337889      0.84571083803908
  H          -5.45428431010701      2.88782302266093      0.29908091573893
  C           1.39986497759752     -4.24829875944141      2.73753258239271
  H           1.14079731979647     -5.13379628317254      2.14917561818568
  H           2.28934161746791     -3.81447838655767      2.26810454297109
  C          -0.83811781896764      5.08204275719537      1.40442829626472
  H          -1.85505053944583      4.75983242102533      1.65545441696080
  H          -0.87677921657658      5.44567785948463      0.37339126993031
  C           7.82100499553446     -0.84746242464849      0.07096490990671
  H           7.34651147716201     -1.83023949289610      0.14509345646606
  H           8.20054266330618     -0.76630164260485     -0.95363071075898
  C           8.98572097034525     -0.77980820082426      1.05040177443753
  H           9.71210657660119     -1.57177753451056      0.86109017075936
  H           9.50733726284117      0.17697275521102      0.97485543107965
  H           8.63814033211766     -0.88498978826602      2.08067800166876
  C          -0.42533526770396      6.22715970830441      2.32016446476993
  H           0.57910897331984      6.57947608763257      2.07489076403640
  H          -1.10771790830465      7.07421365397948      2.23146163629773
  H          -0.41820107804707      5.91156307139197      3.36593199972611
  C          -5.81702644514868      3.20711987040365      2.39055230643186
  H          -6.24326319729773      4.20332038555178      2.26017244770174
  H          -6.32678165500145      2.73265573105652      3.23209919195767
  H          -4.76690018382463      3.32576015499189      2.66776823713578
  C           1.73228737877319     -4.67169467967161      4.16238815430406
  H           0.86961964409303     -5.13718470263639      4.64475355411862
  H           2.55368942458588     -5.38994225076415      4.18400529291482
  H           2.02458922447785     -3.81116614980951      4.76842369867166
