64
Coordinates from ORCA-job orca E -1423.236938196931
  C           1.76609488199367      0.65270472520920     -1.09938632991010
  H           1.86353638736134      1.62660817873729     -0.61690234755324
  H           2.70464202936097      0.41295752239416     -1.59823858899056
  C           1.39816980441963     -0.40483160585116     -0.06347016872758
  C           2.46699477776964     -0.52281949704809      1.05776082486986
  H           2.16533128692353     -1.34124840623648      1.71598512929676
  H           2.40131968942423      0.39064897437583      1.65150831549527
  C           3.95843284500834     -0.74465221430274      0.72598981028140
  C           1.23912429740251     -1.75035513865739     -0.76919354714747
  O           1.39840344195592     -1.94347543314459     -1.94400209877261
  O           0.89426883104776     -2.72915588612716      0.08164555685865
  C           4.59866522289459      0.47836152764072      0.07525666957664
  O           5.34164509994035      0.45166456399986     -0.86862253911879
  O           4.28865610577549      1.61452407118380      0.71894500228731
  C           4.21460857630050     -1.96569028693483     -0.15412752081352
  H           5.28451106711583     -2.15286799893330     -0.24082360091423
  H           3.74626910037370     -2.84555745942728      0.29267276563167
  H           3.82796312797439     -1.83790791719452     -1.16363006841081
  C           4.68720838436465     -0.93841977180505      2.07001524311660
  H           4.33910594036943     -1.85873115687853      2.54278878889655
  H           5.76509880362123     -1.02293139135457      1.91852489111441
  H           4.49733266622081     -0.10750898760525      2.75017059786452
  C           0.71651543066865     -4.01572705237533     -0.50458596715884
  H           0.42601031712167     -4.67545307155209      0.30898814117664
  H          -0.06086194558886     -3.98256989910281     -1.26818210282110
  H           1.64449519763873     -4.35994418546037     -0.96173316593305
  C           4.87461515626300      2.80045439990218      0.18947963277789
  H           4.56227383529508      2.95178250391543     -0.84416902731007
  H           4.51972459049395      3.61322324167431      0.81805721050946
  H           5.96225379795243      2.73958442831250      0.22287533160676
  H           1.01543366217550      0.72077687538659     -1.88502099847771
  C           0.09490316345918     -0.04522972754361      0.70497337161656
  C          -1.24499260894090      0.24600117506897     -0.03716593858303
  H           0.32450277248630      0.83354914896948      1.30990785244837
  H          -0.10719995797615     -0.86029584528989      1.40315910254342
  C          -2.24662263091635      0.42874544673075      1.09284507581867
  C          -1.15649880690147      1.54560178287425     -0.83327047650527
  C          -1.66705181433672     -0.88623362033272     -0.96905758338621
  C          -4.38330972390347      0.99440908631931      0.79880150862727
  H          -2.47877207727655     -0.49051027446466      1.61968031694595
  H          -2.04767001704039      1.27047445825535      1.74640147016268
  O          -1.40579640118853      1.66137633969158     -2.00194213130091
  O          -0.78164430831612      2.58048005772022     -0.06646568697809
  H          -0.95965363696247     -1.02246671927155     -1.78480111784962
  H          -1.73895348760154     -1.81768846151577     -0.40326204337723
  H          -2.63252946834668     -0.67405486218455     -1.42416450951989
  C          -4.25446967937158      2.25231962972190     -0.02383178438065
  C          -4.77065814762505     -0.22090870530070      0.01615489508742
  C          -0.68316448127267      3.83461347624233     -0.73591886378912
  H          -3.75278411224546      3.03104265430956      0.55169042514053
  H          -3.70856759441121      2.07761982752255     -0.94844780150081
  H          -5.24550403177877      2.61465283005902     -0.30378915568245
  O          -5.06652352492983     -0.19755913309761     -1.15002374112849
  O          -4.77601135136321     -1.34458176908758      0.74790483236320
  H          -1.65215644096602      4.13148931070351     -1.13776444337456
  H          -0.34867457566516      4.54658517476009      0.01422324904525
  H           0.03402227389776      3.77464922848163     -1.55468349441006
  C          -5.15203227030460     -2.52712410506188      0.04741233438130
  H          -5.10968193248138     -3.32997151026960      0.77898227373625
  H          -6.15905909910303     -2.43221942075674     -0.35817788991239
  H          -4.45890096332244     -2.72146619509522     -0.77161509060016
  C          -4.77530314796939      1.06347801507298      2.11090678209026
  H          -5.07051748114149      0.18041444124144      2.65965867825119
  H          -4.73138684582303      2.00387461278675      2.64651374471984
