64
Coordinates from ORCA-job orca E -1421.293998038401
  C           1.75737275600937      0.68200209139831     -1.06796178525983
  H           1.84620810428901      1.65711417392537     -0.56965683343011
  H           2.70286317970721      0.45719145998353     -1.57806183211398
  C           1.40382943874277     -0.40246928249661     -0.04477940749884
  C           2.48213301155539     -0.53058987069466      1.07530020759967
  H           2.17866678758801     -1.35934364620617      1.73340483583300
  H           2.42266323891051      0.38658612777585      1.67943272572461
  C           3.97632432821306     -0.75242594357171      0.72555736532538
  C           1.26003289023294     -1.73774063884968     -0.77748178751397
  O           1.42218600038183     -1.91131095916127     -1.96081524216788
  O           0.92560617346489     -2.73974076711913      0.06113738372331
  C           4.59157532678678      0.47000019133565      0.04075381377638
  O           5.29876983561451      0.44398799141858     -0.93653471045963
  O           4.29776923340947      1.61369385604740      0.69419308314267
  C           4.22787020518255     -1.98921437600771     -0.14636356370725
  H           5.30741508296133     -2.17301169158036     -0.24541905922465
  H           3.76512596204132     -2.87424177078105      0.31645916645044
  H           3.82729514312050     -1.87357036831276     -1.16082181809015
  C           4.73003745786475     -0.91847147674229      2.06843645670145
  H           4.38312358069205     -1.83027599032150      2.58010024895952
  H           5.81453884429739     -1.01453763859009      1.90076363810686
  H           4.55742759815798     -0.05932949350859      2.73303028706281
  C           0.76293650333288     -4.02573004015863     -0.53400325869590
  H           0.49607126043383     -4.70985299326264      0.28143138319739
  H          -0.03358850126728     -4.00409837122074     -1.29343616003543
  H           1.69573036250571     -4.35192730933702     -1.01874993605371
  C           4.84465610551995      2.80929985759632      0.14266736180216
  H           4.45378131284990      2.98238926645668     -0.87224831770319
  H           4.53976109201693      3.62403582046385      0.81171565744510
  H           5.94203726643641      2.74965236642686      0.08527925523524
  H           0.99874942948512      0.75271137546638     -1.85677068848193
  C           0.09064806318519     -0.07661244874993      0.73564378908002
  C          -1.25511261726343      0.21209784605117     -0.01342020222832
  H           0.30679198133828      0.80070878838833      1.36182843727952
  H          -0.10141871277770     -0.91569960300908      1.42056717592831
  C          -2.26525578764732      0.38578631676076      1.11221840042480
  C          -1.15994608460187      1.52287582191914     -0.79797369468889
  C          -1.66409848727547     -0.91702906202668     -0.96674248756081
  C          -4.40813659997694      1.02932608208539      0.76256731736777
  H          -2.55191630507902     -0.54444850392177      1.61041812868991
  H          -2.06427959819976      1.21710552337413      1.79216413516652
  O          -1.39851962948224      1.65538665280894     -1.97283469317627
  O          -0.78817772479945      2.55261344292238     -0.01109697016380
  H          -0.94419975447436     -1.03692316334126     -1.78493428219930
  H          -1.73175955152231     -1.86552291299947     -0.41297110327639
  H          -2.63469784759437     -0.70403562538100     -1.42982291076873
  C          -4.23331448911532      2.27277677582428     -0.08182818952406
  C          -4.77675610572762     -0.19998110634977     -0.00972859726025
  C          -0.66997019687719      3.82063269197917     -0.65365950973322
  H          -3.69217831652543      3.04874927125098      0.47886873562288
  H          -3.70134749055871      2.05868863042211     -1.01576348723263
  H          -5.22099777433144      2.67664465812808     -0.36073806908132
  O          -4.99875804799954     -0.21154126906522     -1.19884630817717
  O          -4.84560605663520     -1.30867414939554      0.75626907818200
  H          -1.63071038947818      4.12623279529619     -1.09476344633796
  H          -0.36315410272778      4.53123358277458      0.12424543649091
  H           0.08343641894101      3.78053618785665     -1.45524643247887
  C          -5.20431361543175     -2.51145985175362      0.08057740342230
  H          -5.25153319657147     -3.29251191811437      0.85017184718224
  H          -6.17895089640562     -2.40728207543464     -0.41998412550538
  H          -4.45080059321068     -2.77099186434291     -0.67926686656853
  C          -4.83577327922962      1.12698842248860      2.07499501068440
  H          -5.15351277793134      0.24480346118717      2.63252177019411
  H          -4.78946944455018      2.08325465199501      2.60341624059665
