34
Coordinates from ORCA-job orca E -731.565016295374
  C           4.38686688024273     -0.55207084839462     -0.16895274868104
  O           4.34298403224889      0.55107118570492      0.59260317443680
  C           5.10480333263606      1.65869096496332      0.12044336651810
  H           4.96449994736700      2.44815510709341      0.85435500402919
  H           6.15903125647467      1.39434452684463      0.04015612635999
  H           4.74623875831309      1.97999495012960     -0.85788934479836
  C           3.57883385837951     -1.69892872233159      0.43431913509641
  C           4.34913100505915     -2.13919099250682      1.69327447581745
  H           4.36063525494507     -1.35149154760815      2.44708746687867
  H           3.87540488663618     -3.02329272882744      2.12421640778186
  H           5.38144512329599     -2.39582414716219      1.44673483813849
  C           2.17394232627545     -1.24974260756081      0.88840839007413
  H           2.29069732012573     -0.38065576697497      1.53835273621547
  H           1.76352041561657     -2.04979047912374      1.50833551633973
  C           1.10843430950272     -0.87734417048696     -0.16922691121158
  C          -0.10579140376070     -0.37514333377709      0.55215685162032
  H          -0.40234760941551     -0.81219976229139      1.49666609226482
  H          -0.78876704132613      0.29926594912386      0.05206530812769
  C           0.61154560500350     -2.10335460407098     -0.95276139962120
  O           0.32865487910135     -3.13512615370426     -0.14467324099662
  C          -0.17541837032094     -4.30042550380402     -0.79169732553815
  H          -0.35021492557766     -5.02685979839230     -0.00227439136954
  H           0.55188645206240     -4.68332041261036     -1.50822068463284
  H          -1.10365358773857     -4.07690142797154     -1.31729969649844
  O           0.43601362476008     -2.13733739957625     -2.14021532875375
  C           1.59114581891034      0.17682033726973     -1.16548294381294
  H           1.93013110591531      1.06236550466668     -0.62652809994552
  H           2.40562534343642     -0.19297957693293     -1.78855803291399
  H           0.78175994810223      0.46297078085275     -1.83590910858003
  C           3.54697456083102     -2.85701162812949     -0.56044350320687
  H           2.98957277456397     -3.69317056195897     -0.13519427844096
  H           4.55897369058411     -3.19221291839917     -0.78544548407077
  H           3.08859481526124     -2.57505727523527     -1.50860425940447
  O           5.04012561248864     -0.61786693881755     -1.17561810722204
