34
Coordinates from ORCA-job orca E -731.544845461562
  C       4.358700     -0.557420     -0.186720
  O       4.267980      0.572480      0.529340
  C       4.989860      1.686770      0.035610
  H       4.820470      2.503360      0.746450
  H       6.063220      1.460420     -0.036190
  H       4.627170      1.971520     -0.963250
  C       3.548650     -1.695820      0.431880
  C       4.286940     -2.088200      1.730050
  H       4.279570     -1.265540      2.459190
  H       3.798280     -2.962290      2.186630
  H       5.333440     -2.356090      1.519400
  C       2.128190     -1.240790      0.839450
  H       2.242700     -0.361780      1.490610
  H       1.701770     -2.039480      1.466030
  C       1.065930     -0.869360     -0.235550
  C      -0.142340     -0.347330      0.593080
  H      -0.459760     -1.168540      1.252980
  H       0.246460      0.445820      1.249110
  C       0.660490     -2.121990     -1.012950
  O       0.180490     -3.080950     -0.209080
  C      -0.235240     -4.277010     -0.844600
  H      -0.587650     -4.942530     -0.048640
  H       0.600690     -4.740780     -1.388030
  H      -1.045820     -4.074790     -1.559970
  O       0.747590     -2.265190     -2.204740
  C       1.590360      0.170320     -1.226670
  H       1.863120      1.091900     -0.693500
  H       2.470940     -0.200550     -1.767520
  H       0.841560      0.406780     -1.992160
  C       3.553360     -2.886920     -0.528660
  H       2.940920     -3.701570     -0.113610
  H       4.576560     -3.259700     -0.674200
  H       3.161470     -2.622800     -1.518720
  O       5.045210     -0.645570     -1.170870
34
Coordinates from ORCA-job orca E -731.555595675819
  C       4.381038     -0.553881     -0.185777
  O       4.294233      0.574380      0.533763
  C       5.038696      1.681267      0.047133
  H       4.871535      2.492204      0.752648
  H       6.101587      1.441883     -0.010297
  H       4.693942      1.969283     -0.948056
  C       3.566669     -1.690717      0.427880
  C       4.298858     -2.077626      1.726719
  H       4.284634     -1.260680      2.450083
  H       3.816394     -2.947693      2.178188
  H       5.339771     -2.337690      1.520837
  C       2.142636     -1.244524      0.834969
  H       2.252240     -0.369151      1.479557
  H       1.730761     -2.039911      1.461889
  C       1.066509     -0.888644     -0.236072
  C      -0.124348     -0.384485      0.587138
  H      -0.545973     -1.156939      1.234866
  H       0.131015      0.505957      1.168617
  C       0.643495     -2.134899     -1.012865
  O       0.183222     -3.100556     -0.204663
  C      -0.248688     -4.292507     -0.845075
  H      -0.580472     -4.959479     -0.052479
  H       0.569217     -4.748172     -1.406313
  H      -1.068821     -4.084948     -1.534260
  O       0.684811     -2.258495     -2.207376
  C       1.550514      0.173891     -1.219140
  H       1.819495      1.083833     -0.679214
  H       2.415089     -0.167643     -1.788865
  H       0.775475      0.413775     -1.946577
  C       3.582684     -2.883574     -0.525600
  H       2.976697     -3.694278     -0.113165
  H       4.601118     -3.248837     -0.660600
  H       3.200083     -2.628099     -1.512733
  O       5.077165     -0.646663     -1.160979
34
Coordinates from ORCA-job orca E -731.560677121477
  C       4.359510     -0.565512     -0.188873
  O       4.283140      0.566500      0.527173
  C       5.018483      1.672721      0.013721
  H       4.862554      2.485599      0.716123
  H       6.077397      1.432240     -0.060255
  H       4.653319      1.950104     -0.974030
  C       3.558249     -1.700261      0.442711
  C       4.318487     -2.097051      1.721861
  H       4.325032     -1.286045      2.448425
  H       3.844058     -2.965932      2.178312
  H       5.350998     -2.359069      1.489440
  C       2.146939     -1.250435      0.874593
  H       2.261335     -0.377939      1.518054
  H       1.734204     -2.046277      1.496038
  C       1.087137     -0.889397     -0.206650
  C      -0.102900     -0.387262      0.563032
  H      -0.648566     -1.111086      1.158766
  H       0.026935      0.572987      1.054225
  C       0.663115     -2.124977     -0.996071
  O       0.210066     -3.101234     -0.196081
  C      -0.201294     -4.295606     -0.854122
  H      -0.530279     -4.970286     -0.070023
  H       0.627790     -4.733545     -1.407907
  H      -1.015581     -4.091803     -1.546869
  O       0.722388     -2.237665     -2.189500
  C       1.590960      0.184882     -1.164515
  H       1.856312      1.081562     -0.605051
  H       2.460957     -0.148853     -1.728794
  H       0.820356      0.443227     -1.887678
  C       3.535882     -2.885861     -0.517297
  H       2.937955     -3.692544     -0.091263
  H       4.544377     -3.257611     -0.686083
  H       3.122880     -2.620620     -1.488653
  O       5.019084     -0.656571     -1.188579
34
Coordinates from ORCA-job orca E -731.562667501615
  C       4.388704     -0.532771     -0.183832
  O       4.321266      0.578622      0.565329
  C       5.088644      1.684996      0.093856
  H       4.934940      2.480185      0.818725
  H       6.144169      1.422219      0.032384
  H       4.743929      1.995767     -0.892490
  C       3.588766     -1.681956      0.422644
  C       4.342133     -2.082562      1.705119
  H       4.329640     -1.278700      2.441599
  H       3.874696     -2.964308      2.147062
  H       5.382003     -2.327624      1.479939
  C       2.164355     -1.254861      0.851568
  H       2.261014     -0.377813      1.493193
  H       1.769206     -2.057048      1.477905
  C       1.076927     -0.917265     -0.219104
  C      -0.103753     -0.417862      0.539515
  H      -0.705540     -1.111214      1.111359
  H      -0.063812      0.596716      0.916880
  C       0.633631     -2.160460     -0.986673
  O       0.197066     -3.125562     -0.164605
  C      -0.268923     -4.311445     -0.806757
  H      -0.578523     -4.978787     -0.006786
  H       0.529404     -4.765338     -1.394083
  H      -1.107995     -4.086920     -1.464363
  O       0.601043     -2.257831     -2.182259
  C       1.539994      0.152051     -1.206436
  H       1.821543      1.054339     -0.662402
  H       2.387637     -0.178698     -1.805472
  H       0.733174      0.402746     -1.893931
  C       3.597536     -2.860356     -0.547257
  H       3.003898     -3.679596     -0.136636
  H       4.615166     -3.217478     -0.702005
  H       3.199624     -2.592380     -1.524482
  O       5.079718     -0.612430     -1.163323
34
Coordinates from ORCA-job orca E -731.563533686386
  C       4.397081     -0.556839     -0.169890
  O       4.316699      0.562365      0.566420
  C       5.069093      1.673195      0.079822
  H       4.904360      2.474764      0.796071
  H       6.128208      1.421871      0.021576
  H       4.718068      1.966061     -0.910435
  C       3.579782     -1.698232      0.428681
  C       4.330439     -2.120776      1.705886
  H       4.326554     -1.324552      2.451544
  H       3.853490     -3.003047      2.138327
  H       5.368232     -2.374471      1.477275
  C       2.162591     -1.252749      0.864237
  H       2.270039     -0.379550      1.510710
  H       1.755178     -2.053182      1.486344
  C       1.075129     -0.891802     -0.200749
  C      -0.106334     -0.370415      0.549632
  H      -0.757086     -1.040008      1.096031
  H      -0.121944      0.677863      0.822840
  C       0.604214     -2.124902     -0.973682
  O       0.258802     -3.127350     -0.152967
  C      -0.181219     -4.321944     -0.799036
  H      -0.416702     -5.019848      0.000944
  H       0.609211     -4.722205     -1.435076
  H      -1.062939     -4.124087     -1.408680
  O       0.555007     -2.213438     -2.169756
  C       1.552987      0.168903     -1.195125
  H       1.875693      1.058391     -0.650800
  H       2.376250     -0.183634     -1.815524
  H       0.737671      0.449998     -1.861184
  C       3.568660     -2.870426     -0.549640
  H       2.966433     -3.685480     -0.141256
  H       4.581409     -3.239822     -0.712470
  H       3.169959     -2.590607     -1.523712
  O       5.056263     -0.627667     -1.172177
34
Coordinates from ORCA-job orca E -731.564034800559
  C       4.360348     -0.558934     -0.187398
  O       4.301768      0.562128      0.547704
  C       5.057484      1.664998      0.049708
  H       4.909375      2.468886      0.766526
  H       6.113180      1.403716     -0.021628
  H       4.696136      1.959004     -0.936208
  C       3.569991     -1.701549      0.444171
  C       4.348232     -2.108471      1.710621
  H       4.349994     -1.307453      2.450769
  H       3.888075     -2.992122      2.157730
  H       5.383887     -2.353897      1.465291
  C       2.161544     -1.259653      0.894565
  H       2.268447     -0.386568      1.541171
  H       1.751435     -2.061661      1.512331
  C       1.090296     -0.892590     -0.176234
  C      -0.115884     -0.379665      0.555448
  H      -0.784656     -1.053024      1.075828
  H      -0.198355      0.684031      0.744956
  C       0.642874     -2.123848     -0.969909
  O       0.301315     -3.141003     -0.165695
  C      -0.165077     -4.315765     -0.828796
  H      -0.392250     -5.028886     -0.040295
  H       0.607929     -4.708996     -1.489705
  H      -1.056392     -4.094252     -1.415508
  O       0.548381     -2.178613     -2.165554
  C       1.592160      0.173226     -1.154776
  H       1.916645      1.054256     -0.597085
  H       2.422377     -0.182462     -1.764844
  H       0.790621      0.466677     -1.831535
  C       3.537683     -2.880041     -0.526037
  H       2.960986     -3.698808     -0.090397
  H       4.547548     -3.238540     -0.725498
  H       3.096674     -2.611348     -1.485993
  O       5.018507     -0.642393     -1.189545
34
Coordinates from ORCA-job orca E -731.564224065040
  C       4.373995     -0.542021     -0.181119
  O       4.329654      0.564411      0.576409
  C       5.098278      1.667836      0.101446
  H       4.960259      2.458791      0.834185
  H       6.150719      1.396072      0.024238
  H       4.741278      1.986867     -0.878070
  C       3.572379     -1.688229      0.429396
  C       4.340675     -2.112666      1.695479
  H       4.340585     -1.320324      2.444550
  H       3.873930     -2.999147      2.129205
  H       5.376635     -2.359981      1.454453
  C       2.161880     -1.247928      0.877567
  H       2.265854     -0.370349      1.518145
  H       1.757370     -2.046557      1.502560
  C       1.083194     -0.897958     -0.190777
  C      -0.118337     -0.385375      0.544727
  H      -0.769473     -1.056789      1.087684
  H      -0.230957      0.681838      0.685962
  C       0.626613     -2.137841     -0.964535
  O       0.291939     -3.145180     -0.145270
  C      -0.177955     -4.328515     -0.789145
  H      -0.397112     -5.032505      0.009461
  H       0.589062     -4.728682     -1.452540
  H      -1.074628     -4.116265     -1.370799
  O       0.533291     -2.211444     -2.159215
  C       1.565661      0.158704     -1.186853
  H       1.892799      1.047736     -0.644735
  H       2.389396     -0.201145     -1.802799
  H       0.755354      0.438248     -1.858721
  C       3.546695     -2.855412     -0.554568
  H       2.971490     -3.680594     -0.130809
  H       4.558207     -3.207636     -0.755251
  H       3.108597     -2.577099     -1.513193
  O       5.033952     -0.614480     -1.182888
34
Coordinates from ORCA-job orca E -731.564214325388
  C       4.395445     -0.542874     -0.166839
  O       4.320274      0.566740      0.583085
  C       5.060706      1.686833      0.105112
  H       4.899005      2.479003      0.831506
  H       6.120554      1.444036      0.033527
  H       4.700770      1.991210     -0.877920
  C       3.595130     -1.696454      0.431834
  C       4.356241     -2.118235      1.702309
  H       4.343438     -1.328110      2.453297
  H       3.892520     -3.009183      2.129487
  H       5.395917     -2.357446      1.469942
  C       2.178101     -1.265162      0.872828
  H       2.277494     -0.391043      1.518499
  H       1.773215     -2.066126      1.494024
  C       1.102011     -0.909055     -0.194806
  C      -0.093364     -0.393886      0.546006
  H      -0.723194     -1.062764      1.115002
  H      -0.249969      0.673251      0.621339
  C       0.622972     -2.141066     -0.966546
  O       0.267761     -3.140411     -0.146271
  C      -0.241059     -4.308302     -0.786531
  H      -0.470197     -5.008997      0.011966
  H       0.505502     -4.727574     -1.461242
  H      -1.138525     -4.071245     -1.357296
  O       0.510934     -2.208077     -2.160001
  C       1.584394      0.145103     -1.190591
  H       1.922031      1.031061     -0.650587
  H       2.401739     -0.221864     -1.810543
  H       0.774715      0.429301     -1.861071
  C       3.593492     -2.861774     -0.554748
  H       3.031173     -3.697726     -0.135960
  H       4.611969     -3.194549     -0.751894
  H       3.156767     -2.589536     -1.515256
  O       5.043321     -0.598698     -1.177482
34
Coordinates from ORCA-job orca E -731.564374636661
  C       4.380336     -0.548205     -0.178556
  O       4.324056      0.561811      0.572314
  C       5.081722      1.670088      0.094876
  H       4.933696      2.464450      0.821941
  H       6.137714      1.410897      0.021762
  H       4.726082      1.981447     -0.887695
  C       3.580952     -1.696085      0.432891
  C       4.347104     -2.112475      1.702465
  H       4.340879     -1.317358      2.448418
  H       3.882379     -2.999003      2.138020
  H       5.384864     -2.357097      1.466727
  C       2.167773     -1.257355      0.877431
  H       2.273032     -0.382558      1.521307
  H       1.761042     -2.055438      1.501533
  C       1.092285     -0.898210     -0.188920
  C      -0.106403     -0.390897      0.555039
  H      -0.720230     -1.063454      1.137581
  H      -0.292199      0.673445      0.602175
  C       0.617249     -2.128337     -0.966521
  O       0.291699     -3.142592     -0.152202
  C      -0.197284     -4.315536     -0.797840
  H      -0.402703     -5.028689     -0.003819
  H       0.550954     -4.712234     -1.484401
  H      -1.105829     -4.093836     -1.357505
  O       0.506757     -2.191009     -2.160437
  C       1.573140      0.161695     -1.178726
  H       1.908284      1.046073     -0.634376
  H       2.392489     -0.200751     -1.798848
  H       0.764530      0.446792     -1.850246
  C       3.568791     -2.867385     -0.546460
  H       3.008213     -3.700028     -0.117892
  H       4.585137     -3.202819     -0.750385
  H       3.124630     -2.600370     -1.504926
  O       5.040137     -0.618598     -1.180544
34
Coordinates from ORCA-job orca E -731.564432477862
  C       4.380153     -0.552102     -0.179011
  O       4.337685      0.557379      0.573647
  C       5.102998      1.659089      0.094254
  H       4.965896      2.454082      0.822857
  H       6.156394      1.390772      0.015572
  H       4.745896      1.975320     -0.886352
  C       3.571567     -1.692982      0.433834
  C       4.336965     -2.118814      1.700992
  H       4.341916     -1.324204      2.447594
  H       3.863668     -3.000472      2.137454
  H       5.371244     -2.374924      1.462060
  C       2.163564     -1.242701      0.880790
  H       2.274600     -0.364608      1.519364
  H       1.755542     -2.035870      1.510531
  C       1.087717     -0.889463     -0.186465
  C      -0.118735     -0.393749      0.556204
  H      -0.705386     -1.067854      1.165206
  H      -0.348892      0.663236      0.560234
  C       0.626739     -2.124739     -0.964913
  O       0.316177     -3.144221     -0.151232
  C      -0.161037     -4.321657     -0.796789
  H      -0.354448     -5.038951     -0.003400
  H       0.588690     -4.708364     -1.487525
  H      -1.074792     -4.110705     -1.352360
  O       0.506872     -2.184219     -2.158147
  C       1.561688      0.173549     -1.175686
  H       1.887612      1.061446     -0.631602
  H       2.385914     -0.182162     -1.793648
  H       0.752819      0.450692     -1.850328
  C       3.542392     -2.862461     -0.547195
  H       2.977645     -3.691103     -0.116021
  H       4.554565     -3.205607     -0.759353
  H       3.093081     -2.590158     -1.502187
  O       5.034569     -0.627097     -1.184201
34
Coordinates from ORCA-job orca E -731.564506468078
  C       4.377246     -0.552847     -0.179489
  O       4.336182      0.555424      0.575056
  C       5.098627      1.658360      0.095378
  H       4.962905      2.452559      0.825111
  H       6.152328      1.392128      0.013081
  H       4.738979      1.976038     -0.883887
  C       3.572449     -1.695618      0.434987
  C       4.340546     -2.120303      1.700967
  H       4.346875     -1.325086      2.446932
  H       3.868343     -3.001679      2.139215
  H       5.374423     -2.376393      1.460367
  C       2.164562     -1.246316      0.883394
  H       2.277240     -0.370419      1.524696
  H       1.756042     -2.040860      1.511152
  C       1.091143     -0.887504     -0.183318
  C      -0.117093     -0.391823      0.558036
  H      -0.666978     -1.055193      1.211862
  H      -0.409914      0.646799      0.484832
  C       0.624092     -2.120230     -0.963410
  O       0.315509     -3.141766     -0.151509
  C      -0.164143     -4.316939     -0.798205
  H      -0.354072     -5.037073     -0.006517
  H       0.581917     -4.702009     -1.493903
  H      -1.080599     -4.105431     -1.349237
  O       0.498977     -2.175452     -2.156347
  C       1.569943      0.173253     -1.171215
  H       1.897440      1.060559     -0.627299
  H       2.394769     -0.185230     -1.787295
  H       0.764312      0.451963     -1.849164
  C       3.544464     -2.864481     -0.546717
  H       2.986909     -3.696729     -0.113637
  H       4.557790     -3.200560     -0.764750
  H       3.089192     -2.594201     -1.499708
  O       5.030873     -0.626561     -1.185279
34
Coordinates from ORCA-job orca E -731.564623163652
  C       4.379002     -0.558876     -0.177988
  O       4.333451      0.552368      0.572078
  C       5.089967      1.656804      0.086844
  H       4.950596      2.453932      0.812706
  H       6.145086      1.396013      0.005029
  H       4.728383      1.968278     -0.893731
  C       3.575416     -1.701415      0.438996
  C       4.344517     -2.123550      1.704961
  H       4.352917     -1.326270      2.448658
  H       3.871937     -3.003112      2.146367
  H       5.377855     -2.381202      1.463644
  C       2.167753     -1.251009      0.888234
  H       2.283103     -0.378551      1.533605
  H       1.757196     -2.047248      1.512549
  C       1.097122     -0.882554     -0.176313
  C      -0.113364     -0.390952      0.561591
  H      -0.607083     -1.032443      1.279023
  H      -0.503656      0.600578      0.379228
  C       0.621959     -2.110510     -0.962345
  O       0.319613     -3.137836     -0.155454
  C      -0.165823     -4.307780     -0.806710
  H      -0.347949     -5.034424     -0.019079
  H       0.573457     -4.687512     -1.512574
  H      -1.087792     -4.093041     -1.347175
  O       0.484514     -2.155282     -2.154338
  C       1.579010      0.180040     -1.159787
  H       1.909013      1.064511     -0.612679
  H       2.402259     -0.177744     -1.778049
  H       0.774142      0.463982     -1.836661
  C       3.548649     -2.871831     -0.540985
  H       2.993966     -3.705046     -0.106292
  H       4.562782     -3.204655     -0.760325
  H       3.092249     -2.604133     -1.494077
  O       5.031032     -0.633149     -1.184771
34
Coordinates from ORCA-job orca E -731.564784198900
  C       4.380668     -0.560910     -0.176560
  O       4.340574      0.548940      0.575893
  C       5.099131      1.651859      0.091262
  H       4.963284      2.448465      0.818377
  H       6.153541      1.388831      0.007019
  H       4.737055      1.966204     -0.888252
  C       3.574147     -1.701896      0.439785
  C       4.343305     -2.128723      1.704024
  H       4.357467     -1.331773      2.447993
  H       3.866900     -3.005875      2.146105
  H       5.374848     -2.391631      1.460766
  C       2.168804     -1.246839      0.890894
  H       2.288025     -0.375366      1.536858
  H       1.756694     -2.042319      1.515249
  C       1.100588     -0.874822     -0.171815
  C      -0.114866     -0.389414      0.561742
  H      -0.529469     -0.989352      1.360970
  H      -0.634526      0.504754      0.247834
  C       0.620470     -2.102230     -0.959368
  O       0.330511     -3.134510     -0.154324
  C      -0.158218     -4.302506     -0.805704
  H      -0.327976     -5.034337     -0.020068
  H       0.573487     -4.676047     -1.522752
  H      -1.087814     -4.089301     -1.333682
  O       0.467199     -2.139914     -2.149698
  C       1.581932      0.186734     -1.155538
  H       1.912341      1.071554     -0.609408
  H       2.404437     -0.171266     -1.774822
  H       0.777115      0.470277     -1.832815
  C       3.542721     -2.870294     -0.542484
  H       2.990491     -3.704663     -0.107251
  H       4.556113     -3.201289     -0.767990
  H       3.082019     -2.600700     -1.493161
  O       5.030284     -0.635261     -1.184900
34
Coordinates from ORCA-job orca E -731.564926373105
  C       4.384848     -0.556170     -0.172403
  O       4.348091      0.548543      0.587744
  C       5.110004      1.652657      0.110545
  H       4.975399      2.444752      0.842760
  H       6.163711      1.387210      0.025585
  H       4.749246      1.973976     -0.867118
  C       3.575473     -1.699064      0.436476
  C       4.343472     -2.135432      1.698068
  H       4.360977     -1.342446      2.446187
  H       3.864218     -3.013168      2.135823
  H       5.374005     -2.400340      1.452843
  C       2.171595     -1.243152      0.889302
  H       2.291910     -0.372628      1.536374
  H       1.759315     -2.039630      1.512403
  C       1.105882     -0.870147     -0.170963
  C      -0.112492     -0.382953      0.554759
  H      -0.436523     -0.905183      1.445804
  H      -0.769136      0.353478      0.112932
  C       0.616001     -2.099450     -0.954825
  O       0.331498     -3.130860     -0.146847
  C      -0.165398     -4.297935     -0.793889
  H      -0.330381     -5.028865     -0.006397
  H       0.559991     -4.673666     -1.516190
  H      -1.098916     -4.082861     -1.314068
  O       0.447315     -2.134968     -2.143157
  C       1.588408      0.184457     -1.162006
  H       1.922184      1.071324     -0.621564
  H       2.407711     -0.179048     -1.782556
  H       0.782146      0.467138     -1.838039
  C       3.542118     -2.860932     -0.553536
  H       2.989407     -3.697530     -0.123693
  H       4.554991     -3.191248     -0.782278
  H       3.080857     -2.584130     -1.502064
  O       5.033352     -0.625349     -1.181833
34
Coordinates from ORCA-job orca E -731.564978355016
  C       4.388960     -0.547434     -0.169152
  O       4.348950      0.552864      0.597153
  C       5.115242      1.659525      0.128908
  H       4.976866      2.446657      0.865637
  H       6.168465      1.391340      0.048809
  H       4.758278      1.985072     -0.848495
  C       3.579522     -1.694449      0.430755
  C       4.347000     -2.137102      1.690523
  H       4.361043     -1.349208      2.444110
  H       3.870203     -3.019483      2.121448
  H       5.378703     -2.396320      1.444271
  C       2.174641     -1.245045      0.884528
  H       2.290347     -0.374450      1.532608
  H       1.765769     -2.045137      1.505280
  C       1.106911     -0.877135     -0.172655
  C      -0.107668     -0.381355      0.550126
  H      -0.415029     -0.859162      1.472162
  H      -0.783586      0.321233      0.079548
  C       0.613569     -2.109595     -0.951894
  O       0.317613     -3.133355     -0.138494
  C      -0.182935     -4.302191     -0.782552
  H      -0.363386     -5.023753      0.010085
  H       0.549509     -4.689643     -1.491245
  H      -1.107861     -4.081146     -1.314939
  O       0.448800     -2.151375     -2.140520
  C       1.587450      0.173384     -1.173214
  H       1.923072      1.062261     -0.637455
  H       2.402891     -0.193590     -1.796809
  H       0.775780      0.455643     -1.842749
  C       3.548784     -2.850717     -0.566035
  H       2.986521     -3.685619     -0.145345
  H       4.560883     -3.188916     -0.786297
  H       3.096644     -2.564851     -1.516141
  O       5.039328     -0.610569     -1.177782
34
Coordinates from ORCA-job orca E -731.565002022561
  C       4.386772     -0.554223     -0.170823
  O       4.345000      0.550932      0.588133
  C       5.110363      1.655564      0.112988
  H       4.970605      2.447257      0.844578
  H       6.163849      1.387658      0.035351
  H       4.753270      1.974033     -0.866722
  C       3.577534     -1.698359      0.435514
  C       4.347060     -2.135645      1.696039
  H       4.360395     -1.345258      2.447023
  H       3.872005     -3.017376      2.130251
  H       5.378996     -2.394203      1.449803
  C       2.173031     -1.247160      0.889071
  H       2.290236     -0.377566      1.538228
  H       1.762296     -2.046956      1.509177
  C       1.106408     -0.874663     -0.167558
  C      -0.107702     -0.379324      0.556402
  H      -0.409260     -0.840524      1.488128
  H      -0.789565      0.309484      0.074824
  C       0.613177     -2.101905     -0.954087
  O       0.328710     -3.134238     -0.147452
  C      -0.170337     -4.300461     -0.797983
  H      -0.343138     -5.028896     -0.009930
  H       0.560034     -4.678752     -1.513710
  H      -1.098914     -4.078763     -1.323573
  O       0.442776     -2.135416     -2.142198
  C       1.586427      0.181875     -1.162730
  H       1.921663      1.067983     -0.622083
  H       2.401805     -0.182589     -1.787349
  H       0.774775      0.467565     -1.830767
  C       3.544801     -2.859581     -0.555572
  H       2.981150     -3.691511     -0.130127
  H       4.556018     -3.201381     -0.774169
  H       3.092276     -2.577859     -1.506447
  O       5.038763     -0.623362     -1.178051
34
Coordinates from ORCA-job orca E -731.565009970393
  C       4.385773     -0.554760     -0.170654
  O       4.341812      0.550864      0.587263
  C       5.103731      1.657153      0.110733
  H       4.962905      2.448968      0.841974
  H       6.157810      1.391950      0.031983
  H       4.744774      1.974214     -0.868774
  C       3.578683     -1.700035      0.436638
  C       4.349895     -2.135737      1.696741
  H       4.360962     -1.345738      2.448150
  H       3.877320     -3.019043      2.130512
  H       5.382430     -2.391656      1.450349
  C       2.173565     -1.250910      0.890227
  H       2.290073     -0.382179      1.540671
  H       1.762815     -2.051483      1.509313
  C       1.107670     -0.876883     -0.167010
  C      -0.106038     -0.378075      0.556851
  H      -0.412038     -0.831267      1.490668
  H      -0.778419      0.317722      0.072335
  C       0.613556     -2.101697     -0.954827
  O       0.327894     -3.134595     -0.149283
  C      -0.173444     -4.299490     -0.800311
  H      -0.349206     -5.027443     -0.012511
  H       0.556589     -4.679687     -1.515371
  H      -1.100607     -4.075168     -1.327291
  O       0.443635     -2.134037     -2.143063
  C       1.589040      0.180569     -1.160658
  H       1.925336      1.065576     -0.618952
  H       2.404402     -0.185441     -1.784412
  H       0.778627      0.467372     -1.829565
  C       3.546999     -2.861568     -0.554169
  H       2.986900     -3.694969     -0.126906
  H       4.558552     -3.200723     -0.775150
  H       3.090745     -2.581705     -1.503883
  O       5.038540     -0.623721     -1.177438
34
Coordinates from ORCA-job orca E -731.565013024265
  C       4.385911     -0.554775     -0.169926
  O       4.342057      0.550197      0.588810
  C       5.102707      1.657226      0.112983
  H       4.962254      2.448471      0.844922
  H       6.157003      1.393209      0.032815
  H       4.743066      1.975402     -0.865963
  C       3.578695     -1.700488      0.436656
  C       4.349982     -2.137438      1.696251
  H       4.361078     -1.348149      2.448406
  H       3.877172     -3.021048      2.129220
  H       5.382405     -2.393704      1.449847
  C       2.173800     -1.250982      0.890292
  H       2.290855     -0.382585      1.541120
  H       1.762529     -2.051265      1.509381
  C       1.109079     -0.876168     -0.167325
  C      -0.105519     -0.376021      0.555258
  H      -0.398196     -0.810501      1.502052
  H      -0.795501      0.289207      0.052855
  C       0.612871     -2.100106     -0.954505
  O       0.330053     -3.133884     -0.149020
  C      -0.173609     -4.298026     -0.798803
  H      -0.347876     -5.026284     -0.010967
  H       0.553822     -4.678721     -1.516314
  H      -1.102018     -4.073351     -1.323568
  O       0.438340     -2.131209     -2.142159
  C       1.591438      0.180680     -1.160781
  H       1.929212      1.065320     -0.619547
  H       2.406518     -0.187336     -1.783979
  H       0.782234      0.467651     -1.831018
  C       3.546680     -2.861050     -0.555291
  H       2.989933     -3.696289     -0.127310
  H       4.558479     -3.196977     -0.779977
  H       3.086991     -2.581622     -1.503557
  O       5.038835     -0.623003     -1.176680
34
Coordinates from ORCA-job orca E -731.565021116950
  C       4.386524     -0.553002     -0.169342
  O       4.342819      0.550690      0.591344
  C       5.104201      1.658150      0.117907
  H       4.963889      2.448167      0.851207
  H       6.158436      1.393894      0.037587
  H       4.745183      1.978402     -0.860594
  C       3.578721     -1.699419      0.435033
  C       4.349265     -2.138609      1.694251
  H       4.360639     -1.350381      2.447515
  H       3.875754     -3.022515      2.125841
  H       5.381600     -2.395217      1.447818
  C       2.173842     -1.250089      0.888892
  H       2.290639     -0.381246      1.539177
  H       1.763101     -2.050235      1.508474
  C       1.108555     -0.876933     -0.168750
  C      -0.105677     -0.375560      0.553391
  H      -0.402080     -0.813317      1.497604
  H      -0.789628      0.298304      0.053930
  C       0.612236     -2.102370     -0.953453
  O       0.329018     -3.134577     -0.146076
  C      -0.174515     -4.299756     -0.793891
  H      -0.349369     -5.026553     -0.004831
  H       0.553180     -4.682029     -1.510328
  H      -1.102618     -4.076056     -1.319644
  O       0.437556     -2.135705     -2.141037
  C       1.590991      0.178265     -1.163988
  H       1.929428      1.063537     -0.624228
  H       2.405736     -0.190841     -1.787101
  H       0.781631      0.464566     -1.834351
  C       3.546741     -2.858331     -0.558798
  H       2.989247     -3.694030     -0.132706
  H       4.558610     -3.194106     -0.783450
  H       3.088153     -2.577109     -1.507052
  O       5.039472     -0.619608     -1.176170
34
Coordinates from ORCA-job orca E -731.565016295374
  C       4.386867     -0.552071     -0.168953
  O       4.342984      0.551071      0.592603
  C       5.104803      1.658691      0.120443
  H       4.964500      2.448155      0.854355
  H       6.159031      1.394345      0.040156
  H       4.746239      1.979995     -0.857889
  C       3.578834     -1.698929      0.434319
  C       4.349131     -2.139191      1.693274
  H       4.360635     -1.351492      2.447087
  H       3.875405     -3.023293      2.124216
  H       5.381445     -2.395824      1.446735
  C       2.173942     -1.249743      0.888408
  H       2.290697     -0.380656      1.538353
  H       1.763520     -2.049790      1.508336
  C       1.108434     -0.877344     -0.169227
  C      -0.105791     -0.375143      0.552157
  H      -0.402348     -0.812200      1.496666
  H      -0.788767      0.299266      0.052065
  C       0.611546     -2.103355     -0.952761
  O       0.328655     -3.135126     -0.144673
  C      -0.175418     -4.300426     -0.791697
  H      -0.350215     -5.026860     -0.002274
  H       0.551886     -4.683320     -1.508221
  H      -1.103654     -4.076901     -1.317300
  O       0.436014     -2.137337     -2.140215
  C       1.591146      0.176820     -1.165483
  H       1.930131      1.062366     -0.626528
  H       2.405625     -0.192980     -1.788558
  H       0.781760      0.462971     -1.835909
  C       3.546975     -2.857012     -0.560444
  H       2.989573     -3.693171     -0.135194
  H       4.558974     -3.192213     -0.785445
  H       3.088595     -2.575057     -1.508604
  O       5.040126     -0.617867     -1.175618
