104
Coordinates from ORCA-job orca E -2044.684258240237
  C           0.39206356355180      0.47938847526877     -1.43483748020558
  C           0.91801310737276      0.54274273176221      0.01251573747510
  O           1.53193234959671     -0.38228721348306      0.49844981093429
  O           0.76214116012194      1.64828346103283      0.73731768649256
  C          -0.73156492242523      1.51994170216269     -1.66454299660271
  H          -1.65656455776932      1.16097459159225     -1.20560385347436
  H          -0.91082705204184      1.62323552213396     -2.74744806257886
  C          -0.21797132170899      2.68153626481858      0.46788802323079
  H          -1.16021079568338      2.31463541923564      0.91263579383226
  C          -0.41035052381791      2.86864410272329     -1.02633896674314
  H          -1.24718827072546      3.56516877507926     -1.19261295621462
  H           0.49165814595740      3.33625887493625     -1.45064803052358
  C          -0.02609850477336     -0.98575095820333     -1.75622380137793
  H           0.84236295989011     -1.60992094918583     -1.52095570272231
  H          -0.15848218479416     -1.05627704634740     -2.84832608099763
  C           1.52464269117892      0.88457419530060     -2.44541369778777
  C           2.98543788337189      0.40996598284104     -2.45142721200720
  H           1.57386964241739      1.97975149996210     -2.45122522777874
  H           1.10991710912046      0.60827702382300     -3.42936861564590
  C           3.61056756408637      2.24673270657215     -0.77371276579261
  C           3.56608684342483     -0.73761325365349     -1.63534673411658
  C           3.76840728424141      0.96751557865959     -3.40032451630861
  O           3.05534007513154      3.29738117374414     -0.88414183627094
  O           4.89304669962261      2.05653417755870     -0.54704382061953
  H           4.24558539519659     -1.29228874829636     -2.30393611156313
  H           2.78195683405042     -1.43994535222872     -1.33036965655748
  C           4.36032489603882     -0.36519570324953     -0.36467282552912
  H           3.41520263138275      1.79179948801949     -4.02761879076681
  H           4.79533669789567      0.63176551504019     -3.56697866943273
  C           5.43730266943964      0.70130463469933     -0.51966644630267
  H           4.85982239479651     -1.28457466391178     -0.01725733371617
  H           3.67732304490807     -0.06899200158666      0.44312691273817
  H           5.96039291016963      0.58546370223168     -1.48558718527242
  C           0.25891073183509      3.91406478601877      1.22301358131321
  H           1.20504375815813      4.25903263147860      0.77302200805884
  H           0.49618268935492      3.59778463557592      2.25312044715801
  C           6.46850826246389      0.70081902171123      0.60624965617629
  H           5.93798071831525      0.67733351422610      1.57510592010773
  H           7.00144517772940      1.66570046013302      0.56647481855402
  C          -3.99922182373230     -1.69009477722157     -1.59898395309221
  C          -4.17320206816710     -1.99551435117478     -0.10107680122189
  O          -3.70209308295088     -2.99534021532122      0.39026636321416
  O          -4.92389545852486     -1.19612957409849      0.66320110530191
  C          -4.93613848831021     -0.53992028277538     -2.02282673307491
  H          -5.97371423567960     -0.91365919568868     -2.08034156897087
  H          -4.66942421805193     -0.20615854254484     -3.03934426080304
  C          -5.36847519005832      0.14331201383829      0.33545718888153
  H          -6.47138252685860      0.07017369662970      0.30063913341119
  C          -4.86838087488626      0.60840389395464     -1.02586494281259
  H          -5.48916551699575      1.45445876874976     -1.35858835740913
  H          -3.83583954577759      0.97639943902819     -0.93168729321408
  C          -4.42174775882012     -2.97251148431461     -2.34603778377532
  H          -3.81093555806856     -3.83488653711287     -2.05325889502861
  H          -4.32897159942426     -2.82067678455189     -3.43361554434454
  C          -2.53009644685591     -1.28050856638078     -1.97322853243675
  C          -1.29378795524277     -1.69463740626925     -1.12964037161279
  H          -2.51368711826656     -0.19302709850954     -2.06785794963218
  H          -2.34952361194161     -1.66471766408873     -2.99085305439945
  C          -1.44940704460323     -1.18629800638703      0.30965221995273
  C          -1.05083667777762     -3.23647693906254     -1.21863530507481
  O          -2.07388922506259     -0.16974389797200      0.55188665264159
  O          -0.84606234629941     -1.82165875660582      1.29994139689012
  H          -0.22131286264933     -3.40820713005267     -1.92358255032101
  H          -1.92641728150585     -3.72061302026756     -1.66298897250728
  C          -0.74635188984016     -3.91763735885259      0.12003671546478
  C          -0.01264465797689     -2.98353350272134      1.06484304240291
  H          -0.14472224899767     -4.82431020469933     -0.04735414660202
  H          -1.68681405243192     -4.21669805439035      0.60456580100068
  H           0.92428452674995     -2.61425548966164      0.61774044030429
  C          -4.94963022416428      1.03022522213276      1.50526248105457
  H          -3.85342991674106      0.96819550286649      1.59096178034043
  H          -5.36163979406853      0.58763642728386      2.42813329630081
  C           0.28930510066333     -3.55177204655663      2.44344812948100
  H          -0.65358622331600     -3.90457559281977      2.89753596539329
  H           0.64675834695405     -2.71581423876334      3.06785149859651
  H          -5.47163281168468     -3.22414688617702     -2.12671626999786
  C          -5.39898849808199      2.48754329883742      1.38383425350021
  H          -6.49831750592372      2.53341571973989      1.26856026071865
  H          -4.97961027842406      2.93531614159190      0.46562969398004
  C           1.33168436361658     -4.67157304168439      2.43822965720979
  H           0.96120653682477     -5.53019995509603      1.85085542139697
  H           2.24222152525801     -4.31884583696800      1.91938703275797
  C          -0.76829984627854      5.04795254683092      1.25857522190469
  H          -1.73104406502645      4.65854142902480      1.63957891212962
  H          -0.97050885988141      5.40573623353115      0.23348968085245
  C           7.48254250598420     -0.44258488393989      0.52655509015640
  H           6.96086036750839     -1.41545460292010      0.55386566395421
  H           7.99666944420358     -0.40307383895144     -0.45143533028749
  C           8.51620734401770     -0.39329077183378      1.65163250217229
  H           9.24012599563989     -1.21986033838034      1.57164318428830
  H           9.08368519367939      0.55223462273159      1.63158449154981
  H           8.03300902393571     -0.46637256311684      2.64037184648673
  C          -0.31587169934404      6.22649449727614      2.12059976843480
  H           0.63172165088101      6.65035878308965      1.74792222551488
  H          -1.06474991529066      7.03475445745128      2.12775829663659
  H          -0.14828464912969      5.91530153313997      3.16542227315936
  C          -4.97229095044483      3.33081438644277      2.58597650337890
  H          -5.30438371992850      4.37688094570180      2.48761687057038
  H          -5.39192455509253      2.93198730507387      3.52466118800798
  H          -3.87439662895897      3.33532508935994      2.69430786033636
  C           1.69581124142068     -5.14510795905150      3.84548387817045
  H           0.80979528599128     -5.53002837920443      4.37788391828547
  H           2.44672726534739     -5.95119926371666      3.82052679256369
  H           2.10897803178043     -4.31973167259619      4.44928189870708
