104
Coordinates from ORCA-job orca E -2044.696964606087
  C           0.43376368392913      0.56714036782374     -1.37606404386016
  C           0.96524563367390      0.62288199797440      0.07085839231579
  O           1.75822067131588     -0.20699961295073      0.46713321552916
  O           0.57388606625402      1.57192942363777      0.90761358647537
  C          -0.69775621270740      1.59415381058189     -1.61035722602336
  H          -1.64185549216107      1.20926858822521     -1.21476132570374
  H          -0.83048429519435      1.74434544921125     -2.69450459109060
  C          -0.33786206339732      2.65626127574245      0.60225400272347
  H          -1.32375036477073      2.31575879943436      0.96396692125323
  C          -0.41038021327639      2.90929832972969     -0.89438278148097
  H          -1.21838705545808      3.63068725812410     -1.09239747535943
  H           0.53335729287706      3.36592926632122     -1.23091176399866
  C           0.01606074010485     -0.90627415332976     -1.67597223001226
  H           0.87478940659075     -1.52448581726021     -1.39710999445937
  H          -0.08292887336362     -1.00364642948984     -2.76910707261898
  C           1.57717365153539      0.96033945431976     -2.38697786359319
  C           3.07433880725408      0.66540769777491     -2.20888438728721
  H           1.52182466240588      2.04862997003621     -2.52440460352054
  H           1.27852765045359      0.52607304319387     -3.35623733480524
  C           3.56916786427641      1.84766111462531     -0.73921738194930
  C           3.56747076280609     -0.74942927636273     -1.85884417621657
  C           3.84275785537104      1.29379526383245     -3.27558073372028
  O           2.91272949113191      2.81898801739418     -0.50790079111434
  O           4.72702990779081      1.57161127773912     -0.17267578672714
  H           4.08930543527478     -1.14911079219871     -2.74508062495347
  H           2.72130218478870     -1.41913626018000     -1.67256223237830
  C           4.50759719718639     -0.81497680202899     -0.64621871486957
  H           3.51795086321453      2.24402659631160     -3.70774951286928
  H           4.82627827686927      0.91525443910792     -3.56267902175918
  C           5.45954771029352      0.36663409924614     -0.53261972799570
  H           5.10149230934760     -1.74114166613450     -0.69837555071999
  H           3.91564990128559     -0.85028169629808      0.27954225601760
  H           5.95126602078825      0.57012893650597     -1.50134589397381
  C           0.14042583790205      3.83871701358869      1.43485729413556
  H           1.14585218458532      4.12617033722636      1.08339285990503
  H           0.26044460573832      3.48473649708906      2.47289246719345
  C           6.52813234562825      0.21273516973234      0.54328453347359
  H           6.03815900658545     -0.07290759951616      1.49086481727150
  H           6.97362353248034      1.20783174242350      0.71169089402706
  C          -3.94693996666369     -1.69214534687426     -1.68362741086501
  C          -4.17817520186117     -2.00039167794370     -0.19370360343756
  O          -3.68105939572939     -2.97207492414410      0.32801150073039
  O          -5.01002922379200     -1.24066834452643      0.52545418750404
  C          -4.89867440240216     -0.57349805164996     -2.15749727176812
  H          -5.91618429317465     -0.98498690060345     -2.28005567788010
  H          -4.58386377667177     -0.22476498536065     -3.15506946975665
  C          -5.50339380822498      0.07386760930599      0.16888029726429
  H          -6.59606081888345     -0.05754445829440      0.05800523786758
  C          -4.93632650878630      0.57025543558948     -1.15437750254675
  H          -5.56848196928947      1.39354898056592     -1.52122192050532
  H          -3.92638749834176      0.97486880867025     -0.99203526550958
  C          -4.29785400529791     -2.98620742339272     -2.44829743861353
  H          -3.65910129792616     -3.82627394037765     -2.15060458071282
  H          -4.18422774139666     -2.82122422754540     -3.53207327706960
  C          -2.47337666257750     -1.24468788174897     -1.99296484062660
  C          -1.27424597550935     -1.59690308917646     -1.07411888538595
  H          -2.48335640845210     -0.15863771462044     -2.11627617751345
  H          -2.22654474562863     -1.64992618003581     -2.98828916785083
  C          -1.50262563700183     -1.02922754828712      0.33093446581481
  C          -1.00444299598491     -3.13647332566842     -1.06350439706519
  O          -2.23454806194364     -0.07780121527123      0.52522662896491
  O          -0.82513925479680     -1.54058633258299      1.34892461664007
  H          -0.19999287882317     -3.34340308903978     -1.78798678335534
  H          -1.88955132619408     -3.66625811628698     -1.42614065154805
  C          -0.64340125147787     -3.70636965078151      0.31401777557175
  C           0.05951604427629     -2.67933642481753      1.18347630584940
  H          -0.00448750175334     -4.59584244725801      0.20214321670150
  H          -1.56402164831448     -4.01263145487338      0.83247888945335
  H           0.97668625487884     -2.30376326049363      0.70427600280334
  C          -5.21769507258046      0.97640225997159      1.36589242062790
  H          -4.12694495133497      0.99265423123811      1.51827749429004
  H          -5.65244803680323      0.49641403627334      2.25918759040534
  C           0.40229761599985     -3.13557267720386      2.59356114240056
  H          -0.51320294217763     -3.51460506659428      3.08150657676591
  H           0.71371439987491     -2.23944729268102      3.15590853211498
  H          -5.34173867663193     -3.28219678005896     -2.25790173750485
  C          -5.76562454622858      2.39784449847101      1.22374222948570
  H          -6.85276477720653      2.36113438308450      1.02196390899489
  H          -5.31105377633133      2.88987762986252      0.34579362299471
  C           1.51297165397287     -4.18635375113269      2.64919323625955
  H           1.19654319776890     -5.10076534986033      2.11662785224341
  H           2.39758731718357     -3.80792219668117      2.10450941677388
  C          -0.80913581793268      5.03820287656561      1.40751760698345
  H          -1.82703399829993      4.70726733054463      1.68727682301622
  H          -0.89014146893298      5.43133009909588      0.37872667525363
  C           7.63078239653185     -0.78819762971389      0.19075335153987
  H           7.19570001265052     -1.79068475399955      0.03315184483185
  H           8.08738156011249     -0.50160162257288     -0.77454432192260
  C           8.71460731382173     -0.87320011119302      1.26548400043005
  H           9.49921145572304     -1.59633337135743      0.99148376448202
  H           9.19979922843098      0.10482389269298      1.42185940277006
  H           8.29148826706161     -1.18921811300717      2.23373206264846
  C          -0.36250819114906      6.16431219411143      2.33994530876104
  H           0.64160945624986      6.53010975331041      2.06723370820097
  H          -1.05365977107405      7.02167173508287      2.30093079674902
  H          -0.31364844856502      5.82008738805450      3.38665985640499
  C          -5.50246742085547      3.25169496141260      2.46456227353108
  H          -5.89975131077346      4.27282641860794      2.34756927422592
  H          -5.96998216608176      2.81020487802419      3.36059448723780
  H          -4.42094350279234      3.33248557735580      2.66595925148303
  C           1.91033677905757     -4.54964257271825      4.08003795876187
  H           1.05189562609845     -4.95536738469080      4.64143128470125
  H           2.70978316838638     -5.30782323365869      4.09870199854711
  H           2.27377039516067     -3.66495019031629      4.62928710509570
