104
Coordinates from ORCA-job orca E -2044.699153875508
  C           0.47167647260703      0.24288438445773     -1.12644423716910
  C           0.93728119685595      0.19166715203179      0.33694458905786
  O           1.34399643336769     -0.81624710941247      0.86431637198742
  O           1.04755477992527      1.35298007015502      1.00462243919466
  C          -0.54305209486965      1.39001026625406     -1.32848301876140
  H          -1.47848374610327      1.12980103543503     -0.82125432383496
  H          -0.75660087553845      1.49734493328079     -2.40411115679851
  C           0.23430144396528      2.52731954799888      0.74460691625745
  H          -0.72135797039100      2.34428687351978      1.26918897982508
  C          -0.04554761236658      2.70746373778161     -0.73946359851246
  H          -0.82243576354012      3.47952029458699     -0.85615001847659
  H           0.85148500109403      3.08521424414812     -1.25577924809035
  C          -0.00396509533379     -1.15187310599396     -1.59292599032582
  H           0.79578291634831     -1.84973777927809     -1.31887601423930
  H          -0.01970617965609     -1.14629716962283     -2.69512535263881
  C           1.74746021158441      0.62540833249455     -1.96867583790315
  C           2.83814886554634     -0.39160319976031     -2.21502892136720
  H           2.19190628221527      1.50608191313020     -1.48994210376809
  H           1.37972621121733      0.97277361967308     -2.94631199111655
  C           4.02668805882274      2.83446756681787     -1.62979537317048
  C           3.71500506412657     -0.85265739292557     -1.06930114847589
  C           3.03865009209216     -0.86246620621555     -3.45484881172345
  O           3.46935147667068      3.62697693090653     -2.32045111617498
  O           4.86858831384926      1.89234637065221     -2.00403233323663
  H           4.48961026932731     -1.52559327298150     -1.47385252215156
  H           3.10618903984048     -1.45104615267785     -0.37533014448708
  C           4.39774941511833      0.24109733428890     -0.23224664223896
  H           2.41078841884580     -0.55156806601967     -4.29520056708038
  H           3.84579246205399     -1.56760175208823     -3.67577336217746
  C           5.46276992409885      1.05289565862646     -0.96112800883826
  H           4.88724896815960     -0.25324691541995      0.62167936134734
  H           3.66335108644784      0.93064203012883      0.21639150897633
  H           6.10273120690734      0.37749328604745     -1.55085998521645
  C           0.96576363581731      3.68735958391891      1.40512201291271
  H           1.92377144160866      3.84429618381777      0.87750204504198
  H           1.21937784311764      3.37984694558162      2.43381787085001
  C           6.33982986956677      1.91648873108077     -0.05596460545501
  H           5.69015956567162      2.55162240833838      0.57272065430131
  H           6.91501766613620      2.60057717728125     -0.70371460019319
  C          -4.01895733901971     -1.52121789737691     -1.80491610042647
  C          -4.33304758407917     -2.00978592370990     -0.38033874022204
  O          -3.97470395856226     -3.10081752350457     -0.00095738676611
  O          -5.07790229472449     -1.26041414264842      0.43839568931396
  C          -4.83867752455590     -0.25533773046298     -2.13293006758927
  H          -5.88921758653568     -0.53694107726281     -2.32437652326267
  H          -4.46145087131833      0.19003558840356     -3.06838880846401
  C          -5.42694087980842      0.13288348709795      0.25742782426101
  H          -6.52500855266936      0.13245956605905      0.12352376504523
  C          -4.78497380441980      0.74013114352763     -0.98269129169290
  H          -5.32204320744475      1.66633466718748     -1.23914959049945
  H          -3.74380180991507      1.01520060560077     -0.75752383024796
  C          -4.46244975770757     -2.65332296825947     -2.75477879165502
  H          -3.93926743227005     -3.59351996019887     -2.54394251566485
  H          -4.26844394115427     -2.36248727157910     -3.79983611657027
  C          -2.50020057577279     -1.17672656789964     -2.00609584182697
  C          -1.37041242465853     -1.80045693303154     -1.14471356344686
  H          -2.40785431783485     -0.09232120635442     -1.92736888097569
  H          -2.25963348761623     -1.41928430150200     -3.05459184521425
  C          -1.58899259555356     -1.44460766883327      0.33319301998645
  C          -1.24144781316477     -3.33642812462851     -1.40423399420792
  O          -2.14026512893136     -0.40815583519965      0.65621092612818
  O          -1.12140867554600     -2.24495443313698      1.27729636793752
  H          -0.37920610753450     -3.49367396632244     -2.07214205324973
  H          -2.11750564292394     -3.69232361654225     -1.95486125633900
  C          -1.08432676024869     -4.19055515290837     -0.14166712423234
  C          -0.36109636447358     -3.43539583316885      0.95850660817397
  H          -0.53598565422004     -5.11528170833081     -0.37916028295268
  H          -2.07662681468003     -4.47061248639579      0.23959367897028
  H           0.63348291023558     -3.09661417321855      0.62516371223708
  C          -5.07401812559595      0.83306772591705      1.56660607782909
  H          -3.98836739524818      0.72483603161024      1.72091083067653
  H          -5.56438589637171      0.27887602961418      2.38498326759715
  C          -0.21121584258652     -4.18706396486987      2.27303487278097
  H          -1.21003215015027     -4.51845548776621      2.60819775652803
  H           0.14914413969786     -3.46318513425771      3.02319406966007
  H          -5.54181369804270     -2.84799166866334     -2.65166893214843
  C          -5.48675640224174      2.30520749919325      1.61893961981490
  H          -6.56733843141445      2.39806251936483      1.40046945665107
  H          -4.96802037979291      2.86957870724974      0.82391094522300
  C           0.74954040828433     -5.37557283981462      2.20165603419401
  H           0.37539949404976     -6.12112057375207      1.47804883947767
  H           1.72386902082591     -5.03249049945585      1.80722130063079
  C           0.16288862895846      4.98972869303623      1.43785580173356
  H          -0.82076385290796      4.79991451617745      1.90602670994495
  H          -0.04943046262279      5.32621888404224      0.40808572583416
  C           7.31038602000990      1.12368079506554      0.82394418539327
  H           6.74939225147346      0.46211102681001      1.50633913354393
  H           7.91804149893611      0.45675844289127      0.18500628583868
  C           8.23147124992114      2.02758850410632      1.64371321531303
  H           8.91957695790032      1.43834302031917      2.27033941633352
  H           8.84231083957422      2.67396703500649      0.99140116777742
  H           7.65196218757496      2.68637430033137      2.31202875914074
  C           0.88376764667455      6.10649292187293      2.19279824014126
  H           1.85715797077557      6.33617599490110      1.72780956404003
  H           0.29134047171809      7.03528676057451      2.20359784955172
  H           1.07761024414590      5.82026757005450      3.24023996981399
  C          -5.18051631438249      2.95117725608076      2.97067856791931
  H          -5.47880928421485      4.01177828253649      2.99132961012075
  H          -5.71213776912323      2.43694776007979      3.78880383744600
  H          -4.10241655587838      2.89990827827647      3.19822422690532
  C           0.95558433831891     -6.05067505907112      3.55769990646802
  H           0.00233291401134     -6.43010793632072      3.96269018692549
  H           1.65044163973054     -6.90280241810376      3.48481443670520
  H           1.36797633989348     -5.34324001847550      4.29661036151739
