104
Coordinates from ORCA-job orca E -2044.699797489434
  C           0.46918270693690      0.26643775519785     -1.10858829624092
  C           0.92167420665802      0.22696031249660      0.35960787543864
  O           1.33204430144925     -0.77526168384127      0.89541038475201
  O           1.01529064678944      1.39167288201879      1.02263263246886
  C          -0.55397207300307      1.40317109136523     -1.32493982762607
  H          -1.49171056060980      1.13551817796987     -0.82584866699726
  H          -0.75852902995653      1.50424636379205     -2.40300441460088
  C           0.19135110126953      2.55670008417242      0.75146553851621
  H          -0.76669409230307      2.36373427033352      1.26808195473554
  C          -0.07619967318851      2.72770584877011     -0.73587567753935
  H          -0.86027848213800      3.49082680823506     -0.86289892759912
  H           0.82201381930280      3.11380466887001     -1.24288557408811
  C           0.00785924185502     -1.13481838207239     -1.57104843248263
  H           0.80936928569216     -1.82550285202727     -1.28449684396212
  H           0.00398206028596     -1.13631890616207     -2.67336688950860
  C           1.74951299148947      0.65070584844396     -1.94445227498792
  C           2.84201748398586     -0.36925364773244     -2.17650865833030
  H           2.18978520444289      1.53679877651764     -1.47320361128216
  H           1.38475820318632      0.98587047040399     -2.92752476142311
  C           4.02394656857022      3.01513275573109     -1.29133714707213
  C           3.71069442996688     -0.82480852137332     -1.02278688918140
  C           3.05523735315287     -0.84380972754134     -3.41304396319955
  O           3.40011763258128      3.86477237229120     -1.84354894553989
  O           4.75380128699167      2.06592682536322     -1.84277783018088
  H           4.48408079809572     -1.50394966802419     -1.41934302333361
  H           3.09797969437033     -1.41483342889952     -0.32526522490408
  C           4.39848563745497      0.27174986239839     -0.19287914369885
  H           2.43577741817473     -0.53579979209821     -4.26071384139588
  H           3.86246995429716     -1.55224521501522     -3.62299219079464
  C           5.42128988946967      1.11794714624482     -0.94636996499014
  H           4.92142091054864     -0.22651197723519      0.63852778674214
  H           3.66584949866633      0.94154315564720      0.28822908335050
  H           5.97650474026145      0.48518932340770     -1.65667909975864
  C           0.90308369043406      3.72802582860133      1.41371910828311
  H           1.86037571898383      3.89961030675014      0.89069858421965
  H           1.15478696100056      3.42613359332350      2.44454587715274
  C           6.41315514426880      1.86772287716528     -0.05869418432056
  H           5.85360795184690      2.45384060267430      0.69226164595031
  H           6.94389115571389      2.59768707273988     -0.69415614829255
  C          -4.00159583396986     -1.53701095737959     -1.82560458779139
  C          -4.32709597506414     -2.02646626981529     -0.40387445140785
  O          -3.96388893110466     -3.11402542769174     -0.01915761789298
  O          -5.08774428243267     -1.28279316250047      0.40534717259332
  C          -4.82839872174322     -0.27863997401307     -2.16432027519358
  H          -5.87426112470702     -0.56963824306444     -2.36706402486843
  H          -4.44466859659892      0.16889633858376     -3.09610164755909
  C          -5.44765994033657      0.10694957915489      0.21831176487254
  H          -6.54396788183793      0.09596046520949      0.07101131686381
  C          -4.79646217411334      0.71860576867743     -1.01476711647773
  H          -5.33871651666719      1.63973755813664     -1.27849651904173
  H          -3.76041614036548      1.00294246848546     -0.77779986258595
  C          -4.42509273082172     -2.67389968755388     -2.77897297840911
  H          -3.89502933646238     -3.60909112687979     -2.56290102536540
  H          -4.22368533635454     -2.38167108440678     -3.82225647589035
  C          -2.48359589732628     -1.18032236277387     -2.01078881447952
  C          -1.35837662800950     -1.79152986149112     -1.13462264725874
  H          -2.40110861542735     -0.09493633069366     -1.93463623876093
  H          -2.22905255221572     -1.42432490984188     -3.05565622780363
  C          -1.59556296314179     -1.43180904377684      0.33940386519269
  C          -1.21447692010188     -3.32742368124255     -1.38623149573517
  O          -2.16022744678851     -0.39968768744748      0.65276718220443
  O          -1.12825292618747     -2.22325559827404      1.29128012501844
  H          -0.34550895720329     -3.48026984252177     -2.04640532221355
  H          -2.08312719393093     -3.69296855825903     -1.94215234588127
  C          -1.06064122046887     -4.17461252636047     -0.11862180882954
  C          -0.35451290724617     -3.40833915305845      0.98497843615098
  H          -0.50200030263088     -5.09532017145639     -0.34762612139180
  H          -2.05375795672443     -4.46235522009411      0.25472057629677
  H           0.64028077144961     -3.06231641258176      0.65981542255928
  C          -5.11759291046899      0.81172635941120      1.53092900757696
  H          -4.03295513384287      0.71401216306078      1.69889174543662
  H          -5.61293387335167      0.25367529416626      2.34367545855457
  C          -0.21120918166738     -4.15290507294252      2.30433414137244
  H          -1.21104609867118     -4.48797175977362      2.63272653906356
  H           0.13892696233709     -3.42342904898011      3.05390709000897
  H          -5.50351387453678     -2.87880115690375     -2.68633518460759
  C          -5.54461154971567      2.27992301900671      1.57667608783034
  H          -6.62245646079763      2.36303995357748      1.34132597439109
  H          -5.01856565184318      2.84908692879582      0.78991819322659
  C           0.75616990299618     -5.33682177094920      2.24709618779363
  H           0.39132870824142     -6.08840476004581      1.52501477108631
  H           1.73187042064686     -4.99125262586107      1.85830700433898
  C           0.08094650952087      5.01853111211176      1.43935596719884
  H          -0.90135834604986      4.81699841848631      1.90552175941026
  H          -0.13262468325863      5.34804980765379      0.40760131819582
  C           7.43879595776854      0.96719018558678      0.63530311762747
  H           6.92466371902278      0.25169005004728      1.29994624202845
  H           7.95924123558014      0.35564541443143     -0.12457153062358
  C           8.46396578781241      1.76077604393320      1.44560543288099
  H           9.19029098397005      1.09477421319032      1.93769379665642
  H           9.02914100145938      2.45711699528800      0.80373033633128
  H           7.97394496570235      2.35973112806648      2.23139056340058
  C           0.78458415586420      6.14824986795006      2.19130619419482
  H           1.75577149374214      6.38855926554245      1.72726672359828
  H           0.17957224955080      7.06898892445000      2.19678735498317
  H           0.97979738191267      5.86906652459403      3.24041900096885
  C          -5.26561743302177      2.92818384371937      2.93320873194045
  H          -5.57230551856911      3.98646028000180      2.94889148916456
  H          -5.80674489444090      2.40978700382667      3.74242832891172
  H          -4.19109997583873      2.88503034022836      3.17848767995658
  C           0.95509550217896     -6.00300845137809      3.60861758623578
  H           0.00075595865153     -6.38548233262794      4.00813788869458
  H           1.65530203406204     -6.85158004821721      3.54622750999247
  H           1.35747211659209     -5.28896227341893      4.34667921698674
