104
Coordinates from ORCA-job orca E -2044.684907052395
  C           0.42841299459790      0.55277909895001     -1.39019587036486
  C           0.95475380038825      0.61166315298014      0.05826457496765
  O           1.71170590284412     -0.24087043052838      0.47435713807264
  O           0.60284028101485      1.59405937902064      0.87519157936844
  C          -0.70177888735731      1.58174016919121     -1.62683047559087
  H          -1.64290677748423      1.20213392719287     -1.21945321661463
  H          -0.84241294316143      1.72065546501053     -2.71147534544321
  C          -0.31924979800509      2.66915439734099      0.56954102173324
  H          -1.29913709205480      2.32527237275304      0.94457074147255
  C          -0.40912936552983      2.90540883342376     -0.92838854223002
  H          -1.22148785209582      3.62207195292542     -1.12591354941798
  H           0.52875203025119      3.36301765818007     -1.27974884705964
  C           0.01120807743952     -0.92012674784834     -1.69111861661137
  H           0.87178726595429     -1.53810594512103     -1.41692894434728
  H          -0.09242207347826     -1.01576633985073     -2.78404884667464
  C           1.56397746327234      0.94762462741883     -2.40699855806675
  C           3.05363093304290      0.59714796989925     -2.30899321042770
  H           1.54032771262345      2.04089411047727     -2.50686562418926
  H           1.21533587130687      0.55928820988659     -3.37932203851604
  C           3.57945123059842      1.93113294148785     -0.70026011272963
  C           3.57859223839097     -0.75830981565268     -1.82402518662693
  C           3.83044447373168      1.23175340813664     -3.29457974250464
  O           2.93907715525922      2.92420676264225     -0.53338120795218
  O           4.77652507841303      1.69312345517245     -0.20420289175449
  H           4.15630245423456     -1.19966688276491     -2.65377493078748
  H           2.74916839790861     -1.44645569012809     -1.62578384225842
  C           4.46951411320493     -0.71719661005204     -0.57071143907619
  H           3.48876347428828      2.15186162281688     -3.77632187014531
  H           4.83814871648576      0.88531088113291     -3.53479604906977
  C           5.45624453678389      0.44076412705489     -0.51225040106879
  H           5.04070734555969     -1.65797365683651     -0.51839419663641
  H           3.84094550898759     -0.66499645310527      0.32895463481614
  H           5.95030375637728      0.58816720792292     -1.48953338368478
  C           0.15696721633185      3.86307068820422      1.38650383177520
  H           1.15429645073237      4.15991204591631      1.02053462531696
  H           0.29369012506928      3.51838691216026      2.42562587535311
  C           6.52423961854575      0.29312169325491      0.56610209653911
  H           6.03118760477921      0.04284917893647      1.52220665370295
  H           6.99089347971140      1.28273865278814      0.70689038910705
  C          -3.95493032703653     -1.68999926069626     -1.66979483487168
  C          -4.17499299170462     -2.00090512346765     -0.17881866424283
  O          -3.68075847197928     -2.97810233530873      0.33521939354816
  O          -4.99306722652453     -1.23625042812391      0.55079611841752
  C          -4.90446504397849     -0.56457505144361     -2.13179138639548
  H          -5.92577249705657     -0.96945027740446     -2.24432512874120
  H          -4.59791217933646     -0.21589918374135     -3.13194352129612
  C          -5.48026692986311      0.08278219954116      0.20231552448133
  H          -6.57503659205626     -0.04011736494421      0.10329944548980
  C          -4.92421046601636      0.57755755239843     -1.12619614070042
  H          -5.55474400493157      1.40567257234930     -1.48487572036502
  H          -3.91000695532338      0.97540559058120     -0.97422410437895
  C          -4.31968465938944     -2.98024295257658     -2.43431765709604
  H          -3.68490691259835     -3.82502360158496     -2.14142739212246
  H          -4.21185315551674     -2.81448143442862     -3.51855554316399
  C          -2.48155122992609     -1.24966939370595     -1.99074124363754
  C          -1.27550624864513     -1.61312024162462     -1.08477920957066
  H          -2.48684186356096     -0.16329004279619     -2.10926061235165
  H          -2.24636878496849     -1.65170652104475     -2.99015944178548
  C          -1.49072369648115     -1.05544714040149      0.32674326409990
  C          -1.01012092952984     -3.15355168294653     -1.09220127905135
  O          -2.20570367928467     -0.09261476284844      0.52969674183374
  O          -0.82621852222412     -1.59005284765360      1.34052080676491
  H          -0.20294146197724     -3.35370688003115     -1.81552455599059
  H          -1.89456424927388     -3.67616470239748     -1.46723656775107
  C          -0.65618026774457     -3.74380227783106      0.27834526801053
  C           0.05079586797792     -2.73234192861774      1.16238983866708
  H          -0.02183898383848     -4.63512799933094      0.15569283752041
  H          -1.57942802348148     -4.05171925460429      0.79080338182268
  H           0.97106528937550     -2.35585742379718      0.68962622615212
  C          -5.17406264619202      0.98046772590179      1.39792334648522
  H          -4.08168601899453      0.98625836320056      1.53899893917348
  H          -5.60393987204528      0.50283035302960      2.29483622613538
  C           0.38688410029033     -3.20932662065186      2.56723715671372
  H          -0.53320639093354     -3.58548894274181      3.04869942045389
  H           0.70568050731296     -2.32336975744314      3.14148162932793
  H          -5.36434129884624     -3.26937593079713     -2.23764323213211
  C          -5.70995833657212      2.40725265003854      1.26412601864812
  H          -6.79950164317094      2.38138192346743      1.07394842488517
  H          -5.26012709937573      2.89659460089697      0.38223181122298
  C           1.48705228437506     -4.27159959328448      2.61188324339043
  H           1.16178872941795     -5.17684490818241      2.06916153229633
  H           2.37582969900078     -3.89624688347951      2.07181914693542
  C          -0.80651717190994      5.05151814814940      1.36217233118665
  H          -1.81707394733549      4.71136163529255      1.65703303075428
  H          -0.90469046882062      5.43598135268898      0.33157590291783
  C           7.60549148089433     -0.73891122200465      0.23809404662600
  H           7.14877527488638     -1.73433400504264      0.09746149337728
  H           8.07210730233964     -0.48124030145263     -0.73053852825722
  C           8.68293433152482     -0.82765232296414      1.31885281447050
  H           9.45315110990866     -1.57185947990145      1.06091335946599
  H           9.18813998955446      0.14251324076905      1.46004726437208
  H           8.24950461209595     -1.11760067036144      2.29068927287086
  C          -0.36110331178822      6.18957650827732      2.28056646491187
  H           0.63538465522922      6.56451839412024      1.99270192252928
  H          -1.06231660174931      7.03880793121379      2.24379244343055
  H          -0.29546518836592      5.85382251963930      3.32911943942989
  C          -5.42533325806128      3.25620778680263      2.50356931995638
  H          -5.81425717245636      4.28124419658937      2.39279178515505
  H          -5.88721197148056      2.81738610561869      3.40382516801078
  H          -4.34098803131920      3.32645520038383      2.69345716388815
  C           1.87989153220934     -4.65476329266471      4.03878848661635
  H           1.01703322108828     -5.05793287807502      4.59521624642059
  H           2.67154538025537     -5.42123623199553      4.04935648768565
  H           2.25206089696531     -3.78005572694543      4.59811835497374
