104
Coordinates from ORCA-job orca E -2044.705437176430
  C           0.43148054946632      0.56739680094140     -1.37798765141765
  C           0.96119871721549      0.62181402937945      0.06971316141588
  O           1.76192577619533     -0.20279408041484      0.46219897213278
  O           0.56004964169221      1.56303415973652      0.90995200164057
  C          -0.69796739967423      1.59577127339443     -1.61383936407127
  H          -1.64370818735540      1.21203329211116     -1.22089785260699
  H          -0.82803918908062      1.74726680555916     -2.69815642573452
  C          -0.34253235586972      2.65432062893320      0.60140745762314
  H          -1.33188720408101      2.32104301502805      0.96019967847807
  C          -0.40882503865967      2.90908527426339     -0.89548024194030
  H          -1.21359927891993      3.63360092901695     -1.09519775516899
  H           0.53799580878159      3.36168066801984     -1.22849056846381
  C           0.01051069133127     -0.90514375576644     -1.67862519298543
  H           0.86876198601556     -1.52533900087952     -1.40283486580426
  H          -0.09088629544802     -1.00064138606501     -2.77170322000919
  C           1.58116313050979      0.95633415988962     -2.38517525224332
  C           3.08145224881805      0.68712957126928     -2.16827259360312
  H           1.51070074965751      2.04032973877104     -2.54565341262129
  H           1.30860676140301      0.49576279537693     -3.34946993290873
  C           3.55264902646470      1.81064483756851     -0.77940857250472
  C           3.56155919512675     -0.74505957791287     -1.85738510697441
  C           3.84884733288438      1.30743257138312     -3.26322697719968
  O           2.89325330366039      2.77945204444411     -0.53448790699309
  O           4.70701610715939      1.54280896660291     -0.19507807091507
  H           4.06055599246611     -1.13514331204092     -2.76069147582142
  H           2.70893024820722     -1.40473010623414     -1.66757629987016
  C           4.51965287653850     -0.84022884455249     -0.66247357168028
  H           3.53686251233633      2.26947066600953     -3.67844361583888
  H           4.81665328395700      0.90716432597238     -3.57332414053244
  C           5.45964773900251      0.34932755903050     -0.54163083505992
  H           5.11862337194964     -1.76072756233422     -0.74428477426658
  H           3.94176612400491     -0.89813427750371      0.27127264491096
  H           5.96024156965256      0.55251195471113     -1.50631429480995
  C           0.14243556307315      3.83304565142490      1.43558924112449
  H           1.15131954844799      4.11200447446725      1.08711944560104
  H           0.25628412144678      3.47825671496944      2.47404006770624
  C           6.51812526848864      0.21180665460126      0.54616023901327
  H           6.01840347296567     -0.05948056746023      1.49284038243843
  H           6.96116934871091      1.20972355677233      0.70416613484123
  C          -3.95290573450294     -1.69058925002320     -1.68153441856679
  C          -4.18310954211370     -1.99909009983897     -0.19146636167483
  O          -3.68463884757660     -2.97010948460184      0.33020789027630
  O          -5.01539093560866     -1.24014449016238      0.52799192505800
  C          -4.90579331900915     -0.57258705256557     -2.15471713862502
  H          -5.92306474432767     -0.98486809626043     -2.27663173624497
  H          -4.59190250107820     -0.22364533763155     -3.15250426868139
  C          -5.50954696720011      0.07428722712021      0.17200266265210
  H          -6.60224774967490     -0.05755492774680      0.06199952398916
  C          -4.94371531553194      0.57113787055650     -1.15162111939790
  H          -5.57679775135269      1.39389020077797     -1.51808065641330
  H          -3.93402343598762      0.97651204175373     -0.98994495160137
  C          -4.30370351933188     -2.98467732896744     -2.44624646005663
  H          -3.66349904894177     -3.82426295572367     -2.15027798780897
  H          -4.19209005607536     -2.81894736007473     -3.53012560230905
  C          -2.47971360491354     -1.24252499385539     -1.99215510275568
  C          -1.27938483902421     -1.59521334276081     -1.07505386063208
  H          -2.49001056861406     -0.15633499841520     -2.11475133090818
  H          -2.23398114201333     -1.64697920030863     -2.98807348239357
  C          -1.50553859590158     -1.02863292149340      0.33078255495371
  C          -1.00986567297701     -3.13483779187506     -1.06523754261466
  O          -2.24045751785805     -0.08025783754064      0.52809213742967
  O          -0.82255517386452     -1.53827373474630      1.34610591735567
  H          -0.20973839542939     -3.34223659939192     -1.79437613351703
  H          -1.89732323314279     -3.66459163498516     -1.42197096536979
  C          -0.64086584792790     -3.70369110268860      0.31069261015544
  C           0.06410160502696     -2.67495315010716      1.17651843092675
  H          -0.00079123348213     -4.59198596894943      0.19608686567735
  H          -1.55838254355822     -4.01164859094510      0.83366426098839
  H           0.97800939668334     -2.29741281943468      0.69278535243411
  C          -5.22310704189089      0.97659971967997      1.36897000553536
  H          -4.13225493183834      0.99292487128407      1.52048855659681
  H          -5.65713470498430      0.49640987619552      2.26251318282145
  C           0.41556463562488     -3.13005378036922      2.58478913664456
  H          -0.49587760869414     -3.51287484940381      3.07735205578154
  H           0.72637210175270     -2.23278332034761      3.14562734809436
  H          -5.34694611964904     -3.28189923367230     -2.25427632625163
  C          -5.77105495802454      2.39807264620362      1.22756093022127
  H          -6.85859097923206      2.36162041784928      1.02786474661173
  H          -5.31798279457441      2.88984660845910      0.34869556436784
  C           1.53083207040627     -4.17628630435514      2.63427000333781
  H           1.21558294083076     -5.09168311269113      2.10267220177306
  H           2.41107792541559     -3.79373605609288      2.08540656856383
  C          -0.79744916567999      5.04004457664114      1.40505265675657
  H          -1.81892145801692      4.71707339731038      1.68114067120715
  H          -0.87169274830909      5.43392601518257      0.37604341372847
  C           7.62463060867303     -0.79384178366933      0.22049091017331
  H           7.19229499669304     -1.79998852405999      0.07973857777789
  H           8.08778378341384     -0.52562741592451     -0.74702457889460
  C           8.70111728996430     -0.85581592032247      1.30416662379915
  H           9.48881176847952     -1.58288239211121      1.05011815404877
  H           9.18359975200798      0.12596522978447      1.44457983330778
  H           8.27165890915165     -1.15327468732416      2.27549429020801
  C          -0.34533333869442      6.16242029709752      2.33932960492281
  H           0.66257407894418      6.52042386001741      2.07029370139580
  H          -1.02961614654913      7.02518137398238      2.29811200032773
  H          -0.30286935728771      5.81757037767800      3.38612059582542
  C          -5.50505966965911      3.25195575435734      2.46772490551564
  H          -5.90224749978756      4.27321320128127      2.35150085535738
  H          -5.97081326078511      2.81067548098065      3.36478120666619
  H          -4.42305613680736      3.33231374240379      2.66676705587473
  C           1.93693091895272     -4.53878027998872      4.06285215437198
  H           1.08304511331725     -4.94839862868981      4.62834980164034
  H           2.73960642063993     -5.29364271745243      4.07698943032310
  H           2.29946432296497     -3.65289535751146      4.61076369436228
