104
Coordinates from ORCA-job orca E -2044.683299810611
  C           0.39451498859721      0.48578349761191     -1.43901975892721
  C           0.92374994568981      0.54814896108622      0.00735958852488
  O           1.55394360460438     -0.37184106589764      0.48275460857193
  O           0.74430863332171      1.63953495027244      0.74590496519453
  C          -0.73105892578141      1.52379603245786     -1.66768126744117
  H          -1.65702229275138      1.16194330940867     -1.21298146864089
  H          -0.90770403168674      1.63086516360674     -2.75071714347452
  C          -0.22995097783760      2.67703439518812      0.47187664606272
  H          -1.17623115611341      2.31195296163274      0.90932941533375
  C          -0.41186296570381      2.86964124492247     -1.02312729824380
  H          -1.24591060570362      3.56874290808592     -1.19234836801981
  H           0.49472940288503      3.33487715863910     -1.43995774908518
  C          -0.02446677160657     -0.98111959139843     -1.75514080577727
  H           0.84416871972063     -1.60410801544055     -1.51765810300095
  H          -0.15768908787084     -1.05574812257166     -2.84679419698104
  C           1.52370346985200      0.88809862441834     -2.45639892425121
  C           2.99637787453777      0.45635643630427     -2.43707837860503
  H           1.54497364251374      1.98362927399727     -2.49784778382505
  H           1.12464775335114      0.56891900450063     -3.43398530301532
  C           3.58424490326435      2.18218089797999     -0.78182960238333
  C           3.57195721555570     -0.73369008541190     -1.67751820521072
  C           3.78116286020683      1.04606648762648     -3.37165756747692
  O           3.01264024918044      3.22741909172079     -0.86010621990957
  O           4.85927521406411      2.01045378507482     -0.49566881566393
  H           4.23949526386136     -1.26605483425320     -2.37563686711700
  H           2.78168838404456     -1.43964386878538     -1.39779750958219
  C           4.37696662378455     -0.42043685061700     -0.39910352984455
  H           3.42690977697478      1.89181684220876     -3.96855327915187
  H           4.81083743951174      0.72190113434556     -3.54312884837431
  C           5.43465008864693      0.66959392012758     -0.51320888948427
  H           4.89201698102628     -1.34894468322487     -0.10253822340078
  H           3.69785993700324     -0.16906631089379      0.42704010201605
  H           5.96569891217271      0.59490797736505     -1.47916567769828
  C           0.24635487558840      3.90559273546788      1.23403795983014
  H           1.19819555610422      4.24660001780424      0.79321758698351
  H           0.47313198309620      3.58575305949845      2.26540833479661
  C           6.45912190505778      0.65242828940052      0.61829653949221
  H           5.92353568010066      0.58672114516983      1.58231375361608
  H           6.97282869247123      1.62851457029228      0.61359260169587
  C          -3.99665068661374     -1.69175826355614     -1.59906556483848
  C          -4.17144524732708     -1.99347048394243     -0.10046029059620
  O          -3.69712463905566     -2.99000687042578      0.39449999352986
  O          -4.92682980976702     -1.19508511080820      0.66020038101787
  C          -4.93552652989482     -0.54474017402325     -2.02723194201072
  H          -5.97208704943144     -0.92109464701007     -2.08599961367784
  H          -4.66762161247762     -0.21259242858125     -3.04396515973706
  C          -5.37484722866756      0.14223414702344      0.32839947645064
  H          -6.47741862247072      0.06551068541247      0.29073372131094
  C          -4.87256610271513      0.60586682140314     -1.03260748674795
  H          -5.49452868824760      1.44981015094088     -1.36847950716319
  H          -3.84101489554320      0.97615406332677     -0.93674818461014
  C          -4.41601849051494     -2.97698615474282     -2.34313775212000
  H          -3.80331676787356     -3.83734216157006     -2.04838331644072
  H          -4.32332190998554     -2.82744058461540     -3.43105059095997
  C          -2.52787273558046     -1.28053646669029     -1.97311078850385
  C          -1.29198498995718     -1.68813348835945     -1.12591191366119
  H          -2.51360680034745     -0.19336936762294     -2.07260780803923
  H          -2.34495737100287     -1.66890029319722     -2.98874300767583
  C          -1.45000083433243     -1.17298078484991      0.31055198805290
  C          -1.04641640736065     -3.23004782977611     -1.20587419830011
  O          -2.08250640428354     -0.16052121281721      0.54861007629523
  O          -0.83931576821162     -1.79813176860615      1.30307286266220
  H          -0.21919242105819     -3.40477822724647     -1.91280285669282
  H          -1.92279899955512     -3.71876658322248     -1.64338719157992
  C          -0.73630925901395     -3.90146338871639      0.13646654481734
  C          -0.00297702939958     -2.95931045939464      1.07360838824512
  H          -0.13255175223201     -4.80755312253624     -0.02628348122679
  H          -1.67487056465387     -4.19999601916485      0.62505897011538
  H           0.93202214404167     -2.59038664365878      0.62241636621440
  C          -4.96214605049647      1.03295035804628      1.49747331298099
  H          -3.86597079695172      0.97496041888984      1.58624849555907
  H          -5.37514619591415      0.59080421923757      2.42011527128784
  C           0.30349085956311     -3.51778969754163      2.45516987400249
  H          -0.63720101859325     -3.87107559296852      2.91344483123938
  H           0.65938331293399     -2.67667481956163      3.07349680576203
  H          -5.46539092648519     -3.23050810867454     -2.12353923072014
  C          -5.41625505265801      2.48842135831398      1.37185296123961
  H          -6.51534452407890      2.53017052985443      1.25274605741506
  H          -4.99530565705247      2.93598962857654      0.45426934311510
  C           1.34987393609208     -4.63386083966838      2.45481082356280
  H           0.98161591622030     -5.49724933156685      1.87303283000933
  H           2.25830013549493     -4.28081236938219      1.93250997996107
  C          -0.77534096944402      5.04457969266825      1.26341349775757
  H          -1.74365570868078      4.65916083769391      1.63426125418609
  H          -0.96606878959479      5.40644335303359      0.23756171065914
  C           7.49589388383746     -0.46777725788370      0.50775756275377
  H           6.99304545929522     -1.45086377673049      0.49824588167477
  H           8.01604086535404     -0.38531558451946     -0.46436002914431
  C           8.52044934496000     -0.43684751575058      1.64176986708797
  H           9.26089282910992     -1.24616496391884      1.53959069629006
  H           9.06953846771333      0.51954925136057      1.65812424125627
  H           8.03175326266672     -0.55258740036318      2.62370531763642
  C          -0.32485091066707      6.21826440709426      2.13307276970253
  H           0.62846928150790      6.63805500770426      1.77053535821516
  H          -1.06943140411562      7.03052466795993      2.13552199547926
  H          -0.16873762570377      5.90323764966625      3.17852166165183
  C          -4.99673325471068      3.33529884477566      2.57397295424876
  H          -5.33190281718688      4.38008233953046      2.47250612643950
  H          -5.41852175954736      2.93677472793005      3.51182234144944
  H          -3.89928008016101      3.34356510788884      2.68636221423929
  C           1.71791023867039     -5.09787635534354      3.86421039237136
  H           0.83410392171695     -5.48274494958118      4.40031539540094
  H           2.47156118039796     -5.90151487452477      3.84272524758037
  H           2.12923435830646     -4.26759274293771      4.46251175598708
