104
Coordinates from ORCA-job orca E -2044.698142111817
  C           0.50894752456353      0.19367406978416     -1.18077749856730
  C           0.98556900050833      0.10661358234057      0.28019843743470
  O           1.43529645800084     -0.90694312826531      0.75999476716771
  O           1.04842791112594      1.23871560121457      1.00194049548610
  C          -0.48682273177612      1.35902939575969     -1.37496799229749
  H          -1.44585445605281      1.08731350040850     -0.92410669552739
  H          -0.64943426945215      1.51810068759584     -2.45292126306290
  C           0.16118688962436      2.36675667336420      0.79170883670318
  H          -0.81102254258469      2.06883822130308      1.22382219710216
  C          -0.02257069767595      2.64171248775901     -0.69125376867884
  H          -0.78593903819833      3.42559308517698     -0.81799279813031
  H           0.91205847269727      3.03707422762761     -1.12345975939456
  C           0.00079933193501     -1.18799786427678     -1.65661832159351
  H           0.79778182696955     -1.90042002091408     -1.41490326562449
  H          -0.04819566726891     -1.16596763041755     -2.75763252867012
  C           1.78528365933128      0.56192988436074     -2.03187032918518
  C           2.85866601228509     -0.47306814908229     -2.29182573377119
  H           2.24618660866195      1.44349234341977     -1.56424472069461
  H           1.41227111297208      0.90899147175241     -3.00713125686983
  C           4.27477624762754      2.48819797647897     -2.27335999078331
  C           3.77564870864723     -0.90959442248414     -1.16674630063137
  C           3.00353547489308     -0.97996498986889     -3.52477227099802
  O           3.81268644107161      3.08538551072645     -3.19096715173637
  O           5.16933995600990      1.51895493154570     -2.31514337726606
  H           4.55233065478078     -1.57248537383567     -1.58352742667594
  H           3.19058247582380     -1.51258194887236     -0.45736968890700
  C           4.45197401723949      0.20494088978326     -0.35087945633324
  H           2.34420722645860     -0.68651430677883     -4.34699158827961
  H           3.79748563314083     -1.69550378784437     -3.75922324977321
  C           5.60034298627212      0.92084820343220     -1.05314359682286
  H           4.86768708988134     -0.25129550190124      0.56126592493567
  H           3.71803112515242      0.94632654143716      0.00591038038230
  H           6.33299706553456      0.17302112868127     -1.39662689018733
  C           0.74398374950738      3.51418721425285      1.60349095412537
  H           1.71066294846930      3.81224231099356      1.15863767474259
  H           0.96987570570038      3.12596761443348      2.61106988933906
  C           6.31321265538059      1.97486692147093     -0.20789588272627
  H           5.57230968861588      2.72437134637374      0.12385172772491
  H           7.02166087452553      2.50640802701998     -0.86676188299983
  C          -4.02501047475693     -1.48101958280743     -1.74760371956261
  C          -4.30859820459278     -1.89833692836564     -0.29454455528809
  O          -3.97237220459870     -2.98362226821160      0.11977043428394
  O          -5.01009533119337     -1.09233972586835      0.50938365980773
  C          -4.82044545666884     -0.20713705844522     -2.10223516297691
  H          -5.88580661997741     -0.46465996044812     -2.23720793107694
  H          -4.47058498418712      0.18413275814433     -3.07195418852180
  C          -5.28934590849579      0.31250161295890      0.29351313756323
  H          -6.39127263629347      0.36868205304815      0.22038617618125
  C          -4.68782637535129      0.83815822679193     -1.00382470216562
  H          -5.20821251847639      1.76780482059329     -1.28100390171366
  H          -3.62988380926752      1.09301396311210     -0.84168464801726
  C          -4.53080792044738     -2.64067657159580     -2.63053347964604
  H          -4.02971095917910     -3.58536588428215     -2.38863502578187
  H          -4.35914217842161     -2.40510636251436     -3.69321216761761
  C          -2.50529563631321     -1.19042473451149     -2.01296845149716
  C          -1.36292541680007     -1.81969440296735     -1.17094523018389
  H          -2.37718803265481     -0.10725591905534     -1.98095491278454
  H          -2.30999871302157     -1.47820290818505     -3.05935974460707
  C          -1.53580461615522     -1.44633156844418      0.30768555525213
  C          -1.26413376931467     -3.36012744214162     -1.41842239848139
  O          -2.04494811491239     -0.38810212124179      0.63157000917316
  O          -1.06826618106432     -2.24728172914340      1.24978950394287
  H          -0.40266558967253     -3.54109312151855     -2.08115985397614
  H          -2.14442792313840     -3.70246017599239     -1.97245169958261
  C          -1.12724140049314     -4.20674692172763     -0.14927282142537
  C          -0.35743561430684     -3.46836237609859      0.93032924474846
  H          -0.61954928308618     -5.15514682961816     -0.38357935864530
  H          -2.12442514177695     -4.44201107077555      0.24923339665752
  H           0.64217104966246     -3.16839877132645      0.57492044766428
  C          -4.81924279590777      1.03884905387135      1.55150002762184
  H          -3.74299365064803      0.83532354442949      1.66532017069700
  H          -5.31977865675588      0.57308979562605      2.41742585807741
  C          -0.21141084075313     -4.21111498697673      2.25028280188713
  H          -1.21499114751104     -4.50701461048783      2.60390229117665
  H           0.18312586562772     -3.49146878611666      2.98720684289338
  H          -5.61189947228534     -2.79644087169315     -2.48732753708105
  C          -5.08482338111956      2.54561956549851      1.54753107818832
  H          -6.16564322380434      2.73749412462239      1.41047398137279
  H          -4.58223559240963      3.01336587080638      0.68267523160953
  C           0.71025494038528     -5.43005727309059      2.17749398483014
  H           0.30389808007255     -6.16955668455673      1.46508559143310
  H           1.68992031171131     -5.12140705512795      1.76827493767136
  C          -0.18543342037557      4.72537317020470      1.71363345036197
  H          -1.17227844067296      4.39324381724724      2.08618635171867
  H          -0.36761537484248      5.15278570996540      0.71201203941870
  C           7.06806072972369      1.41451898308877      1.00063672484054
  H           6.35934047502829      0.93911687236506      1.70003402663017
  H           7.75002494768774      0.61160207703020      0.66474412218005
  C           7.86521071066330      2.48711954385016      1.74304267511364
  H           8.39803582241475      2.06461198685576      2.60961609510474
  H           8.61513600491479      2.95680713094976      1.08473144228985
  H           7.20494296106502      3.28814928817129      2.11573191835418
  C           0.36841330501966      5.81380220267108      2.63280804298987
  H           1.34093252356930      6.18671973585684      2.26956582532052
  H          -0.31573337125311      6.67488744256068      2.69767860765342
  H           0.52332484465945      5.43134990320675      3.65562650105459
  C          -4.59951369506937      3.22502020764208      2.82867157070937
  H          -4.79471983690977      4.30942771625376      2.81354755061521
  H          -5.09832367492207      2.80623974174456      3.71865070269882
  H          -3.51409455244394      3.07956868670506      2.96387924089506
  C           0.91170415980480     -6.09966335543426      3.53697002986128
  H          -0.04789972465210     -6.44520086450594      3.95700710965781
  H           1.57834587269682     -6.97393616780410      3.46320209314056
  H           1.35565313184824     -5.39945123874695      4.26440440833489
