104
Coordinates from ORCA-job orca E -2044.700008452367
  C           0.47124813546925      0.30289999518933     -1.10325646617253
  C           0.91774878735017      0.27806115785519      0.36780408549321
  O           1.34367948904842     -0.71529107007562      0.90859392731010
  O           0.98815290372438      1.44591805394550      1.02681232731105
  C          -0.56170248036120      1.42778069878674     -1.33449690698788
  H          -1.50245502782593      1.15147667383310     -0.84624484448435
  H          -0.75477500039997      1.52341176325389     -2.41523256970965
  C           0.13885763808326      2.59195009836447      0.74946124026971
  H          -0.82191285539260      2.37208988269247      1.24987083853710
  C          -0.10711600591940      2.75867509376099     -0.74180320573543
  H          -0.89643584992925      3.51376760461327     -0.88357140555693
  H           0.79696101908185      3.15224826870083     -1.23220467514028
  C           0.02417415736323     -1.10554230985973     -1.55901800992103
  H           0.82894785201778     -1.78854527167744     -1.26355830700120
  H           0.02678621401002     -1.11435505911326     -2.66129789894725
  C           1.75333490747388      0.69296012487082     -1.93424303049095
  C           2.84466740954942     -0.32733710287393     -2.17486877612518
  H           2.19413240880312      1.57767226574586     -1.46138604450289
  H           1.38945438821357      1.03195724981983     -2.91632810489653
  C           4.04064922170739      3.06806946806014     -0.97367490643852
  C           3.69335575306405     -0.82834048365825     -1.02511111764067
  C           3.07614493728785     -0.76430696820283     -3.42233255207194
  O           3.36722120220060      3.95647167856272     -1.39090260205005
  O           4.69189392054814      2.15777346498915     -1.66963241118616
  H           4.45296696580645     -1.51581225000268     -1.43371542272554
  H           3.06422588277813     -1.41816641218952     -0.34233839857117
  C           4.40457113694838      0.23260349967254     -0.16935119672524
  H           2.47312940423372     -0.42603561787931     -4.27036155548577
  H           3.88142300437564     -1.47251492936804     -3.64058251262782
  C           5.39982391628458      1.11688666483665     -0.91835209632289
  H           4.94972730849744     -0.29965379451672      0.62609343493758
  H           3.68480871228794      0.88008794801737      0.35951975641465
  H           5.88082563417169      0.54220140373736     -1.72534272535227
  C           0.81005256320277      3.77909396490951      1.42577282651045
  H           1.75962507572351      3.99100342872811      0.90535326086795
  H           1.06957082568497      3.47426028604928      2.45377934548445
  C           6.47645578833429      1.75358670861743     -0.04189029654909
  H           5.99516196175898      2.24989234925493      0.81969123318553
  H           6.96301487762696      2.54970543729452     -0.63151915636445
  C          -3.97960513650712     -1.55002859329269     -1.83812488635233
  C          -4.30856982110068     -2.03550204709469     -0.41577041634808
  O          -3.93275869005688     -3.11542800571942     -0.02168067026147
  O          -5.08391855858173     -1.29698081757736      0.38413047899526
  C          -4.81732238519336     -0.30233623714755     -2.18903592225345
  H          -5.85835319913904     -0.60564531390534     -2.39858617981020
  H          -4.43125720872439      0.14507090699016     -3.11991576404013
  C          -5.46156443895434      0.08651195488229      0.18559482760824
  H          -6.55593086416725      0.05941191080181      0.02625046424514
  C          -4.80562932303553      0.70027851765220     -1.04376248692848
  H          -5.35529307867774      1.61446109405385     -1.31615894093825
  H          -3.77472432580498      0.99601220523405     -0.79859346573053
  C          -4.38544596677221     -2.69622646047915     -2.78819047030570
  H          -3.84378244085356     -3.62374437867805     -2.56754237681842
  H          -4.18442992999378     -2.40523014327894     -3.83192015408801
  C          -2.46390873503039     -1.17955754711668     -2.01634566692439
  C          -1.33926194493921     -1.77078872369516     -1.12602316203633
  H          -2.39284703343139     -0.09257444192685     -1.95127563025138
  H          -2.19922380201247     -1.43179344456935     -3.05673705954430
  C          -1.59005248152550     -1.40008499069967      0.34287924197565
  C          -1.18014983032365     -3.30764514089342     -1.36146848446064
  O          -2.17221697543827     -0.37410773279726      0.64389759254559
  O          -1.11499785174196     -2.17528464151239      1.30444933672368
  H          -0.31164939398468     -3.45841859097339     -2.02278835400223
  H          -2.04713729998868     -3.68760582569021     -1.91000991428947
  C          -1.01561417054687     -4.13973270033521     -0.08494976951089
  C          -0.32360357994965     -3.35244999085859      1.01272745127583
  H          -0.44314351019718     -5.05444412729462     -0.30362567419718
  H          -2.00531343779547     -4.43864355837835      0.28894067707508
  H           0.66711394383207     -2.99588355255871      0.68710007491372
  C          -5.15643660433505      0.80241434375623      1.49820110753640
  H          -4.07285547472843      0.71920058218817      1.68037735162664
  H          -5.65495982370793      0.24255606123635      2.30777339826662
  C          -0.17333094049343     -4.08075572207040      2.34029343285206
  H          -1.16894399869476     -4.42711530855636      2.66981952665155
  H           0.16400183175653     -3.33807711439064      3.08271194561484
  H          -5.46141953226995     -2.91476210824030     -2.69834348383718
  C          -5.60223047284927      2.26538842754270      1.53050166239222
  H          -6.67684713354650      2.33414844459490      1.27640389471380
  H          -5.06976059977936      2.83768898034423      0.75038674600219
  C           0.81189547671645     -5.25052535087262      2.29838322434285
  H           0.45993531546998     -6.01567625943637      1.58420250080011
  H           1.78305034810455     -4.89445698060943      1.90762406850918
  C          -0.05700646288313      5.03963141272273      1.46503315058707
  H          -1.02775879056885      4.80238255599297      1.93857813581912
  H          -0.29108215466090      5.36674768919714      0.43685089148044
  C           7.54201595607463      0.76770851837863      0.44516157146477
  H           7.07097160686174     -0.03624871302860      1.03712247852286
  H           8.00210627770208      0.27070157678606     -0.42847372220258
  C           8.62803625228403      1.44104405804701      1.28426262258306
  H           9.38467355371302      0.71446399652837      1.62004796196873
  H           9.14878201255413      2.22594659875121      0.71058445651180
  H           8.20004817496797      1.91739198819992      2.18211112237441
  C           0.61454037942856      6.18944197276845      2.21595743020552
  H           1.57251153403701      6.46417041973673      1.74378456458615
  H          -0.02146893420300      7.08898418394066      2.23198271238619
  H           0.82932098659774      5.91196470355980      3.26171027921482
  C          -5.35491596755317      2.92287202175911      2.88872706246403
  H          -5.67467852788143      3.97737046383941      2.89399207348008
  H          -5.90399780868345      2.40155123231265      3.69067342099897
  H          -4.28451146451855      2.89419069441352      3.15315356773243
  C           1.01786002183535     -5.89801405979849      3.66785970433639
  H           0.06865779632482     -6.29100168255683      4.06941573466527
  H           1.73161257878776     -6.73599385272371      3.61694516498257
  H           1.40678987589286     -5.16916732219916      4.39861446356207
