104
Coordinates from ORCA-job orca E -2044.682470045738
  C           0.39926451244083      0.50496215773451     -1.43595920106021
  C           0.92866025091966      0.56508117936734      0.01068007132750
  O           1.58750266213154     -0.34341330569222      0.47023910774632
  O           0.70881579665533      1.63267177596830      0.77001943868241
  C          -0.72952110789953      1.53847212856201     -1.66589206801613
  H          -1.65848073215573      1.16955829442423     -1.22306552749905
  H          -0.89740836733288      1.65356043396707     -2.74953690947799
  C          -0.25804017188286      2.67499568530517      0.48897839128365
  H          -1.21095673033745      2.30982942166842      0.91132845747365
  C          -0.41965542501115      2.87921105756557     -1.00707950294395
  H          -1.25094696584107      3.58013920593508     -1.18187986491029
  H           0.49315913125455      3.34568681468563     -1.40864516688936
  C          -0.01757101792791     -0.96402842104073     -1.74858048227984
  H           0.85167792191321     -1.58401224680527     -1.50649368867463
  H          -0.14882487248445     -1.04284206747883     -2.84012023220335
  C           1.52818170321895      0.90755715918306     -2.45519228500977
  C           3.00949646222751      0.51209087481825     -2.41204658546071
  H           1.52685654879019      2.00238280927051     -2.52324465199115
  H           1.14671318219130      0.55589231867291     -3.42882164713401
  C           3.56410162030193      2.10399594400729     -0.76042574623556
  C           3.57489533966306     -0.73201906703824     -1.73144270392605
  C           3.79509387868014      1.13176287775126     -3.33902536905649
  O           2.97384872219666      3.14186787570274     -0.77459525766097
  O           4.82452463199791      1.93429480277401     -0.40942326387859
  H           4.22332150011331     -1.23468211392816     -2.46856131225903
  H           2.77453498668108     -1.43917373198180     -1.48495925946172
  C           4.39715814246026     -0.50130657554504     -0.44850524319263
  H           3.44206287990988      2.00418088600251     -3.89638529945581
  H           4.82357972768367      0.81178067130009     -3.52354295574087
  C           5.43323540515202      0.61304043679105     -0.50657987506631
  H           4.92930666482125     -1.43967663668788     -0.22204848163472
  H           3.72567721687405     -0.30886811324816      0.39946568362589
  H           5.96326054252995      0.60205129077531     -1.47621561063811
  C           0.21288130388223      3.89665568524527      1.26568908646965
  H           1.17534510588246      4.23189662907501      0.84389777517207
  H           0.41881160526592      3.57044642845770      2.29942443309298
  C           6.46072115680972      0.55795630971686      0.62042280691094
  H           5.92818678599547      0.43946286351080      1.58098708809165
  H           6.95941154828343      1.54105161470340      0.66078053242469
  C          -3.98674725039333     -1.69671565800280     -1.60537016554545
  C          -4.16593333653192     -1.99291366186919     -0.10610749041800
  O          -3.68497856210788     -2.98273547995358      0.39592785408066
  O          -4.93301854816253     -1.19838200756088      0.64677994604423
  C          -4.93152783895870     -0.55808518492622     -2.04303680317472
  H          -5.96494250326671     -0.94226618237596     -2.10628871293805
  H          -4.66034757115054     -0.22777795258045     -3.05950025067667
  C          -5.39012024346651      0.13387371163310      0.30706973797214
  H          -6.49174499423250      0.04771253460877      0.26232105921248
  C          -4.88270772955730      0.59654545174064     -1.05235679018671
  H          -5.50863971358375      1.43481450237325     -1.39500567955732
  H          -3.85432054229809      0.97412379987524     -0.95150490890531
  C          -4.39453165632576     -2.98794675843900     -2.34555164839592
  H          -3.77699133692280     -3.84289420984901     -2.04528266560645
  H          -4.29904370749971     -2.84221065825462     -3.43373641367983
  C          -2.51896319800745     -1.27782959236501     -1.97503061056423
  C          -1.28492938119949     -1.67174495476143     -1.11907157663657
  H          -2.51107278168411     -0.19101128557601     -2.08125364569842
  H          -2.32840718383696     -1.67142285698154     -2.98723298298693
  C          -1.45234375697870     -1.14622211567481      0.31235377293535
  C          -1.03031538257981     -3.21296957502653     -1.18339102082446
  O          -2.10166592230237     -0.14275655019981      0.54232861999819
  O          -0.82913549329853     -1.75189179786634      1.30954627484908
  H          -0.20445337975153     -3.39018567826220     -1.89130723484151
  H          -1.90527730612965     -3.71197728218748     -1.61171885788151
  C          -0.71183084685919     -3.86694356250574      0.16571521349516
  C           0.01640611182643     -2.90899759636889      1.09086663733953
  H          -0.10155556942840     -4.77023611066048      0.01204440397114
  H          -1.64721184090821     -4.16718587211838      0.65945041189289
  H           0.94747333052315     -2.53775706257684      0.63382739044843
  C          -4.99294090950303      1.03229162883202      1.47558849126761
  H          -3.89685090200285      0.98489170600605      1.57145109683914
  H          -5.40763089877301      0.58941103312284      2.39712238219447
  C           0.33068820715272     -3.44937062749706      2.47781146494252
  H          -0.60556392817819     -3.80642078366887      2.94224474170258
  H           0.68020692361328     -2.59809984162106      3.08577558343803
  H          -5.44288727845766     -3.24788003922232     -2.12858437979556
  C          -5.45986932383255      2.48299088826996      1.34214343996923
  H          -6.55845199643874      2.51394239526178      1.21527612144414
  H          -5.03674779027883      2.93160318371655      0.42607565523170
  C           1.38777318735920     -4.55526733031759      2.48733687757391
  H           1.02658909982054     -5.42866622005718      1.91611985237621
  H           2.29148332406590     -4.19922330034924      1.95896366972908
  C          -0.80043448170652      5.04328315964835      1.28199399888646
  H          -1.77848999545823      4.66382282375398      1.63297008786857
  H          -0.96926961010751      5.41172871671637      0.25465796762836
  C           7.51388169091052     -0.54006546059903      0.45646245401946
  H           7.02595220765855     -1.52932162737507      0.40487060378212
  H           8.02952984852122     -0.40687197057937     -0.51246542988522
  C           8.54184850608323     -0.54397926220761      1.58781900870494
  H           9.29387645891997     -1.33681021993893      1.44789534980448
  H           9.07671965720042      0.41888777456827      1.64496204793772
  H           8.05827124014034     -0.71016164885303      2.56502873240705
  C          -0.35679978601540      6.20924111784393      2.16550851647589
  H           0.60650304894528      6.62267911869828      1.82261955774894
  H          -1.09463564101076      7.02761334477426      2.15794952952742
  H          -0.22264452212362      5.88815692277491      3.21214883119308
  C          -5.05680334332761      3.33742975735927      2.54453913119418
  H          -5.40018411813637      4.37894334141978      2.43708381581596
  H          -5.48221555810802      2.93833060569453      3.48050285897491
  H          -3.96034806583288      3.35550778833077      2.66512654887933
  C           1.76361558481631     -4.99991551139124      3.90093067651194
  H           0.88476355022266     -5.38674302735012      4.44373480870698
  H           2.52451962194819     -5.79685570899756      3.88651568531275
  H           2.16895258093169     -4.15924643354927      4.48872167732616
