104
Coordinates from ORCA-job orca E -2044.697859693638
  C           0.52773653732389      0.17892258067955     -1.20685823042969
  C           1.00727752076574      0.08472369545821      0.25360013042009
  O           1.45981682452004     -0.93128422727392      0.72536148887302
  O           1.06628343397034      1.21058233903618      0.98552396403047
  C          -0.45696454746784      1.35411301259887     -1.39892375136912
  H          -1.42200679041714      1.08570061204786     -0.95977800669906
  H          -0.60910903208761      1.52442081584971     -2.47663895743650
  C           0.17057400529483      2.33306465207693      0.78451485125030
  H          -0.80452164191953      2.01928886865545      1.19824883852655
  C           0.00616054305246      2.62700985830639     -0.69660677030218
  H          -0.75020907728656      3.41729157714923     -0.82557993392727
  H           0.94991834667936      3.02092683259623     -1.11031627954090
  C           0.00110715255303     -1.19773054808679     -1.68002363932319
  H           0.79285276379485     -1.91837430250308     -1.44558017099897
  H          -0.05689970788589     -1.17381207165060     -2.78056038427460
  C           1.80199119770752      0.52946375211791     -2.06916314894364
  C           2.87112890910633     -0.51424138075604     -2.31748835982821
  H           2.26899907726058      1.42075102278670     -1.62504092780458
  H           1.42345245845839      0.85626067645244     -3.04920255670977
  C           4.43753709241172      2.24473067476047     -2.53391073097039
  C           3.79006424164611     -0.94158057216928     -1.18951796307250
  C           3.01108198721826     -1.03517300211112     -3.54516047443973
  O           4.05732243510374      2.72980427754859     -3.54922142763513
  O           5.34893667797766      1.30051982924241     -2.38763379755973
  H           4.57290453944913     -1.59893560354827     -1.60312632150832
  H           3.20649681448486     -1.54860700822876     -0.48294035681916
  C           4.45156047570942      0.18313458310430     -0.37439554715274
  H           2.35047067791830     -0.74898294751148     -4.36879508006300
  H           3.80388353883728     -1.75367498692358     -3.77410190537853
  C           5.65862225113233      0.83870378200827     -1.03683764838777
  H           4.80043627287073     -0.24507457739570      0.57811534563560
  H           3.71934072073660      0.95733419685364     -0.09221841517203
  H           6.42099597214484      0.06778342164478     -1.23359874390889
  C           0.72933377741128      3.47243453775091      1.62370706434208
  H           1.69753159367532      3.79246602533301      1.19755751007128
  H           0.94824943535203      3.06806456702290      2.62645220709457
  C           6.28821556419895      1.97885481966985     -0.23957167876779
  H           5.52397043497438      2.75976579538005     -0.07453811460654
  H           7.07067917419392      2.43538363640206     -0.87035664772793
  C          -4.02915958836518     -1.44394774473609     -1.73350669677648
  C          -4.30153821736381     -1.86543428217081     -0.27943610548277
  O          -3.97024669936023     -2.95529946478692      0.12678586143080
  O          -4.98913726787653     -1.05741900678837      0.53464088601791
  C          -4.80946003632430     -0.15621967024093     -2.07138404061453
  H          -5.87995666177941     -0.39669046355971     -2.19703427420600
  H          -4.46383027251191      0.23640444644496     -3.04202946267327
  C          -5.25152626929412      0.35253373372046      0.33022651704554
  H          -6.35292841058141      0.42372644155476      0.26227896624804
  C          -4.64965694130491      0.87859150044244     -0.96658788667743
  H          -5.15535681154306      1.81964205585249     -1.23224195182112
  H          -3.58604538233947      1.11177234617469     -0.80983985198084
  C          -4.56298436401470     -2.59186994761750     -2.61546564307490
  H          -4.06785971621097     -3.54331025980156     -2.38769461113856
  H          -4.40586395250316     -2.35111324137826     -3.67924015592026
  C          -2.50826814529165     -1.17693418683470     -2.01847369107905
  C          -1.36547650075738     -1.81565383104400     -1.18405019343725
  H          -2.36477412261622     -0.09527993065895     -1.99945925798012
  H          -2.32859325708156     -1.47722055336112     -3.06410870634723
  C          -1.52233235835870     -1.44063173551196      0.29533149782216
  C          -1.28578167656732     -3.35717583120274     -1.43155974973035
  O          -2.01864824502369     -0.37736541172756      0.62322436352944
  O          -1.05197631295814     -2.24437634993445      1.23338133121771
  H          -0.43674327444600     -3.54699278644017     -2.10776951414046
  H          -2.17848952163221     -3.69072416708044     -1.97100666748607
  C          -1.13885704318099     -4.20451657009776     -0.16379209009912
  C          -0.35316043158748     -3.47107592440726      0.90761610963875
  H          -0.63883223693853     -5.15567237439973     -0.40323869343785
  H          -2.13294641719322     -4.43455149035293      0.24545288131529
  H           0.64485589821708     -3.17843939848224      0.54216435663982
  C          -4.76684621389297      1.06275923575596      1.59212642932159
  H          -3.69652019611595      0.83124186189621      1.70819117410861
  H          -5.28191473220322      0.60723154915598      2.45501734922578
  C          -0.19905310323133     -4.21373920235240      2.22664087020342
  H          -1.20101242017559     -4.50153612616427      2.59136733890189
  H           0.20903025187361     -3.49652881763252      2.95855935592550
  H          -5.64323254622099     -2.73684129639711     -2.45561166260268
  C          -4.99254017366610      2.57594649658210      1.59243690637045
  H          -6.06522042528180      2.79788630396146      1.43749092469727
  H          -4.46196263990080      3.03411750220436      0.73924690235481
  C           0.71235041971124     -5.43985133958427      2.14517028118387
  H           0.29212780659994     -6.17726998104348      1.43867560094747
  H           1.68952826981606     -5.13933684381721      1.72417356778828
  C          -0.21786462826208      4.66879669379948      1.74550285580389
  H          -1.20377107984753      4.31642931319086      2.10121504747380
  H          -0.39577804656040      5.11155754180572      0.74973232940194
  C           6.89733264966642      1.55431154876381      1.09965360205434
  H           6.10839992656520      1.16189185104761      1.76365159900152
  H           7.59995145508188      0.71705637227109      0.93258080819753
  C           7.62357863963617      2.70135094770516      1.80280771264200
  H           8.04543508712844      2.37932719608869      2.76801028781422
  H           8.45248710017267      3.08855088983003      1.18682544628213
  H           6.93894896390745      3.54295853458366      2.00123564253915
  C           0.31118310299742      5.74806706098967      2.68970456163660
  H           1.28227498383675      6.14051653139714      2.34359039712766
  H          -0.38536372122501      6.59848710793075      2.76254603762813
  H           0.46059275607820      5.34945132170119      3.70713096560137
  C          -4.51296355763788      3.23577192661303      2.88592287898717
  H          -4.67549683548169      4.32558569545647      2.87140283604586
  H          -5.04213207235253      2.82901526879027      3.76384976698994
  H          -3.43547676937151      3.05764158643260      3.04287422284953
  C           0.92430792694314     -6.10899339413202      3.50327134831004
  H          -0.03305982075786     -6.44608693103827      3.93510576674752
  H           1.58288445695705     -6.98878019417922      3.42302741579976
  H           1.38255777113295     -5.41139132756039      4.22432447635159
