104
Coordinates from ORCA-job orca E -2044.690043530731
  C           0.43172246256838      0.56156775794610     -1.37793403286679
  C           0.95973294875829      0.61811478902533      0.07011221748332
  O           1.74007385990483     -0.21956839233601      0.47412600743796
  O           0.58257118352573      1.58005214265104      0.89923475691366
  C          -0.69915893892072      1.58931875148836     -1.61402433134621
  H          -1.64261057107681      1.20650291574894     -1.21510536343779
  H          -0.83367279869421      1.73549676799540     -2.69848481490635
  C          -0.33296929783600      2.66080723702418      0.59301117560681
  H          -1.31693495818169      2.31870569160897      0.95852780866433
  C          -0.41046829910765      2.90763405086864     -0.90419606058277
  H          -1.21981253147440      3.62733633204878     -1.10292172508770
  H           0.53138938207150      3.36485467543949     -1.24535345579595
  C           0.01498053357878     -0.91188103320067     -1.67815333051545
  H           0.87437151399041     -1.52936503168481     -1.39946940692301
  H          -0.08429900336947     -1.00927036401654     -2.77128140082534
  C           1.57152164604730      0.95601116002811     -2.39137833592739
  C           3.06526257509531      0.63502067872838     -2.25182194938759
  H           1.53141279087415      2.04722515699298     -2.51037185037309
  H           1.24835196723020      0.54445191242500     -3.36297081205017
  C           3.57660674301744      1.88717366197343     -0.70799674195792
  C           3.57281283309062     -0.75543528188076     -1.84343614249974
  C           3.83723733355853      1.26666101024654     -3.28242423120843
  O           2.92374163730321      2.86438530468241     -0.49992735274109
  O           4.74476241427185      1.61819369324294     -0.16297852042062
  H           4.12017481882449     -1.17314792597313     -2.70560165553565
  H           2.73375114823109     -1.43388576940930     -1.65423738630332
  C           4.49095707246539     -0.77653420933416     -0.61105749664751
  H           3.50297616081630      2.20301303092403     -3.73709606811962
  H           4.83352008686386      0.90492397317388     -3.54625022746790
  C           5.45580975160100      0.39678257799287     -0.51667629251979
  H           5.07777547121240     -1.70883093831675     -0.62029059040844
  H           3.88229233999327     -0.77725783500172      0.30407644257587
  H           5.94259205011837      0.58673397386038     -1.49027182369525
  C           0.14335722240861      3.84756342159118      1.42048895930137
  H           1.14635305530561      4.13851084068288      1.06522638882337
  H           0.26799674883382      3.49706291311303      2.45916994060771
  C           6.53023900531681      0.23833964093777      0.55304795107310
  H           6.04541520772816     -0.04577607528450      1.50378643093958
  H           6.98108972929965      1.23143359662737      0.71874366551546
  C          -3.94933039394298     -1.69160822238041     -1.67845044817898
  C          -4.17853918408775     -1.99904110042459     -0.18807679085606
  O          -3.68226122961594     -2.97148514341325      0.33298908772409
  O          -5.00600108283559     -1.23639526539347      0.53304200281552
  C          -4.89978000428557     -0.57114186192301     -2.15062861187886
  H          -5.91851638582671     -0.98042937563611     -2.27033637026582
  H          -4.58672332478772     -0.22369144235847     -3.14919827213482
  C          -5.49676558902472      0.07927513696757      0.17707877332435
  H          -6.59011014837853     -0.04916334078624      0.06950867175170
  C          -4.93225859733375      0.57334849222367     -1.14813783607791
  H          -5.56354710257399      1.39782093721520     -1.51382233362418
  H          -3.92102570720382      0.97589922031125     -0.98894437475756
  C          -4.30415779838732     -2.98521724570123     -2.44202047170281
  H          -3.66713122386875     -3.82658351176475     -2.14425380116927
  H          -4.19126073476474     -2.82122687502419     -3.52602089689321
  C          -2.47541211168192     -1.24705250250321     -1.99066324571410
  C          -1.27439305110794     -1.60365514388920     -1.07571321140399
  H          -2.48336975217286     -0.16085644969233     -2.11222105155894
  H          -2.23208849645204     -1.65107612125597     -2.98733516934581
  C          -1.49874407048457     -1.04065528634311      0.33202283191434
  C          -1.00575175275183     -3.14348280886452     -1.07219415290715
  O          -2.22503388877105     -0.08555180492245      0.53013773860823
  O          -0.82439621879899     -1.55967852587099      1.34792401291255
  H          -0.20013247587421     -3.34737962789568     -1.79622116797590
  H          -1.89040562760125     -3.67091856666950     -1.43958434684280
  C          -0.64707141474368     -3.72097451997670      0.30267808399512
  C           0.05747993995526     -2.69971614872341      1.17753200369313
  H          -0.00982741709218     -4.61110883532451      0.18663806718586
  H          -1.56857415000645     -4.02793274510386      0.81902278675682
  H           0.97578285186430     -2.32377935238114      0.70062633692437
  C          -5.20491893169679      0.98166093437811      1.37271189120931
  H          -4.11372898520993      0.99419873202993      1.52223945240460
  H          -5.63897998069846      0.50380178342199      2.26748650792821
  C           0.39777342658883     -3.16376545438220      2.58570408602999
  H          -0.51963505609562     -3.54108159821132      3.07137502342492
  H           0.71257065610257     -2.27153991805755      3.15237773728071
  H          -5.34854735093774     -3.27859151094423     -2.25032261859243
  C          -5.74813147335704      2.40492808131588      1.23100883510548
  H          -6.83592396720790      2.37206125168496      1.03208059744834
  H          -5.29405042188193      2.89473813638863      0.35156080170130
  C           1.50379991046825     -4.21962814567149      2.63735792247014
  H           1.18338859418143     -5.13048524386990      2.10113326176611
  H           2.39024920656718     -3.84308837645626      2.09434080404398
  C          -0.81120354963740      5.04307113932860      1.39267890570237
  H          -1.82681427897608      4.70897093206629      1.67687439985575
  H          -0.89723405766161      5.43270438835746      0.36295696249605
  C           7.62662516970139     -0.76674159964223      0.19277500433651
  H           7.18588619624504     -1.76629027216474      0.03210866821055
  H           8.08122524962198     -0.47816421299678     -0.77283426116484
  C           8.71366460062712     -0.86208639307185      1.26334247344120
  H           9.49372563903268     -1.58774034063983      0.98313962799489
  H           9.20424809093648      0.11276792144198      1.42259065585126
  H           8.29240504912748     -1.18065061508728      2.23156518780669
  C          -0.36591812978299      6.17386289960750      2.32007131257836
  H           0.63582587642457      6.54275437686468      2.04283053500860
  H          -1.06058796654515      7.02834833094171      2.28069720472438
  H          -0.31218300079289      5.83311916992356      3.36768628383278
  C          -5.47856932658717      3.25859514786311      2.47055843014717
  H          -5.87210564257199      4.28120994545455      2.35383405081310
  H          -5.94559048880246      2.81956923290322      3.36805638300619
  H          -4.39624122178376      3.33521291679650      2.66926251705342
  C           1.89921771992220     -4.59041654661662      4.06682457295669
  H           1.03883457517968     -4.99454388303161      4.62639447447147
  H           2.69524891886498     -5.35224833737726      4.08260480254130
  H           2.26650579802781     -3.70959963767293      4.61973931640582
