104
Coordinates from ORCA-job orca E -2044.720798570393
  C           0.42780207930931      0.56376628089007     -1.38512458940349
  C           0.95513843217804      0.61469912598863      0.06378256355413
  O           1.76541478136582     -0.20421400562092      0.45018246520772
  O           0.53810699720438      1.54213059375180      0.90995570715928
  C          -0.69916204102693      1.59392417791558     -1.62057955981981
  H          -1.64575151754659      1.21146513654131     -1.22794739465997
  H          -0.82920775624064      1.74633797029779     -2.70481841232162
  C          -0.34397854210253      2.64920776510729      0.59672876001829
  H          -1.33911053429395      2.33382980824916      0.95558165307583
  C          -0.40543431027726      2.90493327374907     -0.90075585428585
  H          -1.20650947636753      3.63350777039938     -1.10067621128890
  H           0.54461619538409      3.35081537904938     -1.23242938764267
  C           0.00006932840523     -0.90681747038244     -1.68851118306121
  H           0.85700843356090     -1.53198886374184     -1.41986290036467
  H          -0.10673629313366     -0.99758431912754     -2.78146344698901
  C           1.58768794386805      0.94521190042408     -2.38710410016496
  C           3.09462231855045      0.73072619857538     -2.09682432139864
  H           1.48601833777712      2.01736136674691     -2.59678302132828
  H           1.36678966107679      0.43047004902663     -3.33594622071533
  C           3.50806028667493      1.73396988617621     -0.86378849794617
  C           3.55353627615309     -0.73070358318498     -1.85055696827283
  C           3.85950414358805      1.33765821446828     -3.23490398157202
  O           2.84670675810847      2.70242799366821     -0.59032354020976
  O           4.66872978486670      1.50151531999873     -0.25501916148295
  H           4.00770517870728     -1.10381180014044     -2.78339156392568
  H           2.68983082042582     -1.37003150298622     -1.64789496710173
  C           4.54580497115435     -0.87527341889242     -0.69184964752506
  H           3.58751009906896      2.33067870911874     -3.60258766812282
  H           4.77339462482506      0.87691108051877     -3.61601588753475
  C           5.46202736800279      0.33096170523428     -0.56525472286314
  H           5.15141895139450     -1.78487106629653     -0.82547318172164
  H           3.99514317489678     -0.97055202416995      0.25571049347257
  H           5.97975056840050      0.52664237407248     -1.52353107149865
  C           0.16152476581461      3.82081242265484      1.42907089820251
  H           1.17584746638427      4.07926267781203      1.08062238243615
  H           0.26731922237927      3.46658859886877      2.46856431695883
  C           6.49919211462651      0.23444075667426      0.54655939426160
  H           5.97857573722433      0.00067950889636      1.49195379048263
  H           6.93951851603987      1.23778544318286      0.67570910581007
  C          -3.96446083760393     -1.68827083329944     -1.68201958465053
  C          -4.19027998110332     -2.00222978475541     -0.19235990489297
  O          -3.68980701955643     -2.97477639396064      0.32458012378027
  O          -5.02082815966211     -1.24611000468732      0.53201203384989
  C          -4.91829941817938     -0.56800481892621     -2.14793277620830
  H          -5.93610789105904     -0.97945082839495     -2.26820314155922
  H          -4.60739353105376     -0.21548021712175     -3.14539959310250
  C          -5.51482897802470      0.07032574654137      0.18295084771772
  H          -6.60795059999025     -0.06024685289443      0.07573842484463
  C          -4.95260359421123      0.57197668750220     -1.14044277536768
  H          -5.58641471752876      1.39636560503211     -1.50195536253411
  H          -3.94218864844809      0.97612225996416     -0.98027025375677
  C          -4.31867965161417     -2.97917912499237     -2.45059628092967
  H          -3.67688720096829     -3.82001645947350     -2.16166909970963
  H          -4.21225303234156     -2.80861494346624     -3.53425992953853
  C          -2.49194054589532     -1.24024506928033     -1.99597784102664
  C          -1.28975662223858     -1.59477607247088     -1.08209021362655
  H          -2.50207215338264     -0.15383098296188     -2.11683095691302
  H          -2.24894591917125     -1.64343667162963     -2.99309232922704
  C          -1.51287952266587     -1.02876700641370      0.32444565101792
  C          -1.02294079117251     -3.13487406101572     -1.07276878451406
  O          -2.24907864510428     -0.08208982935195      0.52410540776555
  O          -0.82515176913383     -1.53753191614729      1.33712911751293
  H          -0.22861711117811     -3.34447539711023     -1.80763494918183
  H          -1.91418911654245     -3.66310480748988     -1.42193753275092
  C          -0.64530841616963     -3.70276270855450      0.30136642380947
  C           0.06274231829894     -2.67261298366756      1.16306689413411
  H          -0.00462488935633     -4.59022393489933      0.18374901560253
  H          -1.55953936419512     -4.01191436397027      0.82944907003972
  H           0.97327758542500     -2.29363521267958      0.67432016282223
  C          -5.22396584600407      0.96739270355807      1.38281187730606
  H          -4.13266322937406      0.98213073469700      1.53107123195780
  H          -5.65577365275965      0.48385117744310      2.27562571993289
  C           0.42367015736826     -3.12648871157424      2.56925996042167
  H          -0.48342328519045     -3.51268325171263      3.06719700352743
  H           0.73466262843028     -2.22808892933578      3.12814799389608
  H          -5.36095591546764     -3.27743782085856     -2.25504491578947
  C          -5.77101065666625      2.38996956324352      1.24916255611423
  H          -6.85936187964052      2.35540927072204      1.05358835971448
  H          -5.32086275962181      2.88478844571706      0.37050393507612
  C           1.54313369424153     -4.16857303290213      2.61178800707814
  H           1.22819539644995     -5.08501422840798      2.08177264935332
  H           2.41855417738397     -3.78240189122002      2.05776108698503
  C          -0.75609900838357      5.04469378484971      1.39415755542007
  H          -1.78398184725559      4.74069344049998      1.66820536132794
  H          -0.82060474302862      5.43809908810866      0.36431461313572
  C           7.61036852333800     -0.78418159659210      0.28422611610433
  H           7.18003292767208     -1.79593588517783      0.18294900662149
  H           8.08991571802503     -0.56082954897482     -0.68685559594294
  C           8.66927997210462     -0.79593335240949      1.38684430470983
  H           9.46050426007749     -1.53417093479791      1.18017591993133
  H           9.15017457508330      0.19133799070419      1.48918347756649
  H           8.22365997712390     -1.04741385802747      2.36386509029367
  C          -0.28614388190290      6.16015064459873      2.32790376845192
  H           0.72877377125571      6.49945966823115      2.06101881173556
  H          -0.95458833164955      7.03512026093375      2.28370252958420
  H          -0.25260314945890      5.81616787407941      3.37531121401296
  C          -5.49926161309062      3.23861779743458      2.49170409895267
  H          -5.89666767436371      4.26046350990127      2.38151165278916
  H          -5.96121461394916      2.79374484820333      3.38895926226890
  H          -4.41636677210505      3.31786818080694      2.68627281110432
  C           1.95931651145922     -4.52993180988947      4.03774224043483
  H           1.11043771085078     -4.94282249082244      4.60837798475850
  H           2.76484454026975     -5.28183442534649      4.04672921942274
  H           2.32195767617792     -3.64283966862195      4.58360916091747
