104
Coordinates from ORCA-job orca E -2044.713997635607
  C           0.42964302053354      0.56610175895555     -1.38263095429721
  C           0.95860239878562      0.61896990717673      0.06548283859105
  O           1.76539376370578     -0.20188006137377      0.45422574832496
  O           0.54912340997562      1.55282709929692      0.90910496973750
  C          -0.69877667824864      1.59514846292157     -1.61833080345750
  H          -1.64506494981501      1.21169340887651     -1.22619640768304
  H          -0.82833379742233      1.74756644371177     -2.70260523455311
  C          -0.34471573161040      2.65094535460514      0.59862011594087
  H          -1.33672694163807      2.32495729821747      0.95665243741711
  C          -0.40800717091738      2.90704438799487     -0.89843401482556
  H          -1.21099655002474      3.63351659314978     -1.09826237731669
  H           0.54050455279645      3.35669120112426     -1.23006945522036
  C           0.00555091550733     -0.90555514033744     -1.68445141788651
  H           0.86330838344353     -1.52803021015256     -1.41227771226252
  H          -0.09871658131737     -0.99881190994538     -2.77745239508393
  C           1.58447671035515      0.95167380009367     -2.38692932961583
  C           3.08818233426517      0.70930871487927     -2.13278568345462
  H           1.49844650668812      2.03038696040745     -2.57079858758031
  H           1.33767717078068      0.46473615757947     -3.34460416171266
  C           3.53098886707909      1.77215355030009     -0.82156172881463
  C           3.55728524670365     -0.73828378440251     -1.85696421105001
  C           3.85449744039166      1.32344492112323     -3.25043251095892
  O           2.87045318868373      2.74059665237860     -0.56315766922936
  O           4.68689015644757      1.51968372898320     -0.22376321913483
  H           4.03438181031806     -1.11870331815445     -2.77573733140841
  H           2.69894715340948     -1.38827316305249     -1.66255824635456
  C           4.53216778234187     -0.86016728478587     -0.67957206820493
  H           3.55871711000198      2.29924380225769     -3.64492296859041
  H           4.80080589430657      0.89716184250110     -3.59061674856271
  C           5.46010935111756      0.33764854306018     -0.55324544904595
  H           5.13510169224947     -1.77500241485985     -0.78867371264557
  H           3.96753174943418     -0.93858762953758      0.26102241015501
  H           5.97031320775150      0.53837070430803     -1.51393975061540
  C           0.14828044971299      3.82623766183914      1.43306525430331
  H           1.15941995837873      4.09742202222463      1.08496060901551
  H           0.25881037471135      3.47080840414316      2.47165162608392
  C           6.50708898081504      0.21907972593433      0.54752961968326
  H           5.99615819969845     -0.03460371911309      1.49308755484182
  H           6.94855205608584      1.21968537709806      0.69272464659651
  C          -3.95829715167467     -1.68971672816201     -1.68123799828444
  C          -4.18556234323515     -2.00020021052536     -0.19109779726244
  O          -3.68590663272793     -2.97179838139144      0.32838803416076
  O          -5.01645352899709     -1.24217392628819      0.53093001698343
  C          -4.91186990799434     -0.57079623702543     -2.15084165307562
  H          -5.92950488370436     -0.98266459336785     -2.27110092554799
  H          -4.60003376095028     -0.22060679816939     -3.14883908744872
  C          -5.51056301291132      0.07315068280137      0.17800892797949
  H          -6.60355848899436     -0.05796490281839      0.07013237115623
  C          -4.94728137213056      0.57159503257929     -1.14613275706237
  H          -5.58084414059637      1.39504251319269     -1.51020657204006
  H          -3.93707314988940      0.97633127689737     -0.98605326262585
  C          -4.31115923673772     -2.98258526589387     -2.44710585812627
  H          -3.67014796784876     -3.82270733234042     -2.15442443817699
  H          -4.20248797214187     -2.81500710791275     -3.53100432493460
  C          -2.48561756099803     -1.24172080077481     -1.99438069544651
  C          -1.28408155612579     -1.59463089688653     -1.07901120480837
  H          -2.49598147671971     -0.15548991346977     -2.11674971825366
  H          -2.24155846015697     -1.64614344673628     -2.99072867374344
  C          -1.50852459802505     -1.02757856332111      0.32685287257441
  C          -1.01564682865412     -3.13443845926972     -1.06861191570731
  O          -2.24410566946918     -0.07998135082291      0.52488585564420
  O          -0.82270035706374     -1.53594619633572      1.34097858489819
  H          -0.21852301994653     -3.34322375307746     -1.80065776734629
  H          -1.90497252097282     -3.66381236852519     -1.42109285027843
  C          -0.64195922598540     -3.70188146447328      0.30670524060667
  C           0.06470471012783     -2.67179766335806      1.16958047847552
  H          -0.00155855388816     -4.58980074573690      0.19102614326474
  H          -1.55768878935556     -4.01012669132503      0.83268110086971
  H           0.97669776816814     -2.29371797652565      0.68275443579617
  C          -5.22102629429040      0.97351626156897      1.37574127889614
  H          -4.12987869471748      0.98871669297068      1.52508582877680
  H          -5.65365638940368      0.49238121914026      2.26945320817644
  C           0.42152029770159     -3.12535916667259      2.57696185889205
  H          -0.48744824952573     -3.50989894789811      3.07275469301223
  H           0.73231686236500     -2.22710489880803      3.13620599109690
  H          -5.35388044716548     -3.28013000706467     -2.25284543844338
  C          -5.76806514149013      2.39566822126075      1.23758861788080
  H          -6.85626061880333      2.36043930991100      1.04129666576540
  H          -5.31732313496143      2.88797589269705      0.35782965450626
  C           1.53926425536460     -4.16911809935351      2.62315411682094
  H           1.22433972852614     -5.08539372915265      2.09285649943989
  H           2.41682119157523     -3.78470907792261      2.07127882814264
  C          -0.78299208350072      5.03987517613964      1.40171472683357
  H          -1.80700230426198      4.72398529759687      1.67675841596058
  H          -0.85344628332773      5.43437618004694      0.37267833963687
  C           7.61641641353344     -0.79294056319637      0.25318181919767
  H           7.18547567817098     -1.80209865164435      0.13092735769938
  H           8.08833289605685     -0.54613348730534     -0.71587841839398
  C           8.68344802525651     -0.83070662308320      1.34731271635684
  H           9.47340748586544     -1.56310793905556      1.11658564787765
  H           9.16463687669193      0.15407598106030      1.47011334354244
  H           8.24538660079482     -1.10644834654364      2.32120194218458
  C          -0.32400835082163      6.15889499285969      2.33665552685845
  H           0.68662635187083      6.50995654237922      2.06870463294704
  H          -1.00224421539399      7.02640663738764      2.29499015066335
  H          -0.28495607571897      5.81352764119101      3.38341253749995
  C          -5.49733806519147      3.24804063440961      2.47779660399306
  H          -5.89501225590345      4.26941942227376      2.36432106091256
  H          -5.95966171911295      2.80567940012226      3.37609661845559
  H          -4.41458425285340      3.32828471171313      2.67278853654093
  C           1.95092093703953     -4.53024661147804      4.05048445419331
  H           1.09982626953384     -4.94152562615030      4.61897604281195
  H           2.75528637198776     -5.28335226491293      4.06218483476873
  H           2.31335658822677     -3.64337975485091      4.59686106313077
