104
Coordinates from ORCA-job orca E -2044.698680370556
  C           0.47935451209500      0.24605576159523     -1.13310891291043
  C           0.95086489829050      0.18998413180650      0.32847012111217
  O           1.36112040018766     -0.81918833540567      0.85043653777028
  O           1.06176550759661      1.34888258869452      1.00094523425175
  C          -0.53318936376147      1.39595911096831     -1.32929518237594
  H          -1.46851103912015      1.13674249524043     -0.82132158712007
  H          -0.74805834574238      1.50784910115715     -2.40413723595586
  C           0.24480120464642      2.52154744485789      0.74806843386566
  H          -0.71192738381122      2.33191592552150      1.26830813297692
  C          -0.03145887124165      2.70948656586314     -0.73550989325333
  H          -0.80384507828189      3.48607925759843     -0.85173798566471
  H           0.86918671426553      3.08282540867494     -1.24943361717895
  C          -0.00234713624835     -1.14642759451799     -1.60048245827067
  H           0.79675308723120     -1.84687074678511     -1.33158588683523
  H          -0.02297294302022     -1.13852771779647     -2.70251169787590
  C           1.75314018135308      0.62668428038899     -1.98045268692713
  C           2.83261344219641     -0.39908551114488     -2.24169161562003
  H           2.20926824405089      1.50144912655041     -1.49928759650316
  H           1.38233016308218      0.98408817117456     -2.95321420756794
  C           4.12169857451858      2.70795619478713     -1.86383401024810
  C           3.71457692730796     -0.87057804069677     -1.10388833554579
  C           3.01541142748351     -0.86883841823231     -3.48439404985970
  O           3.61022516518662      3.44551462735687     -2.64414413391448
  O           4.98901631821431      1.74756793584474     -2.11482581871890
  H           4.48153653622423     -1.54862736168901     -1.51430770642275
  H           3.10424526191894     -1.46530259910879     -0.40827910452123
  C           4.40856182638961      0.21669120976769     -0.26734739410469
  H           2.38188973468153     -0.54977302527571     -4.31735966550837
  H           3.81471507367774     -1.57953780186021     -3.71558970470006
  C           5.51472570054140      0.98253261375412     -0.98339145695500
  H           4.86543991620357     -0.27629682367391      0.60517140926785
  H           3.68297609403797      0.93268452157181      0.15302774067360
  H           6.18690713135981      0.26882377991198     -1.48599476444033
  C           0.96940836988690      3.67953843235831      1.41962469942219
  H           1.92804776491595      3.84575197174591      0.89571532359403
  H           1.22301439932123      3.36421836282830      2.44592139030961
  C           6.33897497371239      1.90649472799965     -0.08831445087108
  H           5.65663758796861      2.60100740903852      0.43407425268218
  H           6.97379869664821      2.52589940449392     -0.74533275685393
  C          -4.01901195043826     -1.50896573373357     -1.79602779567911
  C          -4.32772006260777     -2.00123305103328     -0.37152785445095
  O          -3.96862833731472     -3.09351252977495      0.00350594333754
  O          -5.06756121347146     -1.25316863232047      0.45289861419302
  C          -4.83840020037032     -0.24107096900431     -2.11716570018480
  H          -5.88997727040879     -0.52076460686780     -2.30572039508323
  H          -4.46394534694311      0.20666105806517     -3.05259284945632
  C          -5.41799707420623      0.14022262168362      0.27616975326325
  H          -6.51640972776688      0.13968659354281      0.14500893657018
  C          -4.77939963063449      0.75074752080714     -0.96398079481440
  H          -5.31607659965587      1.67851353443792     -1.21563477880063
  H          -3.73706806485098      1.02355358468172     -0.74136337269707
  C          -4.46756449059418     -2.63790366061863     -2.74723962232804
  H          -3.94460762799681     -3.57921252347476     -2.54087402050282
  H          -4.27729513400014     -2.34451039641489     -3.79225864020586
  C          -2.50063821256375     -1.16581150075639     -2.00251168422793
  C          -1.36816851518873     -1.79294593323426     -1.14720269080188
  H          -2.40661636094647     -0.08168427242729     -1.92173150280712
  H          -2.26465502797845     -1.40628206852565     -3.05251296904665
  C          -1.57921351522743     -1.43891763267699      0.33215002882190
  C          -1.24273784954367     -3.32875367176248     -1.40964140950632
  O          -2.12674035611851     -0.40172534064986      0.65938078636102
  O          -1.10801572272292     -2.24108842582536      1.27290016158943
  H          -0.38279937063446     -3.48640778618995     -2.08039422507494
  H          -2.12104979581848     -3.68236654273167     -1.95818167304462
  C          -1.08281395798530     -4.18514840007897     -0.14902199518156
  C          -0.35304948157186     -3.43384807297356      0.94946632415096
  H          -0.53776486294955     -5.11084962047859     -0.39019861535360
  H          -2.07423304763243     -4.46338255566001      0.23577080516289
  H           0.64149029356827     -3.09803993703587      0.61294866649826
  C          -5.06218976812292      0.83701827471913      1.58631012173246
  H          -3.97591486385013      0.72963199206861      1.73710175345573
  H          -5.54957118690931      0.27968220343341      2.40433085454360
  C          -0.20139723070639     -4.18785600450735      2.26250386099842
  H          -1.20066889805733     -4.51385197849085      2.60155557575227
  H           0.16627021942931     -3.46690161152378      3.01195118901265
  H          -5.54672640538374     -2.83167287630729     -2.64038483070955
  C          -5.47691961819576      2.30834925777017      1.64424023365551
  H          -6.55713003886723      2.40084531977961      1.42382332754586
  H          -4.95717369294572      2.87688757653772      0.85281932351082
  C           0.75200962046547     -5.38194346834989      2.18588251349808
  H           0.37014624084866     -6.12474652416435      1.46350188267760
  H           1.72663568485452     -5.04460005431919      1.78731192210379
  C           0.16035501121265      4.97783393674880      1.46271655364846
  H          -0.82274707151722      4.77907013643631      1.92809604775305
  H          -0.05287671198238      5.32225501159744      0.43571181733084
  C           7.22440693626910      1.17832113497459      0.92679061260310
  H           6.59869559223649      0.59993448547185      1.62795240126304
  H           7.85236379036855      0.43838166953869      0.39706775709970
  C           8.11646012800810      2.13420009204728      1.71934678396035
  H           8.74336478776488      1.59134179161378      2.44439547608720
  H           8.78847940892976      2.70034615307862      1.05282661358661
  H           7.51444901688462      2.86747574970726      2.28176541092397
  C           0.87476743734588      6.09155309075777      2.22826298250077
  H           1.84759726587771      6.33042670756161      1.76670735235029
  H           0.27759803885922      7.01716457091344      2.24650183098345
  H           1.06873477628051      5.79711695773787      3.27337754989369
  C          -5.17491062208415      2.94851888798660      2.99969676934383
  H          -5.47253348171207      4.00922887404907      3.02380759970640
  H          -5.70987390139707      2.43117602073521      3.81367760296860
  H          -4.09775701791921      2.89536634725738      3.23113998370464
  C           0.96016119986479     -6.05929087017799      3.54048942996502
  H           0.00644433121926     -6.43294657932936      3.94972767672454
  H           1.64919532817711     -6.91578778402120      3.46365358563396
  H           1.38063853536023     -5.35511612566386      4.27796364428798
