104
Coordinates from ORCA-job orca E -2044.700103234328
  C           0.48979861968851      0.28974721437568     -1.11402205618255
  C           0.93210456165018      0.26261235071196      0.35903919575420
  O           1.37066231809397     -0.72959535009607      0.89216676293008
  O           0.98287569971454      1.42482475640366      1.02886514572993
  C          -0.53608872447021      1.41909513490187     -1.35558150840386
  H          -1.48742041015110      1.13948304915816     -0.89112380439694
  H          -0.70586200433004      1.52613143435931     -2.43919279391536
  C           0.10697265225077      2.55272755160531      0.75863305779582
  H          -0.86087236543370      2.29254016144811      1.22440446279596
  C          -0.09809839485677      2.74316329625139     -0.73544603221321
  H          -0.88387947898991      3.49960995244596     -0.88925665548454
  H           0.82000361514994      3.14399357616977     -1.19320876397169
  C           0.03623291734252     -1.11823263083518     -1.56626118328214
  H           0.83931081371382     -1.80304031100120     -1.27051125115216
  H           0.03618857874007     -1.12998561183774     -2.66855204527320
  C           1.77566490263176      0.66684563643872     -1.94565418603699
  C           2.86765756501513     -0.35866691228257     -2.16690048467883
  H           2.21917971720085      1.56146720027072     -1.49321841959237
  H           1.41230879902552      0.98411362442036     -2.93516000201313
  C           4.06410804653927      3.18662963806633     -0.75290663038383
  C           3.72689897966729     -0.82971359615875     -1.01159705394630
  C           3.09657740854214     -0.82137239277108     -3.40573596095692
  O           3.33527291638546      4.07235377806347     -1.06984038989280
  O           4.59439232770846      2.26819920770105     -1.53828083550731
  H           4.50555424417392     -1.49817708682968     -1.41599424454434
  H           3.11228761347700     -1.43473610432480     -0.32878580976951
  C           4.40913165348763      0.25009198421650     -0.15429560879447
  H           2.48711961553421     -0.50609382959122     -4.25805020617394
  H           3.90398943985794     -1.53080683803716     -3.61188548343195
  C           5.35625118913690      1.18805033115756     -0.90444632607461
  H           4.98587164662932     -0.27260724282993      0.62518150801012
  H           3.67305321958945      0.85908850098726      0.39690966556136
  H           5.78644089346261      0.67177134483172     -1.77684877744388
  C           0.72251330908161      3.74074676036685      1.48428768534735
  H           1.68115591259222      3.99227178786591      1.00093698114373
  H           0.95649950849229      3.41724744493944      2.51277100226174
  C           6.48634981178673      1.76756906779698     -0.05601909994129
  H           6.06279725754607      2.19847945959957      0.86849624606229
  H           6.93492998806104      2.60610466833695     -0.61629124693077
  C          -3.96893934874270     -1.55259921154232     -1.84158736599825
  C          -4.30023913960076     -2.01568896413294     -0.41235665491371
  O          -3.93147601668083     -3.09256766791454     -0.00356136563365
  O          -5.07005617403025     -1.26073643307604      0.37742683053904
  C          -4.80100473414981     -0.30625234387265     -2.21013584053448
  H          -5.84386860018830     -0.60760863038879     -2.41329603720641
  H          -4.41452824658975      0.12531796691428     -3.14833494227065
  C          -5.43769116958530      0.12272649111328      0.16030782712578
  H          -6.53283528520053      0.10152999373075      0.00571670643995
  C          -4.78227086409270      0.71384834405209     -1.08051330201707
  H          -5.32862922547628      1.62604197717771     -1.36578144960994
  H          -3.74947603936555      1.00927204215484     -0.84295242124557
  C          -4.38002822565045     -2.71055960042037     -2.77487914981824
  H          -3.84367399611908     -3.63758074973743     -2.53965963626549
  H          -4.17653208845608     -2.43629047133337     -3.82263401146268
  C          -2.45160523229380     -1.19152476698068     -2.02478861514749
  C          -1.32904987469648     -1.77681722384178     -1.12761110871422
  H          -2.37523701587642     -0.10411674215902     -1.97373137788499
  H          -2.18837055086327     -1.45808166344579     -3.06196595907210
  C          -1.57845988152261     -1.39015966037425      0.33720962455958
  C          -1.17441265391000     -3.31654111586729     -1.34716024284859
  O          -2.15515595858742     -0.35781667697890      0.62723594826696
  O          -1.10697633037088     -2.15701095528184      1.30703032889612
  H          -0.30205625177882     -3.47725517227473     -2.00099148662197
  H          -2.03897681466384     -3.69848359450020     -1.89836945890301
  C          -1.02119693746830     -4.13661150526059     -0.06165208032865
  C          -0.32443198373215     -3.34366038193944      1.02884329510988
  H          -0.45655519668774     -5.05871405034400     -0.26930898573071
  H          -2.01449499516872     -4.42224008095537      0.31297475008477
  H           0.66952609033344     -2.99834185047839      0.70101714875824
  C          -5.12129405032238      0.85555057295405      1.46094070052978
  H          -4.03807921899959      0.76407712755263      1.64073894555292
  H          -5.62242579545209      0.31322360886025      2.28076617183495
  C          -0.18217033583491     -4.05888769664279      2.36436926874802
  H          -1.18072541966376     -4.39566982471030      2.69493622916000
  H           0.15784292919024     -3.31046083218420      3.09974429779815
  H          -5.45725344035880     -2.92195083856027     -2.68277514195656
  C          -5.55159686796731      2.32349988025157      1.47267747326152
  H          -6.62818650373023      2.39933705258131      1.22919681003100
  H          -5.02193136289192      2.87683136381851      0.67715576202826
  C           0.79607175408340     -5.23491756418829      2.33750421889668
  H           0.44194792822658     -6.00508943951557      1.62980699739895
  H           1.77067964160627     -4.88860803278689      1.94661186747422
  C          -0.18171377478923      4.97482719058208      1.52551959720757
  H          -1.16212846140599      4.69832555138392      1.95622412075721
  H          -0.38735372987697      5.32420284412130      0.49854803305197
  C           7.57958050635589      0.75220537328495      0.28870075679939
  H           7.14399721660467     -0.09815436373789      0.84190092295707
  H           7.98816862370843      0.32746288614438     -0.64650007528472
  C           8.71170347170123      1.36328044680151      1.11435755525762
  H           9.48730664071840      0.61678164241423      1.34771610218054
  H           9.19768463044162      2.19390172049860      0.57558048329894
  H           8.33577678602916      1.76484956300260      2.07020481212026
  C           0.42888535212287      6.12142545779910      2.33144010659676
  H           1.39578667259173      6.43483645581903      1.90364403080219
  H          -0.23233852662244      7.00265991907237      2.34718013754031
  H           0.61222809163073      5.82127888963426      3.37692317677641
  C          -5.28177175936095      3.00157787415281      2.81644002006546
  H          -5.59200576602283      4.05888358102345      2.80765510086484
  H          -5.82532850536429      2.49896236821942      3.63394295087381
  H          -4.20836911221220      2.96764986843898      3.06802411456476
  C           0.99337934738426     -5.86973934412861      3.71418386353686
  H           0.04048113885857     -6.25316651280180      4.11623082048056
  H           1.70246906478523     -6.71226466682530      3.67438302045770
  H           1.38386121231418     -5.13575043066683      4.43894092778031
