104
Coordinates from ORCA-job orca E -2044.695198434083
  C           0.53956971086820      0.28578020118164     -1.10900466113206
  C           1.01211965988786      0.17316347036673      0.35436138103266
  O           1.52270438009117     -0.83035129399802      0.79468844959788
  O           0.99402604558949      1.26908382547419      1.12875087268936
  C          -0.46867857702905      1.44181094552592     -1.29263503889435
  H          -1.43803221653056      1.14079462994143     -0.88494597198762
  H          -0.59943193551238      1.63652834653429     -2.36893224191383
  C           0.07436787911119      2.37200633803718      0.93193787459645
  H          -0.90402198686878      2.02059691282998      1.30538336503659
  C          -0.05128200375538      2.70386738368983     -0.54500633610120
  H          -0.81699058191999      3.48471924039888     -0.67611882433272
  H           0.89838756501198      3.12300740081334     -0.91869558976095
  C           0.04203579931370     -1.09139885342239     -1.61012568909439
  H           0.83721252940082     -1.80462237320797     -1.36694722670667
  H           0.00864868901512     -1.05617374507562     -2.71082568233153
  C           1.82551153646784      0.68242549086788     -1.94039162210598
  C           2.84202994738971     -0.37895676336046     -2.31230542674717
  H           2.33485648254648      1.49895004269703     -1.40859531670932
  H           1.46191622231353      1.12792801014732     -2.87817694809900
  C           4.55731908209171      1.74079601952168     -2.79947205481128
  C           3.76258961719907     -0.95082132043782     -1.25167199491517
  C           2.89207817514533     -0.83416825346784     -3.57364955606240
  O           4.25710034113907      2.23514174413286     -3.83707635828127
  O           5.59734142538701      0.96269630822690     -2.55162699889908
  H           4.43583613544738     -1.68458410996315     -1.72492730615025
  H           3.14606735366697     -1.49941632308077     -0.52605085443366
  C           4.59507339942949      0.06750753232064     -0.45759863795149
  H           2.22505292532338     -0.44849906903744     -4.34986048826655
  H           3.62871188110973     -1.58240805282551     -3.88098206722165
  C           5.84902090467923      0.56864764089129     -1.16959482515421
  H           4.93032010222741     -0.40989070024218      0.47650168744085
  H           3.97458230053497      0.92219875267671     -0.14048415285505
  H           6.54679282345929     -0.27495099651872     -1.29656103569510
  C           0.57742541394100      3.50058458715581      1.81973595318214
  H           1.54593339893769      3.86180542892240      1.42856116269631
  H           0.78403957369828      3.07143601559119      2.81469397397867
  C           6.56318710067547      1.71613579761096     -0.45976822704770
  H           5.86200684139532      2.56733788010971     -0.37920235743361
  H           7.38803638490852      2.05274246457209     -1.11134660307243
  C          -3.97805087128070     -1.44252087565515     -1.78982446615246
  C          -4.28453568676072     -1.88093306217163     -0.34752391128325
  O          -3.93305453154885     -2.96248647439409      0.06405169404163
  O          -5.01805166481220     -1.09819774650183      0.45045139290926
  C          -4.78856349322420     -0.17991040076879     -2.15076720155771
  H          -5.84427389483710     -0.45663237014730     -2.31925265032144
  H          -4.41938055240404      0.23027356765672     -3.10535418895172
  C          -5.33844473326124      0.29722119312600      0.23466730252091
  H          -6.43858754441059      0.31755682214697      0.12291585423381
  C          -4.70953820573978      0.85360466451767     -1.03619798023750
  H          -5.24145807863080      1.77559956623211     -1.31704226934875
  H          -3.66255040971608      1.12766501293495     -0.83766238775583
  C          -4.44246756927895     -2.60082725381149     -2.69716566312960
  H          -3.92911390819951     -3.53947017180475     -2.45732437554181
  H          -4.25309400121372     -2.34853403177890     -3.75297488058785
  C          -2.45788374934953     -1.12107951758568     -2.01625792538641
  C          -1.32594679613642     -1.73573404359611     -1.15079952982577
  H          -2.35154659196391     -0.03550954647139     -1.97290633520922
  H          -2.23103230663101     -1.39666256627556     -3.05956419709701
  C          -1.53179534528877     -1.36587120217591      0.32396236869273
  C          -1.20475207039958     -3.27534385111135     -1.39235257157583
  O          -2.08450220069501     -0.32837286134463      0.64327934413859
  O          -1.03836402460306     -2.14604389107373      1.27130188220804
  H          -0.34281112906333     -3.44568963390198     -2.05730380619773
  H          -2.08225557528120     -3.63296428111571     -1.94009028496585
  C          -1.05411762685534     -4.11336088710911     -0.11864730666592
  C          -0.30377937976975     -3.35683190298327      0.96205851681027
  H          -0.52733867677490     -5.05277436778099     -0.34691613558347
  H          -2.04848052059435     -4.36661177930312      0.27608653234535
  H           0.69299855404483     -3.04201499036978      0.61288843535987
  C          -4.94113089344939      1.02924133175603      1.51384616884624
  H          -3.85789921274413      0.88732583749847      1.65438042636630
  H          -5.43561850776231      0.52134885531045      2.35928221497534
  C          -0.15408582472615     -4.08959593428063      2.28716778057002
  H          -1.15491256677724     -4.39893758256415      2.63711519042107
  H           0.22538069621495     -3.35946490462876      3.02167247532239
  H          -5.52322954651636     -2.77851355009469     -2.57919706341254
  C          -5.29817325554703      2.51697479761160      1.52280691064914
  H          -6.38342381871248      2.64252138349816      1.34915022365739
  H          -4.79650241460323      3.02949004463788      0.68305435236494
  C           0.78691428238654     -5.29437434983874      2.22716883004095
  H           0.39521856564679     -6.04536782802310      1.51859617508377
  H           1.76340180339714     -4.97325596121816      1.82003380838732
  C          -0.40731197539714      4.66465525229280      1.95488538683509
  H          -1.38661159057472      4.27411547476727      2.28820422772855
  H          -0.58545725002996      5.12504497902173      0.96710901756753
  C           7.11500950382528      1.36104253560201      0.92353471911061
  H           6.28724815817096      1.08709497415580      1.59971989597644
  H           7.75196766005041      0.46093352113204      0.84149376737805
  C           7.91807590373699      2.50277206079981      1.54695591924869
  H           8.30059145988335      2.22916908472892      2.54306707224779
  H           8.78282865352801      2.77508770753610      0.91879325745321
  H           7.29812191206797      3.40746743854437      1.66417536122066
  C           0.07620729480137      5.73706031558557      2.93086321762214
  H           1.03957168189302      6.16573216828859      2.60693277073219
  H          -0.64644544291872      6.56447775673895      3.01358295164296
  H           0.22448496084620      5.31947368745698      3.94078751470094
  C          -4.90418261497983      3.20421406971424      2.83068750948157
  H          -5.16743931963421      4.27416982176702      2.82339729671301
  H          -5.40797242660352      2.74006164542147      3.69496020045498
  H          -3.81754981922684      3.12600215673055      3.00533669012570
  C           0.99263621800214     -5.95045845469722      3.59260471650604
  H           0.03672785118196     -6.30828429869832      4.01079070792550
  H           1.67367198925726     -6.81433089389388      3.52867477231298
  H           1.42160614420531     -5.23750681564120      4.31662565177436
