104
Coordinates from ORCA-job orca E -2044.723257413625
  C           0.42569730722361      0.55982837965358     -1.38641787059906
  C           0.95198797244853      0.60891507621364      0.06327583767494
  O           1.76376242223263     -0.20964003624255      0.44800375507435
  O           0.52795392733939      1.53020595246271      0.91189862409368
  C          -0.70026511016182      1.59087134534262     -1.62077928736089
  H          -1.64654946392963      1.20912548380501     -1.22648566040657
  H          -0.83194958309495      1.74312222207622     -2.70484804148043
  C          -0.34243630993081      2.64610709431108      0.59645450015656
  H          -1.34025456932796      2.34148903052148      0.95712543321676
  C          -0.40347047984906      2.90118021558528     -0.90143416357783
  H          -1.20312992614367      3.63147996722104     -1.10081682481117
  H           0.54756203576872      3.34381255252030     -1.23393762811601
  C          -0.00505710143276     -0.91001699404166     -1.69055600833712
  H           0.85098996358646     -1.53721247172333     -1.42356090956158
  H          -0.11338850742803     -0.99978143108052     -2.78342525986597
  C           1.58936665012087      0.93688284129348     -2.38719887697290
  C           3.09922200413699      0.75260744501464     -2.06288537875043
  H           1.47152572120969      2.00099784783916     -2.62501641453006
  H           1.39471816189961      0.39259991026240     -3.32468240216330
  C           3.48366357407845      1.69664203446118     -0.90850097074894
  C           3.55120271763967     -0.72143481387053     -1.84332870777150
  C           3.86102309014861      1.35293547519435     -3.22021130273224
  O           2.82188843419295      2.66516413588511     -0.61745881114668
  O           4.65225105732138      1.48818688002788     -0.29130142736322
  H           3.98357395885872     -1.08658484523222     -2.78905558861658
  H           2.68310299531265     -1.35116786335689     -1.63235205695466
  C           4.55990444396542     -0.88552634623545     -0.70330657907218
  H           3.60911309586077      2.35931904741121     -3.56491054979203
  H           4.74627126992630      0.86550043373806     -3.63385950478305
  C           5.46494572464818      0.32908733295021     -0.57979173318116
  H           5.16689878579982     -1.79054762665353     -0.85888318610581
  H           4.02310768351484     -0.99474453199172      0.25094132935638
  H           5.99012139550692      0.51731249056339     -1.53608407567813
  C           0.17637705889512      3.81404771958508      1.42590614564326
  H           1.19335444817662      4.05966702152876      1.07603640305673
  H           0.27837396939719      3.46150729161770      2.46634425121479
  C           6.49244050970785      0.25649920203601      0.54241081837086
  H           5.96282219275551      0.04224592772491      1.48739855786738
  H           6.93102476467458      1.26263276064795      0.65496317306837
  C          -3.97053223372448     -1.68684047769651     -1.68242846829296
  C          -4.19624403069616     -2.00326913703274     -0.19325332386071
  O          -3.69613081470424     -2.97690549691619      0.32198642936768
  O          -5.02742937332314     -1.24873026156530      0.53199000655089
  C          -4.92380141653236     -0.56507661994456     -2.14600108297563
  H          -5.94190699408801     -0.97565042532209     -2.26667689595086
  H          -4.61294609430365     -0.21091763683582     -3.14289908617737
  C          -5.51928252617164      0.06945427742697      0.18624641688299
  H          -6.61268584557023     -0.05907248480090      0.07956424900756
  C          -4.95706641415753      0.57309674450943     -1.13644228466252
  H          -5.59049467347382      1.39850999496539     -1.49627316926810
  H          -3.94637026725356      0.97629784958897     -0.97586617812974
  C          -4.32624723427680     -2.97612010395293     -2.45310608162053
  H          -3.68479272874812     -3.81796541411176     -2.16630834051617
  H          -4.22065602924721     -2.80356014973754     -3.53653266281172
  C          -2.49778951372832     -1.23961318032278     -1.99646874793030
  C          -1.29538211099519     -1.59660188691748     -1.08377175906851
  H          -2.50703163013513     -0.15302059777914     -2.11573016495663
  H          -2.25570298642822     -1.64155676607823     -2.99431395174155
  C          -1.51735693336209     -1.03208446770139      0.32367187183460
  C          -1.03051968285008     -3.13705615631960     -1.07646934841981
  O          -2.25363373378628     -0.08585872411079      0.52488529870009
  O          -0.83027068443902     -1.54332199754368      1.33558038369201
  H          -0.23833087298247     -3.34707475751033     -1.81353694514875
  H          -1.92340033209752     -3.66363778560552     -1.42388198932737
  C          -0.65035625370901     -3.70678177808237      0.29626744318747
  C           0.05811733638602     -2.67750360720522      1.15877242189864
  H          -0.00926276107239     -4.59364792630589      0.17644671670654
  H          -1.56354499804472     -4.01741061053408      0.82528735785409
  H           0.96795884843032     -2.29731082347424      0.66975155860055
  C          -5.22600444578190      0.96324798763702      1.38791362311043
  H          -4.13461299362228      0.97572754790649      1.53557841321679
  H          -5.65830041948562      0.47869438163632      2.27993948066115
  C           0.42111916648092     -3.13377621287499      2.56364530827662
  H          -0.48457711129521     -3.52356213719895      3.06133837192468
  H           0.73041482133018     -2.23605576245902      3.12451680638322
  H          -5.36854829536090     -3.27402165392373     -2.25715343066479
  C          -5.77010547508078      2.38728803501357      1.25785263823765
  H          -6.85886345105480      2.35571718140487      1.06406379426876
  H          -5.32015537989099      2.88284649180937      0.37952345609759
  C           1.54321062937592     -4.17322267505709      2.60251056870634
  H           1.23044449196943     -5.08871449824462      2.06956467566598
  H           2.41748530841789     -3.78288051655205      2.04963337693975
  C          -0.72743756958637      5.04811489495201      1.38798358619597
  H          -1.75891182454364      4.75619490206817      1.66172441052727
  H          -0.78657098468791      5.44043410034331      0.35741058932796
  C           7.60583071859769     -0.76727400459843      0.31174751010988
  H           7.17622001816650     -1.78114087968155      0.23009646424918
  H           8.09331961586664     -0.56596811087237     -0.66026559036233
  C           8.65613329689141     -0.75378906859657      1.42260045224115
  H           9.44891262061217     -1.49654461851504      1.23928161054657
  H           9.13625615374844      0.23565367294465      1.50588231133506
  H           8.20274676404367     -0.98255566344038      2.40161803445636
  C          -0.24572613030771      6.15979469920353      2.32029604352027
  H           0.77343583646151      6.48664968956546      2.05408373125201
  H          -0.90385835380659      7.04242346274972      2.27358580656874
  H          -0.21755441659304      5.81733556724404      3.36835642756734
  C          -5.49404887418279      3.23256573434541      2.50176196579942
  H          -5.88857391422778      4.25581740853262      2.39433508769255
  H          -5.95597451423743      2.78709741043088      3.39873570487901
  H          -4.41059696218713      3.30800067420347      2.69470811007306
  C           1.96058252547555     -4.53830218745613      4.02719056011486
  H           1.11301740971097     -4.95588512698875      4.59633480062109
  H           2.76851750192885     -5.28764278141066      4.03342269046172
  H           2.32053093689069     -3.65197369427024      4.57605332826021
