104
Coordinates from ORCA-job orca E -2044.699544770868
  C           0.46997519893735      0.25614460002933     -1.10716886880758
  C           0.92603406343847      0.21083348587790      0.35970441653437
  O           1.33272510467559     -0.79444925168653      0.89240033567635
  O           1.02689097864834      1.37387974084851      1.02510992801404
  C          -0.54893689756305      1.39780759698536     -1.31807987639642
  H          -1.48634984068252      1.13347811608144     -0.81658937474516
  H          -0.75615764965012      1.50201827641566     -2.39529910160856
  C           0.20884157355925      2.54368332263613      0.75794793425841
  H          -0.74874992943366      2.35584950024184      1.27730127710171
  C          -0.06267975043657      2.71899477912950     -0.72819813358853
  H          -0.84343260220487      3.48618477444950     -0.85116051817020
  H           0.83555149508618      3.10152148649082     -1.23827527862276
  C           0.00346226743196     -1.14196716063370     -1.57326779080207
  H           0.80331429028863     -1.83599477935927     -1.29002036953809
  H          -0.00204252977431     -1.14000620618817     -2.67557084467363
  C           1.74989139259090      0.64004233362272     -1.94309004997377
  C           2.84141694144583     -0.37891327501610     -2.18028689404919
  H           2.19123285656291      1.52248525672746     -1.46563787970309
  H           1.38610787058220      0.98262092897942     -2.92393851805211
  C           4.01322476324657      2.93442776353140     -1.44766311776578
  C           3.71387158601821     -0.83361259976687     -1.02906765883913
  C           3.04936972492717     -0.85383747009443     -3.41744924299490
  O           3.41792589873908      3.76187608279451     -2.06161519762221
  O           4.80155054230218      1.99141385606091     -1.92295762844450
  H           4.48468886108506     -1.51527823243863     -1.42622005679956
  H           3.10226441472936     -1.42026157268423     -0.32770509815106
  C           4.40498514667455      0.26579027800820     -0.20598129389616
  H           2.42680447827133     -0.54550391268350     -4.26270624594866
  H           3.85626519010213     -1.56164716426665     -3.63070727793900
  C           5.44265583817344      1.09155779319611     -0.96040818106966
  H           4.91812464995083     -0.22618303134918      0.63527769701524
  H           3.67443930749336      0.94756985230170      0.26114677369236
  H           6.03002982341076      0.43414500232226     -1.62078559357413
  C           0.92928167458716      3.70973201702016      1.42009434952259
  H           1.88699163617153      3.87553548085508      0.89521230643355
  H           1.18190188996169      3.40478416258325      2.44979645643031
  C           6.39316029877881      1.89293840523704     -0.07281563264572
  H           5.80034120156528      2.50382487819061      0.63155474886563
  H           6.93729298837349      2.60128712435357     -0.72123555312821
  C          -4.00758705141379     -1.53006370304595     -1.82197721168158
  C          -4.33223290133718     -2.02016946981063     -0.40029106487809
  O          -3.97090422624185     -3.10889152738204     -0.01709463265145
  O          -5.08834843779234     -1.27457997436355      0.41145694713186
  C          -4.83106985895247     -0.26875654714484     -2.15786124530024
  H          -5.87825874818544     -0.55622290195959     -2.35873897914499
  H          -4.44779770439222      0.17845675526503     -3.08999038802058
  C          -5.44354231444565      0.11668133576251      0.22676595713424
  H          -6.54029050342281      0.10992135911537      0.08257094465960
  C          -4.79353242946516      0.72732370648051     -1.00748911409361
  H          -5.33362563525326      1.65030941447609     -1.26915316472587
  H          -3.75609503301744      1.00849461864772     -0.77281099859252
  C          -4.43609070421026     -2.66450496877075     -2.77597284501981
  H          -3.90930295179386     -3.60180526003839     -2.56113582727860
  H          -4.23464175194187     -2.37211350849826     -3.81920177696361
  C          -2.48885889567583     -1.17768844738956     -2.00889764869624
  C          -1.36426435702744     -1.79516875575792     -1.13640566338531
  H          -2.40273581605536     -0.09281086064425     -1.92977871387899
  H          -2.23698274299511     -1.41954278529767     -3.05490507643477
  C          -1.59733224170836     -1.43842608644643      0.33902325578371
  C          -1.22622894064196     -3.33087492381583     -1.39242128416858
  O          -2.15812093994874     -0.40533376012806      0.65615003813820
  O          -1.13157917407505     -2.23426379151033      1.28799381726011
  H          -0.35843597422003     -3.48511877119504     -2.05382343363094
  H          -2.09668339684067     -3.69175533952159     -1.94859350735768
  C          -1.07428697724567     -4.18196270623607     -0.12723393480633
  C          -0.36296250603893     -3.42145021864923      0.97701532766699
  H          -0.52009384814237     -5.10458759160151     -0.35928437321580
  H          -2.06810530958358     -4.46609317986232      0.24705727840683
  H           0.63249012023178     -3.07837473128562      0.65073417579917
  C          -5.10704381140909      0.81914327550951      1.53901242642459
  H          -4.02227704706675      0.71732754343899      1.70360560642454
  H          -5.60194667573894      0.26225293884421      2.35281573080419
  C          -0.21955258386321     -4.17023822488625      2.29393582088475
  H          -1.21956612603805     -4.50439574473954      2.62272945157548
  H           0.13312429423714     -3.44378490243223      3.04524605128774
  H          -5.51516565181789     -2.86552057310350     -2.68244704677142
  C          -5.52862156651365      2.28886001283741      1.58714853167419
  H          -6.60722235811450      2.37583267204200      1.35674838454329
  H          -5.00419395321982      2.85641231349461      0.79814405498206
  C           0.74557273314973     -5.35572960661521      2.23147602519231
  H           0.37869875184251     -6.10397764456380      1.50695110840849
  H           1.72146282200576     -5.01037055980797      1.84295472592190
  C           0.11517888948769      5.00524775280396      1.44973373394407
  H          -0.86786977859853      4.80800554906529      1.91613491763954
  H          -0.09751536698697      5.33873483234639      0.41906833015848
  C           7.40443532353045      1.03782330028699      0.69624169024634
  H           6.87605184125175      0.34661407189371      1.37528961031401
  H           7.95715701702523      0.39933785281875     -0.01725995207650
  C           8.39246817795041      1.88019618240706      1.50343597909610
  H           9.10724444940968      1.24627985251918      2.05162111078266
  H           8.97324810143953      2.55204325504386      0.84946251389230
  H           7.86878035627321      2.50980426873224      2.24215552132455
  C           0.82557916541019      6.12884047743395      2.20449906763061
  H           1.79800817389364      6.36521749521057      1.74095522880445
  H           0.22580120531580      7.05295647425568      2.21272941711843
  H           1.01956036092329      5.84567305431875      3.25276364892672
  C          -5.24104359469355      2.93582788525478      2.94250894495476
  H          -5.54460270626214      3.99498119191689      2.96006249644739
  H          -5.77960859282779      2.41873056030687      3.75426450582915
  H          -4.16542327914765      2.88953146097724      3.18240916948476
  C           0.94463369145892     -6.02733913469610      3.59029398521782
  H          -0.01001349854199     -6.40951470300684      3.98937239251660
  H           1.64317106962101     -6.87699270924743      3.52400946172659
  H           1.34913667038269     -5.31683008885491      4.33060555061906
