104
Coordinates from ORCA-job orca E -2044.696291737957
  C           0.54196885055798      0.21439704582570     -1.16405826560224
  C           1.02020095304110      0.10323150431616      0.29641231462866
  O           1.48534751744975     -0.91454602286894      0.75252162279064
  O           1.05948193976385      1.21521117216985      1.04932455629798
  C          -0.44784144261473      1.38731898066462     -1.34335406556288
  H          -1.41428160281872      1.10743365797257     -0.91430531823898
  H          -0.59468350426558      1.57316632769129     -2.41920816073586
  C           0.16012216647277      2.33596157250030      0.85909027908921
  H          -0.81629773280864      2.01218153371885      1.26184788794209
  C           0.00408591390951      2.65130558356970     -0.61854112742341
  H          -0.75469879624417      3.44036467783262     -0.74070955476200
  H           0.94941410809318      3.05509394611463     -1.01897712364108
  C           0.01960802714411     -1.15745711380971     -1.65473501251740
  H           0.80980653678419     -1.88003298396595     -1.42188431231928
  H          -0.02996671675771     -1.12271068590491     -2.75524035902192
  C           1.81906662202539      0.58186825802630     -2.01689753465007
  C           2.86913824838389     -0.47086171876556     -2.31252702217074
  H           2.30396975297850      1.44760955464978     -1.54301833463119
  H           1.44433845877467      0.95110209588800     -2.98322027026834
  C           4.55471412319751      1.80705515475833     -2.78283004327944
  C           3.78539743068695     -0.96114633488285     -1.20766357239117
  C           2.97309125856441     -0.96872202266687     -3.55374645736873
  O           4.26789126444058      2.22431621909735     -3.85703214153627
  O           5.56382834552967      1.01216968060536     -2.47210433890104
  H           4.52389641931373     -1.65510459363258     -1.64196874159385
  H           3.18166846349332     -1.54066235522548     -0.49547161934124
  C           4.51658062244757      0.12495382874282     -0.40165234817730
  H           2.31268500288378     -0.64004124474993     -4.36127072922652
  H           3.74393677424594     -1.70089900058277     -3.81219227076394
  C           5.77310735250085      0.68259973530730     -1.06577496707376
  H           4.82963391566426     -0.30736973446330      0.56147452872946
  H           3.83174122573331      0.94817699264246     -0.14025489730341
  H           6.52522367377326     -0.11997858536392     -1.13327319691140
  C           0.70988773444837      3.46475097126594      1.71846376053687
  H           1.68073641326606      3.79219843889023      1.30395467758136
  H           0.92285974679608      3.04647817576816      2.71673676313338
  C           6.38205548854189      1.89117156713977     -0.35941749995315
  H           5.63009206619192      2.70142786050776     -0.34266657595467
  H           7.22025945923795      2.25543146451301     -0.97829643191224
  C          -4.00898257076214     -1.42780652282052     -1.75506080162120
  C          -4.29535491915588     -1.86206051432886     -0.30743765721341
  O          -3.96187006919231     -2.95293578999114      0.09425717030352
  O          -4.99460607846668     -1.06420308144020      0.50643658530094
  C          -4.79658237578398     -0.14495012361007     -2.09494537522957
  H          -5.86263323004633     -0.39491155434589     -2.23842266778800
  H          -4.44029211775446      0.25795602094184     -3.05748474609799
  C          -5.27736666815179      0.34157975377394      0.30389514646136
  H          -6.37875044020918      0.39554097364497      0.21994098478743
  C          -4.66425809087121      0.88373155896483     -0.98087463440434
  H          -5.17769976178125      1.82035089450757     -1.24739422301602
  H          -3.60583199491531      1.12908479114599     -0.80733743792239
  C          -4.52072303232505     -2.57346465238158     -2.65282790300349
  H          -4.02342216002767     -3.52344097479607     -2.42411385391340
  H          -4.34895004114642     -2.32442963066538     -3.71240754647695
  C          -2.48702959471809     -1.14321672940448     -2.01617716859528
  C          -1.34981054332913     -1.78268651672424     -1.17503922445327
  H          -2.35401792991859     -0.06056058051540     -1.97918479384041
  H          -2.29083196126788     -1.42686903406721     -3.06350466406141
  C          -1.52319719787541     -1.41737015407293      0.30520400064370
  C          -1.25995855201565     -3.32247092451305     -1.43000475222257
  O          -2.03554631399445     -0.36277367994771      0.63624850255099
  O          -1.04954694419992     -2.22113459053922      1.24198133265955
  H          -0.40478818173970     -3.50409393639437     -2.10068229846473
  H          -2.14655459438956     -3.65835045555962     -1.97758159733933
  C          -1.11761342524348     -4.17509014835021     -0.16525860069524
  C          -0.34280754891362     -3.44328187500420      0.91519528446141
  H          -0.61146362248985     -5.12269972751952     -0.40588122795501
  H          -2.11342057195201     -4.41179172598701      0.23586273512912
  H           0.65655723354836     -3.14465225409548      0.55864147596539
  C          -4.82447204865205      1.05478056003851      1.57546032256665
  H          -3.74632904737885      0.86392132829948      1.69462291332383
  H          -5.32501159702853      0.56921633522371      2.43042900320637
  C          -0.19513748083927     -4.19151245108061      2.23182159877409
  H          -1.19852475658471     -4.48523238066352      2.58781688185802
  H           0.20463096936756     -3.47608342606663      2.97003899674888
  H          -5.60235920092641     -2.72643929097904     -2.51076224796547
  C          -5.11214420030537      2.55741808742152      1.59137838644043
  H          -6.19318313199801      2.73458418658855      1.43741950778952
  H          -4.60151562173806      3.04656631267504      0.74318254502129
  C           0.72206623007833     -5.41331209799033      2.15129552352652
  H           0.31038752560476     -6.14903010119588      1.43803378233263
  H           1.70115930105403     -5.10658094906902      1.73932653983454
  C          -0.23968669802986      4.65791340618209      1.85108002693155
  H          -1.22631494220044      4.29949937041116      2.19857651164072
  H          -0.41467468834573      5.11272856843998      0.86019833310009
  C           6.87800233429261      1.61038904364076      1.06159718984295
  H           6.03243345017539      1.30362391270331      1.70057068125248
  H           7.57299711127116      0.75061938212632      1.04168618045419
  C           7.57393423891282      2.81742264692985      1.69069132165161
  H           7.92098981196418      2.59463665143012      2.71214002958254
  H           8.45118890334255      3.12847137923959      1.09890799199065
  H           6.89311269558695      3.68317598689297      1.75105450295169
  C           0.28408162573921      5.72623117526840      2.81061044622234
  H           1.25567095785696      6.12460143028908      2.47274336591652
  H          -0.41420315937306      6.57446323345242      2.89176559765007
  H           0.43087136356753      5.31511351489643      3.82340977297552
  C          -4.66221254122623      3.22332747007072      2.89227552279127
  H          -4.87184270287186      4.30512178700228      2.88950976435844
  H          -5.17353767748213      2.78422913098720      3.76517610515668
  H          -3.57803133017357      3.09054168791291      3.04817340520405
  C           0.92647346546343     -6.08816825515359      3.50772566585025
  H          -0.03272499709857     -6.43138688803272      3.93058898598259
  H           1.58938359693683     -6.96476630445474      3.42828392774374
  H           1.37621945930012     -5.39214686263705      4.23562477584711
