104
Coordinates from ORCA-job orca E -2044.700127078947
  C           0.47963806884704      0.29826207880882     -1.10104537932893
  C           0.92284283805357      0.27351214147807      0.37127169597584
  O           1.35142842552364     -0.71941341914129      0.91088973262047
  O           0.98634293491257      1.43977375176919      1.03344290114113
  C          -0.54997089445364      1.42520608481966     -1.33717631939078
  H          -1.49465948622423      1.14880468705284     -0.85672327856919
  H          -0.73507143030887      1.52366251504438     -2.41906893668498
  C           0.13123547520939      2.58166956509882      0.75608113356459
  H          -0.83303030059194      2.35143892318195      1.24485818974960
  C          -0.09979595882365      2.75419532591326     -0.73673365790463
  H          -0.88702068295143      3.51040967090362     -0.88408189087351
  H           0.80982993112388      3.14841211075909     -1.21632164178380
  C           0.02969132457179     -1.10998470148177     -1.55506220099768
  H           0.83230022248842     -1.79422730660182     -1.25665206034195
  H           0.03460964725740     -1.12099051135996     -2.65731122103556
  C           1.76389547805866      0.68091022771219     -1.93239801559640
  C           2.85471286915860     -0.34329997049209     -2.16174811849392
  H           2.20679018715579      1.57043942908714     -1.47028797826032
  H           1.40080072786720      1.00862828290038     -2.91861516030841
  C           4.05942003778404      3.13224274578920     -0.87341986850140
  C           3.70796116431183     -0.82692108624422     -1.00760347499201
  C           3.08519252683681     -0.79555802152611     -3.40400447284874
  O           3.35543929354427      4.01687125340268     -1.24546403750192
  O           4.64658049099283      2.21043063096159     -1.61145503541338
  H           4.47521368523617     -1.50875017595592     -1.41139473752661
  H           3.08480693932692     -1.41959480715450     -0.32175579443219
  C           4.40782791288062      0.24633867223175     -0.15701565657276
  H           2.47976041289523     -0.46972299263681     -4.25519764894649
  H           3.89094121425848     -1.50560449961881     -3.61446606594102
  C           5.38092389020129      1.15140166184114     -0.91255491840803
  H           4.96774111945139     -0.27807535762055      0.63341685736700
  H           3.68124259997705      0.87954964203754      0.37967167558061
  H           5.83526599501295      0.59996178928795     -1.75054310154754
  C           0.78709640523517      3.76871152225320      1.44740304680089
  H           1.74161000719161      3.98878307193879      0.94047470372136
  H           1.03455931530272      3.45960751456277      2.47712397181901
  C           6.48603837010963      1.76151195965030     -0.05294684934804
  H           6.03461590311762      2.23075883879262      0.83927182951517
  H           6.95442744669800      2.57555947472089     -0.63278337483301
  C          -3.97398548515324     -1.54834700632271     -1.84604328321021
  C          -4.30849074973547     -2.03146912743420     -0.42417358777093
  O          -3.93480513437768     -3.11099360996806     -0.02698455719920
  O          -5.08581187859406     -1.29099673527234      0.37193736706771
  C          -4.80870249331046     -0.29989635738496     -2.20145424897822
  H          -5.84940666049102     -0.60203938679725     -2.41429006412214
  H          -4.41875323752369      0.14585559113982     -3.13151648376165
  C          -5.46132905329071      0.09259529346009      0.17009005578468
  H          -6.55505542156330      0.06633530212911      0.00624003314947
  C          -4.79977146590548      0.70411786351953     -1.05735387054213
  H          -5.34712851362689      1.61877024675213     -1.33278879603751
  H          -3.76933728288614      0.99849802040523     -0.80861047185718
  C          -4.37829649700179     -2.69522464066448     -2.79596948851999
  H          -3.83811731032596     -3.62302468395477     -2.57281923418131
  H          -4.17404905689527     -2.40557469036439     -3.83944794575483
  C          -2.45707087439788     -1.18059246460979     -2.01981488802163
  C          -1.33634178161988     -1.77124436799129     -1.12413957535117
  H          -2.38448705531856     -0.09353068863015     -1.95728432465859
  H          -2.18912075449128     -1.43588354219222     -3.05862123002733
  C          -1.59053941966879     -1.39560733717880      0.34284346523365
  C          -1.17936103856553     -3.30914669209748     -1.35422717308367
  O          -2.17295774149276     -0.36841784832362      0.63931805716308
  O          -1.11771358217394     -2.16780412349389      1.30794844911437
  H          -0.30951156954103     -3.46349963027036     -2.01294337710494
  H          -2.04569273677436     -3.68948397752220     -1.90352903419498
  C          -1.01916522036822     -4.13720624189123     -0.07454897246164
  C          -0.32787786371801     -3.34756210883777      1.02187470536163
  H          -0.44808028761044     -5.05378595285926     -0.28896846710196
  H          -2.01025662666203     -4.43288944621818      0.29820980172272
  H           0.66416753050522     -2.99395962532419      0.69717602357560
  C          -5.16102175973105      0.80963041197744      1.48313920138100
  H          -4.07827151024013      0.72564080243016      1.66990626625252
  H          -5.66346663863269      0.25099598091358      2.29112897025405
  C          -0.18178057865280     -4.07148118370413      2.35229236573526
  H          -1.17864541021051     -4.41522897786489      2.68078328744818
  H           0.15500719910194     -3.32670996789497      3.09285441581317
  H          -5.45473424097157     -2.91264504684631     -2.70893098347368
  C          -5.60550969690184      2.27305616769957      1.51224866998468
  H          -6.67838004844242      2.34302474071016      1.25117069355960
  H          -5.06729533786031      2.84465324890993      0.73557287735965
  C           0.80188150529152     -5.24275840781671      2.31672391369425
  H           0.45055687419023     -6.00987139719630      1.60433522695330
  H           1.77448520124299     -4.88938500968647      1.92710549464003
  C          -0.08666745727943      5.02472666931451      1.48209395354854
  H          -1.06196053617741      4.78132119748911      1.94298591162605
  H          -0.30973789844647      5.35559484666739      0.45266445579159
  C           7.56514528844566      0.75972790785075      0.36754263240521
  H           7.11127999884593     -0.06427900190317      0.94531776003023
  H           7.99846896178214      0.29289108815930     -0.53594486272846
  C           8.67616833640310      1.40395977478712      1.19672974426816
  H           9.44159024519918      0.66624520636529      1.48502517523274
  H           9.18064627040579      2.20798014154824      0.63510042367161
  H           8.27527537880228      1.84928652032213      2.12257069388044
  C           0.57117083678597      6.17412398781518      2.24576672153862
  H           1.53345986913040      6.45443895234540      1.78586904047515
  H          -0.06866390649454      7.07102336475809      2.25812038674382
  H           0.77485561816685      5.89309693901909      3.29279424142821
  C          -5.36636309984881      2.93011294992878      2.87213983596592
  H          -5.68271925526589      3.98563508339741      2.87489228147472
  H          -5.92314819426120      2.41064505474568      3.66997345623207
  H          -4.29811276829223      2.89778209492366      3.14463423019733
  C           1.00363863455858     -5.88580025848772      3.68893279471701
  H           0.05294701813670     -6.27620475353905      4.08948236365665
  H           1.71646451554342     -6.72484183223693      3.64269789294104
  H           1.39166174101611     -5.15491004886961      4.41812674159704
