104
Coordinates from ORCA-job orca E -2044.697072361235
  C           0.54037698408137      0.19042605057565     -1.18876381197381
  C           1.02025812149399      0.08477713970023      0.27134611276759
  O           1.47853393143156     -0.93346475864932      0.73297710957422
  O           1.06961690032887      1.20183550674761      1.01674921770058
  C          -0.44408947523178      1.36722155591345     -1.37244451802194
  H          -1.41079409547796      1.09410415122931     -0.94002923685075
  H          -0.59219316712594      1.54830838575576     -2.44894107324804
  C           0.17204945003387      2.32377014326683      0.82388895442065
  H          -0.80437869140048      2.00343850847628      1.22932074682462
  C           0.01464191952006      2.63295878089791     -0.65483250229438
  H          -0.74104736755003      3.42455393309793     -0.77974071657942
  H           0.96087028967594      3.03105087735466     -1.05887227878125
  C           0.01148020499721     -1.18200313390995     -1.67170201934527
  H           0.80073889199033     -1.90610152421686     -1.43981677798263
  H          -0.04352230096871     -1.15117669241237     -2.77216129134511
  C           1.81545089463548      0.54694899223305     -2.04794979493957
  C           2.87471347699539     -0.50225285274748     -2.32022815474852
  H           2.29331271074457      1.42619014282088     -1.59162267304380
  H           1.43799049769128      0.89344224033728     -3.02158564579099
  C           4.53385076137411      1.93378326984720     -2.72472342979208
  C           3.79082358795032     -0.96450940324902     -1.20321115546829
  C           2.99912488916226     -1.00754186900701     -3.55624905099641
  O           4.22323743981095      2.34498023719640     -3.79453269928031
  O           5.50674246862517      1.08648987753195     -2.44059676507755
  H           4.55273466402182     -1.63930582204226     -1.62721306392292
  H           3.19537584385386     -1.55929607711955     -0.49652611337752
  C           4.48425678971714      0.14126750191121     -0.38921218234623
  H           2.34034904842743     -0.69713647691211     -4.37238459393923
  H           3.78195767126908     -1.73174632273190     -3.80083268080265
  C           5.72957604602743      0.73614838129629     -1.04088460967834
  H           4.80043164306554     -0.28504578695426      0.57551165265329
  H           3.77540247297147      0.94496281672599     -0.13144847656635
  H           6.49583646959068     -0.05098330466553     -1.12776127506954
  C           0.72422743316205      3.45518538236925      1.67809312081681
  H           1.69320607938061      3.78292869042245      1.25943305889598
  H           0.94087950511354      3.03982569092170      2.67679928674906
  C           6.31943917459240      1.93983769429736     -0.31034379376164
  H           5.55448880791774      2.73695951355549     -0.27362615487420
  H           7.14949654038390      2.33121898697916     -0.92373376002686
  C          -4.01925585260072     -1.42525935699672     -1.74138841266352
  C          -4.29672078460629     -1.85373927687311     -0.29029440749996
  O          -3.96788450882873     -2.94603664721387      0.11138750632631
  O          -4.98585802378201     -1.04939706067752      0.52603525226662
  C          -4.79767606469004     -0.13555784036857     -2.07623043190223
  H          -5.86756399893929     -0.37514611421312     -2.20853549657678
  H          -4.44709254491910      0.26206722133988     -3.04304963147819
  C          -5.25189675287152      0.36022512198684      0.32557546656583
  H          -6.35312140800623      0.42837843446026      0.25107161021960
  C          -4.64359392979088      0.89345061902417     -0.96521011808888
  H          -5.14830404877688      1.83570375942379     -1.22847599154631
  H          -3.58084322532011      1.12610232996838     -0.80157703386582
  C          -4.55031172560902     -2.56847386245386     -2.63107410720531
  H          -4.05731534579791     -3.52158444096806     -2.40580339036879
  H          -4.38846300933805     -2.32282577988886     -3.69301527491598
  C          -2.49714076062609     -1.15700045872744     -2.01893902543565
  C          -1.35798539672869     -1.79996963466055     -1.18295602935873
  H          -2.35383286543227     -0.07539461706913     -1.99370960576741
  H          -2.31320345390597     -1.45190325583385     -3.06536706034864
  C          -1.51982915110272     -1.43071669955803      0.29735060352682
  C          -1.27874325543314     -3.34066338224976     -1.43568806818270
  O          -2.02108390575364     -0.37082246166046      0.62858973197003
  O          -1.04839415039723     -2.23647355860150      1.23327102679903
  H          -0.42926658333464     -3.52847315016938     -2.11191197352708
  H          -2.17117877876439     -3.67206716402737     -1.97672507806753
  C          -1.13337037056356     -4.19210972337921     -0.17046213999722
  C          -0.34920379854398     -3.46230037936209      0.90455677153141
  H          -0.63299792495217     -5.14248753176747     -0.41221040483786
  H          -2.12807779104423     -4.42349868646603      0.23654126021615
  H           0.64944985125948     -3.16872105595813      0.54178918622535
  C          -4.77813141769832      1.06734843808680      1.59324457863340
  H          -3.70571434583343      0.84660520852603      1.71164810463781
  H          -5.29100159291057      0.60071325815103      2.45147871992673
  C          -0.19717309841736     -4.20916831159166      2.22142812818356
  H          -1.19965484607311     -4.49815233832187      2.58377700205590
  H           0.20991284445505     -3.49432205609706      2.95620739985573
  H          -5.63138769974554     -2.71301075270160     -2.47650221492657
  C          -5.02139434313498      2.57783476619456      1.60188104719834
  H          -6.09591129415914      2.78739169235527      1.44263876641451
  H          -4.49226317136729      3.04756775878780      0.75408455016193
  C           0.71452190012557     -5.43486237786358      2.13726422872136
  H           0.29519606695933     -6.17025888688075      1.42812709997351
  H           1.69206772191650     -5.13281262897082      1.71819861895812
  C          -0.22659961029252      4.64749153147242      1.81051541568828
  H          -1.21158360870571      4.28873923861259      2.16228852070071
  H          -0.40552563039058      5.09912713115655      0.81888657368770
  C           6.82555683752823      1.63725873675854      1.10258906862696
  H           5.98745227576595      1.30467166426535      1.73841878058456
  H           7.53359262099879      0.78891096903580      1.06246787667848
  C           7.50588162499953      2.84180568053056      1.75322790218717
  H           7.86052272138575      2.60381118437278      2.76860805109320
  H           8.37588795174056      3.17752281592117      1.16426126905979
  H           6.81251107269799      3.69587586679599      1.83365271588025
  C           0.29873491090198      5.71931480892660      2.76522821829318
  H           1.26861157777780      6.11823209173399      2.42310004134024
  H          -0.40059357974650      6.56670087356106      2.84625676656834
  H           0.44937003127747      5.31130697826262      3.77872847548001
  C          -4.55698794283600      3.23562799401857      2.90189574970391
  H          -4.73310686710254      4.32337605705367      2.89310018259056
  H          -5.08571178944886      2.81684673210103      3.77440801558599
  H          -3.47819081770474      3.07028703723869      3.06372362129898
  C           0.92511772716859     -6.10805720534673      3.49356742329952
  H          -0.03270901409486     -6.44633887786162      3.92345966116305
  H           1.58366309550127     -6.98767793852229      3.41132417924087
  H           1.38276273537902     -5.41268291366431      4.21715176696405
