104
Coordinates from ORCA-job orca E -2044.697571934352
  C           0.53426849839317      0.18967535768772     -1.19493548357807
  C           1.01324750841260      0.09020312526443      0.26581582425347
  O           1.47104286250789     -0.92611534975971      0.73209759934245
  O           1.06247108572137      1.21067614947419      1.00614622890454
  C          -0.45156897719543      1.36446964231288     -1.38347703961654
  H          -1.41776861366485      1.09214462743639     -0.94929236758502
  H          -0.60039592341805      1.54068320984264     -2.46068748809012
  C           0.16394764064174      2.33112797531614      0.80838780288402
  H          -0.81220255168465      2.01151917841013      1.21508772535960
  C           0.00629475690078      2.63382969068372     -0.67165151641931
  H          -0.75024166786202      3.42409094383654     -0.79982152298843
  H           0.95200645862539      3.03100410296999     -1.07778133004283
  C           0.00773245887365     -1.18528027247168     -1.67329091012803
  H           0.79835251954360     -1.90720929610384     -1.43929131970504
  H          -0.04756543974855     -1.15810381948719     -2.77384508573593
  C           1.80940354523781      0.54363920838048     -2.05531261103423
  C           2.87046415241966     -0.50532233836595     -2.32003782745394
  H           2.28481383847256      1.42650182887269     -1.60289707317240
  H           1.43151788821605      0.88414436903424     -3.03090415533289
  C           4.51620068226906      2.07382004964238     -2.65257663803674
  C           3.78819518514184     -0.95514662179914     -1.19958748790395
  C           3.00176576400328     -1.01264000466457     -3.55435652126162
  O           4.17377103725236      2.51094322728810     -3.70226234113181
  O           5.45049318060184      1.16818621576190     -2.42614143883379
  H           4.55547700907685     -1.62663310838926     -1.61932315086030
  H           3.19657000400802     -1.55101821527350     -0.49049588172136
  C           4.47449574418638      0.15736839757821     -0.38799718878472
  H           2.34260294659068     -0.70918846530556     -4.37288222529144
  H           3.78816207984784     -1.73449777762441     -3.79442017552318
  C           5.70781189284068      0.76959409650181     -1.04514544616909
  H           4.80266233462412     -0.26975934077042      0.57236658551755
  H           3.75970599229650      0.95302794017851     -0.12148766054714
  H           6.46732241975396     -0.01759556812785     -1.17865281935340
  C           0.71467923754950      3.46674020654886      1.65792691178572
  H           1.68356425421153      3.79346194557014      1.23845151132404
  H           0.93087945027193      3.05605836320353      2.65867246855929
  C           6.32235201977301      1.94336102376985     -0.28633708047348
  H           5.56259944040957      2.74120349198049     -0.19824081407572
  H           7.13639142329388      2.35455481944271     -0.90826242828417
  C          -4.02254948126618     -1.43332794491395     -1.73908592462460
  C          -4.29840171141276     -1.85987927129746     -0.28713088863875
  O          -3.96897465719637     -2.95155961890346      0.11572008058523
  O          -4.98815813712694     -1.05508186330578      0.52822449181151
  C          -4.80239002347588     -0.14473406811543     -2.07490631008259
  H          -5.87225072871534     -0.38540066650097     -2.20544926571797
  H          -4.45338433160478      0.25169801102622     -3.04278839829054
  C          -5.25388107723275      0.35451892582655      0.32678879020645
  H          -6.35519137982591      0.42291449276598      0.25414409259448
  C          -4.64759999290382      0.88610626160357     -0.96566065617637
  H          -5.15324863610283      1.82763322390605     -1.22973745420846
  H          -3.58478791742218      1.11972517077076     -0.80385265756181
  C          -4.55350548535425     -2.57828837173874     -2.62660155393952
  H          -4.05934047131373     -3.53061016832663     -2.40055554496983
  H          -4.39303108657905     -2.33395625918045     -3.68905231554332
  C          -2.50099944549244     -1.16418972302078     -2.01857685424530
  C          -1.36036000659954     -1.80421856199115     -1.18235989345479
  H          -2.35873509720223     -0.08242485684515     -1.99549046298427
  H          -2.31772491461401     -1.46094601021584     -3.06459511377827
  C          -1.52158793145928     -1.43208113693102      0.29724356956877
  C          -1.27901812292556     -3.34527720481755     -1.43220635464625
  O          -2.02267286162998     -0.37141047126512      0.62626691236777
  O          -1.04991751155204     -2.23590128760410      1.23467580971360
  H          -0.42909301249729     -3.53320771517514     -2.10782808895880
  H          -2.17082484878815     -3.67893418874625     -1.97292916081686
  C          -1.13252397174685     -4.19421966862413     -0.16545352274323
  C          -0.34916413716929     -3.46137850787770      0.90811254833690
  H          -0.63101590937752     -5.14440189721457     -0.40563788403535
  H          -2.12685531956200     -4.42610622394650      0.24214387533425
  H           0.64906367624514     -3.16713319366883      0.54461174835933
  C          -4.77740344451313      1.06256092925514      1.59293281702694
  H          -3.70533580874834      0.83970558615097      1.71034602879959
  H          -5.29033976705189      0.59831338689300      2.45242597319427
  C          -0.19607063609725     -4.20573953387947      2.22628546395449
  H          -1.19821821398917     -4.49515168205920      2.58922055938063
  H           0.21027250914171     -3.48915532702758      2.95978013361633
  H          -5.63428182817138     -2.72364103515651     -2.47068034752797
  C          -5.01700082654056      2.57361668185576      1.59989941557093
  H          -6.09115349103020      2.78589976232343      1.44179493676402
  H          -4.48764474769076      3.04098983633878      0.75093563870136
  C           0.71682330652940     -5.43068481259740      2.14423746493900
  H           0.29838195511970     -6.16753455190307      1.43610002931705
  H           1.69422427432130     -5.12840827721451      1.72499651572254
  C          -0.23727872873555      4.65881731047712      1.78422476023757
  H          -1.22270365011131      4.30068819143209      2.13538363579197
  H          -0.41447739660617      5.10672403440629      0.79060918531246
  C           6.86809900971326      1.58750674606739      1.09907914886960
  H           6.04722080184339      1.23670900350194      1.74748727340061
  H           7.56966074701266      0.73766954570810      1.00829188016212
  C           7.57374302223117      2.76529864846737      1.77147314416112
  H           7.95356070940689      2.49120693843010      2.76844270183227
  H           8.42998318629476      3.11570016102117      1.17100004566899
  H           6.88822227280304      3.61997233448648      1.89852938368741
  C           0.28547460563599      5.73449590139833      2.73601938293998
  H           1.25587990186057      6.13259330597803      2.39445513411757
  H          -0.41444361699113      6.58183543254374      2.81231959477238
  H           0.43411532448532      5.33040302337515      3.75138293964279
  C          -4.54909767016758      3.23155075068200      2.89859161557084
  H          -4.72148974427343      4.31988521429263      2.88859568291148
  H          -5.07836297936951      2.81569215763493      3.77218000900858
  H          -3.47074434140170      3.06253384276817      3.05953265417414
  C           0.92770173786277     -6.10159823884205      3.50162437051800
  H          -0.02987986165701     -6.44034057797667      3.93169085656680
  H           1.58729617916989     -6.98057808815655      3.42093038862548
  H           1.38427960322227     -5.40460281519305      4.22432034031104
