104
Coordinates from ORCA-job orca E -2044.685073525575
  C           0.37871819471040      0.46744005023046     -1.41412727132653
  C           0.90115213102536      0.52892132488406      0.03350356361902
  O           1.47041490309735     -0.40941804221967      0.54525784164796
  O           0.81401064231115      1.66922468412100      0.72086335060262
  C          -0.74553462350900      1.50988854111533     -1.63694200666091
  H          -1.66200544733520      1.15561735384615     -1.15757056396647
  H          -0.94210667416645      1.60135026662601     -2.71780952305020
  C          -0.17432730185107      2.69976447914864      0.46835653958740
  H          -1.10257760469233      2.34076576443583      0.94798967073883
  C          -0.41536031575276      2.86745010569532     -1.02128115328233
  H          -1.26413130766663      3.55402882576585     -1.16806909841388
  H           0.46583966484594      3.34190694459292     -1.48037388718291
  C          -0.03288314448322     -0.99316803883038     -1.75376312288958
  H           0.83700350051071     -1.61815145053127     -1.52535683208082
  H          -0.16278882936453     -1.05091124786070     -2.84708332898016
  C           1.51891210533768      0.88962289296990     -2.40561856578246
  C           2.95262797244197      0.33777409090346     -2.45433505064626
  H           1.61922886440000      1.97825599187438     -2.33282408242996
  H           1.08524668650518      0.70639945127771     -3.40247808675653
  C           3.66822329032269      2.35940811816324     -0.86799478830228
  C           3.54612067137039     -0.72249796328031     -1.53754566662167
  C           3.71033387695260      0.78108423479941     -3.47674693418349
  O           3.13994231201263      3.41431589664856     -1.04598503157458
  O           4.95173260411951      2.13722594741447     -0.69578893574211
  H           4.24255929454784     -1.31845000853530     -2.15080281814892
  H           2.77113248761657     -1.41076509195397     -1.18170057181870
  C           4.32484520983853     -0.23969188366184     -0.29536752233710
  H           3.34763815429806      1.53986708133675     -4.17746459602396
  H           4.72631157227757      0.41130940022855     -3.63989084581988
  C           5.44129352225130      0.76836269608916     -0.54084391668852
  H           4.78877370689836     -1.13331327864348      0.15333059455767
  H           3.64139307925463      0.15394891916294      0.46971941747510
  H           5.95723168094954      0.54692400545639     -1.49201148550409
  C           0.32806415741738      3.94280244364709      1.18880291469881
  H           1.25761610795314      4.28086652448856      0.70018280315146
  H           0.60115736836431      3.64176957496858      2.21456223994646
  C           6.47379710684523      0.83221137386058      0.58239689069489
  H           5.94440403879466      0.93224957439568      1.54708071003463
  H           7.05157168430966      1.76189813013976      0.44653668807682
  C          -4.00660203735643     -1.69071500710249     -1.59952827720881
  C          -4.18100115785144     -2.00843212389934     -0.10436114210614
  O          -3.71794823659590     -3.01687209623556      0.37680683895215
  O          -4.92321677851971     -1.20943038826771      0.66868298997175
  C          -4.94108917350010     -0.53472821342715     -2.01259152704457
  H          -5.98004064251317     -0.90474775528839     -2.06922831128145
  H          -4.67648774344338     -0.19483747203574     -3.02763434724591
  C          -5.35997513277797      0.13549477839920      0.35315583317533
  H          -6.46356318070629      0.07050551834824      0.32611703513717
  C          -4.86616674176244      0.60686098496974     -1.00843550319887
  H          -5.48646459653890      1.45640361112366     -1.33305984980682
  H          -3.83257778145554      0.97290993493748     -0.91759287593168
  C          -4.43165439373384     -2.96571235602757     -2.35751129325951
  H          -3.82479493402930     -3.83236366270808     -2.06927497110818
  H          -4.33561525469874     -2.80610476616643     -3.44367111341817
  C          -2.53721858938713     -1.27949092647521     -1.96983065545664
  C          -1.29958613207313     -1.71190450061950     -1.13687698926181
  H          -2.51781686861293     -0.19080956677109     -2.04490677557266
  H          -2.36070885472803     -1.64624204133822     -2.99458832853450
  C          -1.45113937308413     -1.22772065203588      0.31185041879864
  C          -1.05990048538836     -3.25232462123911     -1.25562160206923
  O          -2.05823901690966     -0.20423731491357      0.56949420404014
  O          -0.86717832294907     -1.89287721535222      1.29372674183320
  H          -0.22168828393712     -3.41170204404814     -1.95309152252210
  H          -1.93066316526569     -3.72409459035486     -1.72262457201624
  C          -0.77280183332832     -3.96384790392584      0.07083679336554
  C          -0.03995682133831     -3.05449906886639      1.03996695905258
  H          -0.17662003516978     -4.87134584162929     -0.11122526195866
  H          -1.71906438011571     -4.26569776460453      0.54200246311901
  H           0.90210456399903     -2.68193762812561      0.60599918886567
  C          -4.92524050098383      1.01160112738677      1.52538045157638
  H          -3.82886482949991      0.94090420758295      1.60120516682492
  H          -5.33241085486723      0.56593948410963      2.44890029631208
  C           0.24898861732832     -3.65374609281849      2.40823970374715
  H          -0.69964340345926     -4.00899062240174      2.84819737223016
  H           0.60776697482519     -2.83380252636885      3.05281832340910
  H          -5.48296139887786     -3.21520403579816     -2.14260524890902
  C          -5.36465163055951      2.47306361686016      1.41766323689903
  H          -6.46542566629267      2.52852049775472      1.32241803829829
  H          -4.95823495926556      2.92136319468044      0.49391669280524
  C           1.28306493769771     -4.78103727373008      2.38673473555695
  H           0.91028857001201     -5.62432647052160      1.77898354182936
  H           2.19986560007159     -4.42462921628827      1.88157293172228
  C          -0.69712244823859      5.07782682385265      1.24289077520630
  H          -1.64569769146460      4.69476862398637      1.66386126124503
  H          -0.93548621596006      5.41956214982696      0.22013632181372
  C           7.43273949422603     -0.35965464978223      0.62288389559245
  H           6.86716615204814     -1.29751160090749      0.76313248240547
  H           7.93575539561073     -0.45394348433066     -0.35715073273989
  C           8.48181763445833     -0.23397476158637      1.72772353094571
  H           9.16461676755259     -1.09844340378688      1.73627675326467
  H           9.09283204837499      0.67474607014930      1.59642717963177
  H           8.00822113482851     -0.17184495863525      2.72183643773054
  C          -0.21479908250955      6.26914497953374      2.07041112772148
  H           0.71865307883099      6.68776735330137      1.65818571693348
  H          -0.96350268146904      7.07728612764242      2.09208193951425
  H          -0.01015820560447      5.97361066929607      3.11318956714572
  C          -4.90865005420999      3.30777395818391      2.61503074596975
  H          -5.23595012051937      4.35638321833111      2.52833549221161
  H          -5.31177320095220      2.90707173968273      3.56012942265653
  H          -3.80869750699503      3.30469943492315      2.70091457357698
  C           1.63368304941620     -5.28646234138967      3.78631105696132
  H           0.74108683314406     -5.67586717474227      4.30424337676732
  H           2.37903063574207     -6.09725896232435      3.74989979756304
  H           2.04819756857345     -4.47674269076215      4.41006194965420
