60
Coordinates from ORCA-job orca E -1383.405505804951
  C           1.55203941037985      0.18575843763140     -1.16739789589134
  H           1.81218296607979      1.06653382655479     -0.57864755206568
  H           2.42493808637982     -0.12501178461758     -1.74037097320543
  C           1.06078524901407     -0.92779010707225     -0.24709948104628
  C           2.12849013964730     -1.33177077915197      0.80669871905136
  H           1.72886151631056     -2.17719392670473      1.37209404901128
  H           2.20635364189336     -0.50006266312049      1.50890608295206
  C           3.56403933999285     -1.71305259091306      0.38769449384196
  C           0.69298673889846     -2.14120132233673     -1.10048032425690
  O           0.79274867100710     -2.20851328788199     -2.29571122490237
  O           0.23199326940343     -3.15962200921185     -0.35818831282971
  C           4.35349382052027     -0.51872472410363     -0.14100192699191
  O           5.06073830517054     -0.53045488516622     -1.11222993181098
  O           4.22407237555693      0.56125074908735      0.64520462150117
  C           3.62120313452134     -2.83998636497180     -0.64095459182295
  H           4.65025084323019     -3.16584934889771     -0.78974391577566
  H           3.03818446668766     -3.69246928185251     -0.28546060237634
  H           3.23770930615157     -2.53304392189741     -1.61229647151072
  C           4.29819762526710     -2.16538623814364      1.66473361410140
  H           3.84594069442001     -3.08392436829917      2.04371045840913
  H           5.34982694879937     -2.36958830367237      1.45416661218027
  H           4.24291864589222     -1.40607102553526      2.44538784233387
  C          -0.13971919064243     -4.32778795326139     -1.08458319460906
  H          -0.50105755628280     -5.03624988168624     -0.34366466591178
  H          -0.92249957708110     -4.09535415087433     -1.80687246981811
  H           0.71958949436213     -4.73689738606194     -1.61636842996540
  C           4.95838504458955      1.71148648246139      0.23616461900027
  H           4.63053636504564      2.04227990702926     -0.74985885727875
  H           4.75251367532429      2.47542604801582      0.98161056601125
  H           6.02546662927254      1.49360155273671      0.19748529216835
  H           0.79370013212605      0.45974003544725     -1.89930643267552
  C          -0.16030505185070     -0.48721172565121      0.60409266018390
  C          -1.43442755537525      0.10024936299230     -0.04575089972901
  H           0.20848619951778      0.25277505789526      1.31704272530519
  H          -0.47709792253555     -1.35143621857865      1.19243725443715
  C          -2.43457635209129      0.30051749211683      1.13145726183508
  C          -1.17577642869573      1.47621567795068     -0.65636417788062
  C          -2.03336818801938     -0.80343145385008     -1.11909938758652
  C          -3.75109628092009      0.92759613093892      0.75627846325837
  H          -2.60700555244394     -0.67725376618978      1.58121519899302
  H          -1.95237271675946      0.92569716832883      1.88400365574301
  O          -1.48683243377464      1.81472704093945     -1.76473354064335
  O          -0.57673089625005      2.30898051886579      0.21198034928233
  H          -1.36728876333259     -0.90445044870839     -1.97380085793560
  H          -2.23729897505806     -1.79122493299981     -0.70344370454267
  H          -2.96515273704374     -0.38916895755309     -1.50241767422246
  C          -4.90556898817524      0.07240213349689      0.33153299695409
  C          -0.29985464190885      3.61579917031916     -0.28396742192225
  O          -5.91755600034955      0.48105158523868     -0.17312714826951
  O          -4.69933093838028     -1.22515203959272      0.59979278646886
  H          -1.22167257994016      4.12197538071259     -0.57139542255605
  H           0.18921228112700      4.14450871460678      0.53022251343213
  H           0.35522258037149      3.56304390521738     -1.15394247759353
  C          -5.75255333230648     -2.10451475810061      0.21441080925095
  H          -5.42551490718261     -3.10132483655334      0.49857242403174
  H          -6.67669662890513     -1.84432750438724      0.73004328117135
  H          -5.91972566768938     -2.04875015797367     -0.86122432255625
  C          -3.96581892695704      2.23743559702680      0.79481165370563
  H          -3.19189186480112      2.92268139180414      1.11964997138643
  H          -4.92320694220760      2.64565973815844      0.49851331418113
