60
Coordinates from ORCA-job orca E -1383.289914531214
  C       1.590360      0.170320     -1.226670
  H       1.863120      1.091900     -0.693500
  H       2.470940     -0.200550     -1.767520
  C       1.065930     -0.869360     -0.235550
  C       2.128190     -1.240790      0.839450
  H       1.701770     -2.039480      1.466030
  H       2.242700     -0.361780      1.490610
  C       3.548650     -1.695820      0.431880
  C       0.660490     -2.121990     -1.012950
  O       0.747590     -2.265190     -2.204740
  O       0.180490     -3.080950     -0.209080
  C       4.358700     -0.557420     -0.186720
  O       5.045210     -0.645570     -1.170870
  O       4.267980      0.572480      0.529340
  C       3.553360     -2.886920     -0.528660
  H       4.576560     -3.259700     -0.674200
  H       2.940920     -3.701570     -0.113610
  H       3.161470     -2.622800     -1.518720
  C       4.286940     -2.088200      1.730050
  H       3.798280     -2.962290      2.186630
  H       5.333440     -2.356090      1.519400
  H       4.279570     -1.265540      2.459190
  C      -0.235240     -4.277010     -0.844600
  H      -0.587650     -4.942530     -0.048640
  H      -1.045820     -4.074790     -1.559970
  H       0.600690     -4.740780     -1.388030
  C       4.989860      1.686770      0.035610
  H       4.627170      1.971520     -0.963250
  H       4.820470      2.503360      0.746450
  H       6.063220      1.460420     -0.036190
  H       0.841560      0.406780     -1.992160
  C      -0.142340     -0.347330      0.593080
  C      -1.431900      0.206710     -0.077120
  H       0.246460      0.445820      1.249110
  H      -0.459760     -1.168540      1.252980
  C      -2.370770      0.529850      1.121240
  C      -1.109920      1.492080     -0.839980
  C      -2.062920     -0.791140     -1.048910
  C      -3.825890      0.998620      0.889370
  H      -2.416290     -0.376260      1.743090
  H      -1.877170      1.302160      1.731340
  O      -1.324960      1.685490     -2.008220
  O      -0.543410      2.417090     -0.052800
  H      -1.401890     -0.993220     -1.900260
  H      -2.278600     -1.735130     -0.528960
  H      -2.995960     -0.399620     -1.475120
  C      -4.749340      0.198400     -0.028070
  C      -0.195880      3.639920     -0.678270
  O      -5.240080      0.604580     -1.048750
  O      -5.009770     -1.022860      0.460170
  H      -1.084530      4.124540     -1.107950
  H       0.242200      4.271810      0.102390
  H       0.532070      3.469940     -1.485040
  C      -5.862580     -1.841020     -0.320750
  H      -5.980740     -2.779560      0.232420
  H      -6.840230     -1.361150     -0.470480
  H      -5.416110     -2.035360     -1.307280
  C      -4.274120      1.437840      2.073330
  H      -3.746120      2.250840      2.594450
  H      -4.627300      0.562210      2.636390
60
Coordinates from ORCA-job orca E -1383.319208377534
  C       1.601878      0.156997     -1.234802
  H       1.872850      1.073838     -0.702226
  H       2.478933     -0.211501     -1.772248
  C       1.076496     -0.882837     -0.247140
  C       2.136500     -1.253415      0.829020
  H       1.712794     -2.050227      1.451366
  H       2.245155     -0.378034      1.477679
  C       3.560746     -1.699335      0.428855
  C       0.670650     -2.133225     -1.027137
  O       0.758223     -2.273180     -2.217711
  O       0.185813     -3.092382     -0.225485
  C       4.366389     -0.555526     -0.183283
  O       5.058600     -0.638156     -1.162471
  O       4.262568      0.573113      0.533737
  C       3.580279     -2.888697     -0.530587
  H       4.602261     -3.251967     -0.668292
  H       2.974210     -3.704521     -0.121218
  H       3.195534     -2.628754     -1.518874
  C       4.293467     -2.087582      1.728607
  H       3.810513     -2.961439      2.179242
  H       5.337875     -2.346772      1.523681
  H       4.276651     -1.269828      2.455336
  C      -0.235228     -4.284690     -0.869689
  H      -0.589297     -4.949155     -0.080685
  H      -1.041041     -4.075109     -1.580755
  H       0.595176     -4.747010     -1.412172
  C       4.979217      1.694097      0.041120
  H       4.618561      1.974914     -0.954063
  H       4.801083      2.504555      0.748946
  H       6.049286      1.476746     -0.026107
  H       0.857924      0.393498     -1.997618
  C      -0.130688     -0.361969      0.580978
  C      -1.419201      0.194971     -0.085609
  H       0.257277      0.425682      1.236301
  H      -0.446873     -1.181974      1.236035
  C      -2.354470      0.518108      1.114108
  C      -1.108028      1.485511     -0.840094
  C      -2.045117     -0.799504     -1.060885
  C      -3.811299      0.988286      0.908214
  H      -2.406363     -0.385410      1.730829
  H      -1.855309      1.277148      1.727390
  O      -1.329554      1.683860     -2.003935
  O      -0.545397      2.408250     -0.045998
  H      -1.383536     -0.994990     -1.906552
  H      -2.259993     -1.743273     -0.548671
  H      -2.969117     -0.408419     -1.490369
  C      -4.730132      0.197395      0.004543
  C      -0.204182      3.637868     -0.667211
  O      -5.188077      0.608157     -1.024683
  O      -5.015653     -1.013722      0.506462
  H      -1.090986      4.117228     -1.092372
  H       0.228364      4.264411      0.113709
  H       0.522328      3.475439     -1.470171
  C      -5.870154     -1.831660     -0.279310
  H      -6.009505     -2.755876      0.282643
  H      -6.833170     -1.341462     -0.449638
  H      -5.411595     -2.044871     -1.250630
  C      -4.341959      1.483682      2.056436
  H      -3.814649      2.277461      2.588996
  H      -4.897959      0.728393      2.624863
60
Coordinates from ORCA-job orca E -1383.340433637760
  C       1.599176      0.151856     -1.234584
  H       1.866393      1.066377     -0.701221
  H       2.474568     -0.210412     -1.773480
  C       1.080612     -0.892211     -0.249384
  C       2.142264     -1.261675      0.824314
  H       1.723326     -2.060045      1.443334
  H       2.247662     -0.389717      1.473560
  C       3.566979     -1.700455      0.422068
  C       0.678893     -2.142203     -1.031818
  O       0.766373     -2.278562     -2.221907
  O       0.198457     -3.105375     -0.230940
  C       4.368968     -0.552458     -0.186287
  O       5.060785     -0.630071     -1.165347
  O       4.262325      0.573609      0.535461
  C       3.589428     -2.886197     -0.540038
  H       4.609930     -3.244935     -0.678777
  H       2.987859     -3.703194     -0.133050
  H       3.204263     -2.625440     -1.525245
  C       4.301469     -2.090569      1.718734
  H       3.822970     -2.965616      2.165189
  H       5.343849     -2.344676      1.511675
  H       4.282557     -1.277751      2.446902
  C      -0.220521     -4.297146     -0.883170
  H      -0.569990     -4.964488     -0.098221
  H      -1.026395     -4.085171     -1.589121
  H       0.608720     -4.752109     -1.427695
  C       4.976870      1.698610      0.041723
  H       4.612348      1.979618     -0.948876
  H       4.798364      2.503913      0.751276
  H       6.044167      1.483276     -0.028085
  H       0.854065      0.386639     -1.993386
  C      -0.124869     -0.374896      0.581292
  C      -1.412773      0.183428     -0.081988
  H       0.263182      0.409695      1.236008
  H      -0.439063     -1.194807      1.233417
  C      -2.342572      0.506661      1.117941
  C      -1.110058      1.478733     -0.831140
  C      -2.039373     -0.808691     -1.057503
  C      -3.789589      0.973931      0.932270
  H      -2.406731     -0.394275      1.733015
  H      -1.839899      1.254653      1.737465
  O      -1.338534      1.681168     -1.991454
  O      -0.548518      2.399854     -0.032526
  H      -1.378645     -1.001463     -1.901097
  H      -2.253948     -1.752020     -0.549036
  H      -2.958561     -0.416198     -1.488066
  C      -4.701502      0.189870      0.032903
  C      -0.212961      3.634220     -0.653514
  O      -5.126141      0.602937     -1.008177
  O      -5.015165     -1.011516      0.542508
  H      -1.100427      4.108966     -1.074557
  H       0.217300      4.257918      0.127262
  H       0.511843      3.475094     -1.454955
  C      -5.868474     -1.822230     -0.258526
  H      -6.034331     -2.736804      0.306586
  H      -6.816114     -1.317144     -0.451497
  H      -5.391844     -2.049221     -1.214662
  C      -4.389966      1.522288      2.018218
  H      -3.859640      2.296759      2.566333
  H      -5.120292      0.912806      2.550289
60
Coordinates from ORCA-job orca E -1383.362517506633
  C       1.596931      0.141561     -1.234055
  H       1.862070      1.055101     -0.699691
  H       2.470748     -0.214572     -1.777819
  C       1.087815     -0.907276     -0.249491
  C       2.154767     -1.273529      0.819786
  H       1.743906     -2.076162      1.436973
  H       2.254985     -0.403367      1.470695
  C       3.582058     -1.699087      0.413545
  C       0.687108     -2.156904     -1.032994
  O       0.769589     -2.289865     -2.223547
  O       0.207785     -3.121373     -0.231810
  C       4.374574     -0.542972     -0.191416
  O       5.066424     -0.612192     -1.170894
  O       4.259457      0.580023      0.534781
  C       3.613897     -2.881780     -0.551477
  H       4.636578     -3.230959     -0.691354
  H       3.020755     -3.704348     -0.145870
  H       3.226343     -2.622346     -1.535034
  C       4.321759     -2.087180      1.707341
  H       3.851948     -2.967364      2.150583
  H       5.364978     -2.331012      1.497181
  H       4.296762     -1.278143      2.438107
  C      -0.219597     -4.309107     -0.890975
  H      -0.565755     -4.978333     -0.107473
  H      -1.028549     -4.088033     -1.588784
  H       0.604921     -4.761842     -1.442076
  C       4.966045      1.712276      0.039642
  H       4.595025      1.991567     -0.947650
  H       4.783063      2.512538      0.752340
  H       6.033136      1.503096     -0.032915
  H       0.847480      0.374777     -1.987809
  C      -0.115598     -0.395860      0.586821
  C      -1.405752      0.160090     -0.071574
  H       0.272695      0.387260      1.241512
  H      -0.425829     -1.217448      1.237100
  C      -2.328745      0.479771      1.131741
  C      -1.118724      1.463764     -0.814332
  C      -2.026556     -0.832442     -1.049933
  C      -3.763613      0.946913      0.973638
  H      -2.406134     -0.423631      1.741736
  H      -1.817718      1.209925      1.764576
  O      -1.358514      1.672002     -1.970754
  O      -0.561391      2.384784     -0.011203
  H      -1.361311     -1.019920     -1.890292
  H      -2.237901     -1.777549     -0.545134
  H      -2.942103     -0.442403     -1.485873
  C      -4.680816      0.181216      0.065175
  C      -0.238909      3.625810     -0.631308
  O      -5.070936      0.602649     -0.987459
  O      -5.035077     -1.010382      0.570404
  H      -1.131922      4.091687     -1.047199
  H       0.187287      4.248931      0.150863
  H       0.485134      3.473661     -1.433175
  C      -5.888448     -1.799280     -0.257745
  H      -6.092832     -2.707601      0.302906
  H      -6.814835     -1.268036     -0.474960
  H      -5.388928     -2.037527     -1.197917
  C      -4.403293      1.575038      1.974446
  H      -3.844727      2.300386      2.560152
  H      -5.322438      1.188141      2.400359
60
Coordinates from ORCA-job orca E -1383.380597533213
  C       1.569893      0.125640     -1.232337
  H       1.825474      1.043813     -0.701048
  H       2.444797     -0.218071     -1.782634
  C       1.083325     -0.928827     -0.242241
  C       2.162067     -1.279383      0.819821
  H       1.766374     -2.087317      1.440239
  H       2.256635     -0.407816      1.469803
  C       3.588950     -1.691008      0.400181
  C       0.697882     -2.187228     -1.019578
  O       0.782891     -2.325215     -2.209573
  O       0.241434     -3.157896     -0.212199
  C       4.368224     -0.529476     -0.211803
  O       5.052689     -0.594945     -1.196898
  O       4.254603      0.592591      0.516376
  C       3.619433     -2.873603     -0.565089
  H       4.643259     -3.215296     -0.715520
  H       3.037168     -3.700609     -0.152368
  H       3.218985     -2.617543     -1.544654
  C       4.344343     -2.074369      1.686701
  H       3.886432     -2.959614      2.132551
  H       5.387663     -2.308576      1.465955
  H       4.318785     -1.266889      2.419266
  C      -0.177279     -4.351937     -0.868618
  H      -0.502099     -5.026175     -0.080183
  H      -0.999011     -4.140481     -1.553756
  H       0.647327     -4.790275     -1.430793
  C       4.952047      1.728164      0.012019
  H       4.566732      2.005188     -0.970230
  H       4.773855      2.526418      0.728273
  H       6.018545      1.521044     -0.072468
  H       0.811002      0.347167     -1.980511
  C      -0.119282     -0.426535      0.602664
  C      -1.417258      0.128278     -0.042683
  H       0.271091      0.356792      1.255914
  H      -0.422012     -1.250735      1.252749
  C      -2.328917      0.437543      1.169366
  C      -1.147779      1.443778     -0.774261
  C      -2.046232     -0.855952     -1.024152
  C      -3.743894      0.932219      1.026567
  H      -2.428782     -0.481618      1.756044
  H      -1.799485      1.135210      1.823310
  O      -1.407865      1.664819     -1.923964
  O      -0.586492      2.359208      0.032716
  H      -1.382995     -1.041164     -1.866519
  H      -2.258730     -1.803044     -0.523722
  H      -2.960992     -0.459557     -1.456526
  C      -4.660105      0.201130      0.080505
  C      -0.279989      3.609003     -0.581192
  O      -5.011958      0.640499     -0.980243
  O      -5.045042     -0.992094      0.553735
  H      -1.181720      4.069339     -0.983877
  H       0.148341      4.227741      0.203381
  H       0.438179      3.467501     -1.390007
  C      -5.870241     -1.758918     -0.325544
  H      -6.111822     -2.670122      0.215420
  H      -6.777085     -1.210040     -0.577212
  H      -5.328646     -1.991922     -1.242900
  C      -4.368924      1.668342      1.935622
  H      -3.768959      2.275066      2.610428
  H      -5.415764      1.560900      2.186106
60
Coordinates from ORCA-job orca E -1383.390607275931
  C       1.561230      0.111117     -1.222973
  H       1.819416      1.027402     -0.688931
  H       2.429654     -0.222470     -1.790158
  C       1.096287     -0.952826     -0.232464
  C       2.187642     -1.296585      0.820392
  H       1.809064     -2.116115      1.436743
  H       2.269776     -0.428698      1.477436
  C       3.621775     -1.678768      0.394517
  C       0.705202     -2.207976     -1.011485
  O       0.764215     -2.334320     -2.204570
  O       0.220740     -3.168440     -0.208666
  C       4.378285     -0.499595     -0.211470
  O       5.065037     -0.547419     -1.196236
  O       4.237039      0.618250      0.518074
  C       3.678643     -2.857074     -0.575268
  H       4.710264     -3.175438     -0.725961
  H       3.115255     -3.698559     -0.165139
  H       3.273244     -2.607009     -1.554180
  C       4.386754     -2.052319      1.678629
  H       3.948694     -2.950460      2.119321
  H       5.435172     -2.262123      1.456031
  H       4.343394     -1.249681      2.416109
  C      -0.240091     -4.343754     -0.871219
  H      -0.581747     -5.012489     -0.084854
  H      -1.058840     -4.100021     -1.549506
  H       0.567371     -4.803825     -1.441310
  C       4.913462      1.769278      0.019289
  H       4.526461      2.040253     -0.964103
  H       4.715468      2.561661      0.737288
  H       5.984436      1.583285     -0.060518
  H       0.788439      0.333904     -1.957221
  C      -0.105284     -0.467095      0.620405
  C      -1.409727      0.060932     -0.028550
  H       0.275788      0.324038      1.269760
  H      -0.394426     -1.294313      1.273383
  C      -2.331661      0.352036      1.183525
  C      -1.165433      1.385743     -0.754299
  C      -1.995174     -0.940856     -1.019554
  C      -3.725374      0.903589      1.044917
  H      -2.455705     -0.587340      1.736415
  H      -1.786655      1.011251      1.863297
  O      -1.427270      1.605950     -1.903987
  O      -0.629019      2.309955      0.058942
  H      -1.301624     -1.121947     -1.839551
  H      -2.204016     -1.888408     -0.517325
  H      -2.901291     -0.564770     -1.484607
  C      -4.677430      0.231452      0.087707
  C      -0.353421      3.570971     -0.547419
  O      -5.061221      0.714023     -0.943664
  O      -5.070746     -0.967023      0.534282
  H      -1.266080      4.007891     -0.952100
  H       0.054036      4.196597      0.243184
  H       0.372633      3.452312     -1.353028
  C      -5.919070     -1.700304     -0.352066
  H      -6.168946     -2.618372      0.173764
  H      -6.818777     -1.129873     -0.580497
  H      -5.391001     -1.922257     -1.280380
  C      -4.253495      1.771313      1.883958
  H      -3.615933      2.269837      2.610283
  H      -5.316346      1.948620      1.976023
60
Coordinates from ORCA-job orca E -1383.394615101426
  C       1.518851      0.086266     -1.222824
  H       1.764984      1.008866     -0.694134
  H       2.392755     -0.240063     -1.786091
  C       1.064667     -0.976529     -0.226201
  C       2.165176     -1.302423      0.820130
  H       1.799144     -2.122505      1.443709
  H       2.247990     -0.430888      1.472147
  C       3.592801     -1.680848      0.375313
  C       0.695930     -2.245111     -0.994715
  O       0.794977     -2.394357     -2.182730
  O       0.286908     -3.227779     -0.177490
  C       4.336071     -0.502181     -0.247370
  O       5.007938     -0.552803     -1.242255
  O       4.208690      0.616621      0.482870
  C       3.631348     -2.861304     -0.592554
  H       4.659787     -3.178925     -0.764238
  H       3.077597     -3.702418     -0.168400
  H       3.203591     -2.614216     -1.563124
  C       4.379084     -2.050641      1.648016
  H       3.950219     -2.949383      2.096352
  H       5.424384     -2.258267      1.409668
  H       4.345001     -1.247262      2.385099
  C      -0.104120     -4.437684     -0.821640
  H      -0.387085     -5.119976     -0.023793
  H      -0.949326     -4.255348     -1.487588
  H       0.722576     -4.848340     -1.401571
  C       4.876707      1.766681     -0.028657
  H       4.471229      2.038149     -1.004431
  H       4.693822      2.559367      0.692878
  H       5.945661      1.579315     -0.129192
  H       0.745878      0.295650     -1.960152
  C      -0.135178     -0.493937      0.635755
  C      -1.447502      0.056956      0.014543
  H       0.256883      0.287875      1.289468
  H      -0.423166     -1.324857      1.284211
  C      -2.350425      0.332851      1.240174
  C      -1.211671      1.395274     -0.688701
  C      -2.089706     -0.909769     -0.975127
  C      -3.719290      0.929677      1.064481
  H      -2.493605     -0.621546      1.763360
  H      -1.796466      0.971888      1.930297
  O      -1.505049      1.643245     -1.825232
  O      -0.656232      2.299802      0.132762
  H      -1.434243     -1.090162     -1.824130
  H      -2.304149     -1.860759     -0.483121
  H      -3.008222     -0.502600     -1.393287
  C      -4.657081      0.289166      0.077863
  C      -0.397260      3.575778     -0.448496
  O      -5.012944      0.776757     -0.960477
  O      -5.001365     -0.940525      0.476151
  H      -1.319760      4.018960     -0.822779
  H       0.025073      4.183645      0.348011
  H       0.311701      3.478975     -1.272078
  C      -5.773555     -1.696512     -0.458183
  H      -5.995681     -2.637112      0.039281
  H      -6.691669     -1.168492     -0.713184
  H      -5.196057     -1.871262     -1.367447
  C      -4.175818      1.899114      1.833712
  H      -3.540568      2.350445      2.589518
  H      -5.191157      2.268595      1.766035
60
Coordinates from ORCA-job orca E -1383.397253367924
  C       1.514024      0.088897     -1.221216
  H       1.759346      1.009910     -0.689922
  H       2.384256     -0.229391     -1.793793
  C       1.073743     -0.981329     -0.226627
  C       2.179692     -1.304894      0.816158
  H       1.820046     -2.130610      1.435421
  H       2.255037     -0.436756      1.473026
  C       3.612429     -1.669974      0.374083
  C       0.704412     -2.247194     -0.999006
  O       0.780421     -2.384763     -2.190054
  O       0.262157     -3.220985     -0.188557
  C       4.351975     -0.482769     -0.236861
  O       5.031352     -0.523426     -1.226990
  O       4.215553      0.630023      0.500815
  C       3.665661     -2.844610     -0.599863
  H       4.697417     -3.152652     -0.767353
  H       3.116658     -3.692296     -0.183376
  H       3.241733     -2.595951     -1.571145
  C       4.394384     -2.042476      1.648437
  H       3.969948     -2.947495      2.087597
  H       5.442391     -2.240353      1.414950
  H       4.349743     -1.244823      2.390798
  C      -0.163473     -4.414924     -0.839996
  H      -0.469363     -5.092607     -0.047032
  H      -1.000935     -4.203511     -1.506844
  H       0.651486     -4.847440     -1.420223
  C       4.881918      1.786440      0.002187
  H       4.481102      2.064212     -0.973544
  H       4.692423      2.572844      0.728491
  H       5.951918      1.604227     -0.094225
  H       0.733554      0.298522     -1.950567
  C      -0.127008     -0.512921      0.639117
  C      -1.439036      0.026789      0.012726
  H       0.256616      0.269881      1.296327
  H      -0.409294     -1.348611      1.283751
  C      -2.358700      0.284033      1.232418
  C      -1.210873      1.371567     -0.679606
  C      -2.056145     -0.942403     -0.990284
  C      -3.711054      0.915571      1.029795
  H      -2.516303     -0.678395      1.734182
  H      -1.810724      0.908975      1.938551
  O      -1.494426      1.623007     -1.817739
  O      -0.660030      2.272208      0.148972
  H      -1.385146     -1.115615     -1.828867
  H      -2.271610     -1.896064     -0.504545
  H      -2.970184     -0.541750     -1.423062
  C      -4.670525      0.276335      0.070635
  C      -0.406545      3.553743     -0.421907
  O      -5.098628      0.779919     -0.931210
  O      -5.002997     -0.951096      0.488986
  H      -1.330234      3.994575     -0.795457
  H       0.010193      4.158132      0.379826
  H       0.304763      3.467501     -1.244326
  C      -5.828299     -1.705066     -0.399564
  H      -6.032280     -2.641330      0.113022
  H      -6.754063     -1.171504     -0.610777
  H      -5.299418     -1.889621     -1.335967
  C      -4.115784      1.955340      1.741545
  H      -3.462324      2.420100      2.471000
  H      -5.101881      2.385996      1.618099
60
Coordinates from ORCA-job orca E -1383.399090679864
  C       1.508775      0.090629     -1.202128
  H       1.763428      1.006937     -0.667281
  H       2.372365     -0.228131     -1.784303
  C       1.072263     -0.983543     -0.210693
  C       2.184801     -1.314769      0.822759
  H       1.828324     -2.142539      1.440853
  H       2.265490     -0.449781      1.482842
  C       3.614772     -1.678347      0.370242
  C       0.689717     -2.241774     -0.988565
  O       0.753662     -2.370844     -2.181114
  O       0.252864     -3.220169     -0.180721
  C       4.347244     -0.489330     -0.245163
  O       5.016971     -0.526943     -1.241860
  O       4.201978      0.626192      0.486793
  C       3.664622     -2.852119     -0.604898
  H       4.695967     -3.157089     -0.779230
  H       3.120645     -3.701422     -0.185594
  H       3.234317     -2.604118     -1.573143
  C       4.406320     -2.049739      1.638721
  H       3.987538     -2.956479      2.079242
  H       5.453243     -2.244094      1.398328
  H       4.363997     -1.253296      2.382224
  C      -0.173938     -4.411534     -0.835751
  H      -0.475642     -5.093496     -0.045098
  H      -1.014251     -4.198353     -1.497850
  H       0.638517     -4.840503     -1.421777
  C       4.856241      1.786011     -0.019420
  H       4.450779      2.055410     -0.995400
  H       4.661719      2.574531      0.702991
  H       5.927503      1.613539     -0.118015
  H       0.722895      0.309369     -1.922923
  C      -0.125238     -0.520962      0.659421
  C      -1.430901      0.016207      0.024533
  H       0.254245      0.259091      1.321892
  H      -0.408877     -1.360184      1.298627
  C      -2.372283      0.258738      1.233976
  C      -1.202355      1.367650     -0.653345
  C      -2.022343     -0.951652     -0.995699
  C      -3.703070      0.927177      0.994898
  H      -2.549980     -0.708993      1.714786
  H      -1.832652      0.869343      1.958308
  O      -1.481876      1.629848     -1.789944
  O      -0.676310      2.266980      0.192627
  H      -1.333515     -1.118820     -1.821815
  H      -2.244099     -1.908421     -0.519043
  H      -2.928610     -0.553739     -1.445836
  C      -4.688131      0.284768      0.069640
  C      -0.441917      3.560828     -0.357887
  O      -5.168174      0.791310     -0.905955
  O      -4.958841     -0.964505      0.472899
  H      -1.369697      3.988627     -0.736126
  H      -0.046050      4.162394      0.456232
  H       0.279585      3.500409     -1.173454
  C      -5.802333     -1.725000     -0.391413
  H      -5.948449     -2.680435      0.104943
  H      -6.755473     -1.220043     -0.542267
  H      -5.316457     -1.868189     -1.357740
  C      -4.065404      2.028826      1.638247
  H      -3.394013      2.516436      2.334450
  H      -5.030840      2.491240      1.471387
60
Coordinates from ORCA-job orca E -1383.401509595112
  C       1.505122      0.092190     -1.200767
  H       1.757669      1.007914     -0.664160
  H       2.370618     -0.224856     -1.780847
  C       1.067494     -0.983950     -0.212249
  C       2.180519     -1.315006      0.820052
  H       1.825156     -2.143546      1.437565
  H       2.260109     -0.450590      1.480752
  C       3.610607     -1.677121      0.367077
  C       0.687424     -2.241791     -0.992363
  O       0.752346     -2.369343     -2.184907
  O       0.232570     -3.214787     -0.188017
  C       4.341241     -0.486847     -0.247733
  O       5.014415     -0.524113     -1.241995
  O       4.206126      0.624407      0.492740
  C       3.661409     -2.850166     -0.608863
  H       4.692952     -3.153045     -0.784509
  H       3.119337     -3.700453     -0.189573
  H       3.229958     -2.602512     -1.576507
  C       4.402113     -2.048362      1.635462
  H       3.984617     -2.956194      2.074495
  H       5.449419     -2.240619      1.395867
  H       4.357858     -1.252888      2.379644
  C      -0.198474     -4.402541     -0.846319
  H      -0.514684     -5.081225     -0.058763
  H      -1.030084     -4.182081     -1.516951
  H       0.615247     -4.839746     -1.424159
  C       4.866641      1.783151     -0.007172
  H       4.458508      2.064073     -0.978634
  H       4.682279      2.567329      0.722341
  H       5.935918      1.603811     -0.113169
  H       0.721842      0.311954     -1.923440
  C      -0.131329     -0.528191      0.659791
  C      -1.433736      0.017389      0.026950
  H       0.245663      0.243579      1.333144
  H      -0.417491     -1.373488      1.289665
  C      -2.390979      0.232588      1.231325
  C      -1.210674      1.383625     -0.620879
  C      -2.021678     -0.930580     -1.014197
  C      -3.696752      0.930005      0.944788
  H      -2.584115     -0.743084      1.683937
  H      -1.864268      0.831336      1.974528
  O      -1.494403      1.671264     -1.750225
  O      -0.663358      2.258580      0.237200
  H      -1.334010     -1.082292     -1.843631
  H      -2.246563     -1.895827     -0.557011
  H      -2.928881     -0.524167     -1.455654
  C      -4.710473      0.257807      0.078449
  C      -0.428767      3.563426     -0.286081
  O      -5.310120      0.765465     -0.827072
  O      -4.885748     -1.014169      0.471618
  H      -1.358976      4.005314     -0.641282
  H      -0.017776      4.143681      0.535774
  H       0.280321      3.518745     -1.113247
  C      -5.771302     -1.793965     -0.328864
  H      -5.824684     -2.767758      0.149935
  H      -6.757806     -1.334650     -0.374656
  H      -5.374314     -1.890120     -1.340650
  C      -4.011331      2.107838      1.473185
  H      -3.318844      2.638590      2.114041
  H      -4.954809      2.589153      1.244629
60
Coordinates from ORCA-job orca E -1383.403887269878
  C       1.505642      0.120097     -1.183915
  H       1.765751      1.022927     -0.629265
  H       2.367613     -0.191587     -1.771738
  C       1.061081     -0.972700     -0.216981
  C       2.167216     -1.326836      0.815774
  H       1.801859     -2.162582      1.417939
  H       2.248077     -0.473893      1.491214
  C       3.598349     -1.693962      0.368275
  C       0.680898     -2.215320     -1.022408
  O       0.761373     -2.325017     -2.215849
  O       0.229271     -3.205813     -0.237777
  C       4.351021     -0.499188     -0.210545
  O       5.026513     -0.518874     -1.203766
  O       4.205551      0.601674      0.543597
  C       3.645628     -2.845171     -0.633483
  H       4.675530     -3.155726     -0.805844
  H       3.089701     -3.698485     -0.238960
  H       3.227072     -2.570803     -1.599717
  C       4.371787     -2.105457      1.635247
  H       3.939226     -3.019249      2.046684
  H       5.419582     -2.303703      1.402388
  H       4.328179     -1.328263      2.398532
  C      -0.191223     -4.383686     -0.919808
  H      -0.504801     -5.079862     -0.146481
  H      -1.023295     -4.155850     -1.588443
  H       0.626891     -4.804162     -1.504031
  C       4.870066      1.767925      0.067686
  H       4.470372      2.064384     -0.902841
  H       4.679312      2.540870      0.807622
  H       5.940368      1.590602     -0.032048
  H       0.723188      0.361833     -1.900938
  C      -0.142464     -0.527515      0.653492
  C      -1.430325      0.040914      0.013440
  H       0.231374      0.227561      1.347291
  H      -0.441401     -1.382238      1.264273
  C      -2.414025      0.244429      1.202667
  C      -1.190038      1.416620     -0.606070
  C      -2.020197     -0.878844     -1.051591
  C      -3.692549      0.951782      0.842124
  H      -2.624772     -0.732241      1.639233
  H      -1.908560      0.844205      1.960210
  O      -1.490067      1.737666     -1.722246
  O      -0.638072      2.269677      0.271448
  H      -1.329571     -1.025270     -1.878914
  H      -2.265755     -1.848039     -0.615200
  H      -2.920085     -0.451670     -1.490660
  C      -4.766926      0.195236      0.131522
  C      -0.410429      3.588634     -0.217943
  O      -5.536690      0.648491     -0.668639
  O      -4.795436     -1.083040      0.550489
  H      -1.343768      4.036472     -0.557934
  H       0.002456      4.148436      0.617189
  H       0.294788      3.569300     -1.049415
  C      -5.730814     -1.931005     -0.107923
  H      -5.654943     -2.897568      0.382991
  H      -6.742537     -1.536487     -0.020369
  H      -5.472466     -2.023214     -1.164315
  C      -3.934035      2.225694      1.133276
  H      -3.203363      2.834823      1.650962
  H      -4.858060      2.696210      0.820902
60
Coordinates from ORCA-job orca E -1383.404515159982
  C       1.493622      0.141752     -1.174264
  H       1.754603      1.041278     -0.614322
  H       2.357199     -0.169780     -1.760676
  C       1.043231     -0.954682     -0.213857
  C       2.147732     -1.316448      0.817052
  H       1.779185     -2.152079      1.417751
  H       2.232812     -0.465003      1.494159
  C       3.576570     -1.688133      0.366311
  C       0.663379     -2.193081     -1.026185
  O       0.738967     -2.294082     -2.220850
  O       0.201174     -3.184052     -0.248210
  C       4.327040     -0.497365     -0.223634
  O       5.012177     -0.529362     -1.209948
  O       4.230215      0.593403      0.552673
  C       3.620084     -2.845401     -0.628745
  H       4.649561     -3.157647     -0.802443
  H       3.064833     -3.696242     -0.227486
  H       3.198842     -2.576198     -1.595510
  C       4.355322     -2.089201      1.633811
  H       3.926502     -3.000914      2.054399
  H       5.402910     -2.286977      1.398414
  H       4.313159     -1.306050      2.391551
  C      -0.220377     -4.357604     -0.937199
  H      -0.543414     -5.054724     -0.168279
  H      -1.045938     -4.123764     -1.611578
  H       0.600366     -4.780360     -1.516496
  C       4.937399      1.741351      0.094130
  H       4.543247      2.072406     -0.867629
  H       4.782828      2.506907      0.850395
  H       5.999254      1.523477     -0.017277
  H       0.714176      0.389128     -1.893252
  C      -0.159973     -0.509829      0.658517
  C      -1.445475      0.066621      0.021629
  H       0.216061      0.239779      1.357522
  H      -0.461756     -1.366880      1.264902
  C      -2.439668      0.253783      1.208666
  C      -1.204727      1.448205     -0.585228
  C      -2.036916     -0.840277     -1.053338
  C      -3.723984      0.941518      0.833361
  H      -2.646743     -0.730372      1.626206
  H      -1.944284      0.845827      1.979459
  O      -1.512760      1.782564     -1.695464
  O      -0.582947      2.273223      0.273183
  H      -1.352964     -0.969025     -1.889735
  H      -2.272778     -1.817652     -0.629867
  H      -2.946641     -0.413453     -1.474363
  C      -4.834033      0.142930      0.220590
  C      -0.321541      3.584507     -0.219893
  O      -5.710678      0.579233     -0.473931
  O      -4.713146     -1.163997      0.517717
  H      -1.249044      4.072550     -0.519507
  H       0.149023      4.121863      0.599666
  H       0.346587      3.541633     -1.080652
  C      -5.665666     -2.027268     -0.092771
  H      -5.461974     -3.021389      0.297239
  H      -6.682101     -1.721748      0.153910
  H      -5.541941     -2.015668     -1.176801
  C      -3.946619      2.238806      1.001484
  H      -3.201978      2.886074      1.450238
  H      -4.878927      2.681028      0.674866
60
Coordinates from ORCA-job orca E -1383.404965694643
  C       1.553856      0.144129     -1.169631
  H       1.822400      1.038207     -0.604598
  H       2.422824     -0.185574     -1.738805
  C       1.063057     -0.942861     -0.218049
  C       2.144333     -1.325255      0.827549
  H       1.752980     -2.152847      1.425087
  H       2.238765     -0.473851      1.503859
  C       3.569002     -1.721742      0.388591
  C       0.677233     -2.174850     -1.036813
  O       0.780552     -2.280639     -2.229042
  O       0.194239     -3.161231     -0.265714
  C       4.331682     -0.547754     -0.218883
  O       5.005390     -0.597008     -1.212426
  O       4.207944      0.568816      0.515983
  C       3.601419     -2.893666     -0.589640
  H       4.627627     -3.220662     -0.756047
  H       3.034905     -3.732144     -0.177952
  H       3.185744     -2.632906     -1.561424
  C       4.341772     -2.110345      1.663802
  H       3.904908     -3.012095      2.097689
  H       5.388229     -2.320227      1.433321
  H       4.304755     -1.315453      2.409556
  C      -0.230700     -4.330262     -0.960578
  H      -0.567900     -5.025199     -0.195618
  H      -1.046543     -4.089190     -1.643383
  H       0.592708     -4.759560     -1.531384
  C       4.902979      1.710789      0.025044
  H       4.516644      2.000505     -0.953215
  H       4.726003      2.500660      0.750934
  H       5.969616      1.506009     -0.064468
  H       0.794223      0.406116     -1.904376
  C      -0.144436     -0.475897      0.639253
  C      -1.417428      0.121555     -0.005199
  H       0.236772      0.265040      1.344742
  H      -0.466447     -1.329947      1.239608
  C      -2.432652      0.276539      1.170018
  C      -1.164750      1.517411     -0.574108
  C      -1.997896     -0.753526     -1.111976
  C      -3.741013      0.914948      0.788278
  H      -2.615807     -0.718089      1.573141
  H      -1.961716      0.872310      1.953531
  O      -1.476751      1.887204     -1.672057
  O      -0.576270      2.328312      0.321274
  H      -1.312495     -0.844601     -1.952386
  H      -2.222350     -1.747691     -0.722819
  H      -2.915153     -0.323317     -1.514043
  C      -4.850274      0.070690      0.229380
  C      -0.320192      3.655492     -0.130370
  O      -5.801621      0.485261     -0.376054
  O      -4.682962     -1.231598      0.517195
  H      -1.246064      4.141217     -0.439256
  H       0.124668      4.175854      0.714221
  H       0.368327      3.643737     -0.976158
  C      -5.667976     -2.110796     -0.014095
  H      -5.421841     -3.099603      0.365249
  H      -6.666424     -1.816728      0.308259
  H      -5.628999     -2.105512     -1.104048
  C      -3.988305      2.213319      0.896146
  H      -3.251094      2.894629      1.305913
  H      -4.940430      2.617022      0.577402
60
Coordinates from ORCA-job orca E -1383.405210877782
  C       1.527971      0.174868     -1.182110
  H       1.806152      1.060854     -0.609607
  H       2.385918     -0.147763     -1.770560
  C       1.050129     -0.924187     -0.237546
  C       2.132160     -1.317972      0.806265
  H       1.737203     -2.153524      1.389961
  H       2.223112     -0.476847      1.495703
  C       3.560607     -1.713440      0.374749
  C       0.660828     -2.147483     -1.067022
  O       0.759641     -2.241399     -2.260548
  O       0.196784     -3.147350     -0.301761
  C       4.355097     -0.528780     -0.168294
  O       5.043004     -0.547095     -1.153155
  O       4.250253      0.552745      0.619783
  C       3.594673     -2.846341     -0.648292
  H       4.618646     -3.183885     -0.806354
  H       3.006164     -3.690645     -0.282057
  H       3.204321     -2.540222     -1.617156
  C       4.303094     -2.167511      1.646068
  H       3.844013     -3.078971      2.034084
  H       5.350017     -2.385170      1.425600
  H       4.265157     -1.403734      2.423395
  C      -0.219078     -4.315200     -1.004047
  H      -0.541275     -5.021118     -0.242837
  H      -1.043381     -4.078335     -1.678217
  H       0.605092     -4.728856     -1.585044
  C       4.974634      1.701268      0.190407
  H       4.601817      2.048359     -0.774203
  H       4.810899      2.457628      0.953960
  H       6.036734      1.476176      0.096911
  H       0.755794      0.447238     -1.900144
  C      -0.157904     -0.467229      0.621132
  C      -1.426132      0.129945     -0.029925
  H       0.220642      0.272416      1.329197
  H      -0.480075     -1.324761      1.216157
  C      -2.437285      0.312109      1.142664
  C      -1.158083      1.513369     -0.620307
  C      -2.015386     -0.757424     -1.122200
  C      -3.757485      0.917984      0.750562
  H      -2.604941     -0.671378      1.580815
  H      -1.969298      0.939479      1.902521
  O      -1.463218      1.868565     -1.725026
  O      -0.562183      2.332140      0.263123
  H      -1.335940     -0.858725     -1.966210
  H      -2.237232     -1.746826     -0.719806
  H      -2.935819     -0.331197     -1.520375
  C      -4.870175      0.034896      0.267839
  C      -0.276789      3.644465     -0.213620
  O      -5.846758      0.410862     -0.322900
  O      -4.675812     -1.249037      0.609531
  H      -1.190080      4.142765     -0.538909
  H       0.172825      4.172885      0.623211
  H       0.416849      3.601474     -1.054103
  C      -5.667549     -2.164629      0.157039
  H      -5.392265     -3.131056      0.571920
  H      -6.657032     -1.868412      0.503576
  H      -5.670032     -2.209200     -0.932651
  C      -4.010218      2.220114      0.793488
  H      -3.267526      2.924749      1.149323
  H      -4.972213      2.601493      0.476410
60
Coordinates from ORCA-job orca E -1383.405292769294
  C       1.544491      0.185255     -1.166935
  H       1.815350      1.065363     -0.581662
  H       2.410038     -0.131094     -1.747700
  C       1.055315     -0.923592     -0.239748
  C       2.128684     -1.328625      0.808039
  H       1.729518     -2.170268      1.379631
  H       2.214111     -0.494678      1.506810
  C       3.560578     -1.718135      0.382763
  C       0.673391     -2.138478     -1.085401
  O       0.767629     -2.214116     -2.280546
  O       0.179727     -3.137365     -0.337523
  C       4.353129     -0.528438     -0.151881
  O       5.047775     -0.541161     -1.132068
  O       4.233301      0.552517      0.634710
  C       3.605517     -2.846965     -0.644356
  H       4.631696     -3.180276     -0.796931
  H       3.017883     -3.694802     -0.285262
  H       3.220189     -2.538542     -1.614388
  C       4.297766     -2.173656      1.656693
  H       3.841065     -3.088885      2.038425
  H       5.347014     -2.385187      1.441444
  H       4.251475     -1.413265      2.436828
  C      -0.241171     -4.292624     -1.057400
  H      -0.591055     -4.998535     -0.308550
  H      -1.046935     -4.036889     -1.747025
  H       0.588032     -4.715814     -1.624206
  C       4.958674      1.703919      0.214456
  H       4.599624      2.046951     -0.756683
  H       4.779138      2.461020      0.973658
  H       6.023156      1.483728      0.138299
  H       0.781241      0.464725     -1.891628
  C      -0.158264     -0.474662      0.616182
  C      -1.426401      0.122966     -0.035573
  H       0.216235      0.262223      1.329287
  H      -0.480158     -1.335990      1.205612
  C      -2.430864      0.320646      1.137917
  C      -1.157524      1.501506     -0.636031
  C      -2.027433     -0.769538     -1.117131
  C      -3.751773      0.922489      0.744320
  H      -2.595309     -0.656410      1.592503
  H      -1.959081      0.958796      1.886014
  O      -1.464122      1.849350     -1.742782
  O      -0.563581      2.327207      0.242298
  H      -1.356876     -0.875916     -1.967271
  H      -2.246025     -1.756598     -0.707102
  H      -2.951647     -0.343915     -1.506915
  C      -4.872315      0.032953      0.298237
  C      -0.279534      3.636664     -0.242896
  O      -5.855843      0.398627     -0.287971
  O      -4.657812     -1.248226      0.634877
  H      -1.193592      4.134279     -0.566814
  H       0.174198      4.169284      0.588967
  H       0.410137      3.588310     -1.086290
  C      -5.652925     -2.173596      0.209417
  H      -5.354395     -3.137543      0.613652
  H      -6.634392     -1.887974      0.586237
  H      -5.687932     -2.215170     -0.879822
  C      -3.993803      2.227693      0.759215
  H      -3.241857      2.933819      1.091310
  H      -4.954388      2.609779      0.439100
60
Coordinates from ORCA-job orca E -1383.405352645577
  C       1.558630      0.195731     -1.154847
  H       1.830400      1.071537     -0.563417
  H       2.427583     -0.124363     -1.728711
  C       1.053643     -0.913483     -0.236778
  C       2.119527     -1.332786      0.812013
  H       1.713439     -2.175710      1.376680
  H       2.208507     -0.503860      1.516213
  C       3.549576     -1.726561      0.386067
  C       0.665879     -2.120213     -1.091473
  O       0.766884     -2.190000     -2.286383
  O       0.186936     -3.130551     -0.349331
  C       4.340585     -0.538618     -0.154356
  O       5.039689     -0.557261     -1.131251
  O       4.224769      0.544022      0.630441
  C       3.592247     -2.858083     -0.638240
  H       4.617800     -3.193272     -0.790784
  H       3.003856     -3.704281     -0.276589
  H       3.206398     -2.551657     -1.608672
  C       4.288786     -2.177531      1.660580
  H       3.833307     -3.091668      2.046226
  H       5.337840     -2.389110      1.444465
  H       4.243178     -1.414550      2.438243
  C      -0.222627     -4.285364     -1.076515
  H      -0.561708     -5.000817     -0.331790
  H      -1.033210     -4.034469     -1.761955
  H       0.609896     -4.694487     -1.648782
  C       4.958798      1.690314      0.210756
  H       4.606942      2.032112     -0.763378
  H       4.779347      2.450713      0.966628
  H       6.022399      1.463883      0.141142
  H       0.804070      0.482858     -1.885484
  C      -0.160068     -0.459670      0.617384
  C      -1.429223      0.135254     -0.035041
  H       0.215292      0.279063      1.328235
  H      -0.482375     -1.319147      1.209032
  C      -2.434779      0.332829      1.137594
  C      -1.164230      1.513741     -0.637117
  C      -2.026159     -0.760637     -1.116126
  C      -3.763357      0.919084      0.743408
  H      -2.587966     -0.641689      1.601041
  H      -1.968351      0.980732      1.880531
  O      -1.464156      1.856989     -1.747177
  O      -0.559039      2.337721      0.235271
  H      -1.354388     -0.865009     -1.965715
  H      -2.240935     -1.748190     -0.705296
  H      -2.951247     -0.338197     -1.506632
  C      -4.879257      0.019365      0.308312
  C      -0.264528      3.642278     -0.256694
  O      -5.878369      0.379644     -0.254957
  O      -4.646684     -1.261022      0.633244
  H      -1.175535      4.149484     -0.574277
  H       0.202447      4.172322      0.569451
  H       0.417072      3.583265     -1.105920
  C      -5.642332     -2.192495      0.221214
  H      -5.326852     -3.156082      0.613063
  H      -6.618068     -1.916928      0.619823
  H      -5.699539     -2.226733     -0.867256
  C      -4.015507      2.222489      0.752760
  H      -3.267057      2.935181      1.078356
  H      -4.979102      2.597020      0.433184
60
Coordinates from ORCA-job orca E -1383.405377924502
  C       1.553019      0.184271     -1.168321
  H       1.824835      1.064612     -0.584032
  H       2.420162     -0.137560     -1.743788
  C       1.054328     -0.920092     -0.241031
  C       2.122787     -1.332164      0.808352
  H       1.719610     -2.174898      1.375338
  H       2.209815     -0.501181      1.510394
  C       3.553632     -1.722930      0.382324
  C       0.667759     -2.133085     -1.086895
  O       0.765962     -2.210072     -2.281608
  O       0.191255     -3.139020     -0.337266
  C       4.344936     -0.532840     -0.153048
  O       5.044967     -0.547979     -1.129372
  O       4.231125      0.545844      0.637489
  C       3.597338     -2.851042     -0.645695
  H       4.623035     -3.185556     -0.798590
  H       3.008768     -3.698548     -0.287371
  H       3.212070     -2.541418     -1.615470
  C       4.292154     -2.177956      1.655745
  H       3.836933     -3.093604      2.038139
  H       5.341449     -2.388270      1.439558
  H       4.245690     -1.417577      2.435914
  C      -0.221247     -4.297800     -1.056458
  H      -0.557550     -5.008980     -0.306394
  H      -1.034140     -4.050991     -1.740360
  H       0.609223     -4.710144     -1.629424
  C       4.964020      1.694314      0.221631
  H       4.609578      2.040786     -0.749955
  H       4.786394      2.450951      0.981692
  H       6.027460      1.468231      0.148360
  H       0.794545      0.464043     -1.897859
  C      -0.157983     -0.462679      0.613502
  C      -1.427539      0.134431     -0.036503
  H       0.220224      0.276422      1.322521
  H      -0.481413     -1.321209      1.206111
  C      -2.431411      0.334078      1.137843
  C      -1.159714      1.512140     -0.639322
  C      -2.028193     -0.759241     -1.117405
  C      -3.761428      0.920016      0.745472
  H      -2.583259     -0.639282      1.603603
  H      -1.963899      0.982857      1.879524
  O      -1.464646      1.857489     -1.747368
  O      -0.565671      2.339711      0.237347
  H      -1.359572     -0.861160     -1.969805
  H      -2.241292     -1.747635     -0.707933
  H      -2.954799     -0.335647     -1.503264
  C      -4.879480      0.023941      0.307288
  C      -0.274415      3.645674     -0.252688
  O      -5.883292      0.391225     -0.243166
  O      -4.648369     -1.259585      0.619693
  H      -1.185931      4.149083     -0.575013
  H       0.185571      4.177592      0.576190
  H       0.412149      3.589949     -1.098167
  C      -5.650105     -2.184079      0.205729
  H      -5.334671     -3.152203      0.586188
  H      -6.621821     -1.908654      0.614175
  H      -5.715762     -2.207462     -0.882451
  C      -4.013366      2.223427      0.761488
  H      -3.263281      2.933942      1.088368
  H      -4.977473      2.600653      0.446454
60
Coordinates from ORCA-job orca E -1383.405398208038
  C       1.553102      0.192410     -1.166404
  H       1.822486      1.071878     -0.579796
  H       2.420826     -0.125482     -1.743021
  C       1.057027     -0.915822     -0.242317
  C       2.123914     -1.329632      0.808407
  H       1.718787     -2.173399      1.372358
  H       2.210452     -0.500622      1.512837
  C       3.554876     -1.722015      0.384054
  C       0.674850     -2.127476     -1.091830
  O       0.775321     -2.201204     -2.286571
  O       0.194591     -3.134401     -0.345932
  C       4.353843     -0.531983     -0.140197
  O       5.053951     -0.542528     -1.116565
  O       4.231144      0.546526      0.649268
  C       3.596952     -2.843283     -0.651471
  H       4.621672     -3.180913     -0.803869
  H       3.003925     -3.690811     -0.300602
  H       3.215412     -2.525550     -1.620184
  C       4.287771     -2.189366      1.656161
  H       3.827746     -3.105916      2.030566
  H       5.336831     -2.402338      1.441489
  H       4.242044     -1.434518      2.441693
  C      -0.217573     -4.290860     -1.069021
  H      -0.558165     -5.002814     -0.321644
  H      -1.027280     -4.041100     -1.755673
  H       0.614313     -4.703702     -1.639573
  C       4.963649      1.697032      0.238174
  H       4.616985      2.040437     -0.737266
  H       4.776343      2.454306      0.995253
  H       6.028502      1.474538      0.175199
  H       0.793584      0.471700     -1.895089
  C      -0.158123     -0.463852      0.610849
  C      -1.428356      0.131105     -0.039646
  H       0.217069      0.274818      1.321933
  H      -0.480342     -1.324895      1.200674
  C      -2.432198      0.332652      1.134466
  C      -1.161361      1.507943     -0.645166
  C      -2.028293     -0.764316     -1.119553
  C      -3.761864      0.917413      0.739209
  H      -2.582668     -0.638831      1.604658
  H      -1.965809      0.984678      1.874023
  O      -1.464411      1.850382     -1.754630
  O      -0.561406      2.335529      0.227459
  H      -1.361447     -0.862726     -1.973701
  H      -2.236713     -1.753610     -0.710141
  H      -2.957513     -0.343586     -1.502586
  C      -4.884372      0.020718      0.314131
  C      -0.266888      3.639088     -0.266905
  O      -5.889827      0.386621     -0.234381
  O      -4.655423     -1.260942      0.635271
  H      -1.178251      4.147195     -0.582320
  H       0.202686      4.169710      0.557424
  H       0.412295      3.578471     -1.117931
  C      -5.662480     -2.185697      0.234186
  H      -5.345716     -3.152199      0.617534
  H      -6.630120     -1.905514      0.648995
  H      -5.737156     -2.214497     -0.853244
  C      -4.010123      2.221812      0.746025
  H      -3.255705      2.932330      1.062913
  H      -4.974294      2.600250      0.432429
60
Coordinates from ORCA-job orca E -1383.405419663709
  C       1.558089      0.194073     -1.162394
  H       1.826338      1.070780     -0.571113
  H       2.427471     -0.122007     -1.737603
  C       1.058019     -0.917758     -0.244851
  C       2.121949     -1.337268      0.806631
  H       1.716622     -2.185798      1.363170
  H       2.204316     -0.513100      1.517159
  C       3.555518     -1.722512      0.384447
  C       0.675355     -2.124678     -1.101088
  O       0.776933     -2.192279     -2.296093
  O       0.193806     -3.135325     -0.361034
  C       4.350607     -0.527030     -0.133257
  O       5.058382     -0.533064     -1.104125
  O       4.224006      0.546951      0.661691
  C       3.605848     -2.839734     -0.655073
  H       4.632574     -3.171924     -0.805866
  H       3.015966     -3.691392     -0.308966
  H       3.225340     -2.520381     -1.623580
  C       4.287096     -2.190877      1.656990
  H       3.830102     -3.110613      2.027234
  H       5.337655     -2.398525      1.444465
  H       4.235928     -1.438773      2.444857
  C      -0.216633     -4.288292     -1.090661
  H      -0.560637     -5.003174     -0.347662
  H      -1.023483     -4.034801     -1.779433
  H       0.617076     -4.699368     -1.659837
  C       4.958260      1.699827      0.260220
  H       4.617742      2.046861     -0.716050
  H       4.765421      2.453749      1.019237
  H       6.023675      1.478351      0.203404
  H       0.801018      0.476818     -1.892241
  C      -0.158567     -0.468166      0.607475
  C      -1.428505      0.126280     -0.043752
  H       0.215288      0.269779      1.319977
  H      -0.480891     -1.330375      1.195539
  C      -2.430760      0.333414      1.130348
  C      -1.160719      1.501003     -0.654063
  C      -2.030247     -0.772304     -1.120076
  C      -3.758471      0.920181      0.732725
  H      -2.582203     -0.635583      1.605798
  H      -1.963242      0.988191      1.866683
  O      -1.464669      1.840214     -1.764273
  O      -0.562463      2.331987      0.216480
  H      -1.364265     -0.873468     -1.974558
  H      -2.238962     -1.760123     -0.707320
  H      -2.959392     -0.351856     -1.503587
  C      -4.886461      0.024176      0.322589
  C      -0.269966      3.634659     -0.281370
  O      -5.893871      0.388716     -0.223323
  O      -4.658883     -1.255278      0.653060
  H      -1.182735      4.142530     -0.593112
  H       0.203393      4.166573      0.539957
  H       0.405106      3.572713     -1.135516
  C      -5.671569     -2.180656      0.267209
  H      -5.352190     -3.145380      0.652752
  H      -6.634310     -1.896237      0.690440
  H      -5.757566     -2.214906     -0.819246
  C      -4.000333      2.225876      0.729428
  H      -3.240882      2.935184      1.036786
  H      -4.962951      2.607263      0.414782
60
Coordinates from ORCA-job orca E -1383.405437732654
  C       1.561493      0.191589     -1.162458
  H       1.827621      1.068424     -0.570437
  H       2.432833     -0.124234     -1.734971
  C       1.058807     -0.920496     -0.246683
  C       2.120808     -1.341950      0.805927
  H       1.715461     -2.193101      1.358392
  H       2.200110     -0.520242      1.519586
  C       3.556097     -1.722707      0.385669
  C       0.676761     -2.126309     -1.105073
  O       0.776922     -2.190886     -2.300366
  O       0.200103     -3.140709     -0.367002
  C       4.349265     -0.524106     -0.127741
  O       5.062743     -0.528025     -1.094449
  O       4.215583      0.549177      0.666929
  C       3.611938     -2.837533     -0.656120
  H       4.639981     -3.166083     -0.805826
  H       3.024182     -3.691856     -0.312905
  H       3.231925     -2.517498     -1.624533
  C       4.286422     -2.191613      1.658825
  H       3.830593     -3.112802      2.026842
  H       5.337797     -2.396757      1.447921
  H       4.232212     -1.440803      2.447776
  C      -0.203346     -4.294566     -1.099246
  H      -0.548018     -5.011191     -0.358243
  H      -1.007724     -4.043499     -1.791566
  H       0.634308     -4.702286     -1.665057
  C       4.948925      1.704073      0.269230
  H       4.615247      2.047611     -0.710566
  H       4.747105      2.458731      1.025158
  H       6.015569      1.486256      0.221828
  H       0.806549      0.473564     -1.894749
  C      -0.158104     -0.469963      0.605515
  C      -1.430607      0.121727     -0.043705
  H       0.216339      0.269979      1.315618
  H      -0.478654     -1.331101      1.196080
  C      -2.427729      0.334134      1.133587
  C      -1.165137      1.493628     -0.661698
  C      -2.036754     -0.782633     -1.112762
  C      -3.755307      0.925525      0.741723
  H      -2.580059     -0.633705      1.611369
  H      -1.955475      0.988045      1.867621
  O      -1.471710      1.826970     -1.772947
  O      -0.565269      2.329257      0.203253
  H      -1.372922     -0.889577     -1.968293
  H      -2.246045     -1.767614     -0.693388
  H      -2.965729     -0.362720     -1.496970
  C      -4.887354      0.035167      0.331488
  C      -0.275078      3.629728     -0.301686
  O      -5.898233      0.406283     -0.203515
  O      -4.658212     -1.247834      0.646203
  H      -1.190049      4.138544     -0.605469
  H       0.207312      4.163329      0.513276
  H       0.391014      3.564097     -1.162489
  C      -5.677411     -2.166789      0.260956
  H      -5.352526     -3.137451      0.626355
  H      -6.633114     -1.888336      0.703718
  H      -5.780745     -2.183242     -0.824346
  C      -3.994161      2.231591      0.748679
  H      -3.232176      2.936893      1.058845
  H      -4.955311      2.619033      0.437299
60
Coordinates from ORCA-job orca E -1383.405468029006
  C       1.564302      0.189568     -1.164219
  H       1.826188      1.068042     -0.572881
  H       2.438420     -0.124990     -1.733395
  C       1.061322     -0.922502     -0.248606
  C       2.121971     -1.342927      0.805498
  H       1.717375     -2.195998      1.355519
  H       2.198712     -0.522465      1.520832
  C       3.557911     -1.720232      0.385508
  C       0.683388     -2.129270     -1.107418
  O       0.784060     -2.192792     -2.302765
  O       0.210425     -3.145911     -0.370106
  C       4.350272     -0.519006     -0.122936
  O       5.067899     -0.520609     -1.086608
  O       4.214471      0.551833      0.674612
  C       3.615510     -2.831134     -0.660350
  H       4.644151     -3.156682     -0.812373
  H       3.029973     -3.688069     -0.319718
  H       3.233421     -2.508603     -1.627230
  C       4.287968     -2.192620      1.657681
  H       3.831791     -3.114608      2.023290
  H       5.339377     -2.397371      1.446554
  H       4.233578     -1.443754      2.448546
  C      -0.184099     -4.302495     -1.103037
  H      -0.532926     -5.018357     -0.363226
  H      -0.982896     -4.055355     -1.802938
  H       0.659478     -4.709226     -1.660809
  C       4.948307      1.708103      0.281490
  H       4.620107      2.050869     -0.700396
  H       4.740704      2.462274      1.036340
  H       6.015606      1.491940      0.240797
  H       0.810933      0.467878     -1.899590
  C      -0.157494     -0.472976      0.601949
  C      -1.431850      0.115319     -0.047043
  H       0.215602      0.268786      1.310884
  H      -0.476463     -1.333921      1.193839
  C      -2.427656      0.328134      1.131376
  C      -1.168929      1.486227     -0.668201
  C      -2.037141     -0.792618     -1.113552
  C      -3.753407      0.927196      0.743590
  H      -2.583494     -0.640643      1.605998
  H      -1.952268      0.977426      1.867557
  O      -1.474470      1.815926     -1.780788
  O      -0.571411      2.324923      0.195372
  H      -1.372906     -0.900285     -1.968879
  H      -2.245314     -1.776717     -0.691622
  H      -2.966473     -0.374825     -1.499200
  C      -4.893723      0.045198      0.337251
  C      -0.282551      3.624561     -0.312455
  O      -5.906176      0.424803     -0.188724
  O      -4.671251     -1.240681      0.645327
  H      -1.199213      4.135199     -0.608337
  H       0.207266      4.157541      0.498521
  H       0.375940      3.557960     -1.178927
  C      -5.702926     -2.149165      0.267763
  H      -5.377731     -3.125788      0.616621
  H      -6.648611     -1.869862      0.731213
  H      -5.826535     -2.152204     -0.815420
  C      -3.985451      2.234325      0.755428
  H      -3.218656      2.935183      1.064058
  H      -4.945338      2.628592      0.448748
60
Coordinates from ORCA-job orca E -1383.405492820920
  C       1.563264      0.188046     -1.165184
  H       1.822536      1.066864     -0.573234
  H       2.438218     -0.123271     -1.734854
  C       1.063782     -0.926478     -0.250552
  C       2.125070     -1.344930      0.803996
  H       1.722580     -2.200130      1.352227
  H       2.198133     -0.525478      1.520880
  C       3.562841     -1.717220      0.385489
  C       0.689458     -2.133468     -1.110523
  O       0.789558     -2.194960     -2.306086
  O       0.222162     -3.153271     -0.374130
  C       4.354277     -0.512938     -0.117138
  O       5.075155     -0.510934     -1.078430
  O       4.210298      0.557188      0.679858
  C       3.625943     -2.824960     -0.663398
  H       4.656056     -3.145620     -0.815628
  H       3.043681     -3.685271     -0.325630
  H       3.243224     -2.501434     -1.629715
  C       4.291700     -2.191400      1.657737
  H       3.835745     -3.114471      2.020895
  H       5.343614     -2.394656      1.447739
  H       4.235251     -1.444111      2.449972
  C      -0.160953     -4.313320     -1.107734
  H      -0.515980     -5.027841     -0.369582
  H      -0.951809     -4.071071     -1.818034
  H       0.690427     -4.719372     -1.654216
  C       4.942988      1.715777      0.291241
  H       4.624694      2.053547     -0.695559
  H       4.723308      2.471295      1.041311
  H       6.011729      1.504547      0.263647
  H       0.808736      0.464555     -1.900155
  C      -0.156421     -0.480864      0.599716
  C      -1.432749      0.103959     -0.048645
  H       0.214871      0.262162      1.308282
  H      -0.472614     -1.342470      1.192378
  C      -2.426699      0.317498      1.131033
  C      -1.172642      1.473156     -0.674196
  C      -2.039563     -0.808013     -1.110650
  C      -3.747256      0.930913      0.747427
  H      -2.591382     -0.653601      1.597531
  H      -1.945583      0.957432      1.871711
  O      -1.478347      1.798453     -1.787980
  O      -0.577944      2.316043      0.187224
  H      -1.377197     -0.917330     -1.967338
  H      -2.245552     -1.790943     -0.684939
  H      -2.970871     -0.393245     -1.495101
  C      -4.899023      0.062391      0.342689
  C      -0.294138      3.615528     -0.323836
  O      -5.914643      0.456288     -0.166254
  O      -4.685832     -1.228896      0.635728
  H      -1.214168      4.126120     -0.609562
  H       0.203857      4.148721      0.482034
  H       0.354567      3.549606     -1.197563
  C      -5.735374     -2.120920      0.268431
  H      -5.409961     -3.107269      0.588613
  H      -6.665215     -1.843767      0.764353
  H      -5.890019     -2.100479     -0.810434
  C      -3.967451      2.240063      0.763030
  H      -3.194354      2.934190      1.071408
  H      -4.924913      2.643202      0.460108
60
Coordinates from ORCA-job orca E -1383.405494726800
  C       1.559713      0.186852     -1.168386
  H       1.817567      1.067221     -0.578041
  H       2.435020     -0.123691     -1.737848
  C       1.063153     -0.927034     -0.251349
  C       2.126101     -1.339853      0.803832
  H       1.724536     -2.192051      1.357424
  H       2.199762     -0.516403      1.516105
  C       3.563494     -1.714807      0.386176
  C       0.692105     -2.137110     -1.108261
  O       0.792746     -2.201542     -2.303630
  O       0.226586     -3.155734     -0.369224
  C       4.355522     -0.513507     -0.122688
  O       5.074065     -0.515756     -1.085733
  O       4.214050      0.559896      0.670312
  C       3.625399     -2.827753     -0.657222
  H       4.655361     -3.149228     -0.808761
  H       3.043323     -3.686242     -0.314591
  H       3.242160     -2.508865     -1.624881
  C       4.292699     -2.183437      1.660287
  H       3.836159     -3.104407      2.028049
  H       5.344317     -2.388547      1.450634
  H       4.237230     -1.432389      2.448984
  C      -0.150838     -4.319879     -1.099250
  H      -0.509575     -5.031078     -0.359689
  H      -0.937271     -4.082375     -1.815960
  H       0.704626     -4.727770     -1.638033
  C       4.948465      1.715728      0.277010
  H       4.631445      2.049791     -0.711448
  H       4.729448      2.474748      1.023731
  H       6.016955      1.502953      0.250922
  H       0.804410      0.461023     -1.903373
  C      -0.157684     -0.482741      0.598437
  C      -1.433757      0.102421     -0.050315
  H       0.212692      0.260035      1.307771
  H      -0.473669     -1.344618      1.190838
  C      -2.429100      0.310313      1.129624
  C      -1.173601      1.473478     -0.671223
  C      -2.037792     -0.807195     -1.115857
  C      -3.749082      0.929734      0.752990
  H      -2.597266     -0.664418      1.587421
  H      -1.946055      0.942943      1.875263
  O      -1.480438      1.802907     -1.783478
  O      -0.576724      2.312692      0.192287
  H      -1.374082     -0.913992     -1.971748
  H      -2.243156     -1.791578     -0.693109
  H      -2.969336     -0.393194     -1.500256
  C      -4.902611      0.066887      0.340429
  C      -0.293530      3.614059     -0.314303
  O      -5.915837      0.466717     -0.168534
  O      -4.693536     -1.227022      0.625206
  H      -1.213984      4.125516     -0.597116
  H       0.205421      4.144342      0.492879
  H       0.353960      3.551380     -1.189170
  C      -5.746395     -2.112901      0.253531
  H      -5.421787     -3.103647      0.560809
  H      -6.673002     -1.840340      0.758113
  H      -5.907432     -2.080197     -0.824051
  C      -3.968479      2.238912      0.780212
  H      -3.196104      2.930533      1.095408
  H      -4.927292      2.643359      0.483257
60
Coordinates from ORCA-job orca E -1383.405503088265
  C       1.556292      0.185935     -1.167943
  H       1.815243      1.066752     -0.578753
  H       2.430502     -0.124897     -1.738903
  C       1.062250     -0.927291     -0.248801
  C       2.127747     -1.336031      0.805342
  H       1.727405     -2.185365      1.364233
  H       2.203580     -0.509055      1.513293
  C       3.563893     -1.713770      0.385979
  C       0.692394     -2.139227     -1.103434
  O       0.792319     -2.205572     -2.298734
  O       0.228713     -3.157110     -0.362237
  C       4.354909     -0.515295     -0.131035
  O       5.068407     -0.521310     -1.097787
  O       4.218796      0.560693      0.659403
  C       3.622432     -2.831875     -0.652064
  H       4.651802     -3.155013     -0.804128
  H       3.040371     -3.688096     -0.303895
  H       3.237775     -2.517238     -1.620551
  C       4.295951     -2.176677      1.660533
  H       3.840585     -3.096269      2.033160
  H       5.347154     -2.382348      1.449412
  H       4.241943     -1.422365      2.446160
  C      -0.146466     -4.323593     -1.089601
  H      -0.506293     -5.032890     -0.348758
  H      -0.931410     -4.088862     -1.808849
  H       0.710580     -4.732570     -1.625061
  C       4.953363      1.714147      0.259765
  H       4.632478      2.046603     -0.727983
  H       4.739311      2.475358      1.005680
  H       6.021327      1.499341      0.229105
  H       0.799506      0.459784     -1.901502
  C      -0.158468     -0.484237      0.601550
  C      -1.433789      0.101385     -0.048103
  H       0.211128      0.257905      1.311900
  H      -0.474523     -1.346658      1.193020
  C      -2.431760      0.305092      1.130306
  C      -1.174564      1.474619     -0.664234
  C      -2.034797     -0.805760     -1.117393
  C      -3.749735      0.928718      0.754216
  H      -2.602800     -0.671633      1.582728
  H      -1.948979      0.933547      1.879627
  O      -1.481990      1.807691     -1.775260
  O      -0.578395      2.311502      0.202074
  H      -1.369924     -0.909628     -1.972711
  H      -2.239011     -1.791836     -0.697919
  H      -2.966836     -0.392412     -1.501211
  C      -4.903388      0.069642      0.334562
  C      -0.297390      3.615133     -0.299868
  O      -5.915266      0.473532     -0.173874
  O      -4.696351     -1.225974      0.612852
  H      -1.218254      4.124477     -0.584982
  H       0.197068      4.144719      0.510493
  H       0.353592      3.556557     -1.172471
  C      -5.749555     -2.108716      0.235618
  H      -5.425142     -3.102075      0.534581
  H      -6.675413     -1.840332      0.743877
  H      -5.912333     -2.067681     -0.841407
  C      -3.966921      2.238329      0.785787
  H      -3.194895      2.927632      1.106575
  H      -4.925098      2.643708      0.488032
60
Coordinates from ORCA-job orca E -1383.405504944827
  C       1.553218      0.185166     -1.167939
  H       1.813129      1.065986     -0.579129
  H       2.426475     -0.125643     -1.740336
  C       1.061161     -0.928111     -0.247784
  C       2.128380     -1.333633      0.805933
  H       1.728855     -2.180698      1.368877
  H       2.205258     -0.503783      1.510424
  C       3.564242     -1.713031      0.386568
  C       0.692300     -2.141193     -1.101236
  O       0.791721     -2.208516     -2.296496
  O       0.230466     -3.159114     -0.358887
  C       4.354025     -0.516761     -0.137330
  O       5.064027     -0.526009     -1.106599
  O       4.221329      0.561636      0.650425
  C       3.622264     -2.836263     -0.645995
  H       4.651578     -3.160412     -0.796479
  H       3.040179     -3.690607     -0.293430
  H       3.237901     -2.526219     -1.616029
  C       4.297845     -2.169494      1.662492
  H       3.844485     -3.088483      2.039033
  H       5.349277     -2.374146      1.451475
  H       4.243042     -1.412204      2.445156
  C      -0.143084     -4.326828     -1.085039
  H      -0.503408     -5.035360     -0.343707
  H      -0.927143     -4.093735     -1.805764
  H       0.715048     -4.736089     -1.618583
  C       4.956019      1.713152      0.245666
  H       4.632370      2.044057     -0.741693
  H       4.745621      2.476300      0.990640
  H       6.023570      1.496757      0.211818
  H       0.795256      0.459191     -1.900202
  C      -0.159508     -0.486426      0.603230
  C      -1.434076      0.100410     -0.046611
  H       0.209669      0.254516      1.315016
  H      -0.475960     -1.349772      1.193063
  C      -2.433423      0.301807      1.131050
  C      -1.175066      1.475327     -0.659135
  C      -2.033805     -0.804368     -1.118598
  C      -3.750272      0.928166      0.755824
  H      -2.605860     -0.675773      1.581103
  H      -1.950663      0.927928      1.882394
  O      -1.484469      1.811869     -1.768576
  O      -0.577346      2.309669      0.208605
  H      -1.368534     -0.906156     -1.973797
  H      -2.237410     -1.791724     -0.701746
  H      -2.966072     -0.390742     -1.501444
  C      -4.904242      0.071959      0.331647
  C      -0.298744      3.615274     -0.289529
  O      -5.915344      0.479055     -0.175880
  O      -4.698533     -1.224871      0.604480
  H      -1.220207      4.123098     -0.575268
  H       0.193186      4.143971      0.522932
  H       0.354035      3.560184     -1.161053
  C      -5.751602     -2.105347      0.221886
  H      -5.426760     -3.100739      0.513507
  H      -6.677022     -1.840905      0.733056
  H      -5.915557     -2.056770     -0.854613
  C      -3.965825      2.238018      0.791911
  H      -3.193178      2.924962      1.116119
  H      -4.923748      2.644605      0.494988
60
Coordinates from ORCA-job orca E -1383.405509903798
  C       1.552241      0.185759     -1.167076
  H       1.812363      1.066450     -0.578176
  H       2.425238     -0.124924     -1.739948
  C       1.060812     -0.927814     -0.246921
  C       2.128503     -1.332272      0.806697
  H       1.729029     -2.178234      1.371367
  H       2.206179     -0.501174      1.509635
  C       3.564012     -1.712935      0.387189
  C       0.692758     -2.141099     -1.100405
  O       0.792614     -2.208432     -2.295621
  O       0.231303     -3.159321     -0.358163
  C       4.353466     -0.517915     -0.139995
  O       5.061400     -0.528740     -1.110742
  O       4.223215      0.561445      0.646890
  C       3.621102     -2.838497     -0.642939
  H       4.650191     -3.163723     -0.792751
  H       3.038555     -3.691668     -0.288335
  H       3.236950     -2.530355     -1.613652
  C       4.298327     -2.166801      1.663604
  H       3.845795     -3.085522      2.041798
  H       5.349824     -2.371134      1.452554
  H       4.243399     -1.408262      2.445036
  C      -0.140975     -4.327330     -1.084498
  H      -0.502167     -5.035765     -0.343490
  H      -0.924029     -4.094658     -1.806434
  H       0.718027     -4.736577     -1.616663
  C       4.957815      1.712032      0.239375
  H       4.631649      2.042834     -0.747191
  H       4.750339      2.475762      0.984579
  H       6.025044      1.494548      0.202557
  H       0.793972      0.459917     -1.898975
  C      -0.160150     -0.487091      0.604238
  C      -1.434365      0.100025     -0.045786
  H       0.208599      0.253261      1.316832
  H      -0.476761     -1.351053      1.193062
  C      -2.434271      0.300892      1.131504
  C      -1.175527      1.475521     -0.657286
  C      -2.033524     -0.804252     -1.118510
  C      -3.750759      0.927931      0.756251
  H      -2.606913     -0.676755      1.581409
  H      -1.951765      0.926436      1.883522
  O      -1.486229      1.813269     -1.765994
  O      -0.576862      2.308979      0.210668
  H      -1.367823     -0.905658     -1.973422
  H      -2.237160     -1.791882     -0.702286
  H      -2.965604     -0.390411     -1.501548
  C      -4.904919      0.072522      0.331184
  C      -0.299473      3.615316     -0.286248
  O      -5.916516      0.480748     -0.174543
  O      -4.698851     -1.224814      0.600809
  H      -1.221218      4.122124     -0.572820
  H       0.190920      4.144061      0.527113
  H       0.354479      3.561593     -1.156998
  C      -5.751845     -2.104597      0.216156
  H      -5.425627     -3.100923      0.502965
  H      -6.676562     -1.843007      0.730054
  H      -5.917693     -2.051390     -0.859821
  C      -3.965722      2.237810      0.794074
  H      -3.192404      2.923614      1.119110
  H      -4.923334      2.645276      0.497414
60
Coordinates from ORCA-job orca E -1383.405505804951
  C       1.552039      0.185758     -1.167398
  H       1.812183      1.066534     -0.578648
  H       2.424938     -0.125012     -1.740371
  C       1.060785     -0.927790     -0.247099
  C       2.128490     -1.331771      0.806699
  H       1.728862     -2.177194      1.372094
  H       2.206354     -0.500063      1.508906
  C       3.564039     -1.713053      0.387694
  C       0.692987     -2.141201     -1.100480
  O       0.792749     -2.208513     -2.295711
  O       0.231993     -3.159622     -0.358188
  C       4.353494     -0.518725     -0.141002
  O       5.060738     -0.530455     -1.112230
  O       4.224072      0.561251      0.645205
  C       3.621203     -2.839986     -0.640955
  H       4.650251     -3.165849     -0.789744
  H       3.038184     -3.692469     -0.285461
  H       3.237709     -2.533044     -1.612296
  C       4.298198     -2.165386      1.664734
  H       3.845941     -3.083924      2.043710
  H       5.349827     -2.369588      1.454167
  H       4.242919     -1.406071      2.445388
  C      -0.139719     -4.327788     -1.084583
  H      -0.501058     -5.036250     -0.343665
  H      -0.922500     -4.095354     -1.806872
  H       0.719589     -4.736897     -1.616368
  C       4.958385      1.711486      0.236165
  H       4.630536      2.042280     -0.749859
  H       4.752514      2.475426      0.981611
  H       6.025467      1.493602      0.197485
  H       0.793700      0.459740     -1.899306
  C      -0.160305     -0.487212      0.604093
  C      -1.434428      0.100249     -0.045751
  H       0.208486      0.252775      1.317043
  H      -0.477098     -1.351436      1.192437
  C      -2.434576      0.300517      1.131457
  C      -1.175776      1.476216     -0.656364
  C      -2.033368     -0.803431     -1.119099
  C      -3.751096      0.927596      0.756278
  H      -2.607006     -0.677254      1.581215
  H      -1.952373      0.925697      1.884004
  O      -1.486832      1.814727     -1.764734
  O      -0.576731      2.308981      0.211980
  H      -1.367289     -0.904450     -1.973801
  H      -2.237299     -1.791225     -0.703444
  H      -2.965153     -0.389169     -1.502418
  C      -4.905569      0.072402      0.331533
  C      -0.299855      3.615799     -0.283967
  O      -5.917556      0.481052     -0.173127
  O      -4.699331     -1.225152      0.599793
  H      -1.221673      4.121975     -0.571395
  H       0.189212      4.144509      0.530223
  H       0.355223      3.563044     -1.153942
  C      -5.752553     -2.104515      0.214411
  H      -5.425515     -3.101325      0.498572
  H      -6.676697     -1.844328      0.730043
  H      -5.919726     -2.048750     -0.861224
  C      -3.965819      2.237436      0.794812
  H      -3.191892      2.922681      1.119650
  H      -4.923207      2.645660      0.498513
