31
Coordinates from ORCA-job orca E -692.241888843536
  C      -5.207750     -0.083490     -0.193170
  C      -5.428630      0.226830      1.287690
  O      -5.147870     -0.823400      2.068800
  C      -5.313920     -0.633500      3.463540
  H      -5.056980     -1.587670      3.936620
  H      -4.645660      0.160850      3.827060
  H      -6.350360     -0.354930      3.701420
  O      -5.850300      1.266310      1.724100
  C      -3.867090     -0.814390     -0.438650
  H      -3.843220     -1.684080      0.233680
  C      -2.514830     -0.065710     -0.260100
  C      -2.432840      0.630890      1.099970
  H      -2.487690     -0.107880      1.909780
  H      -3.245350      1.359530      1.219610
  H      -1.503920      1.198990      1.214630
  C      -2.351580      0.988880     -1.352240
  O      -2.014030      2.132990     -1.173670
  O      -2.604440      0.502420     -2.573090
  C      -2.461120      1.406580     -3.655000
  H      -3.148230      2.257680     -3.542750
  H      -1.432340      1.792540     -3.707440
  H      -2.698890      0.840760     -4.562280
  H      -3.897580     -1.211030     -1.464430
  C      -6.336170     -1.057810     -0.594750
  H      -6.251650     -2.010790     -0.053350
  H      -7.323910     -0.622730     -0.379480
  H      -6.283930     -1.265290     -1.674320
  C      -5.352080      1.210840     -0.996400
  H      -4.628040      1.975650     -0.684530
  H      -6.352640      1.641220     -0.854340
  H      -5.206830      1.003730     -2.066550
31
Coordinates from ORCA-job orca E -692.253552136586
  C      -5.247729     -0.072397     -0.171729
  C      -5.470839      0.210345      1.313875
  O      -5.161620     -0.842279      2.081886
  C      -5.339566     -0.668334      3.480148
  H      -5.058192     -1.613450      3.941653
  H      -4.700383      0.137137      3.850635
  H      -6.378126     -0.424798      3.714027
  O      -5.919822      1.230878      1.763945
  C      -3.888511     -0.766053     -0.443612
  H      -3.836064     -1.640986      0.211805
  C      -2.575136      0.015491     -0.274644
  C      -2.382631      0.662189      1.081308
  H      -2.425610     -0.084226      1.878030
  H      -3.155984      1.415741      1.254721
  H      -1.433615      1.196506      1.145257
  C      -2.327321      1.011343     -1.382648
  O      -1.926862      2.136441     -1.222737
  O      -2.589113      0.503650     -2.595191
  C      -2.378169      1.375717     -3.695230
  H      -3.016342      2.259273     -3.615655
  H      -1.336221      1.701975     -3.736829
  H      -2.630270      0.804683     -4.587279
  H      -3.926657     -1.138360     -1.470998
  C      -6.347227     -1.071290     -0.579221
  H      -6.232362     -2.023919     -0.057221
  H      -7.338502     -0.669615     -0.351278
  H      -6.297191     -1.258055     -1.655378
  C      -5.438047      1.225452     -0.954532
  H      -4.740310      2.004094     -0.641529
  H      -6.443840      1.619254     -0.799258
  H      -5.297608      1.037583     -2.021961
31
Coordinates from ORCA-job orca E -692.261295493803
  C      -5.259338     -0.082540     -0.176081
  C      -5.455790      0.205392      1.310616
  O      -5.132992     -0.844401      2.079167
  C      -5.293976     -0.656274      3.481783
  H      -5.003811     -1.594168      3.943878
  H      -4.654820      0.151923      3.833397
  H      -6.326845     -0.415880      3.724335
  O      -5.889962      1.230267      1.762824
  C      -3.901174     -0.766837     -0.461933
  H      -3.826931     -1.646282      0.180478
  C      -2.670074      0.071934     -0.275740
  C      -2.439805      0.655255      1.078934
  H      -2.465024     -0.111103      1.852899
  H      -3.218703      1.395147      1.293025
  H      -1.498373      1.199211      1.126796
  C      -2.363871      1.023869     -1.370760
  O      -1.941809      2.140723     -1.203786
  O      -2.604288      0.507610     -2.588157
  C      -2.340435      1.373623     -3.685972
  H      -2.959403      2.267594     -3.629688
  H      -1.294601      1.674591     -3.695983
  H      -2.578413      0.804498     -4.578780
  H      -3.934211     -1.109361     -1.495148
  C      -6.364069     -1.077286     -0.573395
  H      -6.248575     -2.027777     -0.055883
  H      -7.347978     -0.672930     -0.336481
  H      -6.324138     -1.260932     -1.646480
  C      -5.436904      1.214342     -0.958619
  H      -4.726901      1.980948     -0.651659
  H      -6.433139      1.619832     -0.800117
  H      -5.303523      1.023003     -2.023108
31
Coordinates from ORCA-job orca E -692.267566604633
  C      -5.291256     -0.077766     -0.152658
  C      -5.481718      0.186478      1.337761
  O      -5.144735     -0.873750      2.087657
  C      -5.323007     -0.712762      3.494749
  H      -5.013214     -1.654797      3.940639
  H      -4.704641      0.106115      3.863890
  H      -6.366178     -0.501683      3.728923
  O      -5.936575      1.195066      1.806704
  C      -3.909685     -0.721955     -0.458079
  H      -3.795910     -1.599265      0.183345
  C      -2.747136      0.188776     -0.288751
  C      -2.415522      0.719512      1.056112
  H      -2.427546     -0.062076      1.816126
  H      -3.159079      1.478771      1.340515
  H      -1.456187      1.234193      1.054895
  C      -2.358558      1.054999     -1.400280
  O      -1.819428      2.129475     -1.266482
  O      -2.633080      0.523094     -2.608586
  C      -2.278906      1.336177     -3.724452
  H      -2.818884      2.283511     -3.698458
  H      -1.208148      1.542159     -3.725198
  H      -2.557472      0.764801     -4.606804
  H      -3.951556     -1.065098     -1.492062
  C      -6.380010     -1.086871     -0.557334
  H      -6.243920     -2.043864     -0.052263
  H      -7.372485     -0.703369     -0.310314
  H      -6.340436     -1.254971     -1.635349
  C      -5.485913      1.225697     -0.920878
  H      -4.782782      1.997737     -0.603629
  H      -6.489783      1.617754     -0.760148
  H      -5.346122      1.047900     -1.989231
31
Coordinates from ORCA-job orca E -692.270265776093
  C      -5.339715     -0.101769     -0.179548
  C      -5.516774      0.188157      1.306835
  O      -5.116134     -0.837631      2.073645
  C      -5.239553     -0.637255      3.482237
  H      -4.875589     -1.553757      3.941110
  H      -4.636459      0.215404      3.797170
  H      -6.280074     -0.456596      3.753219
  O      -5.935083      1.217510      1.765165
  C      -3.937614     -0.718984     -0.476205
  H      -3.815357     -1.595277      0.165176
  C      -2.814148      0.233047     -0.275101
  C      -2.446403      0.676865      1.092539
  H      -2.488441     -0.144163      1.810107
  H      -3.155465      1.445582      1.438504
  H      -1.464507      1.146771      1.106156
  C      -2.296462      1.032592     -1.373676
  O      -1.652782      2.050983     -1.229056
  O      -2.678168      0.589011     -2.592006
  C      -2.258291      1.397009     -3.688004
  H      -2.674138      2.402426     -3.605578
  H      -1.170099      1.466464     -3.719406
  H      -2.635433      0.901797     -4.580441
  H      -3.958982     -1.060650     -1.511633
  C      -6.412818     -1.134692     -0.560846
  H      -6.255363     -2.082112     -0.042775
  H      -7.411090     -0.766229     -0.312171
  H      -6.377433     -1.317433     -1.637288
  C      -5.556278      1.185684     -0.970018
  H      -4.863466      1.972377     -0.665624
  H      -6.566442      1.566389     -0.816856
  H      -5.411309      0.992467     -2.035270
31
Coordinates from ORCA-job orca E -692.271605130327
  C      -5.371018     -0.101552     -0.165135
  C      -5.499155      0.206089      1.322853
  O      -5.129189     -0.832962      2.086948
  C      -5.284522     -0.649792      3.494254
  H      -4.937356     -1.573884      3.948974
  H      -4.684570      0.194842      3.833693
  H      -6.329846     -0.466161      3.741397
  O      -5.963908      1.214661      1.782754
  C      -3.950991     -0.663280     -0.496496
  H      -3.781395     -1.534599      0.139523
  C      -2.868463      0.339993     -0.303289
  C      -2.415962      0.686591      1.069152
  H      -2.432596     -0.184687      1.726183
  H      -3.089742      1.430596      1.520952
  H      -1.424586      1.135413      1.055987
  C      -2.300169      1.094787     -1.401508
  O      -1.472537      1.975966     -1.268153
  O      -2.717531      0.685374     -2.622335
  C      -2.179048      1.413491     -3.720247
  H      -2.463721      2.464221     -3.657745
  H      -1.091323      1.342040     -3.734153
  H      -2.602985      0.957625     -4.611924
  H      -3.978520     -1.003538     -1.531398
  C      -6.416657     -1.175007     -0.502708
  H      -6.208860     -2.109989      0.019374
  H      -7.419098     -0.841441     -0.226844
  H      -6.408381     -1.368856     -1.577195
  C      -5.650925      1.169278     -0.962704
  H      -4.972172      1.977245     -0.686098
  H      -6.666545      1.522627     -0.785493
  H      -5.528101      0.968898     -2.028259
31
Coordinates from ORCA-job orca E -692.272255676005
  C      -5.365203     -0.100987     -0.167289
  C      -5.521326      0.200978      1.319710
  O      -5.171403     -0.842471      2.086986
  C      -5.314626     -0.650770      3.493685
  H      -4.986705     -1.580556      3.951388
  H      -4.693880      0.180997      3.827972
  H      -6.353903     -0.441894      3.746507
  O      -5.941187      1.229953      1.777502
  C      -3.940296     -0.654143     -0.479753
  H      -3.770999     -1.520573      0.163395
  C      -2.849503      0.342656     -0.288621
  C      -2.387685      0.697185      1.078529
  H      -2.399355     -0.173140      1.736596
  H      -3.054754      1.444512      1.531422
  H      -1.394435      1.141729      1.054527
  C      -2.270183      1.074904     -1.397901
  O      -1.426843      1.941242     -1.279708
  O      -2.752264      0.701433     -2.604734
  C      -2.225794      1.417644     -3.715703
  H      -2.455063      2.480345     -3.629763
  H      -1.144324      1.294406     -3.777709
  H      -2.708148      0.995717     -4.594307
  H      -3.956857     -1.002540     -1.512369
  C      -6.396089     -1.182313     -0.521304
  H      -6.189801     -2.115496      0.004341
  H      -7.405461     -0.856475     -0.261778
  H      -6.369161     -1.376549     -1.595328
  C      -5.645343      1.167323     -0.968250
  H      -4.977652      1.980899     -0.680976
  H      -6.666498      1.511066     -0.804585
  H      -5.505128      0.968905     -2.032123
31
Coordinates from ORCA-job orca E -692.272410776453
  C      -5.395988     -0.092054     -0.169115
  C      -5.533515      0.196016      1.322435
  O      -5.164281     -0.852305      2.073353
  C      -5.261294     -0.668235      3.484111
  H      -4.922242     -1.601213      3.927308
  H      -4.627431      0.159467      3.804064
  H      -6.290980     -0.457213      3.772674
  O      -5.926737      1.227704      1.797388
  C      -3.968565     -0.619809     -0.497293
  H      -3.786522     -1.495097      0.131416
  C      -2.874326      0.371484     -0.288895
  C      -2.429307      0.724357      1.084281
  H      -2.446978     -0.150826      1.736875
  H      -3.100235      1.470148      1.531469
  H      -1.433943      1.164788      1.071438
  C      -2.255062      1.080090     -1.395996
  O      -1.393049      1.925230     -1.272368
  O      -2.728598      0.706274     -2.604675
  C      -2.160195      1.386369     -3.717083
  H      -2.350462      2.458280     -3.650552
  H      -1.082890      1.223294     -3.761569
  H      -2.643427      0.969503     -4.597714
  H      -3.982192     -0.949915     -1.536017
  C      -6.410662     -1.189828     -0.519959
  H      -6.182188     -2.122937     -0.003737
  H      -7.423140     -0.884581     -0.246943
  H      -6.392888     -1.375821     -1.595715
  C      -5.708798      1.177768     -0.954826
  H      -5.049268      1.998886     -0.670484
  H      -6.732646      1.503630     -0.771259
  H      -5.582061      0.990537     -2.022256
31
Coordinates from ORCA-job orca E -692.272389554211
  C      -5.394765     -0.090029     -0.164625
  C      -5.521475      0.202730      1.327306
  O      -5.186663     -0.858306      2.076264
  C      -5.291069     -0.679264      3.486440
  H      -4.979408     -1.622117      3.928501
  H      -4.639824      0.130442      3.817066
  H      -6.317229     -0.444062      3.768409
  O      -5.912282      1.234847      1.803172
  C      -3.966502     -0.603335     -0.498614
  H      -3.772842     -1.479769      0.126124
  C      -2.870105      0.386465     -0.291293
  C      -2.418754      0.738289      1.079843
  H      -2.422594     -0.142145      1.726246
  H      -3.091655      1.475957      1.535561
  H      -1.425676      1.183323      1.059689
  C      -2.230374      1.071198     -1.403946
  O      -1.355823      1.902959     -1.286067
  O      -2.736029      0.722635     -2.606432
  C      -2.161864      1.388139     -3.724258
  H      -2.309401      2.466003     -3.648886
  H      -1.092376      1.185222     -3.788646
  H      -2.674172      0.995394     -4.599314
  H      -3.979335     -0.928693     -1.538451
  C      -6.399516     -1.198944     -0.509242
  H      -6.161556     -2.127828      0.009580
  H      -7.414298     -0.902649     -0.235219
  H      -6.383035     -1.388717     -1.584210
  C      -5.721087      1.175163     -0.951333
  H      -5.062852      1.999612     -0.674816
  H      -6.744809      1.496172     -0.759281
  H      -5.602502      0.985296     -2.019206
31
Coordinates from ORCA-job orca E -692.272480256890
  C      -5.397052     -0.092956     -0.164841
  C      -5.529981      0.199930      1.326728
  O      -5.189212     -0.857523      2.078308
  C      -5.287545     -0.672593      3.488306
  H      -4.971287     -1.612559      3.932717
  H      -4.637010      0.140127      3.812242
  H      -6.312863     -0.439055      3.773838
  O      -5.909672      1.236853      1.801060
  C      -3.967735     -0.606199     -0.496762
  H      -3.773024     -1.483178      0.126828
  C      -2.875000      0.387174     -0.289937
  C      -2.415749      0.731683      1.080320
  H      -2.406603     -0.153149      1.720342
  H      -3.091888      1.459577      1.547073
  H      -1.427155      1.186019      1.055750
  C      -2.245032      1.081934     -1.400740
  O      -1.359123      1.901977     -1.282771
  O      -2.743606      0.727874     -2.605072
  C      -2.163661      1.390497     -3.721770
  H      -2.313950      2.468043     -3.651100
  H      -1.093591      1.189462     -3.778258
  H      -2.669531      0.993480     -4.598395
  H      -3.979631     -0.930723     -1.536601
  C      -6.401877     -1.199766     -0.514294
  H      -6.168067     -2.128997      0.005348
  H      -7.417232     -0.901717     -0.245312
  H      -6.380311     -1.389027     -1.589044
  C      -5.717543      1.172757     -0.953136
  H      -5.058146      1.995476     -0.674906
  H      -6.740906      1.496433     -0.765049
  H      -5.595886      0.982136     -2.020514
31
Coordinates from ORCA-job orca E -692.272482486318
  C      -5.398939     -0.093307     -0.165624
  C      -5.528532      0.200848      1.325777
  O      -5.184770     -0.855763      2.077256
  C      -5.280275     -0.669888      3.487389
  H      -4.961318     -1.609058      3.931817
  H      -4.630325      0.144234      3.809242
  H      -6.305466     -0.438004      3.775090
  O      -5.909431      1.237350      1.800059
  C      -3.970300     -0.608137     -0.499047
  H      -3.776176     -1.486961      0.122191
  C      -2.876399      0.383605     -0.290189
  C      -2.420304      0.728385      1.081249
  H      -2.407391     -0.157003      1.720646
  H      -3.101210      1.452109      1.547880
  H      -1.433969      1.187671      1.058493
  C      -2.246778      1.081562     -1.399424
  O      -1.365730      1.906574     -1.278856
  O      -2.738990      0.724421     -2.605645
  C      -2.158998      1.391032     -3.720113
  H      -2.316551      2.467644     -3.649733
  H      -1.087355      1.196785     -3.772188
  H      -2.658888      0.990811     -4.598826
  H      -3.982719     -0.930415     -1.539773
  C      -6.405111     -1.199259     -0.513229
  H      -6.172349     -2.128156      0.007733
  H      -7.420159     -0.899529     -0.244557
  H      -6.383849     -1.389840     -1.587841
  C      -5.718916      1.172588     -0.954430
  H      -5.057457      1.994450     -0.678260
  H      -6.741473      1.498370     -0.764804
  H      -5.599738      0.980869     -2.021922
31
Coordinates from ORCA-job orca E -692.272485811589
  C      -5.400909     -0.093314     -0.165644
  C      -5.527994      0.201555      1.325666
  O      -5.184467     -0.855524      2.076658
  C      -5.276862     -0.669131      3.486925
  H      -4.957395     -1.608303      3.931040
  H      -4.625771      0.144721      3.807186
  H      -6.301340     -0.436739      3.776806
  O      -5.906948      1.238562      1.800353
  C      -3.972346     -0.607404     -0.500428
  H      -3.777088     -1.487661      0.118529
  C      -2.878035      0.383567     -0.290401
  C      -2.423019      0.727876      1.081478
  H      -2.401785     -0.159333      1.718329
  H      -3.109855      1.443981      1.551151
  H      -1.440389      1.194850      1.058616
  C      -2.246932      1.081237     -1.398829
  O      -1.366147      1.906443     -1.277260
  O      -2.737269      0.723850     -2.605869
  C      -2.155451      1.390696     -3.719346
  H      -2.313501      2.467248     -3.649231
  H      -1.083637      1.196752     -3.769188
  H      -2.653448      0.990111     -4.598967
  H      -3.984837     -0.927756     -1.541792
  C      -6.406712     -1.199535     -0.512449
  H      -6.174624     -2.127707      0.010100
  H      -7.422049     -0.899334     -0.245322
  H      -6.384386     -1.391473     -1.586810
  C      -5.721196      1.172493     -0.954722
  H      -5.057885      1.993578     -0.680646
  H      -6.742923      1.499857     -0.763238
  H      -5.604670      0.979825     -2.022334
31
Coordinates from ORCA-job orca E -692.272492358168
  C      -5.401454     -0.092769     -0.165118
  C      -5.528323      0.201474      1.326286
  O      -5.185602     -0.856364      2.076593
  C      -5.277257     -0.670657      3.486984
  H      -4.957665     -1.610072      3.930478
  H      -4.625906      0.142934      3.807348
  H      -6.301576     -0.438347      3.777477
  O      -5.906168      1.238576      1.801648
  C      -3.972706     -0.606130     -0.500200
  H      -3.776732     -1.486550      0.118359
  C      -2.878312      0.384908     -0.290539
  C      -2.423430      0.729668      1.081259
  H      -2.396270     -0.158529      1.716633
  H      -3.114007      1.440576      1.553251
  H      -1.443377      1.201871      1.057729
  C      -2.246301      1.081053     -1.399361
  O      -1.364486      1.905303     -1.278414
  O      -2.737129      0.723632     -2.606240
  C      -2.154451      1.389212     -3.720073
  H      -2.311314      2.465968     -3.650545
  H      -1.082861      1.194011     -3.769669
  H      -2.652830      0.988622     -4.599471
  H      -3.985237     -0.926569     -1.541537
  C      -6.406695     -1.199195     -0.512534
  H      -6.175087     -2.127149      0.010583
  H      -7.422379     -0.899060     -0.246633
  H      -6.383231     -1.391423     -1.586818
  C      -5.721835      1.173261     -0.953822
  H      -5.057723      1.993868     -0.680235
  H      -6.743201      1.501222     -0.761496
  H      -5.606324      0.980644     -2.021560
