31
Coordinates from ORCA-job orca E -692.272492358168
  C          -5.40145366367798     -0.09276910855287     -0.16511815098072
  C          -5.52832277072328      0.20147437845258      1.32628600236264
  O          -5.18560174368245     -0.85636360839213      2.07659309993919
  C          -5.27725651908452     -0.67065722014287      3.48698350724958
  H          -4.95766533785941     -1.61007248292023      3.93047761762148
  H          -4.62590638782449      0.14293449311263      3.80734795346879
  H          -6.30157630608208     -0.43834743390047      3.77747687066008
  O          -5.90616754285452      1.23857579396244      1.80164796586038
  C          -3.97270609941436     -0.60612992714215     -0.50020045269344
  H          -3.77673159117130     -1.48654971586849      0.11835888258191
  C          -2.87831194782772      0.38490833361020     -0.29053907941748
  C          -2.42342970203462      0.72966777859918      1.08125864099742
  H          -2.39626986593616     -0.15852872265226      1.71663257501970
  H          -3.11400738286598      1.44057552556602      1.55325054771096
  H          -1.44337673467654      1.20187100465596      1.05772882291689
  C          -2.24630104608758      1.08105317616175     -1.39936106177625
  O          -1.36448556220931      1.90530337947500     -1.27841440736350
  O          -2.73712939192881      0.72363223956847     -2.60624003693309
  C          -2.15445127136440      1.38921242392233     -3.72007285887980
  H          -2.31131449937562      2.46596780374698     -3.65054534498860
  H          -1.08286148650280      1.19401093933428     -3.76966889402295
  H          -2.65283034248451      0.98862207168962     -4.59947055337841
  H          -3.98523692173798     -0.92656940466818     -1.54153700559683
  C          -6.40669520012775     -1.19919452910354     -0.51253446236867
  H          -6.17508669205534     -2.12714925426365      0.01058287078847
  H          -7.42237899662126     -0.89906009865863     -0.24663250006963
  H          -6.38323094250457     -1.39142266019786     -1.58681771420892
  C          -5.72183492143280      1.17326079138329     -0.95382213785176
  H          -5.05772347224340      1.99386824070975     -0.68023487077915
  H          -6.74320147527691      1.50122169377630     -0.76149612674720
  H          -5.60632418233147      0.98064409873654     -2.02155969912106
