31

C         -5.20775       -0.08349       -0.19317
C         -5.42863        0.22683        1.28769
O         -5.14787       -0.82340        2.06880
C         -5.31392       -0.63350        3.46354
H         -5.05698       -1.58767        3.93662
H         -4.64566        0.16085        3.82706
H         -6.35036       -0.35493        3.70142
O         -5.85030        1.26631        1.72410
C         -3.86709       -0.81439       -0.43865
H         -3.84322       -1.68408        0.23368
C         -2.51483       -0.06571       -0.26010
C         -2.43284        0.63089        1.09997
H         -2.48769       -0.10788        1.90978
H         -3.24535        1.35953        1.21961
H         -1.50392        1.19899        1.21463
C         -2.35158        0.98888       -1.35224
O         -2.01403        2.13299       -1.17367
O         -2.60444        0.50242       -2.57309
C         -2.46112        1.40658       -3.65500
H         -3.14823        2.25768       -3.54275
H         -1.43234        1.79254       -3.70744
H         -2.69889        0.84076       -4.56228
H         -3.89758       -1.21103       -1.46443
C         -6.33617       -1.05781       -0.59475
H         -6.25165       -2.01079       -0.05335
H         -7.32391       -0.62273       -0.37948
H         -6.28393       -1.26529       -1.67432
C         -5.35208        1.21084       -0.99640
H         -4.62804        1.97565       -0.68453
H         -6.35264        1.64122       -0.85434
H         -5.20683        1.00373       -2.06655
