85
Coordinates from ORCA-job orca E -1736.086259814803
  C           0.81756891460972     -0.98252358743698     -0.02693670862587
  C           0.91346201950684     -0.22961869776412      1.29345120985106
  O           1.21807729730874      0.92870838475055      1.41994538006274
  O           0.59936414020173     -1.00159166586812      2.34700402502338
  C           1.24946885057491     -0.06366832459970     -1.16609779714555
  H           0.66238106664158      0.85093731043477     -1.19473482356991
  H           1.14536974343095     -0.57352473992794     -2.12241731975133
  C           0.64344247666771     -0.36197304379018      3.61854477447117
  H           0.35075567901137     -1.11821340510875      4.34194861700993
  C           1.68399360447021     -2.27260368099060      0.02953929910939
  C           3.23022782577715     -2.24313341212842      0.11211406377245
  H           1.44513627469973     -2.83743889116050     -0.87267564717838
  H           1.33875039955495     -2.86818501859874      0.87792426734495
  C           3.79533191937184     -1.77017537982341     -1.23566793474663
  C           3.79521562967291     -1.48064932537053      1.32742179157049
  C           3.66342941504114     -3.71850258043774      0.22137902340290
  O           3.41653193471509     -2.24960949568414     -2.26863793187706
  O           4.75138937490307     -0.83311226780358     -1.28576307297494
  H           4.62820757694419     -2.05798393137720      1.73956970057515
  H           3.04583465292615     -1.44268290357988      2.11899857008828
  C           4.32091846695751     -0.09646902208077      0.99151908911012
  H           3.24771784060828     -4.30638211453612     -0.59592594532605
  H           3.31691639034350     -4.13304305947451      1.17060829189937
  C           5.33277571838007     -0.20808134289202     -0.12553123347976
  H           4.80288512506084      0.33806235784320      1.86931267810742
  H           3.52239529324374      0.58819780339059      0.69962401945807
  H           6.16336292917766     -0.84975477492661      0.19769962511154
  C           5.88666093941173      1.11788728700080     -0.61505281336074
  H           5.05020938453670      1.74214995986563     -0.94619466807102
  H           6.49574571851643      0.91802848331411     -1.50088947440890
  C           6.71855395039036      1.86026528404737      0.42448252495001
  H           6.09520701670462      2.12542394781368      1.28319400887610
  H           7.50156818554199      1.19554270580671      0.80585265517881
  C           7.35399916338375      3.12388982460768     -0.14067483936654
  H           7.93882883114792      3.64787962406980      0.61701224717784
  H           8.01974694404439      2.89039104072341     -0.97454799563766
  H           6.59243930291032      3.81485850815939     -0.50930418167100
  H           1.64964214343702      0.00084896562453      3.83151326028211
  H          -0.04584425997647      0.48264678275939      3.64930860878638
  H           2.28619302106600      0.24852682195504     -1.05800063433176
  H           4.75133341843413     -3.80890198468697      0.18840576266475
  C          -0.62923780520601     -1.52919970499461     -0.22786181413111
  C          -1.88197570286044     -0.61972137587634     -0.40352718193139
  H          -0.58110518471209     -2.15192170926579     -1.12258354400469
  H          -0.84637572112399     -2.19438924466015      0.61135717023627
  C          -3.01303257645678     -1.64943362935015     -0.69482043547426
  C          -1.68735767717402      0.20958186790187     -1.68247726950244
  C          -2.17940446611545      0.21557317418253      0.85894997474260
  C          -4.48786334006818     -1.23457093901297     -0.90948962080649
  H          -2.71797408127985     -2.18724929117566     -1.59735385723438
  H          -2.99488497909505     -2.37018774598318      0.12566361177213
  O          -1.54974782730696     -0.32471653529054     -2.74910473778549
  O          -1.68543027146091      1.54659721386994     -1.63523794763172
  H          -1.27451812243446      0.33337375308145      1.44909191167512
  H          -2.86911039883665     -0.33582543252794      1.49921295622486
  C          -2.68886538230690      1.61667069545343      0.56386886780232
  C          -5.14299706120189     -0.72441427296822      0.36987313366799
  C          -4.68586441631925     -0.20907374010218     -2.02368988499798
  C          -5.24760749362390     -2.51998711689315     -1.29365744252963
  C          -1.73759957711638      2.28813381496931     -0.39899530829423
  H          -2.73285928891436      2.19066422667094      1.49106975168322
  H          -3.69603298921658      1.61458686927182      0.14305755533243
  O          -5.74983545027034      0.30761390240443      0.48216753894737
  O          -5.01520488745198     -1.59417917002265      1.38619275293878
  H          -5.74934673306875     -0.04573415613134     -2.19840458022128
  H          -4.22737191604994     -0.57064321218905     -2.94389304103251
  H          -4.24951563259052      0.76021236399648     -1.79048892212607
  H          -5.10614788993864     -3.30498378671287     -0.55088581153325
  H          -4.88379759599088     -2.88241964105123     -2.25642074489395
  H          -6.31747310630676     -2.32364181484290     -1.38918961159591
  H          -0.72540521619037      2.28490929280717      0.02615982348956
  C          -2.11336190109010      3.70463690204620     -0.78996674412940
  C          -5.63877690542890     -1.21174855656858      2.60822330704952
  H          -3.12183074825363      3.69689524147304     -1.21649812082437
  H          -1.43803194958865      4.01840432274509     -1.59084042562174
  C          -2.03464664886772      4.69724205987057      0.36447624855295
  H          -5.43881924881101     -2.01816065031792      3.30906704757211
  H          -5.22012180635456     -0.27449955315422      2.97731474404452
  H          -6.71210432034835     -1.08455123330587      2.46876049782298
  H          -2.76372704173209      4.43166690035870      1.13530216685707
  H          -1.04857311447939      4.62754558920905      0.83612480280509
  C          -2.28538883484800      6.12998885100683     -0.08743985298705
  H          -2.23527728036298      6.82598066969994      0.75148071579359
  H          -1.54524711075358      6.44405851501660     -0.82687798897568
  H          -3.27226461774332      6.22967384424293     -0.54529016310677
