85
Coordinates from ORCA-job orca E -1736.083274338682
  C       0.818080     -1.025670     -0.016740
  C       0.898140     -0.222340      1.276400
  O       1.164750      0.951550      1.360580
  O       0.619130     -0.963030      2.359380
  C       1.266420     -0.146260     -1.185620
  H       0.691180      0.783830     -1.243760
  H       1.153800     -0.687370     -2.133160
  C       0.646810     -0.291800      3.606780
  H       0.392290     -1.040330      4.365000
  C       1.681680     -2.316350      0.098640
  C       3.230580     -2.282070      0.189750
  H       1.448860     -2.920690     -0.790030
  H       1.324260     -2.880740      0.973250
  C       3.793010     -1.852830     -1.178920
  C       3.787030     -1.465880      1.378240
  C       3.670630     -3.752350      0.359670
  O       3.440490     -2.396850     -2.189820
  O       4.700530     -0.871440     -1.259880
  H       4.650290     -2.008300      1.798210
  H       3.041390     -1.432450      2.184890
  C       4.265130     -0.072910      0.998210
  H       3.262640     -4.378890     -0.444670
  H       3.316970     -4.138530      1.328120
  C       5.262610     -0.176340     -0.138810
  H       4.753740      0.401020      1.862450
  H       3.434290      0.586450      0.707380
  H       6.135700     -0.766010      0.200940
  C       5.749730      1.158200     -0.682810
  H       4.874690      1.731300     -1.034490
  H       6.361720      0.948700     -1.574890
  C       6.555750      1.985850      0.314760
  H       5.922690      2.258790      1.175380
  H       7.377100      1.370100      0.721950
  C       7.129340      3.255150     -0.305920
  H       7.699670      3.840530      0.430150
  H       7.804080      3.018310     -1.143300
  H       6.328030      3.899940     -0.699330
  H       1.645080      0.126370      3.802690
  H      -0.083280      0.531070      3.624000
  H       2.316270      0.152220     -1.085050
  H       4.767760     -3.840400      0.337970
  C      -0.633370     -1.574310     -0.212070
  C      -1.882480     -0.660160     -0.402550
  H      -0.581950     -2.218360     -1.101910
  H      -0.855590     -2.231090      0.643670
  C      -3.019850     -1.671100     -0.739090
  C      -1.656230      0.188850     -1.668370
  C      -2.202610      0.154550      0.874480
  C      -4.483930     -1.216950     -0.972070
  H      -2.712770     -2.194160     -1.656210
  H      -3.032820     -2.418460      0.069200
  O      -1.521980     -0.332010     -2.743260
  O      -1.622710      1.522630     -1.586890
  H      -1.317630      0.208700      1.515630
  H      -2.945310     -0.388470      1.474700
  C      -2.647020      1.584410      0.602030
  C      -5.142650     -0.718530      0.312170
  C      -4.634150     -0.151540     -2.060750
  C      -5.268940     -2.475990     -1.402910
  C      -1.660940      2.241190     -0.342500
  H      -2.679010      2.146260      1.547060
  H      -3.659370      1.629480      0.173340
  O      -5.699680      0.340100      0.451680
  O      -5.074040     -1.623830      1.301020
  H      -5.697490      0.051980     -2.249330
  H      -4.163800     -0.497440     -2.990780
  H      -4.168690      0.802750     -1.785850
  H      -5.163840     -3.286660     -0.668800
  H      -4.891760     -2.830680     -2.373480
  H      -6.339980     -2.249710     -1.518160
  H      -0.647920      2.191920      0.097910
  C      -1.978410      3.681880     -0.707080
  C      -5.677070     -1.258940      2.529850
  H      -2.995560      3.723880     -1.133330
  H      -1.289690      3.977130     -1.515030
  C      -1.851650      4.659490      0.458430
  H      -5.543860     -2.112290      3.204080
  H      -5.194040     -0.363930      2.950100
  H      -6.746480     -1.043600      2.394120
  H      -2.582720      4.405520      1.244070
  H      -0.855170      4.547670      0.920090
  C      -2.059360      6.108960      0.032920
  H      -1.970330      6.795890      0.887380
  H      -1.315960      6.411970     -0.720910
  H      -3.057170      6.252630     -0.410450
85
Coordinates from ORCA-job orca E -1736.085665373951
  C       0.795956     -0.978108     -0.015221
  C       0.872993     -0.192291      1.287783
  O       1.132930      0.980134      1.386945
  O       0.586237     -0.946179      2.360314
  C       1.232544     -0.084686     -1.174022
  H       0.651063      0.832101     -1.222240
  H       1.125890     -0.613850     -2.119739
  C       0.605667     -0.280132      3.614186
  H       0.350118     -1.029619      4.358758
  C       1.664368     -2.264857      0.079653
  C       3.212272     -2.235747      0.166420
  H       1.429169     -2.854741     -0.807913
  H       1.313907     -2.836873      0.942056
  C       3.782189     -1.807367     -1.196338
  C       3.777505     -1.434698      1.356385
  C       3.640202     -3.706210      0.330030
  O       3.431206     -2.344262     -2.210120
  O       4.715940     -0.851179     -1.272935
  H       4.623146     -1.990738      1.773747
  H       3.035420     -1.390820      2.154794
  C       4.283489     -0.052117      0.983943
  H       3.229261     -4.322046     -0.469241
  H       3.287552     -4.089228      1.290597
  C       5.286781     -0.176527     -0.141116
  H       4.771646      0.406465      1.846492
  H       3.474408      0.619867      0.688524
  H       6.135624     -0.785990      0.199837
  C       5.809887      1.145867     -0.672869
  H       4.958689      1.740642     -1.022290
  H       6.418741      0.929725     -1.555725
  C       6.628991      1.939504      0.337073
  H       6.002422      2.219358      1.189532
  H       7.425584      1.303133      0.739737
  C       7.238506      3.196119     -0.268896
  H       7.816830      3.754240      0.469357
  H       7.905368      2.950324     -1.098850
  H       6.462906      3.861430     -0.656127
  H       1.594425      0.134839      3.816777
  H      -0.120477      0.534735      3.632409
  H       2.270270      0.224146     -1.072630
  H       4.728247     -3.801124      0.306670
  C      -0.649771     -1.533225     -0.215327
  C      -1.904118     -0.630011     -0.407972
  H      -0.592929     -2.170112     -1.100142
  H      -0.868662     -2.187940      0.632625
  C      -3.025874     -1.663352     -0.725437
  C      -1.686131      0.208356     -1.679477
  C      -2.219459      0.194940      0.859932
  C      -4.506423     -1.262648     -0.944654
  H      -2.717855     -2.181897     -1.635062
  H      -3.007672     -2.401327      0.080367
  O      -1.552604     -0.318453     -2.750066
  O      -1.632763      1.541556     -1.609955
  H      -1.339246      0.246489      1.494960
  H      -2.961402     -0.334039      1.459334
  C      -2.646378      1.626519      0.580320
  C      -5.179710     -0.793060      0.341210
  C      -4.713480     -0.213112     -2.034857
  C      -5.241407     -2.549964     -1.366305
  C      -1.653194      2.263315     -0.364843
  H      -2.670452      2.189440      1.515567
  H      -3.649582      1.682569      0.152964
  O      -5.789508      0.234647      0.478753
  O      -5.081943     -1.702074      1.324847
  H      -5.778399     -0.061251     -2.212583
  H      -4.241821     -0.541508     -2.960878
  H      -4.294123      0.756173     -1.772330
  H      -5.096669     -3.348901     -0.638937
  H      -4.862006     -2.886555     -2.332736
  H      -6.313557     -2.368907     -1.470059
  H      -0.645528      2.200677      0.068781
  C      -1.951992      3.704273     -0.731104
  C      -5.723301     -1.368678      2.546780
  H      -2.960780      3.758961     -1.155264
  H      -1.263010      3.991055     -1.531182
  C      -1.815961      4.673578      0.436373
  H      -5.557728     -2.210120      3.215039
  H      -5.296280     -0.458604      2.972843
  H      -6.791374     -1.210060      2.394677
  H      -2.548817      4.429912      1.211825
  H      -0.830150      4.547765      0.898213
  C      -2.001484      6.123703      0.011723
  H      -1.907627      6.802848      0.860907
  H      -1.255983      6.414799     -0.732317
  H      -2.987639      6.280162     -0.432560
85
Coordinates from ORCA-job orca E -1736.084616946462
  C       0.831768     -1.025837     -0.048726
  C       0.939292     -0.230326      1.245291
  O       1.251372      0.929360      1.331605
  O       0.652963     -0.969345      2.329070
  C       1.279993     -0.155962     -1.218733
  H       0.717493      0.767567     -1.277461
  H       1.161313     -0.693889     -2.154370
  C       0.720527     -0.287938      3.576435
  H       0.460097     -1.020423      4.331138
  C       1.682706     -2.320406      0.050666
  C       3.226736     -2.291746      0.148981
  H       1.450177     -2.906150     -0.836120
  H       1.325296     -2.888862      0.908414
  C       3.804712     -1.843782     -1.201604
  C       3.773722     -1.499300      1.350564
  C       3.657976     -3.761567      0.297513
  O       3.449383     -2.353747     -2.227305
  O       4.715936     -0.864692     -1.264398
  H       4.626191     -2.042026      1.762367
  H       3.029407     -1.479936      2.143577
  C       4.246610     -0.101473      0.997830
  H       3.253939     -4.367514     -0.507985
  H       3.302592     -4.154363      1.249084
  C       5.262437     -0.191080     -0.116895
  H       4.713931      0.358645      1.866713
  H       3.425120      0.550436      0.700933
  H       6.118434     -0.784853      0.222134
  C       5.759140      1.148133     -0.628087
  H       4.900242      1.728153     -0.972565
  H       6.377041      0.959064     -1.506652
  C       6.554320      1.941660      0.399595
  H       5.918926      2.194338      1.249369
  H       7.359921      1.318278      0.795004
  C       7.139458      3.219249     -0.184337
  H       7.701214      3.775702      0.562810
  H       7.812689      3.000614     -1.012058
  H       6.354261      3.872393     -0.562875
  H       1.722401      0.097377      3.750880
  H       0.021491      0.545407      3.599869
  H       2.320953      0.134170     -1.124548
  H       4.742975     -3.852077      0.278543
  C      -0.623249     -1.560682     -0.233342
  C      -1.874130     -0.648691     -0.414101
  H      -0.582332     -2.196248     -1.115707
  H      -0.839804     -2.211511      0.613594
  C      -3.002943     -1.668078     -0.727913
  C      -1.671540      0.196920     -1.681194
  C      -2.195507      0.165437      0.856622
  C      -4.464463     -1.223668     -0.958642
  H      -2.702647     -2.202556     -1.626829
  H      -3.007954     -2.390041      0.087883
  O      -1.567324     -0.321733     -2.758556
  O      -1.669680      1.531704     -1.614571
  H      -1.314444      0.241714      1.482380
  H      -2.917522     -0.382932      1.457705
  C      -2.673688      1.579593      0.580967
  C      -5.106808     -0.674733      0.310296
  C      -4.625899     -0.204901     -2.082655
  C      -5.254408     -2.492049     -1.331019
  C      -1.707241      2.250133     -0.365438
  H      -2.714226      2.138368      1.514020
  H      -3.676582      1.599087      0.155241
  O      -5.645243      0.394837      0.415860
  O      -4.986081     -1.521149      1.346766
  H      -5.679708     -0.010802     -2.263342
  H      -4.174813     -0.586681     -2.994662
  H      -4.162028      0.749963     -1.854606
  H      -5.138298     -3.268481     -0.579909
  H      -4.896849     -2.875521     -2.284217
  H      -6.315293     -2.270194     -1.434422
  H      -0.698653      2.220853      0.060907
  C      -2.056758      3.679819     -0.725544
  C      -5.565003     -1.085449      2.571188
  H      -3.063512      3.701560     -1.148425
  H      -1.379459      3.995857     -1.519927
  C      -1.955599      4.642821      0.449618
  H      -5.385747     -1.880302      3.285775
  H      -5.101068     -0.161594      2.910152
  H      -6.631735     -0.914290      2.454279
  H      -2.682703      4.372664      1.216481
  H      -0.971615      4.544242      0.913925
  C      -2.182792      6.088401      0.032284
  H      -2.114395      6.762596      0.883378
  H      -1.444545      6.405048     -0.703264
  H      -3.167785      6.216598     -0.414965
85
Coordinates from ORCA-job orca E -1736.086079692962
  C       0.814787     -0.993925     -0.014508
  C       0.894499     -0.207042      1.287052
  O       1.171893      0.960918      1.385407
  O       0.590132     -0.956090      2.359183
  C       1.257810     -0.106625     -1.174560
  H       0.678533      0.810687     -1.229743
  H       1.154248     -0.639934     -2.117800
  C       0.613167     -0.282890      3.612353
  H       0.343208     -1.026813      4.356675
  C       1.678924     -2.282486      0.080747
  C       3.225792     -2.252891      0.164836
  H       1.441842     -2.872202     -0.805676
  H       1.330499     -2.853111      0.944214
  C       3.791937     -1.821793     -1.197010
  C       3.791952     -1.452305      1.353873
  C       3.655180     -3.723642      0.323407
  O       3.427243     -2.345781     -2.212915
  O       4.723340     -0.862724     -1.277458
  H       4.640828     -2.004728      1.767280
  H       3.052273     -1.411626      2.153958
  C       4.289062     -0.067122      0.980148
  H       3.239769     -4.337976     -0.473962
  H       3.308036     -4.107151      1.285053
  C       5.294370     -0.188761     -0.142206
  H       4.772916      0.395459      1.842116
  H       3.476807      0.598173      0.681151
  H       6.142626     -0.798402      0.196335
  C       5.814794      1.135092     -0.672469
  H       4.962938      1.730798     -1.016050
  H       6.421760      0.923158     -1.556732
  C       6.636766      1.923777      0.339498
  H       6.013322      2.199559      1.194498
  H       7.435032      1.286452      0.735110
  C       7.243142      3.183496     -0.263866
  H       7.824885      3.737557      0.474053
  H       7.905578      2.941340     -1.097544
  H       6.465993      3.850424     -0.643255
  H       1.606549      0.117596      3.816749
  H      -0.101209      0.541199      3.622121
  H       2.295818      0.200510     -1.070109
  H       4.742545     -3.817638      0.293712
  C      -0.632235     -1.543282     -0.214407
  C      -1.885401     -0.636458     -0.401997
  H      -0.578808     -2.176426     -1.101244
  H      -0.851813     -2.199456      0.631133
  C      -3.011985     -1.661762     -0.717676
  C      -1.675386      0.202919     -1.672679
  C      -2.202465      0.186574      0.865290
  C      -4.481870     -1.234623     -0.941656
  H      -2.709016     -2.185893     -1.625087
  H      -3.005608     -2.395013      0.091620
  O      -1.550429     -0.322637     -2.745058
  O      -1.651791      1.538024     -1.609930
  H      -1.318381      0.257794      1.492823
  H      -2.931306     -0.353090      1.469874
  C      -2.663683      1.606131      0.581437
  C      -5.148746     -0.749086      0.341211
  C      -4.655385     -0.177480     -2.029480
  C      -5.242717     -2.504664     -1.370078
  C      -1.684976      2.262188     -0.364202
  H      -2.701926      2.170505      1.514414
  H      -3.666309      1.635743      0.149935
  O      -5.728444      0.295601      0.477229
  O      -5.070442     -1.657438      1.328260
  H      -5.714479      0.001743     -2.213035
  H      -4.187368     -0.516318     -2.953083
  H      -4.212653      0.780061     -1.761336
  H      -5.117080     -3.309027     -0.645938
  H      -4.867597     -2.844924     -2.336220
  H      -6.309785     -2.300059     -1.475942
  H      -0.676234      2.221487      0.066737
  C      -2.014840      3.695628     -0.733119
  C      -5.707356     -1.300919      2.549272
  H      -3.021710      3.727399     -1.161844
  H      -1.328397      3.999491     -1.528048
  C      -1.907169      4.666034      0.436962
  H      -5.555161     -2.140056      3.222780
  H      -5.263927     -0.395611      2.966077
  H      -6.771598     -1.126364      2.393620
  H      -2.642869      4.409094      1.204119
  H      -0.924107      4.558651      0.907414
  C      -2.115286      6.112593      0.009547
  H      -2.042716      6.793039      0.859115
  H      -1.367884      6.416613     -0.726367
  H      -3.099169      6.249921     -0.444369
85
Coordinates from ORCA-job orca E -1736.085809765647
  C       0.793386     -0.979072     -0.054990
  C       0.890337     -0.190499      1.244258
  O       1.170376      0.977393      1.337009
  O       0.634552     -0.946632      2.324269
  C       1.213267     -0.089427     -1.222217
  H       0.625829      0.824663     -1.269299
  H       1.098959     -0.624620     -2.164126
  C       0.695026     -0.275590      3.577795
  H       0.459884     -1.025103      4.329561
  C       1.663855     -2.264586      0.030472
  C       3.210104     -2.231608      0.126668
  H       1.433827     -2.845635     -0.864496
  H       1.311818     -2.847753      0.885232
  C       3.786864     -1.768948     -1.220383
  C       3.764326     -1.457628      1.339399
  C       3.642817     -3.705008      0.255671
  O       3.437160     -2.275984     -2.250357
  O       4.732675     -0.821522     -1.269494
  H       4.603138     -2.025487      1.754677
  H       3.012606     -1.425788      2.130235
  C       4.280533     -0.070385      0.999944
  H       3.234821     -4.302901     -0.559084
  H       3.289062     -4.111044      1.206635
  C       5.298840     -0.180182     -0.112250
  H       4.758113      0.369911      1.878028
  H       3.478924      0.609683      0.704271
  H       6.135229     -0.809328      0.222622
  C       5.843043      1.148140     -0.607190
  H       5.002458      1.763649     -0.946208
  H       6.457405      0.947778     -1.490049
  C       6.664859      1.902869      0.431290
  H       6.035649      2.167705      1.286654
  H       7.451340      1.245651      0.820244
  C       7.293941      3.168244     -0.137017
  H       7.875849      3.697930      0.619816
  H       7.962123      2.936042     -0.970131
  H       6.528791      3.854500     -0.508815
  H       1.691525      0.135629      3.747018
  H      -0.028568      0.540957      3.614175
  H       2.251227      0.225242     -1.133766
  H       4.731572     -3.795375      0.232320
  C      -0.653538     -1.535612     -0.235969
  C      -1.912311     -0.635621     -0.418497
  H      -0.606316     -2.173667     -1.120716
  H      -0.862496     -2.188351      0.615985
  C      -3.033601     -1.674079     -0.718973
  C      -1.710452      0.199766     -1.693250
  C      -2.223219      0.191451      0.848316
  C      -4.514757     -1.274471     -0.931065
  H      -2.732286     -2.204490     -1.624290
  H      -3.009441     -2.400206      0.097635
  O      -1.562825     -0.329831     -2.761013
  O      -1.671089      1.535075     -1.632151
  H      -1.335553      0.262355      1.471531
  H      -2.951814     -0.344808      1.458396
  C      -2.677567      1.613286      0.563256
  C      -5.164911     -0.757627      0.348335
  C      -4.733677     -0.260907     -2.052744
  C      -5.263033     -2.571461     -1.296920
  C      -1.696734      2.261220     -0.386517
  H      -2.709427      2.179623      1.496266
  H      -3.681559      1.648761      0.135000
  O      -5.763967      0.279079      0.460888
  O      -5.024949     -1.618026      1.370942
  H      -5.801071     -0.110113     -2.218872
  H      -4.279151     -0.624424     -2.974550
  H      -4.306220      0.715058     -1.830235
  H      -5.107090     -3.347895     -0.547263
  H      -4.903283     -2.939827     -2.259613
  H      -6.336480     -2.388195     -1.385449
  H      -0.686691      2.213479      0.041698
  C      -2.016006      3.697206     -0.755805
  C      -5.631594     -1.225581      2.596880
  H      -3.023227      3.736422     -1.185205
  H      -1.326193      3.996842     -1.550560
  C      -1.901779      4.666331      0.415426
  H      -5.427423     -2.028068      3.301967
  H      -5.204566     -0.287201      2.955701
  H      -6.706673     -1.093407      2.470564
  H      -2.643027      4.416272      1.180728
  H      -0.920347      4.548596      0.888952
  C      -2.094086      6.115574     -0.011828
  H      -2.017582      6.795222      0.839226
  H      -1.340546      6.412717     -0.745633
  H      -3.075908      6.262832     -0.469227
85
Coordinates from ORCA-job orca E -1736.086177198496
  C       0.811891     -0.986518     -0.033329
  C       0.900493     -0.205399      1.270907
  O       1.183926      0.960801      1.372300
  O       0.597042     -0.957621      2.341497
  C       1.249763     -0.093589     -1.191046
  H       0.668420      0.823368     -1.240495
  H       1.143874     -0.623302     -2.136354
  C       0.628300     -0.287127      3.596990
  H       0.357495     -1.032709      4.339789
  C       1.676034     -2.275789      0.052401
  C       3.222297     -2.246202      0.141606
  H       1.440950     -2.857665     -0.840054
  H       1.325931     -2.854771      0.910130
  C       3.793192     -1.797863     -1.212378
  C       3.782605     -1.460333      1.343376
  C       3.652878     -3.718974      0.282846
  O       3.430916     -2.307825     -2.236499
  O       4.733461     -0.845801     -1.277057
  H       4.625692     -2.021080      1.758233
  H       3.036262     -1.423334      2.138011
  C       4.289598     -0.074151      0.986881
  H       3.239988     -4.323683     -0.523576
  H       3.303033     -4.114472      1.239030
  C       5.302853     -0.190382     -0.128823
  H       4.768631      0.377965      1.857481
  H       3.482952      0.597802      0.687204
  H       6.143388     -0.812263      0.207391
  C       5.837796      1.135271     -0.640117
  H       4.992788      1.743235     -0.979960
  H       6.447984      0.929383     -1.523917
  C       6.661746      1.903732      0.386393
  H       6.036501      2.173652      1.242341
  H       7.453424      1.254489      0.776624
  C       7.281008      3.166532     -0.197912
  H       7.864257      3.706204      0.549968
  H       7.945195      2.929557     -1.032120
  H       6.510626      3.844925     -0.571650
  H       1.624943      0.107725      3.797646
  H      -0.082632      0.540279      3.610481
  H       2.288078      0.214843     -1.088687
  H       4.740787     -3.811492      0.255255
  C      -0.635852     -1.536031     -0.229205
  C      -1.891883     -0.631625     -0.410758
  H      -0.585412     -2.166956     -1.118182
  H      -0.851924     -2.194580      0.615782
  C      -3.016522     -1.663935     -0.715691
  C      -1.690221      0.206047     -1.683608
  C      -2.202384      0.192920      0.857360
  C      -4.492309     -1.250941     -0.932873
  H      -2.715914     -2.193320     -1.621269
  H      -3.000134     -2.391479      0.099067
  O      -1.562639     -0.321157     -2.755056
  O      -1.669562      1.541915     -1.623825
  H      -1.312921      0.270767      1.476608
  H      -2.924180     -0.348623      1.469649
  C      -2.671278      1.610210      0.573885
  C      -5.148633     -0.745135      0.347642
  C      -4.690467     -0.219771     -2.041792
  C      -5.248285     -2.535949     -1.323890
  C      -1.699906      2.268323     -0.378144
  H      -2.706646      2.175641      1.506667
  H      -3.676151      1.635385      0.147677
  O      -5.739546      0.295166      0.468283
  O      -5.039975     -1.627733      1.355208
  H      -5.754068     -0.055717     -2.215563
  H      -4.231305     -0.575093     -2.963966
  H      -4.255013      0.748188     -1.801551
  H      -5.106099     -3.323926     -0.584451
  H      -4.882934     -2.893501     -2.287919
  H      -6.318655     -2.342025     -1.419635
  H      -0.688556      2.232003      0.046863
  C      -2.036253      3.700169     -0.747742
  C      -5.663832     -1.249668      2.577649
  H      -3.044116      3.727643     -1.175113
  H      -1.351556      4.007370     -1.543286
  C      -1.930937      4.670942      0.422844
  H      -5.483393     -2.067881      3.270137
  H      -5.230849     -0.324785      2.961611
  H      -6.733889     -1.100541      2.434140
  H      -2.668429      4.413743      1.188577
  H      -0.948240      4.564121      0.895027
  C      -2.139100      6.117590     -0.005403
  H      -2.069138      6.798301      0.844633
  H      -1.389792      6.421931     -0.739729
  H      -3.122391      6.253764     -0.461723
85
Coordinates from ORCA-job orca E -1736.086143957030
  C       0.811420     -0.985680     -0.010079
  C       0.897562     -0.199792      1.291408
  O       1.189308      0.964537      1.389579
  O       0.611974     -0.953030      2.366334
  C       1.249308     -0.095743     -1.169903
  H       0.664214      0.818447     -1.224490
  H       1.148233     -0.629385     -2.113307
  C       0.657991     -0.280482      3.620812
  H       0.399157     -1.026026      4.367515
  C       1.676244     -2.274342      0.080630
  C       3.222839     -2.244344      0.162661
  H       1.437232     -2.862449     -0.806382
  H       1.330459     -2.846987      0.944121
  C       3.788480     -1.813319     -1.198880
  C       3.788772     -1.444627      1.352643
  C       3.653397     -3.715586      0.319346
  O       3.416520     -2.330783     -2.215756
  O       4.732168     -0.865772     -1.279406
  H       4.630942     -2.002327      1.772740
  H       3.044816     -1.394422      2.148440
  C       4.299022     -0.064961      0.976130
  H       3.236605     -4.329327     -0.477845
  H       3.307537     -4.099123      1.281547
  C       5.308644     -0.199193     -0.140549
  H       4.781205      0.397598      1.839170
  H       3.493780      0.604837      0.668912
  H       6.147162     -0.821002      0.199939
  C       5.847308      1.117634     -0.670018
  H       5.003770      1.725139     -1.013511
  H       6.453182      0.898689     -1.553321
  C       6.678501      1.894698      0.344157
  H       6.058060      2.176986      1.199274
  H       7.469314      1.247159      0.738222
  C       7.299793      3.148233     -0.257667
  H       7.887840      3.694502      0.481254
  H       7.959552      2.898905     -1.091456
  H       6.530432      3.824742     -0.636151
  H       1.655921      0.117175      3.807365
  H      -0.055046      0.544639      3.641950
  H       2.285832      0.217383     -1.065633
  H       4.740893     -3.808864      0.288171
  C      -0.635351     -1.535427     -0.208116
  C      -1.888770     -0.629628     -0.399552
  H      -0.581865     -2.169129     -1.094630
  H      -0.855551     -2.190290      0.638261
  C      -3.012984     -1.657547     -0.717133
  C      -1.675051      0.208506     -1.669796
  C      -2.212744      0.194360      0.864877
  C      -4.483713     -1.234666     -0.943529
  H      -2.707725     -2.182284     -1.623620
  H      -3.005577     -2.389437      0.093461
  O      -1.533077     -0.318409     -2.739549
  O      -1.659778      1.544637     -1.610602
  H      -1.328535      0.279548      1.490085
  H      -2.935974     -0.350488      1.472088
  C      -2.688649      1.607669      0.574167
  C      -5.155113     -0.753672      0.338715
  C      -4.659318     -0.177200     -2.030954
  C      -5.240079     -2.506494     -1.375058
  C      -1.709083      2.270967     -0.365208
  H      -2.740273      2.173472      1.505689
  H      -3.687551      1.625294      0.133723
  O      -5.741530      0.287248      0.474263
  O      -5.066077     -1.659405      1.327658
  H      -5.718988     -0.002976     -2.216800
  H      -4.188311     -0.514087     -2.953885
  H      -4.221892      0.782415     -1.761858
  H      -5.112721     -3.311905     -0.652263
  H      -4.862233     -2.843419     -2.341441
  H      -6.307667     -2.304762     -1.482070
  H      -0.702998      2.239495      0.071994
  C      -2.047447      3.701213     -0.738450
  C      -5.706194     -1.304468      2.549217
  H      -3.048737      3.724016     -1.180563
  H      -1.352566      4.013289     -1.522849
  C      -1.964589      4.670404      0.435316
  H      -5.537738     -2.137549      3.226434
  H      -5.275854     -0.389429      2.958045
  H      -6.773342     -1.149231      2.393299
  H      -2.714445      4.410266      1.187542
  H      -0.990028      4.565263      0.923980
  C      -2.169035      6.117147      0.005607
  H      -2.115955      6.796493      0.857629
  H      -1.407841      6.424450     -0.714736
  H      -3.144316      6.251191     -0.467613
85
Coordinates from ORCA-job orca E -1736.086209506298
  C       0.810236     -0.984891     -0.027206
  C       0.897325     -0.205555      1.278180
  O       1.183012      0.959851      1.381482
  O       0.597087     -0.960576      2.347968
  C       1.243646     -0.087990     -1.183469
  H       0.656896      0.825697     -1.231577
  H       1.140872     -0.616790     -2.129556
  C       0.631110     -0.291594      3.604906
  H       0.361481     -1.038667      4.346447
  C       1.677797     -2.272378      0.055261
  C       3.224268     -2.240260      0.139886
  H       1.441126     -2.854000     -0.836787
  H       1.331719     -2.852758      0.913617
  C       3.790886     -1.789748     -1.214931
  C       3.787424     -1.456200      1.341804
  C       3.657662     -3.712829      0.276550
  O       3.420172     -2.293111     -2.239370
  O       4.736881     -0.843308     -1.280907
  H       4.627706     -2.020330      1.757423
  H       3.041133     -1.415028      2.136067
  C       4.300992     -0.072646      0.984539
  H       3.242853     -4.316274     -0.529703
  H       3.311436     -4.110391      1.233076
  C       5.312840     -0.193903     -0.131643
  H       4.781846      0.377858      1.854844
  H       3.497558      0.602505      0.684262
  H       6.149134     -0.822723      0.201774
  C       5.855764      1.128753     -0.641950
  H       5.014210      1.743235     -0.978248
  H       6.462665      0.920565     -1.527306
  C       6.687320      1.889658      0.384267
  H       6.066224      2.161361      1.242517
  H       7.476263      1.234765      0.770213
  C       7.312253      3.150180     -0.199103
  H       7.900495      3.684854      0.548318
  H       7.972749      2.911010     -1.035476
  H       6.544787      3.833683     -0.569196
  H       1.628340      0.102282      3.803623
  H      -0.079640      0.535709      3.620220
  H       2.280100      0.226097     -1.080327
  H       4.745530     -3.803477      0.245327
  C      -0.635728     -1.537072     -0.223769
  C      -1.891703     -0.633058     -0.405882
  H      -0.584320     -2.166789     -1.113394
  H      -0.851548     -2.196083      0.620732
  C      -3.017333     -1.664050     -0.710024
  C      -1.690691      0.202771     -1.679688
  C      -2.202535      0.193429      0.860310
  C      -4.490554     -1.246180     -0.931075
  H      -2.716704     -2.195892     -1.614070
  H      -3.004200     -2.389356      0.106587
  O      -1.557628     -0.326174     -2.749610
  O      -1.675162      1.539124     -1.623259
  H      -1.310879      0.280857      1.475104
  H      -2.918461     -0.350755      1.477105
  C      -2.681673      1.606349      0.572360
  C      -5.150645     -0.742772      0.348474
  C      -4.678812     -0.209871     -2.036841
  C      -5.249503     -2.526840     -1.330961
  C      -1.712405      2.268213     -0.378903
  H      -2.723103      2.173670      1.503616
  H      -3.685428      1.623447      0.143207
  O      -5.739088      0.298762      0.470097
  O      -5.043940     -1.626808      1.355120
  H      -5.740756     -0.041305     -2.215739
  H      -4.216167     -0.563687     -2.957834
  H      -4.240957      0.755623     -1.790797
  H      -5.113706     -3.318423     -0.594331
  H      -4.880876     -2.881492     -2.294722
  H      -6.318534     -2.328375     -1.430952
  H      -0.701590      2.238476      0.047655
  C      -2.055728      3.697336     -0.752362
  C      -5.669912     -1.248968      2.577310
  H      -3.061496      3.718074     -1.184627
  H      -1.368791      4.008232     -1.544372
  C      -1.962139      4.669786      0.418069
  H      -5.486603     -2.065991      3.270269
  H      -5.240031     -0.322265      2.959794
  H      -6.740202     -1.104137      2.432302
  H      -2.704747      4.411200      1.178170
  H      -0.982722      4.566584      0.897588
  C      -2.171720      6.115326     -0.013473
  H      -2.111036      6.796969      0.836395
  H      -1.417570      6.421301     -0.741964
  H      -3.151751      6.247356     -0.477691
85
Coordinates from ORCA-job orca E -1736.086198090768
  C       0.815183     -0.982055     -0.039404
  C       0.909646     -0.204159      1.266302
  O       1.207125      0.958284      1.370072
  O       0.603294     -0.957162      2.335817
  C       1.253436     -0.086679     -1.195099
  H       0.672020      0.830514     -1.242248
  H       1.147537     -0.614104     -2.141717
  C       0.644406     -0.289372      3.593294
  H       0.367936     -1.034573      4.334395
  C       1.677165     -2.273098      0.042676
  C       3.222893     -2.244598      0.134122
  H       1.442000     -2.851774     -0.851808
  H       1.325939     -2.854396      0.898526
  C       3.796471     -1.792017     -1.217072
  C       3.779795     -1.462883      1.340556
  C       3.653842     -3.718212      0.270074
  O       3.429599     -2.292439     -2.244381
  O       4.744633     -0.847289     -1.276434
  H       4.616669     -2.028493      1.761328
  H       3.028203     -1.420950      2.130018
  C       4.296534     -0.079515      0.987472
  H       3.242467     -4.319496     -0.539742
  H       3.301868     -4.117191      1.224066
  C       5.315033     -0.200527     -0.122679
  H       4.771901      0.370479      1.861211
  H       3.495047      0.596041      0.682152
  H       6.148355     -0.831446      0.214589
  C       5.862834      1.122004     -0.628105
  H       5.023960      1.738133     -0.968467
  H       6.474744      0.914137     -1.510230
  C       6.689367      1.880775      0.403897
  H       6.063657      2.151813      1.259178
  H       7.475774      1.224608      0.793208
  C       7.318442      3.141700     -0.174293
  H       7.902593      3.675281      0.577318
  H       7.983794      2.903076     -1.007151
  H       6.553396      3.826089     -0.548146
  H       1.645682      0.094693      3.791590
  H      -0.058517      0.544732      3.609298
  H       2.291994      0.221247     -1.091726
  H       4.741903     -3.810136      0.244603
  C      -0.633404     -1.529015     -0.234542
  C      -1.889199     -0.623406     -0.412734
  H      -0.585363     -2.157513     -1.125364
  H      -0.849135     -2.189429      0.609077
  C      -3.014909     -1.656611     -0.712142
  C      -1.692009      0.212592     -1.687062
  C      -2.195980      0.202947      0.854561
  C      -4.492469     -1.246713     -0.922555
  H      -2.718013     -2.186459     -1.618761
  H      -2.993146     -2.383412      0.103129
  O      -1.561934     -0.316267     -2.757416
  O      -1.681386      1.549171     -1.631257
  H      -1.301042      0.294779      1.463897
  H      -2.906477     -0.343514      1.475949
  C      -2.680958      1.614413      0.568329
  C      -5.145305     -0.744848      0.361339
  C      -4.698446     -0.215510     -2.030159
  C      -5.246991     -2.533423     -1.311425
  C      -1.717936      2.279307     -0.387296
  H      -2.720180      2.181739      1.499837
  H      -3.686653      1.628697      0.143858
  O      -5.746996      0.289087      0.483241
  O      -5.031354     -1.629639      1.366467
  H      -5.763396     -0.056242     -2.200510
  H      -4.241002     -0.568835     -2.954045
  H      -4.266710      0.754437     -1.791389
  H      -5.099541     -3.321754     -0.573289
  H      -4.884724     -2.889040     -2.277396
  H      -6.318233     -2.341905     -1.402472
  H      -0.705442      2.254345      0.035653
  C      -2.068483      3.706608     -0.761216
  C      -5.657978     -1.257613      2.590252
  H      -3.075668      3.722592     -1.190696
  H      -1.384946      4.019836     -1.555424
  C      -1.975632      4.680665      0.408094
  H      -5.466146     -2.073564      3.282376
  H      -5.235054     -0.327325      2.972101
  H      -6.729891     -1.121964      2.447304
  H      -2.716091      4.420494      1.169936
  H      -0.994799      4.581021      0.885769
  C      -2.190723      6.125169     -0.024457
  H      -2.130765      6.807829      0.824832
  H      -1.438826      6.432958     -0.754717
  H      -3.172203      6.253454     -0.486994
85
Coordinates from ORCA-job orca E -1736.086226897808
  C       0.812817     -0.980572     -0.025091
  C       0.901281     -0.206718      1.283451
  O       1.194140      0.956454      1.391834
  O       0.593087     -0.964014      2.349444
  C       1.250695     -0.079674     -1.176577
  H       0.665558      0.835301     -1.222061
  H       1.149459     -0.604231     -2.125253
  C       0.627736     -0.300119      3.609287
  H       0.349961     -1.048372      4.346742
  C       1.677866     -2.270000      0.054314
  C       3.224036     -2.239773      0.139921
  H       1.440501     -2.849249     -0.839169
  H       1.330721     -2.851528      0.911630
  C       3.792482     -1.792295     -1.215111
  C       3.785653     -1.453822      1.341522
  C       3.656442     -3.712668      0.279320
  O       3.420268     -2.295269     -2.239255
  O       4.743710     -0.851137     -1.281405
  H       4.621984     -2.019593      1.763024
  H       3.036180     -1.406155      2.132512
  C       4.305352     -0.073526      0.980701
  H       3.242489     -4.316875     -0.526940
  H       3.308131     -4.108494      1.235914
  C       5.320253     -0.202261     -0.131757
  H       4.784111      0.379266      1.851080
  H       3.504978      0.602673      0.674218
  H       6.152253     -0.835047      0.205128
  C       5.871008      1.116367     -0.644003
  H       5.033175      1.734059     -0.983954
  H       6.479391      0.903070     -1.527209
  C       6.703386      1.876340      0.382425
  H       6.081448      2.152474      1.238763
  H       7.489086      1.219211      0.771410
  C       7.334288      3.133172     -0.202643
  H       7.922285      3.667955      0.545041
  H       7.996291      2.889366     -1.036606
  H       6.570058      3.818274     -0.576732
  H       1.627369      0.085402      3.812720
  H      -0.077081      0.532298      3.625032
  H       2.287662      0.232147     -1.069258
  H       4.744423     -3.803944      0.250305
  C      -0.633677     -1.530090     -0.226005
  C      -1.889284     -0.625229     -0.407945
  H      -0.581521     -2.156998     -1.117667
  H      -0.851638     -2.191793      0.615942
  C      -3.013640     -1.657789     -0.713806
  C      -1.687121      0.212448     -1.680307
  C      -2.201993      0.199567      0.858710
  C      -4.489089     -1.245716     -0.932610
  H      -2.712095     -2.187559     -1.618905
  H      -2.997240     -2.384625      0.101489
  O      -1.550194     -0.315027     -2.750474
  O      -1.677932      1.549006     -1.622960
  H      -1.309036      0.293981      1.470494
  H      -2.912908     -0.349043      1.477692
  C      -2.689141      1.610039      0.571350
  C      -5.149163     -0.744122      0.347701
  C      -4.685616     -0.212750     -2.040212
  C      -5.243506     -2.530515     -1.328064
  C      -1.722412      2.277782     -0.378440
  H      -2.734518      2.176322      1.503169
  H      -3.692573      1.622619      0.141517
  O      -5.747837      0.291790      0.467632
  O      -5.032459     -1.624692      1.356215
  H      -5.749023     -0.050976     -2.217372
  H      -4.222913     -0.566074     -2.961460
  H      -4.253165      0.755962     -1.797555
  H      -5.102250     -3.320111     -0.590155
  H      -4.875687     -2.885391     -2.292162
  H      -6.313728     -2.336840     -1.425713
  H      -0.712061      2.254164      0.049773
  C      -2.073520      3.704804     -0.752864
  C      -5.658641     -1.248918      2.579208
  H      -3.078144      3.719266     -1.188212
  H      -1.385928      4.020306     -1.542595
  C      -1.989449      4.677774      0.418053
  H      -5.463090     -2.061014      3.274741
  H      -5.238253     -0.315499      2.955985
  H      -6.731138     -1.117600      2.436974
  H      -2.734454      4.415832      1.174771
  H      -1.011588      4.578975      0.901840
  C      -2.203795      6.122430     -0.014357
  H      -2.150452      6.804175      0.836047
  H      -1.447595      6.432094     -0.739289
  H      -3.182382      6.249723     -0.483147
85
Coordinates from ORCA-job orca E -1736.086212847198
  C       0.810044     -0.983273     -0.035654
  C       0.903252     -0.205383      1.270185
  O       1.193263      0.958922      1.373561
  O       0.605727     -0.961349      2.340169
  C       1.236638     -0.083846     -1.192487
  H       0.647817      0.828908     -1.235924
  H       1.130290     -0.611064     -2.139041
  C       0.647135     -0.294583      3.598365
  H       0.376401     -1.041968      4.339134
  C       1.679600     -2.270020      0.041559
  C       3.225915     -2.235899      0.125162
  H       1.442731     -2.848507     -0.852411
  H       1.334976     -2.854158      0.897964
  C       3.790686     -1.770928     -1.225451
  C       3.788611     -1.463850      1.335570
  C       3.662679     -3.709204      0.244843
  O       3.412295     -2.257254     -2.255346
  O       4.743046     -0.830329     -1.281969
  H       4.623651     -2.035747      1.750985
  H       3.039483     -1.423466      2.127053
  C       4.311346     -0.080660      0.990758
  H       3.248648     -4.304083     -0.568141
  H       3.317504     -4.118053      1.196949
  C       5.323816     -0.197894     -0.125113
  H       4.792372      0.360303      1.865784
  H       3.512222      0.601086      0.694209
  H       6.154626     -0.837311      0.201675
  C       5.876902      1.125698     -0.621594
  H       5.039994      1.749820     -0.951589
  H       6.482717      0.922232     -1.508740
  C       6.713538      1.870333      0.412539
  H       6.094444      2.136584      1.273903
  H       7.498697      1.206531      0.790811
  C       7.345677      3.133261     -0.157809
  H       7.936339      3.657198      0.595260
  H       8.005241      2.898882     -0.996245
  H       6.582046      3.824537     -0.521284
  H       1.647009      0.093909      3.794188
  H      -0.059734      0.535826      3.617049
  H       2.273059      0.231693     -1.093584
  H       4.750735     -3.796989      0.212404
  C      -0.635830     -1.536399     -0.226314
  C      -1.891871     -0.631795     -0.403519
  H      -0.588420     -2.165654     -1.116431
  H      -0.848114     -2.195374      0.619019
  C      -3.020321     -1.662710     -0.698291
  C      -1.698019      0.199693     -1.681114
  C      -2.194075      0.199815      0.860836
  C      -4.493426     -1.244349     -0.917049
  H      -2.723346     -2.199230     -1.600815
  H      -3.005033     -2.383948      0.121776
  O      -1.566635     -0.332973     -2.749365
  O      -1.688063      1.536527     -1.630473
  H      -1.295089      0.300923      1.462780
  H      -2.897287     -0.346632      1.490076
  C      -2.686610      1.607436      0.569086
  C      -5.152468     -0.738893      0.362275
  C      -4.681696     -0.210380     -2.024946
  C      -5.254145     -2.525163     -1.313654
  C      -1.726562      2.271767     -0.389626
  H      -2.727593      2.178494      1.498083
  H      -3.692509      1.615957      0.144948
  O      -5.745976      0.300116      0.480888
  O      -5.041794     -1.619649      1.371298
  H      -5.743594     -0.041641     -2.203800
  H      -4.219851     -0.566994     -2.945311
  H      -4.242810      0.755448     -1.781863
  H      -5.118322     -3.315412     -0.575599
  H      -4.886756     -2.882009     -2.277068
  H      -6.323015     -2.325688     -1.413022
  H      -0.713720      2.251892      0.032975
  C      -2.082140      3.696172     -0.769703
  C      -5.667212     -1.239732      2.593507
  H      -3.088885      3.706392     -1.199923
  H      -1.399226      4.008873     -1.564437
  C      -1.994081      4.675414      0.395667
  H      -5.475570     -2.051834      3.289939
  H      -5.243105     -0.307777      2.969365
  H      -6.738932     -1.104113      2.450360
  H      -2.734737      4.416000      1.157347
  H      -1.013689      4.581140      0.874916
  C      -2.213648      6.117313     -0.043169
  H      -2.157613      6.803413      0.803397
  H      -1.461822      6.424818     -0.773367
  H      -3.194750      6.240023     -0.507636
85
Coordinates from ORCA-job orca E -1736.086239167104
  C       0.812617     -0.980498     -0.030711
  C       0.903114     -0.207277      1.278090
  O       1.197451      0.955494      1.386620
  O       0.597218     -0.965429      2.344140
  C       1.246355     -0.077954     -1.182467
  H       0.659643      0.836201     -1.225326
  H       1.143459     -0.601601     -2.131416
  C       0.635191     -0.303071      3.604716
  H       0.357598     -1.051797      4.341695
  C       1.679406     -2.269138      0.046132
  C       3.225521     -2.237462      0.131807
  H       1.442536     -2.846763     -0.848473
  H       1.332825     -2.852845      0.902151
  C       3.793544     -1.782210     -1.220796
  C       3.786518     -1.457963      1.338152
  C       3.659844     -3.710678      0.262320
  O       3.418328     -2.276665     -2.247989
  O       4.747755     -0.843772     -1.281565
  H       4.620019     -2.027832      1.759583
  H       3.035458     -1.411044      2.127550
  C       4.310918     -0.077646      0.984503
  H       3.246835     -4.310342     -0.547760
  H       3.311711     -4.112692      1.216343
  C       5.326248     -0.203718     -0.127803
  H       4.789734      0.369762      1.857560
  H       3.512763      0.602135      0.680367
  H       6.155585     -0.841664      0.205771
  C       5.881933      1.115730     -0.632415
  H       5.046439      1.738083     -0.969484
  H       6.490164      0.905186     -1.516337
  C       6.716172      1.867488      0.398542
  H       6.094771      2.140606      1.256181
  H       7.499839      1.205961      0.784036
  C       7.350797      3.125711     -0.179442
  H       7.939422      3.655122      0.571499
  H       8.012876      2.884575     -1.014067
  H       6.588614      3.814614     -0.550604
  H       1.635802      0.080517      3.806810
  H      -0.068286      0.530325      3.622703
  H       2.283067      0.235223     -1.077427
  H       4.747921     -3.800295      0.233156
  C      -0.633540     -1.531103     -0.228520
  C      -1.889267     -0.625997     -0.407100
  H      -0.583455     -2.157527     -1.120573
  H      -0.849205     -2.193048      0.613740
  C      -3.015739     -1.657858     -0.707359
  C      -1.691946      0.209475     -1.681617
  C      -2.196196      0.201558      0.858805
  C      -4.490586     -1.243801     -0.924500
  H      -2.716871     -2.190343     -1.611726
  H      -2.998645     -2.382452      0.109826
  O      -1.555834     -0.319859     -2.750942
  O      -1.684871      1.546201     -1.627042
  H      -1.298799      0.303274      1.463002
  H      -2.899690     -0.348259      1.485036
  C      -2.690778      1.609106      0.569820
  C      -5.148911     -0.739879      0.355777
  C      -4.685722     -0.211789     -2.033157
  C      -5.247841     -2.527686     -1.317858
  C      -1.729452      2.278186     -0.384437
  H      -2.735312      2.177376      1.500450
  H      -3.695646      1.617119      0.143273
  O      -5.748426      0.295730      0.474124
  O      -5.031826     -1.618976      1.365464
  H      -5.748821     -0.047849     -2.209826
  H      -4.224452     -0.567444     -2.954224
  H      -4.250643      0.756225     -1.792253
  H      -5.107564     -3.316626     -0.579105
  H      -4.881414     -2.884448     -2.281750
  H      -6.317691     -2.331983     -1.414984
  H      -0.717928      2.259870      0.041396
  C      -2.087446      3.702622     -0.762257
  C      -5.656817     -1.241086      2.588479
  H      -3.093000      3.711318     -1.195483
  H      -1.402916      4.018807     -1.554314
  C      -2.005209      4.679548      0.405507
  H      -5.459215     -2.051309      3.285551
  H      -5.237136     -0.306250      2.962343
  H      -6.729656     -1.111638      2.447389
  H      -2.747552      4.416690      1.164467
  H      -1.025949      4.586578      0.887474
  C      -2.226942      6.121897     -0.030831
  H      -2.175098      6.806301      0.817471
  H      -1.473629      6.432852     -0.758142
  H      -3.207009      6.243279     -0.497999
85
Coordinates from ORCA-job orca E -1736.086244958680
  C       0.813401     -0.979470     -0.027869
  C       0.905326     -0.208500      1.282185
  O       1.202348      0.953420      1.392587
  O       0.596240     -0.967346      2.346790
  C       1.247839     -0.075347     -1.178094
  H       0.661789      0.839379     -1.219210
  H       1.144536     -0.597221     -2.127994
  C       0.634719     -0.307231      3.608431
  H       0.353580     -1.056191      4.343863
  C       1.679310     -2.268839      0.046785
  C       3.225426     -2.237897      0.130881
  H       1.441191     -2.845363     -0.848223
  H       1.333178     -2.853113      0.902624
  C       3.792057     -1.781497     -1.221955
  C       3.787756     -1.459678      1.337518
  C       3.659582     -3.711412      0.259215
  O       3.413876     -2.273220     -2.249376
  O       4.747467     -0.844333     -1.282706
  H       4.620432     -2.030851      1.758838
  H       3.036863     -1.411757      2.127019
  C       4.313685     -0.079857      0.984312
  H       3.245792     -4.309941     -0.551342
  H       3.312075     -4.114557      1.213011
  C       5.328008     -0.206365     -0.128854
  H       4.793423      0.366654      1.857338
  H       3.515995      0.600872      0.680927
  H       6.156612     -0.845974      0.203432
  C       5.885257      1.112699     -0.632737
  H       5.050390      1.736429     -0.968878
  H       6.492666      0.901953     -1.517206
  C       6.721128      1.862661      0.398205
  H       6.100637      2.135903      1.256490
  H       7.504257      1.199885      0.782717
  C       7.356890      3.120508     -0.179344
  H       7.946269      3.648966      0.571709
  H       8.018481      2.879127     -1.014312
  H       6.595265      3.810371     -0.549940
  H       1.636381      0.072592      3.812612
  H      -0.065953      0.528537      3.626915
  H       2.284855      0.236831     -1.072410
  H       4.747647     -3.801190      0.229128
  C      -0.633077     -1.528912     -0.226470
  C      -1.888141     -0.623100     -0.406095
  H      -0.582946     -2.155322     -1.118553
  H      -0.849713     -2.190796      0.615609
  C      -3.014402     -1.655218     -0.707190
  C      -1.689082      0.212123     -1.680519
  C      -2.195818      0.204980      0.859174
  C      -4.489826     -1.243156     -0.924673
  H      -2.714692     -2.187160     -1.611641
  H      -2.996802     -2.380300      0.109574
  O      -1.551716     -0.317370     -2.749598
  O      -1.683474      1.548876     -1.626318
  H      -1.298004      0.309980      1.462140
  H      -2.897327     -0.345951      1.486732
  C      -2.693058      1.611420      0.569121
  C      -5.149964     -0.741152      0.355432
  C      -4.686692     -0.211500     -2.033388
  C      -5.244832     -2.528249     -1.318564
  C      -1.731875      2.281770     -0.384437
  H      -2.739391      2.180034      1.499492
  H      -3.697572      1.617818      0.141821
  O      -5.753487      0.292197      0.473293
  O      -5.027944     -1.618456      1.366030
  H      -5.750074     -0.050009     -2.210702
  H      -4.224064     -0.566093     -2.954219
  H      -4.254003      0.757518     -1.792338
  H      -5.103600     -3.317053     -0.579813
  H      -4.877330     -2.884305     -2.282332
  H      -6.314967     -2.334241     -1.416197
  H      -0.721020      2.266080      0.043125
  C      -2.092546      3.705032     -0.764211
  C      -5.653052     -1.241825      2.589320
  H      -3.097497      3.710856     -1.198942
  H      -1.407591      4.021941     -1.555640
  C      -2.014394      4.683458      0.402559
  H      -5.450605     -2.050063      3.287342
  H      -5.237424     -0.304386      2.961250
  H      -6.726741     -1.117810      2.449587
  H      -2.756902      4.419345      1.160957
  H      -1.035413      4.593780      0.885743
  C      -2.239712      6.124710     -0.035569
  H      -2.190843      6.810123      0.812121
  H      -1.486412      6.437098     -0.762313
  H      -3.219578      6.242829     -0.504043
85
Coordinates from ORCA-job orca E -1736.086244706362
  C       0.815081     -0.977790     -0.026379
  C       0.907267     -0.212437      1.287008
  O       1.208207      0.947971      1.402688
  O       0.596086     -0.975364      2.348002
  C       1.249859     -0.068369     -1.172252
  H       0.663346      0.846324     -1.209146
  H       1.147453     -0.585743     -2.124680
  C       0.636201     -0.321919      3.612831
  H       0.351001     -1.073212      4.344336
  C       1.681157     -2.267483      0.043672
  C       3.227119     -2.236466      0.127585
  H       1.442782     -2.841266     -0.853016
  H       1.335185     -2.854216      0.897921
  C       3.793848     -1.778997     -1.224923
  C       3.789000     -1.459280      1.335255
  C       3.661810     -3.710067      0.254269
  O       3.414672     -2.268832     -2.252873
  O       4.753473     -0.846185     -1.284207
  H       4.618285     -2.033029      1.759702
  H       3.036172     -1.407547      2.122678
  C       4.320200     -0.081442      0.982392
  H       3.248877     -4.307521     -0.557540
  H       3.313581     -4.114684      1.207183
  C       5.335528     -0.211435     -0.129437
  H       4.799701      0.364116      1.856020
  H       3.524929      0.601407      0.677299
  H       6.161020     -0.854713      0.203569
  C       5.898701      1.105526     -0.632186
  H       5.066738      1.732241     -0.969997
  H       6.506910      0.892419     -1.515556
  C       6.735386      1.852714      0.400065
  H       6.114370      2.128199      1.257259
  H       7.515563      1.187328      0.786100
  C       7.376414      3.108210     -0.176729
  H       7.965350      3.635508      0.575491
  H       8.039452      2.864322     -1.009826
  H       6.617751      3.800018     -0.549806
  H       1.639358      0.052303      3.820184
  H      -0.060713      0.516885      3.635087
  H       2.286658      0.243869     -1.064232
  H       4.749955     -3.799332      0.225059
  C      -0.631151     -1.526674     -0.227290
  C      -1.885923     -0.620227     -0.405216
  H      -0.580833     -2.150829     -1.120928
  H      -0.848129     -2.190704      0.612989
  C      -3.012713     -1.652181     -0.705454
  C      -1.688501      0.215563     -1.679549
  C      -2.191434      0.207929      0.860148
  C      -4.487996     -1.240842     -0.924160
  H      -2.712564     -2.185198     -1.609162
  H      -2.995331     -2.376350      0.112100
  O      -1.550049     -0.313340     -2.748752
  O      -1.686807      1.552319     -1.625179
  H      -1.290438      0.321190      1.456947
  H      -2.885310     -0.346706      1.492992
  C      -2.697726      1.611174      0.570274
  C      -5.148844     -0.734838      0.353955
  C      -4.685021     -0.213686     -2.037022
  C      -5.243091     -2.527567     -1.313020
  C      -1.740715      2.286203     -0.384270
  H      -2.745883      2.179881      1.500532
  H      -3.702830      1.612741      0.144447
  O      -5.758036      0.295819      0.466294
  O      -5.024213     -1.607166      1.368402
  H      -5.748373     -0.053232     -2.215369
  H      -4.221972     -0.571948     -2.956262
  H      -4.252535      0.756419     -1.800092
  H      -5.102094     -3.313319     -0.570940
  H      -4.875335     -2.887693     -2.275185
  H      -6.313167     -2.333789     -1.411765
  H      -0.730033      2.277133      0.044031
  C      -2.110144      3.706712     -0.766109
  C      -5.650977     -1.227525      2.589783
  H      -3.115193      3.705390     -1.200687
  H      -1.427365      4.026486     -1.558270
  C      -2.038073      4.687667      0.398860
  H      -5.445255     -2.031582      3.291684
  H      -5.239456     -0.286564      2.957371
  H      -6.725233     -1.108777      2.449624
  H      -2.777669      4.419216      1.158595
  H      -1.057855      4.606324      0.880969
  C      -2.274931      6.126417     -0.041356
  H      -2.230319      6.813475      0.805240
  H      -1.524919      6.443486     -0.769483
  H      -3.256221      6.236343     -0.508850
85
Coordinates from ORCA-job orca E -1736.086246606402
  C       0.816168     -0.977639     -0.030890
  C       0.908774     -0.216713      1.285129
  O       1.212838      0.942456      1.405043
  O       0.592255     -0.981838      2.342907
  C       1.250841     -0.064417     -1.173734
  H       0.664501      0.850532     -1.207072
  H       1.148111     -0.578355     -2.127947
  C       0.631479     -0.333018      3.609953
  H       0.340184     -1.085225      4.338094
  C       1.682215     -2.267680      0.035253
  C       3.228017     -2.236901      0.120823
  H       1.444701     -2.838167     -0.863717
  H       1.335245     -2.857486      0.886958
  C       3.796149     -1.773394     -1.229065
  C       3.788670     -1.465322      1.332741
  C       3.662820     -3.711037      0.240879
  O       3.416166     -2.256699     -2.259791
  O       4.757242     -0.841844     -1.282909
  H       4.615867     -2.042172      1.756956
  H       3.034305     -1.415078      2.118744
  C       4.322625     -0.086875      0.986598
  H       3.251066     -4.304493     -0.574429
  H       3.313338     -4.120394      1.191270
  C       5.339032     -0.213408     -0.124664
  H       4.801563      0.354192      1.862762
  H       3.528631      0.598350      0.683558
  H       6.163093     -0.859478      0.206444
  C       5.904858      1.104897     -0.620876
  H       5.074313      1.734021     -0.957623
  H       6.514241      0.894590     -1.504092
  C       6.740730      1.846813      0.415759
  H       6.118587      2.119798      1.272903
  H       7.519241      1.178852      0.800654
  C       7.384552      3.103587     -0.155062
  H       7.972255      3.627563      0.600401
  H       8.049272      2.861960     -0.987441
  H       6.627547      3.797538     -0.527465
  H       1.635783      0.035411      3.822101
  H      -0.061222      0.509187      3.633089
  H       2.287669      0.247271     -1.064828
  H       4.751001     -3.799967      0.212724
  C      -0.630061     -1.525826     -0.232888
  C      -1.884359     -0.618479     -0.408983
  H      -0.580235     -2.148635     -1.127443
  H      -0.847037     -2.191069      0.606389
  C      -3.013284     -1.649458     -0.704188
  C      -1.690231      0.215181     -1.685248
  C      -2.185282      0.212400      0.855326
  C      -4.489252     -1.236975     -0.914833
  H      -2.717919     -2.181899     -1.609787
  H      -2.992048     -2.374351      0.112590
  O      -1.549849     -0.315475     -2.753305
  O      -1.689355      1.552014     -1.633308
  H      -1.280902      0.332163      1.445887
  H      -2.872944     -0.343145      1.494181
  C      -2.698049      1.612869      0.563422
  C      -5.143833     -0.733277      0.367344
  C      -4.691088     -0.207587     -2.024709
  C      -5.247211     -2.522523     -1.302351
  C      -1.745074      2.288964     -0.394489
  H      -2.746044      2.183604      1.492434
  H      -3.704098      1.610334      0.139824
  O      -5.754038      0.296324      0.483875
  O      -5.011353     -1.605751      1.380604
  H      -5.755131     -0.045979     -2.197550
  H      -4.232747     -0.564421     -2.946822
  H      -4.256560      0.761738     -1.788156
  H      -5.103213     -3.309673     -0.562344
  H      -4.884342     -2.881252     -2.266862
  H      -6.317563     -2.327738     -1.395615
  H      -0.733979      2.284834      0.032932
  C      -2.120527      3.706958     -0.779983
  C      -5.631173     -1.227918      2.605963
  H      -3.126405      3.700314     -1.212561
  H      -1.440614      4.026631     -1.574612
  C      -2.050016      4.692051      0.381501
  H      -5.420280     -2.032177      3.306072
  H      -5.218718     -0.286731      2.971869
  H      -6.706424     -1.110420      2.472638
  H      -2.785748      4.422220      1.144459
  H      -1.067896      4.617543      0.860736
  C      -2.295806      6.128083     -0.062608
  H      -2.252065      6.818049      0.781634
  H      -1.549798      6.446770     -0.794102
  H      -3.279090      6.231476     -0.527333
85
Coordinates from ORCA-job orca E -1736.086251985339
  C       0.816202     -0.978499     -0.027611
  C       0.911146     -0.220400      1.289942
  O       1.217605      0.937904      1.412129
  O       0.594634     -0.987250      2.346447
  C       1.247768     -0.062708     -1.169502
  H       0.660753      0.851977     -1.199565
  H       1.143082     -0.574748     -2.124540
  C       0.636292     -0.341088      3.614663
  H       0.343425     -1.093827      4.341635
  C       1.683002     -2.268303      0.033885
  C       3.229043     -2.237379      0.116198
  H       1.443919     -2.836698     -0.865995
  H       1.337891     -2.860368      0.884776
  C       3.793864     -1.768318     -1.233153
  C       3.792779     -1.470751      1.329819
  C       3.664325     -3.711902      0.229117
  O       3.410670     -2.246652     -2.265000
  O       4.753767     -0.835458     -1.285611
  H       4.621461     -2.049124      1.749025
  H       3.040732     -1.424453      2.118275
  C       4.325100     -0.090459      0.988471
  H       3.250571     -4.302081     -0.587552
  H       3.317327     -4.125211      1.178698
  C       5.338205     -0.211303     -0.126485
  H       4.806663      0.346600      1.865198
  H       3.529864      0.595849      0.691337
  H       6.163977     -0.857771      0.199559
  C       5.901238      1.109687     -0.618812
  H       5.069112      1.739176     -0.950929
  H       6.508511      0.903618     -1.504482
  C       6.738983      1.848333      0.418619
  H       6.118660      2.117621      1.278242
  H       7.518882      1.179536      0.799230
  C       7.380536      3.107736     -0.148958
  H       7.969489      3.629375      0.607148
  H       8.043610      2.869755     -0.983690
  H       6.622166      3.802464     -0.517102
  H       1.641671      0.024257      3.827122
  H      -0.054087      0.502981      3.639948
  H       2.284623      0.249411     -1.062414
  H       4.752432     -3.800604      0.197779
  C      -0.630120     -1.526856     -0.228191
  C      -1.884053     -0.619368     -0.405089
  H      -0.580793     -2.150604     -1.122133
  H      -0.846845     -2.191129      0.611893
  C      -3.013374     -1.650408     -0.698710
  C      -1.689610      0.212024     -1.682803
  C      -2.183926      0.213918      0.857859
  C      -4.488649     -1.237486     -0.913130
  H      -2.716983     -2.185752     -1.602281
  H      -2.994045     -2.372858      0.120260
  O      -1.550779     -0.320477     -2.750146
  O      -1.688482      1.548928     -1.633217
  H      -1.279001      0.335092      1.447280
  H      -2.870885     -0.340533      1.498423
  C      -2.696819      1.613872      0.563769
  C      -5.145597     -0.729792      0.366271
  C      -4.687503     -0.211290     -2.026507
  C      -5.246756     -2.523587     -1.298530
  C      -1.744247      2.288194     -0.395881
  H      -2.744082      2.186302      1.491768
  H      -3.703112      1.610836      0.140888
  O      -5.755446      0.300487      0.478594
  O      -5.016593     -1.599911      1.382012
  H      -5.751042     -0.049001     -2.201695
  H      -4.227951     -0.571478     -2.946718
  H      -4.252211      0.758244     -1.792269
  H      -5.104896     -3.308701     -0.555955
  H      -4.882090     -2.885363     -2.261217
  H      -6.316757     -2.328279     -1.394615
  H      -0.733096      2.284869      0.031347
  C      -2.119880      3.705477     -0.783826
  C      -5.639705     -1.218809      2.604604
  H      -3.126180      3.698123     -1.215439
  H      -1.440724      4.023360     -1.579817
  C      -2.048142      4.692809      0.375622
  H      -5.433078     -2.022398      3.306755
  H      -5.226400     -0.278000      2.970566
  H      -6.714233     -1.099017      2.467560
  H      -2.782488      4.424068      1.140288
  H      -1.065249      4.619735      0.853508
  C      -2.295164      6.127891     -0.070842
  H      -2.250303      6.819506      0.771988
  H      -1.550367      6.445457     -0.804059
  H      -3.279154      6.230157     -0.534306
85
Coordinates from ORCA-job orca E -1736.086253114140
  C       0.815801     -0.979411     -0.028685
  C       0.911482     -0.222215      1.289272
  O       1.217949      0.936018      1.412096
  O       0.596958     -0.990235      2.345549
  C       1.246744     -0.063161     -1.170362
  H       0.659561      0.851420     -1.199983
  H       1.141722     -0.574962     -2.125511
  C       0.640554     -0.345276      3.614306
  H       0.348270     -1.098504      4.341014
  C       1.682777     -2.269047      0.031814
  C       3.228809     -2.238178      0.114852
  H       1.444213     -2.836618     -0.868729
  H       1.337412     -2.862100      0.881941
  C       3.794133     -1.767810     -1.233804
  C       3.792232     -1.472648      1.329187
  C       3.663728     -3.712848      0.226942
  O       3.413894     -2.247656     -2.266039
  O       4.753313     -0.834095     -1.285084
  H       4.621886     -2.050783      1.746833
  H       3.040508     -1.428660      2.118192
  C       4.323056     -0.091320      0.989668
  H       3.249885     -4.302492     -0.590069
  H       3.316587     -4.126625      1.176272
  C       5.336369     -0.209798     -0.125382
  H       4.804493      0.344826      1.866934
  H       3.527167      0.594713      0.693774
  H       6.163219     -0.855006      0.200443
  C       5.897431      1.112469     -0.616616
  H       5.064442      1.740717     -0.948935
  H       6.505615      0.907968     -1.502029
  C       6.733192      1.851878      0.421873
  H       6.111623      2.120244      1.280888
  H       7.513489      1.183936      0.803184
  C       7.373851      3.112224     -0.144645
  H       7.961501      3.634253      0.612212
  H       8.038001      2.875253     -0.978812
  H       6.615071      3.806243     -0.513289
  H       1.646372      0.019387      3.825877
  H      -0.049340      0.499124      3.641282
  H       2.283581      0.249172     -1.063722
  H       4.751807     -3.801841      0.195555
  C      -0.630709     -1.527527     -0.228555
  C      -1.884377     -0.619623     -0.404648
  H      -0.582067     -2.151286     -1.122532
  H      -0.847114     -2.191806      0.611590
  C      -3.014224     -1.650566     -0.696705
  C      -1.690558      0.210717     -1.683134
  C      -2.182192      0.214716      0.858225
  C      -4.489495     -1.237500     -0.911348
  H      -2.718272     -2.186986     -1.599791
  H      -2.995040     -2.372193      0.123007
  O      -1.556052     -0.322665     -2.750599
  O      -1.689475      1.547676     -1.634768
  H      -1.276726      0.334426      1.447179
  H      -2.869675     -0.338398      1.499364
  C      -2.693622      1.615224      0.564098
  C      -5.146915     -0.730407      0.368084
  C      -4.687980     -0.210806     -2.024350
  C      -5.247298     -2.523378     -1.297980
  C      -1.742312      2.287965     -0.397929
  H      -2.738424      2.188388      1.491759
  H      -3.700688      1.612931      0.143136
  O      -5.755337      0.300615      0.481249
  O      -5.017435     -1.600632      1.383720
  H      -5.751475     -0.048394     -2.199720
  H      -4.228221     -0.570600     -2.944630
  H      -4.252770      0.758618     -1.789553
  H      -5.105696     -3.309040     -0.555950
  H      -4.882118     -2.884359     -2.260775
  H      -6.317283     -2.328132     -1.394409
  H      -0.730293      2.284229      0.027353
  C      -2.117638      3.705197     -0.786396
  C      -5.640379     -1.219767      2.606445
  H      -3.125103      3.698421     -1.215302
  H      -1.440354      4.021439     -1.584637
  C      -2.041751      4.693824      0.371667
  H      -5.435504     -2.024468      3.307841
  H      -5.225516     -0.280126      2.973709
  H      -6.714614     -1.097796      2.469080
  H      -2.773907      4.426497      1.138922
  H      -1.057466      4.620706      0.846681
  C      -2.288972      6.128556     -0.075799
  H      -2.240931      6.821231      0.765986
  H      -1.546069      6.444561     -0.811620
  H      -3.274231      6.231148     -0.536490
85
Coordinates from ORCA-job orca E -1736.086256183632
  C       0.816519     -0.981211     -0.026666
  C       0.912157     -0.225742      1.292203
  O       1.217626      0.932600      1.416448
  O       0.597977     -0.995392      2.347442
  C       1.248001     -0.064003     -1.167285
  H       0.660806      0.850549     -1.196622
  H       1.143507     -0.575102     -2.122888
  C       0.641765     -0.352401      3.617226
  H       0.349040     -1.106611      4.342727
  C       1.683403     -2.270853      0.032478
  C       3.229508     -2.240307      0.114792
  H       1.444538     -2.837708     -0.868445
  H       1.338415     -2.864612      0.882270
  C       3.794044     -1.769607     -1.234038
  C       3.793962     -1.475165      1.328766
  C       3.663873     -3.715147      0.226483
  O       3.413743     -2.249723     -2.266129
  O       4.751350     -0.833955     -1.285905
  H       4.625443     -2.052459      1.743947
  H       3.043625     -1.433537      2.119279
  C       4.322007     -0.092644      0.989726
  H       3.248927     -4.304657     -0.590046
  H       3.317511     -4.128674      1.176203
  C       5.334122     -0.208527     -0.126678
  H       4.804125      0.343348      1.866700
  H       3.524641      0.592429      0.695712
  H       6.162971     -0.851716      0.198030
  C       5.891475      1.115225     -0.618199
  H       5.056666      1.741380     -0.949893
  H       6.499583      0.912394     -1.504038
  C       6.725978      1.856612      0.419905
  H       6.104054      2.123938      1.278978
  H       7.507750      1.190392      0.801196
  C       7.363886      3.118186     -0.147004
  H       7.950727      3.641493      0.609592
  H       8.028245      2.882395     -0.981333
  H       6.603610      3.810626     -0.515511
  H       1.647752      0.011371      3.829488
  H      -0.047659      0.492281      3.645471
  H       2.284769      0.248381     -1.059946
  H       4.751862     -3.804674      0.193937
  C      -0.630087     -1.528730     -0.227210
  C      -1.883254     -0.620149     -0.403593
  H      -0.581401     -2.152218     -1.121372
  H      -0.847047     -2.193252      0.612572
  C      -3.013335     -1.650567     -0.696204
  C      -1.688430      0.210157     -1.681919
  C      -2.181577      0.214208      0.859245
  C      -4.488151     -1.236549     -0.912275
  H      -2.717002     -2.187798     -1.598662
  H      -2.995487     -2.371611      0.124041
  O      -1.551714     -0.323285     -2.749082
  O      -1.686806      1.547138     -1.633599
  H      -1.276775      0.332449      1.449503
  H      -2.870652     -0.338262      1.499237
  C      -2.691694      1.615170      0.564979
  C      -5.145182     -0.726767      0.366282
  C      -4.685465     -0.211283     -2.026818
  C      -5.246817     -2.522395     -1.297275
  C      -1.739808      2.287495     -0.396766
  H      -2.736431      2.188369      1.492607
  H      -3.698602      1.613284      0.143628
  O      -5.752566      0.305031      0.477831
  O      -5.018316     -1.596491      1.382718
  H      -5.748796     -0.048225     -2.202595
  H      -4.225890     -0.572803     -2.946508
  H      -4.249565      0.758121     -1.793320
  H      -5.106016     -3.307144     -0.554138
  H      -4.881620     -2.884949     -2.259465
  H      -6.316629     -2.326505     -1.394265
  H      -0.727895      2.283579      0.028918
  C      -2.114674      3.704711     -0.785805
  C      -5.642798     -1.214004      2.604168
  H      -3.122321      3.698181     -1.214259
  H      -1.437666      4.020083     -1.584618
  C      -2.037773      4.694233      0.371423
  H      -5.441943     -2.019496      3.305808
  H      -5.225796     -0.275779      2.972641
  H      -6.716310     -1.088596      2.464418
  H      -2.769324      4.427633      1.139501
  H      -1.053130      4.621519      0.845709
  C      -2.285077      6.128612     -0.077115
  H      -2.236224      6.822084      0.763958
  H      -1.542581      6.443753     -0.813713
  H      -3.270603      6.231055     -0.537251
85
Coordinates from ORCA-job orca E -1736.086257254009
  C       0.816969     -0.981922     -0.026850
  C       0.912164     -0.229084      1.293598
  O       1.217759      0.928954      1.420346
  O       0.597584     -1.000997      2.347066
  C       1.248917     -0.062646     -1.165625
  H       0.661575      0.851835     -1.193904
  H       1.145125     -0.572167     -2.122151
  C       0.641492     -0.361187      3.618470
  H       0.347719     -1.116941      4.341942
  C       1.683794     -2.271743      0.029923
  C       3.229998     -2.241828      0.112453
  H       1.445057     -2.836843     -0.872151
  H       1.338650     -2.867186      0.878458
  C       3.794878     -1.769012     -1.235485
  C       3.794890     -1.479064      1.327675
  C       3.663634     -3.717059      0.221763
  O       3.414915     -2.247572     -2.268428
  O       4.751325     -0.832371     -1.285781
  H       4.627209     -2.056756      1.740653
  H       3.045180     -1.440038      2.118894
  C       4.321681     -0.095377      0.991416
  H       3.248190     -4.305077     -0.595584
  H       3.317189     -4.131772      1.170939
  C       5.333444     -0.207987     -0.125633
  H       4.803935      0.339014      1.869115
  H       3.523643      0.589758      0.699360
  H       6.163400     -0.850455      0.197656
  C       5.888643      1.117426     -0.615162
  H       5.052804      1.742606     -0.946109
  H       6.497283      0.916942     -1.501167
  C       6.721602      1.858802      0.424209
  H       6.098832      2.124382      1.283210
  H       7.504094      1.193245      0.805198
  C       7.358074      3.121895     -0.140951
  H       7.943676      3.645213      0.616603
  H       8.023309      2.887912     -0.975097
  H       6.597054      3.813654     -0.509209
  H       1.647831      0.000895      3.832039
  H      -0.047050      0.484101      3.648619
  H       2.285530      0.249814     -1.057183
  H       4.751570     -3.807131      0.188869
  C      -0.629594     -1.529010     -0.228499
  C      -1.882475     -0.619864     -0.404423
  H      -0.580865     -2.151641     -1.123250
  H      -0.846894     -2.194336      0.610561
  C      -3.013321     -1.649800     -0.695686
  C      -1.688009      0.209569     -1.683332
  C      -2.179802      0.215361      0.858070
  C      -4.488302     -1.235305     -0.909820
  H      -2.718324     -2.187307     -1.598419
  H      -2.994753     -2.370751      0.124615
  O      -1.551039     -0.324600     -2.750101
  O      -1.686228      1.546583     -1.635950
  H      -1.274644      0.333771      1.447713
  H      -2.868817     -0.336463      1.498745
  C      -2.689885      1.616224      0.563137
  C      -5.142929     -0.724828      0.369669
  C      -4.687100     -0.210279     -2.024322
  C      -5.248013     -2.521035     -1.293132
  C      -1.738691      2.287939     -0.399681
  H      -2.733964      2.190120      1.490383
  H      -3.697075      1.614007      0.142410
  O      -5.750319      0.306903      0.481751
  O      -5.014347     -1.594137      1.386263
  H      -5.750691     -0.047134     -2.198507
  H      -4.229032     -0.572126     -2.944633
  H      -4.250754      0.759155     -1.791752
  H      -5.106140     -3.305661     -0.550051
  H      -4.884554     -2.883890     -2.255866
  H      -6.317943     -2.324882     -1.388318
  H      -0.726522      2.284683      0.025510
  C      -2.114343      3.704591     -0.790140
  C      -5.637335     -1.211421      2.608443
  H      -3.122616      3.697168     -1.217127
  H      -1.438620      4.018815     -1.590496
  C      -2.036030      4.696240      0.365152
  H      -5.436602     -2.017354      3.309617
  H      -5.218975     -0.273768      2.976848
  H      -6.710830     -1.084828      2.469675
  H      -2.765817      4.430398      1.135198
  H      -1.050370      4.625474      0.837558
  C      -2.285550      6.129535     -0.085648
  H      -2.235657      6.824709      0.753961
  H      -1.544696      6.443878     -0.824251
  H      -3.272025      6.230247     -0.544135
85
Coordinates from ORCA-job orca E -1736.086259814803
  C       0.817569     -0.982524     -0.026937
  C       0.913462     -0.229619      1.293451
  O       1.218077      0.928708      1.419945
  O       0.599364     -1.001592      2.347004
  C       1.249469     -0.063668     -1.166098
  H       0.662381      0.850937     -1.194735
  H       1.145370     -0.573525     -2.122417
  C       0.643442     -0.361973      3.618545
  H       0.350756     -1.118213      4.341949
  C       1.683994     -2.272604      0.029539
  C       3.230228     -2.243133      0.112114
  H       1.445136     -2.837439     -0.872676
  H       1.338750     -2.868185      0.877924
  C       3.795332     -1.770175     -1.235668
  C       3.795216     -1.480649      1.327422
  C       3.663429     -3.718503      0.221379
  O       3.416532     -2.249609     -2.268638
  O       4.751389     -0.833112     -1.285763
  H       4.628208     -2.057984      1.739570
  H       3.045835     -1.442683      2.118999
  C       4.320918     -0.096469      0.991519
  H       3.247718     -4.306382     -0.595926
  H       3.316916     -4.133043      1.170608
  C       5.332776     -0.208081     -0.125531
  H       4.802885      0.338062      1.869313
  H       3.522395      0.588198      0.699624
  H       6.163363     -0.849755      0.197700
  C       5.886661      1.117887     -0.615053
  H       5.050209      1.742150     -0.946195
  H       6.495746      0.918028     -1.500889
  C       6.718554      1.860265      0.424483
  H       6.095207      2.125424      1.283194
  H       7.501568      1.195543      0.805853
  C       7.353999      3.123890     -0.140675
  H       7.938829      3.647880      0.617012
  H       8.019747      2.890391     -0.974548
  H       6.592439      3.814859     -0.509304
  H       1.649642      0.000849      3.831513
  H      -0.045844      0.482647      3.649309
  H       2.286193      0.248527     -1.058001
  H       4.751333     -3.808902      0.188406
  C      -0.629238     -1.529200     -0.227862
  C      -1.881976     -0.619721     -0.403527
  H      -0.581105     -2.151922     -1.122584
  H      -0.846376     -2.194389      0.611357
  C      -3.013033     -1.649434     -0.694820
  C      -1.687358      0.209582     -1.682477
  C      -2.179404      0.215573      0.858950
  C      -4.487863     -1.234571     -0.909490
  H      -2.717974     -2.187249     -1.597354
  H      -2.994885     -2.370188      0.125664
  O      -1.549748     -0.324717     -2.749105
  O      -1.685430      1.546597     -1.635238
  H      -1.274518      0.333374      1.449092
  H      -2.869110     -0.335825      1.499213
  C      -2.688865      1.616671      0.563869
  C      -5.142997     -0.724414      0.369873
  C      -4.685864     -0.209074     -2.023690
  C      -5.247607     -2.519987     -1.293657
  C      -1.737600      2.288134     -0.398995
  H      -2.732859      2.190664      1.491070
  H      -3.696033      1.614587      0.143058
  O      -5.749835      0.307614      0.482168
  O      -5.015205     -1.594179      1.386193
  H      -5.749347     -0.045734     -2.198405
  H      -4.227372     -0.570643     -2.943893
  H      -4.249516      0.760212     -1.790489
  H      -5.106148     -3.304984     -0.550886
  H      -4.883798     -2.882420     -2.256421
  H      -6.317473     -2.323642     -1.389190
  H      -0.725405      2.284909      0.026160
  C      -2.113362      3.704637     -0.789967
  C      -5.638777     -1.211749      2.608223
  H      -3.121831      3.696895     -1.216498
  H      -1.438032      4.018404     -1.590840
  C      -2.034647      4.697242      0.364476
  H      -5.438819     -2.018161      3.309067
  H      -5.220122     -0.274500      2.977315
  H      -6.712104     -1.084551      2.468760
  H      -2.763727      4.431667      1.135302
  H      -1.048573      4.627546      0.836125
  C      -2.285389      6.129989     -0.087440
  H      -2.235277      6.825981      0.751481
  H      -1.545247      6.444059     -0.826878
  H      -3.272265      6.229674     -0.545290
