104
Coordinates from ORCA-job orca E -2047.529819622302
  C       0.433480      0.574660     -1.363650
  C       0.973120      0.640260      0.079310
  O       1.792020     -0.166410      0.460520
  O       0.553620      1.560940      0.920940
  C      -0.706460      1.587580     -1.584690
  H      -1.638890      1.202630     -1.160540
  H      -0.863710      1.727070     -2.666240
  C      -0.333770      2.650580      0.613530
  H      -1.325280      2.330190      0.978150
  C      -0.408180      2.901940     -0.881090
  H      -1.211340      3.627370     -1.076740
  H       0.540730      3.345720     -1.219980
  C       0.024680     -0.902010     -1.649740
  H       0.885060     -1.511390     -1.353960
  H      -0.063840     -1.014050     -2.742160
  C       1.575850      0.965370     -2.374200
  C       3.085060      0.798640     -2.092530
  H       1.439580      2.028540     -2.609830
  H       1.365370      0.421780     -3.309530
  C       3.500060      1.725030     -0.941050
  C       3.558880     -0.670530     -1.916820
  C       3.812470      1.409950     -3.319010
  O       2.863630      2.703330     -0.641000
  O       4.668950      1.502890     -0.341820
  H       4.046390     -0.987950     -2.852670
  H       2.699530     -1.333810     -1.779180
  C       4.518340     -0.867140     -0.746800
  H       3.549290      2.469900     -3.448960
  H       3.526570      0.865270     -4.231760
  C       5.445430      0.321450     -0.584170
  H       5.110380     -1.782390     -0.892050
  H       3.945700     -0.973680      0.185840
  H       6.024400      0.480820     -1.514270
  C       0.166030      3.829930      1.432480
  H       1.182700      4.079320      1.086170
  H       0.262860      3.491310      2.476700
  C       6.415980      0.217540      0.582240
  H       5.834190      0.047340      1.503830
  H       6.900590      1.200620      0.697910
  C      -3.928820     -1.689340     -1.682370
  C      -4.176330     -2.011710     -0.200020
  O      -3.695090     -2.991380      0.312900
  O      -5.005240     -1.256850      0.514270
  C      -4.870730     -0.564900     -2.149540
  H      -5.889700     -0.968690     -2.278630
  H      -4.549720     -0.209980     -3.141810
  C      -5.478010      0.057950      0.175550
  H      -6.571200     -0.056290      0.060200
  C      -4.904540      0.565840     -1.137460
  H      -5.529820      1.396240     -1.496350
  H      -3.892800      0.962460     -0.964440
  C      -4.279140     -2.969200     -2.463860
  H      -3.637120     -3.812850     -2.185200
  H      -4.171450     -2.784290     -3.544030
  C      -2.456240     -1.243740     -1.977400
  C      -1.262030     -1.594240     -1.057060
  H      -2.465330     -0.157710     -2.105290
  H      -2.202960     -1.650560     -2.970480
  C      -1.487450     -1.041470      0.352900
  C      -0.992610     -3.128740     -1.055050
  O      -2.232470     -0.110000      0.563840
  O      -0.789410     -1.545960      1.352450
  H      -0.207160     -3.334820     -1.799410
  H      -1.888200     -3.656040     -1.393680
  C      -0.602040     -3.695070      0.311150
  C       0.101830     -2.661580      1.167590
  H       0.040880     -4.578640      0.189280
  H      -1.511350     -4.008580      0.845630
  H       1.006220     -2.274930      0.671700
  C      -5.183210      0.946130      1.377280
  H      -4.095600      0.921090      1.546140
  H      -5.651490      0.484560      2.261720
  C       0.483610     -3.121120      2.563390
  H      -0.412160     -3.521020      3.068540
  H       0.792750     -2.224860      3.124370
  H      -5.320260     -3.271050     -2.273740
  C      -5.669420      2.384610      1.224680
  H      -6.748600      2.392560      0.988230
  H      -5.165470      2.860080      0.366360
  C       1.611730     -4.149020      2.582190
  H       1.298010     -5.064770      2.053250
  H       2.473590     -3.749800      2.019250
  C      -0.744810      5.053070      1.371200
  H      -1.777910      4.754710      1.624580
  H      -0.783320      5.441350      0.339600
  C       7.480180     -0.864100      0.417640
  H       7.002800     -1.856240      0.356690
  H       8.004660     -0.718670     -0.543260
  C       8.494210     -0.866450      1.556590
  H       9.248260     -1.655900      1.422500
  H       9.023510      0.097180      1.619480
  H       7.999770     -1.035500      2.525910
  C      -0.291620      6.168190      2.307350
  H       0.730500      6.496720      2.062530
  H      -0.952370      7.045240      2.240530
  H      -0.287250      5.829170      3.355130
  C      -5.412280      3.220320      2.474290
  H      -5.758050      4.256800      2.346100
  H      -5.930640      2.798110      3.349300
  H      -4.337170      3.249760      2.711650
  C       2.050780     -4.512910      3.996350
  H       1.214430     -4.936950      4.573930
  H       2.862760     -5.255090      3.988150
  H       2.411050     -3.625360      4.539570
104
Coordinates from ORCA-job orca E -2047.538785964147
  C       0.428338      0.609895     -1.290133
  C       0.940251      0.694918      0.160057
  O       1.756192     -0.099853      0.565849
  O       0.495424      1.615572      0.988660
  C      -0.707911      1.615527     -1.541594
  H      -1.640708      1.230492     -1.137941
  H      -0.841277      1.744685     -2.620118
  C      -0.399035      2.694060      0.650927
  H      -1.389526      2.366120      0.990355
  C      -0.437319      2.935760     -0.843512
  H      -1.236857      3.646914     -1.062075
  H       0.508176      3.383190     -1.161248
  C       0.031851     -0.870441     -1.576730
  H       0.888837     -1.468048     -1.276782
  H      -0.045467     -0.981234     -2.662984
  C       1.580332      0.991513     -2.294040
  C       3.090755      0.797217     -2.021774
  H       1.454645      2.050134     -2.522272
  H       1.360016      0.461458     -3.226487
  C       3.547627      1.699070     -0.870371
  C       3.541922     -0.680102     -1.885045
  C       3.787776      1.408939     -3.241850
  O       2.940706      2.686306     -0.545422
  O       4.729633      1.453483     -0.311512
  H       3.993916     -0.983487     -2.834136
  H       2.683273     -1.328132     -1.734259
  C       4.536583     -0.909103     -0.755576
  H       3.642002      2.484172     -3.368518
  H       3.610578      0.859604     -4.169825
  C       5.480394      0.265638     -0.611707
  H       5.108364     -1.820762     -0.939980
  H       4.001197     -1.029147      0.189241
  H       6.015876      0.438298     -1.557161
  C       0.064873      3.882659      1.472975
  H       1.079103      4.143820      1.153303
  H       0.139003      3.555254      2.514849
  C       6.494768      0.128999      0.509933
  H       5.954437     -0.052878      1.445657
  H       6.993074      1.097077      0.623936
  C      -3.914322     -1.687670     -1.665620
  C      -4.211607     -1.992851     -0.191789
  O      -3.755938     -2.969243      0.346944
  O      -5.060132     -1.230562      0.489945
  C      -4.838378     -0.570538     -2.173597
  H      -5.845826     -0.973964     -2.327950
  H      -4.488052     -0.231233     -3.152901
  C      -5.516946      0.083328      0.117629
  H      -6.599521     -0.027931     -0.026528
  C      -4.903105      0.572230     -1.180831
  H      -5.512323      1.391975     -1.567190
  H      -3.904556      0.969689     -0.982966
  C      -4.247541     -2.969525     -2.445034
  H      -3.624586     -3.808686     -2.143941
  H      -4.107953     -2.794449     -3.515236
  C      -2.435496     -1.244611     -1.927634
  C      -1.245989     -1.587203     -0.997654
  H      -2.448497     -0.166587     -2.056419
  H      -2.167751     -1.645473     -2.911593
  C      -1.482698     -1.063852      0.418921
  C      -0.942699     -3.112189     -1.022148
  O      -2.241891     -0.150260      0.646946
  O      -0.782548     -1.574674      1.414166
  H      -0.155357     -3.283305     -1.762501
  H      -1.818437     -3.649016     -1.372327
  C      -0.541677     -3.697838      0.330651
  C       0.134688     -2.668766      1.208946
  H       0.118015     -4.556652      0.192002
  H      -1.437115     -4.043836      0.852467
  H       1.028782     -2.254872      0.731022
  C      -5.249065      0.983590      1.313297
  H      -4.173553      0.957737      1.509114
  H      -5.738439      0.539946      2.186169
  C       0.512508     -3.149312      2.595980
  H      -0.372204     -3.578718      3.079563
  H       0.794689     -2.266235      3.177542
  H      -5.288424     -3.260469     -2.284098
  C      -5.722454      2.419400      1.129294
  H      -6.789609      2.433122      0.874811
  H      -5.201654      2.876477      0.281023
  C       1.662147     -4.148936      2.599306
  H       1.377045     -5.052069      2.049176
  H       2.514235     -3.718413      2.059854
  C      -0.860626      5.089502      1.379890
  H      -1.888461      4.781470      1.609104
  H      -0.878512      5.468154      0.352508
  C       7.535331     -0.959195      0.277012
  H       7.047749     -1.937702      0.218423
  H       8.016906     -0.801157     -0.695447
  C       8.594419     -0.992762      1.370469
  H       9.328303     -1.781082      1.190855
  H       9.132220     -0.042622      1.427766
  H       8.142936     -1.173866      2.349598
  C      -0.443599      6.213597      2.318318
  H       0.572647      6.550551      2.097116
  H      -1.108168      7.075792      2.230837
  H      -0.460355      5.883326      3.360397
  C      -5.476530      3.264169      2.371541
  H      -5.805791      4.295486      2.227790
  H      -6.009059      2.859976      3.236508
  H      -4.412072      3.282537      2.622538
  C       2.092505     -4.535383      4.007658
  H       1.265870     -4.989717      4.560617
  H       2.915875     -5.252562      3.991273
  H       2.423235     -3.659274      4.571761
104
Coordinates from ORCA-job orca E -2047.541395174008
  C       0.450942      0.598902     -1.359951
  C       1.003039      0.682273      0.071724
  O       1.842331     -0.103341      0.444973
  O       0.582134      1.600308      0.917219
  C      -0.686468      1.604245     -1.584661
  H      -1.608232      1.219051     -1.161791
  H      -0.843242      1.735541     -2.656100
  C      -0.329279      2.674607      0.600924
  H      -1.307290      2.339997      0.959634
  C      -0.398487      2.921207     -0.889943
  H      -1.199747      3.630476     -1.088673
  H       0.537251      3.367908     -1.227393
  C       0.041847     -0.877491     -1.637352
  H       0.889662     -1.482984     -1.342438
  H      -0.048587     -0.989880     -2.718802
  C       1.587542      0.980101     -2.375534
  C       3.093469      0.797008     -2.073231
  H       1.455443      2.031543     -2.616097
  H       1.377325      0.429626     -3.293908
  C       3.517202      1.739992     -0.945604
  C       3.532551     -0.674294     -1.877032
  C       3.797484      1.364655     -3.284254
  O       2.893087      2.729650     -0.667029
  O       4.680410      1.513985     -0.342373
  H       4.004531     -1.011300     -2.800036
  H       2.670064     -1.309792     -1.722972
  C       4.495466     -0.861928     -0.714771
  H       3.748289      2.436287     -3.447527
  H       3.771434      0.765280     -4.188659
  C       5.436732      0.315415     -0.595537
  H       5.067905     -1.776809     -0.852498
  H       3.938893     -0.948410      0.218837
  H       5.982489      0.459380     -1.535408
  C       0.144540      3.863064      1.414796
  H       1.145685      4.134228      1.074849
  H       0.243490      3.536611      2.450975
  C       6.430755      0.214553      0.546508
  H       5.876834      0.064268      1.475539
  H       6.929002      1.180947      0.637171
  C      -3.894673     -1.675081     -1.673229
  C      -4.129845     -2.008294     -0.198410
  O      -3.631115     -2.982161      0.305080
  O      -4.963638     -1.273304      0.531477
  C      -4.847307     -0.563392     -2.131453
  H      -5.849774     -0.978037     -2.259230
  H      -4.534082     -0.203279     -3.111929
  C      -5.456849      0.040148      0.192135
  H      -6.537315     -0.091569      0.084379
  C      -4.896160      0.559944     -1.117077
  H      -5.529474      1.372595     -1.467461
  H      -3.900919      0.970503     -0.946820
  C      -4.234571     -2.949539     -2.458170
  H      -3.593328     -3.781226     -2.188644
  H      -4.131247     -2.758383     -3.525988
  C      -2.432761     -1.217925     -1.965960
  C      -1.242786     -1.567907     -1.048145
  H      -2.451441     -0.142735     -2.089361
  H      -2.178799     -1.619870     -2.949424
  C      -1.467663     -1.021818      0.356994
  C      -0.985309     -3.099014     -1.052896
  O      -2.193493     -0.078503      0.564861
  O      -0.793035     -1.540755      1.366903
  H      -0.205286     -3.304104     -1.786707
  H      -1.876187     -3.609323     -1.398056
  C      -0.610867     -3.681661      0.307926
  C       0.092173     -2.666583      1.178566
  H       0.019826     -4.559303      0.182034
  H      -1.516891     -3.994205      0.826810
  H       0.999477     -2.286359      0.706141
  C      -5.166188      0.929554      1.390009
  H      -4.086808      0.935880      1.544931
  H      -5.607078      0.460621      2.270744
  C       0.440187     -3.145998      2.572616
  H      -0.457847     -3.547772      3.046693
  H       0.739049     -2.270852      3.150937
  H      -5.262419     -3.254674     -2.268148
  C      -5.695269      2.350752      1.247505
  H      -6.767125      2.329823      1.033688
  H      -5.224637      2.839196      0.392289
  C       1.563553     -4.173569      2.592839
  H       1.264470     -5.068438      2.044212
  H       2.430526     -3.766731      2.066542
  C      -0.793098      5.061022      1.343442
  H      -1.809154      4.746689      1.596763
  H      -0.837544      5.439222      0.320818
  C       7.470482     -0.883106      0.365791
  H       6.982781     -1.858401      0.332997
  H       7.967564     -0.759244     -0.599456
  C       8.509699     -0.880802      1.477739
  H       9.242030     -1.673589      1.338645
  H       9.046833      0.066469      1.510413
  H       8.042212     -1.026091      2.451073
  C      -0.360442      6.186428      2.272061
  H       0.644252      6.528822      2.026541
  H      -1.030436      7.041199      2.201516
  H      -0.349876      5.856307      3.310200
  C      -5.437306      3.182098      2.496542
  H      -5.809128      4.198749      2.383734
  H      -5.921875      2.744076      3.368345
  H      -4.370413      3.238284      2.710689
  C       1.962600     -4.564301      4.008507
  H       1.119720     -4.996057      4.547289
  H       2.766435     -5.298008      4.006985
  H       2.303500     -3.696917      4.572614
104
Coordinates from ORCA-job orca E -2047.543134665596
  C       0.427998      0.585725     -1.301863
  C       0.940863      0.643993      0.144728
  O       1.731566     -0.179781      0.541838
  O       0.515860      1.561703      0.990314
  C      -0.692722      1.605562     -1.541006
  H      -1.629608      1.229576     -1.140212
  H      -0.824541      1.748463     -2.615616
  C      -0.368621      2.656095      0.658394
  H      -1.360826      2.335497      0.990310
  C      -0.395858      2.913262     -0.831524
  H      -1.179580      3.639648     -1.044894
  H       0.557088      3.344506     -1.144632
  C       0.011979     -0.882583     -1.604431
  H       0.854374     -1.496359     -1.307342
  H      -0.070813     -0.982693     -2.688730
  C       1.587314      0.981167     -2.293079
  C       3.098231      0.780864     -1.993079
  H       1.466749      2.042250     -2.497970
  H       1.379164      0.464944     -3.232236
  C       3.510578      1.660751     -0.810902
  C       3.553732     -0.695352     -1.883933
  C       3.800409      1.423731     -3.151253
  O       2.871225      2.621582     -0.471734
  O       4.685224      1.421740     -0.235005
  H       4.009401     -0.975685     -2.834914
  H       2.702367     -1.349058     -1.743394
  C       4.552061     -0.928073     -0.758523
  H       3.813864      2.502395     -3.233169
  H       3.894896      0.861961     -4.071148
  C       5.466816      0.264611     -0.595917
  H       5.143553     -1.818755     -0.967570
  H       4.024751     -1.086208      0.182995
  H       5.969154      0.489196     -1.544772
  C       0.105816      3.829915      1.493171
  H       1.119300      4.090023      1.178105
  H       0.175345      3.494696      2.530122
  C       6.505416      0.119497      0.501375
  H       5.990809     -0.107679      1.438504
  H       6.982128      1.092621      0.637758
  C      -3.928259     -1.695733     -1.683710
  C      -4.200287     -2.001515     -0.209512
  O      -3.731066     -2.977341      0.318855
  O      -5.048481     -1.251610      0.489362
  C      -4.864388     -0.587473     -2.182402
  H      -5.867068     -0.999707     -2.324863
  H      -4.526086     -0.245832     -3.162523
  C      -5.524810      0.060985      0.114697
  H      -6.603944     -0.067094     -0.015787
  C      -4.928251      0.553924     -1.188786
  H      -5.548659      1.365024     -1.568671
  H      -3.933086      0.961277     -1.001600
  C      -4.262427     -2.981397     -2.454736
  H      -3.634898     -3.815630     -2.157151
  H      -4.133638     -2.808235     -3.524172
  C      -2.458778     -1.245809     -1.960210
  C      -1.274024     -1.578154     -1.027196
  H      -2.477122     -0.171270     -2.100547
  H      -2.192577     -1.662679     -2.935337
  C      -1.512304     -1.021722      0.370215
  C      -0.986120     -3.103574     -1.016125
  O      -2.253420     -0.087150      0.565717
  O      -0.822873     -1.510669      1.386118
  H      -0.205951     -3.299535     -1.754122
  H      -1.868063     -3.639040     -1.347824
  C      -0.580168     -3.658016      0.347799
  C       0.097962     -2.610434      1.200686
  H       0.078932     -4.516625      0.223918
  H      -1.470492     -3.995828      0.879644
  H       0.988787     -2.203171      0.716209
  C      -5.255056      0.967362      1.304555
  H      -4.178273      0.974878      1.481133
  H      -5.715214      0.513467      2.184740
  C       0.471847     -3.065568      2.596858
  H      -0.406861     -3.504653      3.076234
  H       0.735228     -2.175014      3.170912
  H      -5.298540     -3.273269     -2.281786
  C      -5.778719      2.388066      1.129322
  H      -6.849378      2.366303      0.904734
  H      -5.295989      2.860598      0.270490
  C       1.640877     -4.042626      2.617158
  H       1.382583     -4.951264      2.068173
  H       2.490034     -3.595703      2.092242
  C      -0.812315      5.043381      1.409339
  H      -1.839011      4.744105      1.641417
  H      -0.829346      5.428760      0.387369
  C       7.567443     -0.933851      0.211288
  H       7.105478     -1.920410      0.135086
  H       8.024290     -0.734090     -0.762321
  C       8.648806     -0.969339      1.283094
  H       9.397992     -1.730557      1.067106
  H       9.160726     -0.008850      1.355024
  H       8.222329     -1.188761      2.262795
  C      -0.379268      6.156902      2.353594
  H       0.636799      6.483945      2.129088
  H      -1.034453      7.024183      2.274281
  H      -0.395206      5.820262      3.390939
  C      -5.530834      3.239842      2.367819
  H      -5.897955      4.257182      2.233725
  H      -6.027111      2.817373      3.242320
  H      -4.464681      3.295462      2.592093
  C       2.054893     -4.414744      4.034619
  H       1.231125     -4.888230      4.570493
  H       2.894545     -5.109517      4.034678
  H       2.351724     -3.530962      4.600706
104
Coordinates from ORCA-job orca E -2047.542471138434
  C       0.428600      0.623750     -1.278014
  C       0.908903      0.760669      0.175403
  O       1.738208     -0.001877      0.616436
  O       0.450245      1.709362      0.968161
  C      -0.702721      1.613737     -1.596845
  H      -1.648171      1.235931     -1.212641
  H      -0.800835      1.710435     -2.683383
  C      -0.457604      2.762444      0.568071
  H      -1.448975      2.424862      0.890405
  C      -0.453692      2.956457     -0.932495
  H      -1.250500      3.656682     -1.195798
  H       0.497682      3.399218     -1.241148
  C       0.043737     -0.864149     -1.533217
  H       0.898617     -1.455502     -1.213843
  H      -0.023010     -0.990186     -2.618971
  C       1.604420      0.979581     -2.272280
  C       3.119510      0.760160     -1.971706
  H       1.500010      2.036626     -2.514122
  H       1.391526      0.433289     -3.196363
  C       3.577532      1.714177     -0.860246
  C       3.519773     -0.720782     -1.746723
  C       3.838291      1.284537     -3.177761
  O       2.990639      2.733486     -0.606537
  O       4.747591      1.473269     -0.273980
  H       3.946979     -1.098259     -2.680544
  H       2.642495     -1.325580     -1.536330
  C       4.530550     -0.899637     -0.619985
  H       3.938946      2.352000     -3.325687
  H       4.001692      0.628919     -4.023328
  C       5.487462      0.269754     -0.569731
  H       5.089804     -1.827049     -0.766449
  H       4.014160     -0.963531      0.341150
  H       5.965904      0.411756     -1.549398
  C      -0.037940      3.983442      1.365292
  H       0.975786      4.265149      1.059998
  H       0.019068      3.691633      2.419173
  C       6.553629      0.173891      0.507356
  H       6.058444      0.034811      1.475011
  H       7.066668      1.140213      0.555932
  C      -3.911910     -1.630950     -1.638748
  C      -4.232665     -1.968822     -0.179425
  O      -3.802842     -2.969467      0.337267
  O      -5.076923     -1.214286      0.519778
  C      -4.811145     -0.486963     -2.129075
  H      -5.822977     -0.871254     -2.304660
  H      -4.440736     -0.127782     -3.094509
  C      -5.508976      0.120980      0.168796
  H      -6.590808      0.025649      0.011509
  C      -4.868323      0.630630     -1.107364
  H      -5.461245      1.469093     -1.481020
  H      -3.865330      1.007640     -0.886673
  C      -4.263359     -2.885972     -2.455272
  H      -3.663975     -3.748138     -2.168775
  H      -4.105773     -2.684246     -3.519019
  C      -2.424522     -1.201978     -1.881609
  C      -1.237805     -1.588281     -0.966433
  H      -2.423421     -0.118597     -1.976999
  H      -2.160993     -1.579325     -2.876484
  C      -1.469206     -1.114229      0.464990
  C      -0.943303     -3.112318     -1.053287
  O      -2.228955     -0.208759      0.724769
  O      -0.798845     -1.683271      1.452622
  H      -0.158375     -3.256784     -1.802759
  H      -1.823420     -3.629468     -1.422452
  C      -0.539740     -3.757427      0.271805
  C       0.126027     -2.768978      1.201729
  H       0.129049     -4.602504      0.090846
  H      -1.431793     -4.140254      0.774080
  H       1.023017     -2.326557      0.757375
  C      -5.239164      0.984383      1.389759
  H      -4.163809      0.958077      1.585384
  H      -5.728584      0.517280      2.250893
  C       0.483961     -3.320372      2.568182
  H      -0.398113     -3.807706      2.999299
  H       0.725996     -2.469346      3.212774
  H      -5.313745     -3.154310     -2.312560
  C      -5.719096      2.424855      1.246816
  H      -6.792019      2.442142      1.017718
  H      -5.215378      2.904903      0.400501
  C       1.668690     -4.280535      2.536749
  H       1.436783     -5.147685      1.908382
  H       2.524149     -3.777937      2.069652
  C      -0.992317      5.164014      1.214630
  H      -2.016151      4.841743      1.442682
  H      -1.001747      5.507506      0.174486
  C       7.574151     -0.934679      0.271048
  H       7.078204     -1.910930      0.286108
  H       8.008958     -0.825641     -0.730045
  C       8.686825     -0.922972      1.312868
  H       9.406900     -1.726008      1.136528
  H       9.232070      0.025280      1.293974
  H       8.281851     -1.051294      2.320973
  C      -0.610730      6.329687      2.119630
  H       0.401779      6.679526      1.897849
  H      -1.292597      7.174633      1.992473
  H      -0.635582      6.034559      3.172729
  C      -5.446585      3.235750      2.508169
  H      -5.780526      4.271022      2.400263
  H      -5.960165      2.805111      3.372647
  H      -4.375920      3.248778      2.734708
  C       2.056912     -4.761637      3.930015
  H       1.227747     -5.294745      4.404639
  H       2.913075     -5.440386      3.894185
  H       2.322436     -3.919759      4.576055
104
Coordinates from ORCA-job orca E -2047.544393655840
  C       0.438692      0.616723     -1.277032
  C       0.962326      0.693473      0.166039
  O       1.786410     -0.101446      0.556252
  O       0.532518      1.611704      1.008922
  C      -0.686804      1.633839     -1.524290
  H      -1.624020      1.254472     -1.126525
  H      -0.815873      1.774587     -2.601521
  C      -0.375774      2.686657      0.677420
  H      -1.362545      2.342013      1.007483
  C      -0.404646      2.944812     -0.812897
  H      -1.197706      3.664133     -1.026806
  H       0.544240      3.387802     -1.124918
  C       0.028697     -0.857904     -1.569870
  H       0.876180     -1.467209     -1.270248
  H      -0.049217     -0.961061     -2.656444
  C       1.594246      0.993976     -2.282983
  C       3.111108      0.771208     -2.007459
  H       1.488344      2.055779     -2.497973
  H       1.367743      0.469077     -3.215478
  C       3.575711      1.704606     -0.879791
  C       3.517244     -0.712346     -1.811091
  C       3.818346      1.324025     -3.215793
  O       2.979651      2.708475     -0.589478
  O       4.746614      1.452438     -0.300032
  H       3.933049     -1.074552     -2.754910
  H       2.644471     -1.320985     -1.600502
  C       4.538231     -0.910774     -0.697357
  H       3.903893      2.396159     -3.348576
  H       3.977609      0.684205     -4.075596
  C       5.490576      0.261225     -0.627187
  H       5.098690     -1.832317     -0.865855
  H       4.029143     -0.995574      0.265300
  H       5.962040      0.427085     -1.605906
  C       0.070507      3.868865      1.517067
  H       1.077184      4.158203      1.199716
  H       0.151801      3.530029      2.554057
  C       6.564004      0.147203      0.439925
  H       6.076415     -0.016174      1.406604
  H       7.071113      1.114414      0.506857
  C      -3.916321     -1.689455     -1.676008
  C      -4.211011     -1.990262     -0.203513
  O      -3.738928     -2.956535      0.340582
  O      -5.063199     -1.233471      0.483120
  C      -4.848717     -0.583644     -2.191820
  H      -5.851346     -0.997514     -2.345199
  H      -4.497557     -0.245260     -3.170632
  C      -5.535157      0.077270      0.095825
  H      -6.615045     -0.051978     -0.044768
  C      -4.924678      0.562889     -1.204106
  H      -5.543342      1.372669     -1.595631
  H      -3.931003      0.972689     -1.007776
  C      -4.238551     -2.978782     -2.448786
  H      -3.613651     -3.813093     -2.139307
  H      -4.094324     -2.807970     -3.518641
  C      -2.442515     -1.234815     -1.937532
  C      -1.257499     -1.570934     -1.001966
  H      -2.464088     -0.158729     -2.069644
  H      -2.169403     -1.641559     -2.917165
  C      -1.507269     -1.042628      0.406974
  C      -0.959143     -3.095976     -1.020907
  O      -2.251292     -0.112131      0.616481
  O      -0.837199     -1.561080      1.421549
  H      -0.168583     -3.271454     -1.756047
  H      -1.835427     -3.629153     -1.374947
  C      -0.567181     -3.682301      0.334744
  C       0.090973     -2.653120      1.224649
  H       0.102700     -4.533200      0.197536
  H      -1.462645     -4.042076      0.846141
  H       0.988816     -2.229702      0.765102
  C      -5.276296      0.988382      1.284355
  H      -4.198422      1.003520      1.464691
  H      -5.737685      0.533741      2.166021
  C       0.445067     -3.141579      2.615426
  H      -0.437329     -3.608044      3.066079
  H       0.684975     -2.262471      3.220134
  H      -5.278682     -3.271525     -2.289281
  C      -5.806934      2.406265      1.102941
  H      -6.881145      2.378201      0.885892
  H      -5.330499      2.875985      0.236546
  C       1.628235     -4.103077      2.631653
  H       1.396169     -4.998119      2.045700
  H       2.483844     -3.625159      2.141735
  C      -0.879845      5.059194      1.443316
  H      -1.898420      4.731904      1.683001
  H      -0.914235      5.447573      0.420716
  C       7.589323     -0.948848      0.172178
  H       7.099939     -1.927366      0.168251
  H       8.015876     -0.814578     -0.828290
  C       8.708873     -0.953846      1.205740
  H       9.431891     -1.746949      1.006160
  H       9.247442     -0.002965      1.205424
  H       8.312363     -1.108193      2.212288
  C      -0.469491      6.181971      2.388037
  H       0.537615      6.537107      2.156136
  H      -1.149415      7.033233      2.316019
  H      -0.468565      5.841296      3.426348
  C      -5.553365      3.267276      2.334242
  H      -5.928357      4.283518      2.197225
  H      -6.040723      2.845959      3.216815
  H      -4.483325      3.330155      2.548786
  C       2.015823     -4.516783      4.045858
  H       1.187016     -5.023950      4.546137
  H       2.869888     -5.196950      4.042853
  H       2.283174     -3.646036      4.649464
104
Coordinates from ORCA-job orca E -2047.543250506590
  C       0.452536      0.564232     -1.381685
  C       0.934688      0.676399      0.073651
  O       1.726518     -0.124046      0.515354
  O       0.494717      1.626513      0.874739
  C      -0.655062      1.582968     -1.689409
  H      -1.607188      1.223664     -1.308304
  H      -0.751552      1.692711     -2.772229
  C      -0.392692      2.699287      0.486594
  H      -1.391722      2.375381      0.799016
  C      -0.377266      2.911488     -1.010652
  H      -1.153642      3.632628     -1.268502
  H       0.585311      3.332929     -1.308547
  C       0.024632     -0.908421     -1.643354
  H       0.856607     -1.526320     -1.325761
  H      -0.055280     -1.037863     -2.725738
  C       1.641168      0.915033     -2.353438
  C       3.144531      0.729782     -2.002635
  H       1.535524      1.969457     -2.599454
  H       1.461298      0.364415     -3.280048
  C       3.502587      1.653187     -0.828517
  C       3.600497     -0.739547     -1.810907
  C       3.897816      1.341823     -3.155342
  O       2.833539      2.608426     -0.533783
  O       4.647594      1.436452     -0.186240
  H       4.070197     -1.068923     -2.740199
  H       2.746768     -1.384502     -1.648051
  C       4.578021     -0.918858     -0.656107
  H       3.943543      2.418940     -3.261010
  H       4.158047      0.727564     -4.008289
  C       5.466673      0.295469     -0.509043
  H       5.188489     -1.807671     -0.818253
  H       4.029132     -1.052186      0.277699
  H       5.974641      0.512126     -1.458266
  C       0.043487      3.901989      1.301344
  H       1.060551      4.170788      1.002905
  H       0.093414      3.594503      2.348775
  C       6.492351      0.204039      0.605018
  H       5.968532     -0.007784      1.541677
  H       6.947265      1.191168      0.720201
  C      -3.934612     -1.613267     -1.666982
  C      -4.169438     -1.985044     -0.200865
  O      -3.693954     -2.988356      0.267578
  O      -4.992829     -1.262801      0.553943
  C      -4.865281     -0.467081     -2.088870
  H      -5.877316     -0.857875     -2.232069
  H      -4.541866     -0.078313     -3.057158
  C      -5.469313      0.068156      0.253659
  H      -6.552515     -0.049172      0.137680
  C      -4.894537      0.621402     -1.035338
  H      -5.514134      1.458042     -1.359549
  H      -3.890635      1.007672     -0.848313
  C      -4.309028     -2.857511     -2.487190
  H      -3.689279     -3.714964     -2.241529
  H      -4.201737     -2.638402     -3.551278
  C      -2.463631     -1.177918     -1.956664
  C      -1.275424     -1.566741     -1.050715
  H      -2.462767     -0.098117     -2.059051
  H      -2.220923     -1.567332     -2.950070
  C      -1.471334     -1.018120      0.358341
  C      -1.055833     -3.104433     -1.064124
  O      -2.159695     -0.047518      0.573556
  O      -0.800962     -1.558062      1.360768
  H      -0.294928     -3.326812     -1.815655
  H      -1.966681     -3.593637     -1.391830
  C      -0.662879     -3.697855      0.287997
  C       0.067426     -2.694692      1.150789
  H      -0.040600     -4.581645      0.144839
  H      -1.562423     -4.006297      0.823552
  H       0.971087     -2.320780      0.662605
  C      -5.173614      0.913546      1.481535
  H      -4.090996      0.926369      1.626073
  H      -5.601901      0.407177      2.350038
  C       0.437599     -3.187070      2.535449
  H      -0.451693     -3.604765      3.016764
  H       0.737762     -2.315970      3.122437
  H      -5.346449     -3.140128     -2.302626
  C      -5.719605      2.334441      1.398586
  H      -6.798714      2.307568      1.214097
  H      -5.275921      2.856674      0.546452
  C       1.571042     -4.205832      2.527222
  H       1.276902     -5.093164      1.959875
  H       2.432476     -3.777011      2.005533
  C      -0.890008      5.099310      1.165418
  H      -1.916884      4.790880      1.388469
  H      -0.894017      5.454660      0.131582
  C       7.581012     -0.834062      0.361088
  H       7.141018     -1.833183      0.309968
  H       8.046279     -0.653637     -0.613258
  C       8.649607     -0.813084      1.446232
  H       9.417870     -1.564650      1.262966
  H       9.140305      0.160696      1.494823
  H       8.214907     -1.012308      2.427456
  C      -0.491696      6.246909      2.084109
  H       0.523759      6.583780      1.867904
  H      -1.159126      7.101329      1.967600
  H      -0.521281      5.940071      3.131160
  C      -5.437262      3.127454      2.668281
  H      -5.828779      4.143035      2.601460
  H      -5.890598      2.650577      3.539066
  H      -4.363398      3.194124      2.853224
  C       1.982756     -4.622850      3.932891
  H       1.147719     -5.081647      4.465698
  H       2.800727     -5.343628      3.911364
  H       2.312379     -3.760998      4.515824
104
Coordinates from ORCA-job orca E -2047.544752864825
  C       0.432611      0.573005     -1.316776
  C       0.948852      0.651704      0.128950
  O       1.753580     -0.156848      0.531553
  O       0.533299      1.586756      0.960195
  C      -0.681217      1.598656     -1.576529
  H      -1.624505      1.232629     -1.179550
  H      -0.803884      1.731519     -2.654799
  C      -0.361118      2.668973      0.616376
  H      -1.352224      2.340351      0.947733
  C      -0.383936      2.912317     -0.876549
  H      -1.165852      3.640143     -1.099364
  H       0.571585      3.339288     -1.190356
  C       0.007801     -0.896417     -1.604795
  H       0.848260     -1.514738     -1.306559
  H      -0.076327     -1.002236     -2.690012
  C       1.598810      0.938926     -2.311144
  C       3.110322      0.741484     -2.000418
  H       1.489489      1.995889     -2.546587
  H       1.395863      0.394943     -3.237516
  C       3.526642      1.693324     -0.868258
  C       3.538932     -0.730954     -1.775984
  C       3.838990      1.297954     -3.193856
  O       2.901356      2.684983     -0.598958
  O       4.688334      1.471106     -0.258410
  H       3.969822     -1.101938     -2.709069
  H       2.674588     -1.349111     -1.563533
  C       4.548903     -0.895783     -0.646814
  H       3.909275      2.369227     -3.334512
  H       4.082837      0.647034     -4.023540
  C       5.469851      0.300938     -0.571077
  H       5.133211     -1.804696     -0.797803
  H       4.027434     -0.983724      0.308619
  H       5.948155      0.474291     -1.544791
  C       0.098205      3.853926      1.444587
  H       1.107814      4.128639      1.124866
  H       0.175479      3.524182      2.484192
  C       6.532458      0.221800      0.509024
  H       6.037169      0.055942      1.470796
  H       7.015731      1.200713      0.573211
  C      -3.945303     -1.661400     -1.675923
  C      -4.219494     -1.981636     -0.203655
  O      -3.759647     -2.968192      0.313552
  O      -5.056186     -1.229155      0.505717
  C      -4.867021     -0.532407     -2.159387
  H      -5.876818     -0.928263     -2.309171
  H      -4.522265     -0.180183     -3.134930
  C      -5.519997      0.092016      0.147148
  H      -6.601729     -0.024535      0.013170
  C      -4.915731      0.595244     -1.148750
  H      -5.526301      1.420883     -1.517480
  H      -3.914296      0.986174     -0.954524
  C      -4.299165     -2.932778     -2.463826
  H      -3.684170     -3.781320     -2.176163
  H      -4.167177     -2.747835     -3.532273
  C      -2.468809     -1.226599     -1.949900
  C      -1.283196     -1.587723     -1.026566
  H      -2.474877     -0.148359     -2.071627
  H      -2.210957     -1.628973     -2.934867
  C      -1.511107     -1.052877      0.383491
  C      -1.011260     -3.117289     -1.047307
  O      -2.245559     -0.116337      0.599198
  O      -0.839982     -1.581187      1.391675
  H      -0.234765     -3.307253     -1.792863
  H      -1.900726     -3.636344     -1.387435
  C      -0.609082     -3.706077      0.304169
  C       0.072940     -2.683016      1.183462
  H       0.048649     -4.564571      0.160288
  H      -1.501729     -4.053905      0.827661
  H       0.968253     -2.270524      0.709867
  C      -5.243816      0.979122      1.349488
  H      -4.164163      0.988563      1.516156
  H      -5.694703      0.508479      2.227394
  C       0.443971     -3.173195      2.568865
  H      -0.434457     -3.631826      3.033942
  H       0.700524     -2.295906      3.168303
  H      -5.341044     -3.211143     -2.294328
  C      -5.773416      2.401021      1.202134
  H      -6.849998      2.378340      0.999612
  H      -5.308495      2.885580      0.338384
  C       1.618654     -4.144645      2.567036
  H       1.369735     -5.037335      1.985453
  H       2.469777     -3.674418      2.063135
  C      -0.837525      5.054526      1.358904
  H      -1.858735      4.742069      1.604206
  H      -0.869683      5.431130      0.332442
  C       7.585782     -0.852462      0.264493
  H       7.119356     -1.841524      0.265418
  H       8.020098     -0.718792     -0.732116
  C       8.693354     -0.820740      1.309980
  H       9.435773     -1.599046      1.127521
  H       9.210136      0.141436      1.305145
  H       8.289265     -0.972936      2.313210
  C      -0.412587      6.183214      2.289521
  H       0.597420      6.524157      2.051813
  H      -1.082624      7.040684      2.208974
  H      -0.413329      5.854845      3.331157
  C      -5.502539      3.238826      2.445350
  H      -5.880277      4.256381      2.333065
  H      -5.976596      2.800786      3.326305
  H      -4.430280      3.299097      2.645660
  C       2.026198     -4.560550      3.974564
  H       1.202697     -5.060770      4.489092
  H       2.874700     -5.246436      3.957872
  H       2.310144     -3.691924      4.572590
104
Coordinates from ORCA-job orca E -2047.544466687532
  C       0.454004      0.632389     -1.251595
  C       0.972318      0.715958      0.194073
  O       1.800690     -0.071583      0.590411
  O       0.536712      1.636286      1.031313
  C      -0.681476      1.637604     -1.503533
  H      -1.616675      1.247667     -1.109264
  H      -0.807887      1.775374     -2.581339
  C      -0.387410      2.696367      0.697406
  H      -1.369618      2.337045      1.025574
  C      -0.416574      2.952467     -0.793128
  H      -1.217141      3.662700     -1.009568
  H       0.527967      3.405723     -1.103342
  C       0.052957     -0.842732     -1.546518
  H       0.899674     -1.451783     -1.243261
  H      -0.018698     -0.945241     -2.633486
  C       1.609326      1.014644     -2.255075
  C       3.124830      0.777376     -1.989129
  H       1.512646      2.080413     -2.455222
  H       1.377470      0.507002     -3.195683
  C       3.594896      1.671811     -0.830457
  C       3.525944     -0.712185     -1.837993
  C       3.836142      1.367911     -3.176223
  O       2.997825      2.661429     -0.496883
  O       4.766750      1.396934     -0.262660
  H       3.914768     -1.055042     -2.800512
  H       2.653866     -1.318525     -1.618641
  C       4.569817     -0.946388     -0.752292
  H       3.924235      2.442577     -3.275930
  H       4.076944      0.741619     -4.025539
  C       5.515904      0.229261     -0.654244
  H       5.130710     -1.858791     -0.962907
  H       4.078036     -1.067459      0.215672
  H       5.964594      0.438701     -1.635412
  C       0.038787      3.885928      1.536835
  H       1.040258      4.192538      1.218852
  H       0.126439      3.548159      2.573658
  C       6.612533      0.083226      0.384277
  H       6.146338     -0.114667      1.355118
  H       7.117772      1.049635      0.473513
  C      -3.883543     -1.682966     -1.690543
  C      -4.184513     -1.990327     -0.220549
  O      -3.696510     -2.946460      0.327436
  O      -5.047264     -1.242806      0.462507
  C      -4.821678     -0.584278     -2.211239
  H      -5.818801     -1.006902     -2.376170
  H      -4.464288     -0.238684     -3.185259
  C      -5.534571      0.061071      0.072883
  H      -6.611221     -0.082836     -0.078714
  C      -4.918338      0.557735     -1.220191
  H      -5.542242      1.362203     -1.614319
  H      -3.930657      0.977148     -1.013575
  C      -4.185805     -2.973760     -2.468309
  H      -3.554475     -3.801911     -2.154640
  H      -4.034271     -2.799654     -3.536611
  C      -2.411489     -1.216515     -1.936011
  C      -1.238318     -1.551616     -0.987080
  H      -2.437448     -0.139072     -2.062900
  H      -2.124989     -1.617356     -2.914203
  C      -1.504310     -1.012671      0.415307
  C      -0.948725     -3.078282     -0.994279
  O      -2.239716     -0.071482      0.606964
  O      -0.856038     -1.532655      1.442755
  H      -0.150284     -3.263100     -1.718431
  H      -1.824379     -3.607415     -1.356653
  C      -0.579907     -3.660018      0.369965
  C       0.069311     -2.629489      1.265159
  H       0.088768     -4.514075      0.247399
  H      -1.484729     -4.013461      0.869544
  H       0.975714     -2.213063      0.816570
  C      -5.300887      0.974436      1.264739
  H      -4.224272      1.012469      1.449897
  H      -5.756244      0.507753      2.143160
  C       0.403171     -3.112464      2.662666
  H      -0.484230     -3.580146      3.102343
  H       0.631731     -2.230482      3.267526
  H      -5.224044     -3.277970     -2.318040
  C      -5.860313      2.381107      1.083428
  H      -6.933411      2.330169      0.865044
  H      -5.392724      2.860708      0.217634
  C       1.588557     -4.070493      2.699259
  H       1.368779     -4.966433      2.109879
  H       2.450445     -3.590110      2.222755
  C      -0.931127      5.060187      1.463670
  H      -1.943044      4.716334      1.708271
  H      -0.976235      5.444953      0.440115
  C       7.635419     -0.999198      0.058514
  H       7.149733     -1.979289      0.036110
  H       8.037327     -0.832340     -0.947300
  C       8.779606     -1.030320      1.064134
  H       9.499883     -1.814714      0.824254
  H       9.315314     -0.077953      1.079053
  H       8.407722     -1.215541      2.074902
  C      -0.536615      6.192431      2.403621
  H       0.463222      6.564535      2.166815
  H      -1.231572      7.031486      2.332055
  H      -0.525579      5.854755      3.442877
  C      -5.627117      3.247179      2.315051
  H      -6.026815      4.254063      2.178842
  H      -6.104203      2.813773      3.197429
  H      -4.558945      3.335897      2.529606
  C       1.955205     -4.481966      4.119501
  H       1.121351     -4.993275      4.607017
  H       2.813082     -5.157257      4.130564
  H       2.208282     -3.609556      4.726954
104
Coordinates from ORCA-job orca E -2047.544883875414
  C       0.443592      0.589833     -1.300400
  C       0.951795      0.671478      0.148719
  O       1.755442     -0.134769      0.558131
  O       0.527765      1.605350      0.976775
  C      -0.672230      1.612558     -1.566825
  H      -1.616947      1.242179     -1.177478
  H      -0.787568      1.746001     -2.646126
  C      -0.373495      2.680434      0.629356
  H      -1.364625      2.342608      0.952549
  C      -0.387060      2.926743     -0.863018
  H      -1.171482      3.650980     -1.090067
  H       0.568519      3.359218     -1.169001
  C       0.021342     -0.880312     -1.590123
  H       0.862101     -1.499065     -1.292160
  H      -0.060422     -0.984571     -2.675882
  C       1.612355      0.954604     -2.293450
  C       3.124096      0.742135     -1.992341
  H       1.511065      2.014097     -2.522024
  H       1.402780      0.420271     -3.224144
  C       3.560358      1.688123     -0.861751
  C       3.539193     -0.734805     -1.772768
  C       3.851445      1.294160     -3.188784
  O       2.946059      2.683743     -0.581956
  O       4.723953      1.451131     -0.260696
  H       3.946814     -1.113252     -2.713560
  H       2.671022     -1.341222     -1.541700
  C       4.567026     -0.911458     -0.661023
  H       3.924923      2.364932     -3.332204
  H       4.131264      0.636090     -4.001180
  C       5.495643      0.280143     -0.592951
  H       5.143030     -1.823656     -0.824783
  H       4.059914     -1.000020      0.302283
  H       5.958955      0.457016     -1.573471
  C       0.069728      3.867249      1.463699
  H       1.078939      4.152098      1.150868
  H       0.143658      3.535030      2.503034
  C       6.575312      0.190377      0.469141
  H       6.094682      0.025956      1.438859
  H       7.066877      1.165792      0.527669
  C      -3.929654     -1.658736     -1.679616
  C      -4.210653     -1.981043     -0.208918
  O      -3.739152     -2.959182      0.313901
  O      -5.054426     -1.232775      0.496328
  C      -4.857019     -0.537125     -2.169628
  H      -5.862909     -0.940943     -2.326133
  H      -4.508499     -0.182474     -3.143255
  C      -5.528259      0.083330      0.133328
  H      -6.608414     -0.042909     -0.006761
  C      -4.921438      0.590722     -1.159933
  H      -5.537327      1.410857     -1.532813
  H      -3.924576      0.990747     -0.960362
  C      -4.268243     -2.933150     -2.469194
  H      -3.647895     -3.776686     -2.177061
  H      -4.130859     -2.747621     -3.537133
  C      -2.454127     -1.214041     -1.943955
  C      -1.271761     -1.572570     -1.014995
  H      -2.464934     -0.135547     -2.062887
  H      -2.188746     -1.612400     -2.928768
  C      -1.507323     -1.037405      0.394359
  C      -1.003065     -3.102803     -1.033674
  O      -2.231562     -0.091575      0.604354
  O      -0.844707     -1.568254      1.406693
  H      -0.222468     -3.295057     -1.774631
  H      -1.892299     -3.619264     -1.379455
  C      -0.612505     -3.693600      0.320504
  C       0.065968     -2.672921      1.205245
  H       0.044386     -4.553816      0.181293
  H      -1.510204     -4.039218      0.837351
  H       0.966195     -2.263875      0.738289
  C      -5.267006      0.974796      1.335926
  H      -4.187819      0.996958      1.506732
  H      -5.715757      0.499650      2.212787
  C       0.426012     -3.164351      2.593150
  H      -0.455865     -3.623917      3.051366
  H       0.677686     -2.287231      3.195333
  H      -5.309110     -3.220135     -2.306197
  C      -5.812057      2.390500      1.184724
  H      -6.888230      2.355240      0.980430
  H      -5.350974      2.878297      0.320434
  C       1.601015     -4.135494      2.599385
  H       1.357510     -5.026777      2.012849
  H       2.456544     -3.663462      2.104194
  C      -0.876346      5.059554      1.375547
  H      -1.896028      4.737290      1.615777
  H      -0.907366      5.437387      0.349229
  C       7.616632     -0.891002      0.204944
  H       7.143489     -1.877069      0.214921
  H       8.032937     -0.760327     -0.800022
  C       8.744226     -0.866261      1.229064
  H       9.477518     -1.650357      1.033370
  H       9.267968      0.092325      1.213356
  H       8.358174     -1.014617      2.240237
  C      -0.466184      6.190767      2.309762
  H       0.541893      6.541677      2.077160
  H      -1.144062      7.042230      2.227399
  H      -0.468572      5.860814      3.351187
  C      -5.552606      3.234115      2.426480
  H      -5.943544      4.246738      2.312076
  H      -6.021721      2.791660      3.308221
  H      -4.481067      3.308575      2.627369
  C       1.996450     -4.555207      4.009259
  H       1.169020     -5.058222      4.515249
  H       2.846396     -5.239868      3.998113
  H       2.273911     -3.687760      4.612532
104
Coordinates from ORCA-job orca E -2047.544693981325
  C       0.429556      0.567187     -1.298266
  C       0.953302      0.645469      0.145383
  O       1.770037     -0.154586      0.540649
  O       0.553874      1.590292      0.973253
  C      -0.686986      1.591992     -1.551191
  H      -1.627092      1.226678     -1.146722
  H      -0.817222      1.722277     -2.628947
  C      -0.347048      2.668472      0.635650
  H      -1.334193      2.338300      0.977130
  C      -0.384264      2.907617     -0.857572
  H      -1.168162      3.634900     -1.075208
  H       0.568522      3.333678     -1.181056
  C       0.006441     -0.901846     -1.593383
  H       0.847733     -1.522380     -1.302058
  H      -0.078063     -1.000002     -2.679264
  C       1.591583      0.941408     -2.292812
  C       3.102842      0.746269     -1.984361
  H       1.480854      2.000318     -2.519284
  H       1.389246      0.406323     -3.224513
  C       3.508112      1.679449     -0.831687
  C       3.541712     -0.725995     -1.782999
  C       3.832312      1.333822     -3.162880
  O       2.866976      2.652967     -0.535085
  O       4.670272      1.454769     -0.222977
  H       3.956800     -1.085608     -2.727665
  H       2.683535     -1.348922     -1.561063
  C       4.568672     -0.901079     -0.669974
  H       3.878002      2.407851     -3.291940
  H       4.161677      0.693789     -3.970792
  C       5.470521      0.309167     -0.573979
  H       5.164497     -1.797601     -0.846966
  H       4.058948     -1.017837      0.289008
  H       5.934760      0.515227     -1.548152
  C       0.116825      3.856958      1.456226
  H       1.121506      4.135360      1.124120
  H       0.207853      3.529090      2.495352
  C       6.546716      0.222986      0.491741
  H       6.065197      0.031448      1.455812
  H       7.017165      1.207157      0.570065
  C      -3.945497     -1.671049     -1.677028
  C      -4.222329     -1.979359     -0.202488
  O      -3.764637     -2.962443      0.323102
  O      -5.057531     -1.219165      0.499897
  C      -4.863408     -0.543588     -2.170793
  H      -5.873722     -0.938085     -2.320973
  H      -4.515096     -0.198828     -3.147784
  C      -5.521294      0.098046      0.129536
  H      -6.602600     -0.019553     -0.007884
  C      -4.912622      0.591279     -1.168208
  H      -5.520605      1.415439     -1.544415
  H      -3.910932      0.981516     -0.973683
  C      -4.300687     -2.947235     -2.456351
  H      -3.688757     -3.795268     -2.160872
  H      -4.165439     -2.770775     -3.525851
  C      -2.467512     -1.240786     -1.949977
  C      -1.285226     -1.598643     -1.020523
  H      -2.471343     -0.163327     -2.077011
  H      -2.207785     -1.648367     -2.932293
  C      -1.525989     -1.066917      0.389215
  C      -1.009483     -3.127625     -1.042622
  O      -2.269152     -0.136391      0.601434
  O      -0.868351     -1.600901      1.402895
  H      -0.227422     -3.314170     -1.783214
  H      -1.895511     -3.647351     -1.390422
  C      -0.617410     -3.720405      0.310148
  C       0.050985     -2.697680      1.200135
  H       0.046359     -4.574811      0.169517
  H      -1.513452     -4.074748      0.823380
  H       0.948991     -2.280344      0.736597
  C      -5.250398      0.995003      1.325825
  H      -4.170893      1.009524      1.494425
  H      -5.700989      0.528980      2.206334
  C       0.411971     -3.190910      2.587058
  H      -0.466481     -3.660013      3.041707
  H       0.654211     -2.313760      3.192668
  H      -5.343787     -3.221748     -2.287704
  C      -5.784643      2.413850      1.166452
  H      -6.861211      2.385238      0.964423
  H      -5.321718      2.892153      0.298141
  C       1.595551     -4.151380      2.592480
  H       1.361449     -5.042338      2.002021
  H       2.447709     -3.669919      2.100987
  C      -0.824703      5.053439      1.379567
  H      -1.840961      4.737486      1.640759
  H      -0.873524      5.425787      0.352175
  C       7.611825     -0.831238      0.213706
  H       7.159947     -1.827001      0.205650
  H       8.028398     -0.675125     -0.787294
  C       8.735285     -0.799273      1.241974
  H       9.485637     -1.564064      1.036181
  H       9.238364      0.170165      1.243910
  H       8.349380     -0.972481      2.249000
  C      -0.391619      6.187559      2.299588
  H       0.613181      6.532570      2.046033
  H      -1.066963      7.041488      2.225633
  H      -0.375556      5.863260      3.342422
  C      -5.517036      3.263879      2.401992
  H      -5.902299      4.277754      2.281934
  H      -5.986602      2.830191      3.287560
  H      -4.444908      3.333531      2.599946
  C       1.991840     -4.572691      4.001468
  H       1.168404     -5.085188      4.503939
  H       2.848088     -5.249049      3.989593
  H       2.259901     -3.705132      4.608420
104
Coordinates from ORCA-job orca E -2047.544960663271
  C       0.442815      0.578337     -1.300518
  C       0.955175      0.658584      0.147298
  O       1.761705     -0.146494      0.553275
  O       0.538258      1.595884      0.975022
  C      -0.672590      1.602292     -1.563978
  H      -1.616777      1.232593     -1.172607
  H      -0.790135      1.735743     -2.642935
  C      -0.365804      2.669454      0.631431
  H      -1.355336      2.330383      0.957665
  C      -0.384540      2.916154     -0.860888
  H      -1.169155      3.640840     -1.085213
  H       0.570324      3.348027     -1.169864
  C       0.017518     -0.890100     -1.592880
  H       0.856876     -1.512393     -1.298546
  H      -0.065845     -0.991023     -2.678732
  C       1.611179      0.943057     -2.292604
  C       3.121479      0.734128     -1.985803
  H       1.509194      2.002076     -2.522733
  H       1.405050      0.407663     -3.223402
  C       3.548055      1.679357     -0.850426
  C       3.540739     -0.740682     -1.763860
  C       3.853744      1.292192     -3.176843
  O       2.928119      2.671340     -0.570532
  O       4.712682      1.448523     -0.248659
  H       3.940549     -1.122323     -2.706612
  H       2.675435     -1.346786     -1.522442
  C       4.576350     -0.912393     -0.658121
  H       3.909122      2.363138     -3.326383
  H       4.183922      0.633507     -3.969282
  C       5.494708      0.287292     -0.589218
  H       5.158654     -1.819451     -0.826895
  H       4.074608     -1.007410      0.307478
  H       5.952358      0.472155     -1.570835
  C       0.078438      3.856589      1.464762
  H       1.085595      4.143857      1.147829
  H       0.157735      3.523471      2.503314
  C       6.579948      0.203498      0.467539
  H       6.105122      0.034914      1.439314
  H       7.064980      1.182159      0.524922
  C      -3.935391     -1.655970     -1.684447
  C      -4.216551     -1.977126     -0.213441
  O      -3.753437     -2.960404      0.307108
  O      -5.057463     -1.225991      0.491881
  C      -4.856058     -0.528482     -2.173190
  H      -5.864006     -0.926309     -2.331163
  H      -4.504944     -0.174245     -3.145921
  C      -5.526884      0.091386      0.129507
  H      -6.607011     -0.031118     -0.013765
  C      -4.915219      0.598060     -1.161737
  H      -5.525811      1.422235     -1.534036
  H      -3.916308      0.991802     -0.959830
  C      -4.282731     -2.927698     -2.474443
  H      -3.668159     -3.775493     -2.183048
  H      -4.144530     -2.742754     -3.542271
  C      -2.457678     -1.219332     -1.949591
  C      -1.277264     -1.579343     -1.018440
  H      -2.463614     -0.141119     -2.071653
  H      -2.193625     -1.621808     -2.932974
  C      -1.514828     -1.040639      0.389184
  C      -1.010856     -3.110025     -1.033856
  O      -2.243951     -0.097981      0.596373
  O      -0.857182     -1.572208      1.404110
  H      -0.230664     -3.304901     -1.774420
  H      -1.900771     -3.625792     -1.378386
  C      -0.621246     -3.698771      0.321463
  C       0.054889     -2.675722      1.205302
  H       0.037015     -4.558167      0.184435
  H      -1.519100     -4.044665      0.837559
  H       0.954609     -2.266438      0.737802
  C      -5.266620      0.980838      1.333825
  H      -4.187824      1.001196      1.506918
  H      -5.717629      0.504921      2.208962
  C       0.415670     -3.164033      2.594065
  H      -0.464646     -3.625768      3.052909
  H       0.664173     -2.285107      3.194757
  H      -5.325361     -3.207784     -2.311362
  C      -5.809757      2.397322      1.183243
  H      -6.885412      2.363032      0.976596
  H      -5.346520      2.885430      0.320418
  C       1.593731     -4.131321      2.602135
  H       1.353270     -5.023998      2.016616
  H       2.447772     -3.657281      2.106444
  C      -0.870523      5.046819      1.381896
  H      -1.888036      4.722237      1.627724
  H      -0.908258      5.424442      0.355827
  C       7.627370     -0.870335      0.197219
  H       7.161548     -1.859708      0.211343
  H       8.035585     -0.737633     -0.810718
  C       8.761949     -0.836184      1.213194
  H       9.499277     -1.615307      1.013469
  H       9.278761      0.125932      1.192585
  H       8.384209     -0.985914      2.227198
  C      -0.457956      6.178945      2.313772
  H       0.547763      6.532545      2.075587
  H      -1.138461      7.028547      2.235362
  H      -0.453529      5.849019      3.355093
  C      -5.552894      3.239629      2.426376
  H      -5.945062      4.251740      2.312681
  H      -6.022759      2.795683      3.306849
  H      -4.481939      3.315452      2.629067
  C       1.990422     -4.547688      4.012512
  H       1.164996     -5.052883      4.519372
  H       2.842874     -5.229073      4.002434
  H       2.264736     -3.678464      4.614509
104
Coordinates from ORCA-job orca E -2047.544963620034
  C       0.441399      0.579954     -1.297786
  C       0.948073      0.662149      0.152242
  O       1.746055     -0.147524      0.565959
  O       0.531758      1.603929      0.975185
  C      -0.670225      1.606552     -1.567493
  H      -1.616710      1.241231     -1.178095
  H      -0.783805      1.737062     -2.647332
  C      -0.367432      2.679476      0.625355
  H      -1.359422      2.344973      0.949038
  C      -0.380101      2.921705     -0.867770
  H      -1.161481      3.648424     -1.097120
  H       0.577392      3.349277     -1.174721
  C       0.013946     -0.888301     -1.590482
  H       0.853755     -1.511786     -1.299537
  H      -0.071241     -0.987352     -2.676432
  C       1.612684      0.940926     -2.288569
  C       3.122956      0.732820     -1.980971
  H       1.511284      1.999227     -2.522771
  H       1.407516      0.402959     -3.218149
  C       3.552382      1.686331     -0.853129
  C       3.541120     -0.740690     -1.750272
  C       3.854911      1.282961     -3.175747
  O       2.929082      2.676108     -0.572914
  O       4.714691      1.455472     -0.246573
  H       3.936287     -1.129630     -2.692093
  H       2.675766     -1.343531     -1.501113
  C       4.579550     -0.907149     -0.646031
  H       3.898916      2.352416     -3.339268
  H       4.210923      0.617623     -3.951180
  C       5.497199      0.293459     -0.582368
  H       5.162149     -1.814551     -0.812195
  H       4.079682     -0.998536      0.320991
  H       5.954905      0.474478     -1.564710
  C       0.078184      3.867531      1.456668
  H       1.087589      4.150100      1.142317
  H       0.152710      3.537218      2.496549
  C       6.582778      0.214657      0.474460
  H       6.108162      0.052302      1.447472
  H       7.068840      1.193229      0.525945
  C      -3.939566     -1.656105     -1.675037
  C      -4.219119     -1.975674     -0.203336
  O      -3.745563     -2.951634      0.321605
  O      -5.056977     -1.222267      0.503168
  C      -4.864343     -0.532535     -2.165215
  H      -5.871643     -0.933400     -2.320191
  H      -4.516010     -0.180131     -3.139694
  C      -5.530467      0.092701      0.137686
  H      -6.610881     -0.032456     -0.001773
  C      -4.924105      0.596923     -1.157103
  H      -5.538083      1.418288     -1.530289
  H      -3.925799      0.994176     -0.959297
  C      -4.282266     -2.930552     -2.462542
  H      -3.663143     -3.775102     -2.170534
  H      -4.146278     -2.746712     -3.530931
  C      -2.463165     -1.215739     -1.941581
  C      -1.280144     -1.579389     -1.014952
  H      -2.470779     -0.137149     -2.059304
  H      -2.200868     -1.613609     -2.927376
  C      -1.514380     -1.049568      0.396916
  C      -1.016527     -3.110418     -1.039946
  O      -2.238041     -0.104352      0.611641
  O      -0.854149     -1.587765      1.406663
  H      -0.238635     -3.302401     -1.783764
  H      -1.908701     -3.622203     -1.385293
  C      -0.625050     -3.708258      0.310917
  C       0.055345     -2.691756      1.198986
  H       0.031314     -4.568110      0.167306
  H      -1.522525     -4.055416      0.827068
  H       0.954483     -2.281755      0.731207
  C      -5.268226      0.986626      1.338243
  H      -4.188824      1.009642      1.507788
  H      -5.715422      0.512559      2.216446
  C       0.419264     -3.188801      2.583818
  H      -0.460423     -3.652065      3.042510
  H       0.670760     -2.313734      3.189024
  H      -5.323412     -3.215271     -2.297534
  C      -5.814404      2.401576      1.184693
  H      -6.890752      2.364720      0.981703
  H      -5.354835      2.887532      0.318608
  C       1.595891     -4.157895      2.582647
  H       1.352498     -5.046386      1.991837
  H       2.449434     -3.681928      2.087811
  C      -0.866161      5.060918      1.366725
  H      -1.885653      4.740842      1.610575
  H      -0.899460      5.435032      0.339136
  C       7.628969     -0.861845      0.209899
  H       7.162349     -1.850777      0.231885
  H       8.035421     -0.736623     -0.799797
  C       8.765510     -0.821345      1.223461
  H       9.501770     -1.602684      1.028057
  H       9.283234      0.140163      1.194869
  H       8.389581     -0.963371      2.239330
  C      -0.452421      6.194893      2.295851
  H       0.555292      6.544240      2.059470
  H      -1.129809      7.046605      2.212388
  H      -0.452262      5.868639      3.338423
  C      -5.554671      3.248501      2.424029
  H      -5.949377      4.259503      2.308438
  H      -6.020442      2.806520      3.307764
  H      -4.483029      3.327058      2.622544
  C       1.995519     -4.584143      3.989242
  H       1.170637     -5.091521      4.494975
  H       2.847048     -5.266686      3.972506
  H       2.272658     -3.719244      4.596297
104
Coordinates from ORCA-job orca E -2047.545004496262
  C       0.443968      0.577481     -1.293852
  C       0.952227      0.659962      0.155768
  O       1.753537     -0.147060      0.568146
  O       0.536944      1.602406      0.978517
  C      -0.670139      1.601968     -1.561604
  H      -1.615226      1.234356     -1.170778
  H      -0.785645      1.732166     -2.641260
  C      -0.366323      2.674986      0.630806
  H      -1.356805      2.337373      0.955996
  C      -0.382286      2.917710     -0.862234
  H      -1.165989      3.642364     -1.090073
  H       0.573504      3.347862     -1.170676
  C       0.017276     -0.890648     -1.587491
  H       0.856763     -1.515006     -1.297370
  H      -0.067650     -0.988508     -2.673561
  C       1.613576      0.940309     -2.285784
  C       3.123823      0.731921     -1.980193
  H       1.511618      1.998925     -2.518357
  H       1.407478      0.404154     -3.216181
  C       3.553319      1.682003     -0.849155
  C       3.542708     -0.741591     -1.753651
  C       3.855549      1.287277     -3.172850
  O       2.931098      2.671722     -0.566614
  O       4.717395      1.450743     -0.245977
  H       3.931127     -1.129829     -2.698524
  H       2.678637     -1.343919     -1.499213
  C       4.587077     -0.910191     -0.655059
  H       3.882542      2.356412     -3.342159
  H       4.243790      0.624524     -3.934781
  C       5.501868      0.292625     -0.589444
  H       5.171084     -1.815410     -0.827631
  H       4.091865     -1.006732      0.313931
  H       5.956028      0.478895     -1.572416
  C       0.077018      3.864170      1.461730
  H       1.084945      4.149950      1.145544
  H       0.154650      3.533614      2.501290
  C       6.591460      0.212255      0.463118
  H       6.120713      0.046979      1.437493
  H       7.076559      1.191258      0.515292
  C      -3.936810     -1.654017     -1.681561
  C      -4.221028     -1.975667     -0.211154
  O      -3.758652     -2.958734      0.310427
  O      -5.059995     -1.222236      0.493905
  C      -4.856411     -0.526243     -2.171740
  H      -5.864423     -0.923461     -2.331285
  H      -4.503715     -0.172284     -3.144080
  C      -5.529470      0.094366      0.129976
  H      -6.609471     -0.028169     -0.014989
  C      -4.916228      0.600635     -1.160727
  H      -5.525931      1.425124     -1.533934
  H      -3.917343      0.993810     -0.957659
  C      -4.282243     -2.925538     -2.472657
  H      -3.667198     -3.773073     -2.180937
  H      -4.142803     -2.740043     -3.540288
  C      -2.458435     -1.217248     -1.944048
  C      -1.278034     -1.580282     -1.013495
  H      -2.463930     -0.138860     -2.063721
  H      -2.193941     -1.617254     -2.928373
  C      -1.515387     -1.046130      0.396174
  C      -1.015350     -3.111564     -1.033957
  O      -2.237075     -0.098288      0.605759
  O      -0.859470     -1.583054      1.409347
  H      -0.235556     -3.305949     -1.775134
  H      -1.906887     -3.623369     -1.380503
  C      -0.628510     -3.706592      0.319519
  C       0.049639     -2.688203      1.207188
  H       0.027987     -4.567001      0.180108
  H      -1.527820     -4.052037      0.833554
  H       0.950316     -2.280244      0.740756
  C      -5.271460      0.984774      1.334123
  H      -4.192672      1.007096      1.507974
  H      -5.722083      0.508048      2.209099
  C       0.409538     -3.181723      2.594292
  H      -0.471464     -3.643489      3.051931
  H       0.659608     -2.305066      3.197755
  H      -5.324884     -3.206672     -2.311070
  C      -5.817407      2.400055      1.182552
  H      -6.892553      2.363127      0.973377
  H      -5.353417      2.889179      0.320649
  C       1.585771     -4.151245      2.598874
  H       1.343580     -5.041104      2.009656
  H       2.440816     -3.676963      2.105053
  C      -0.871272      5.054526      1.374001
  H      -1.889119      4.731178      1.620320
  H      -0.908352      5.428359      0.346455
  C       7.637851     -0.862324      0.191757
  H       7.172765     -1.851921      0.215002
  H       8.038697     -0.735311     -0.819949
  C       8.779724     -0.821368      1.199227
  H       9.515951     -1.601496      0.999051
  H       9.295997      0.140841      1.168961
  H       8.409516     -0.965081      2.216938
  C      -0.459049      6.189950      2.301975
  H       0.546836      6.542769      2.063081
  H      -1.139559      7.039304      2.220175
  H      -0.455125      5.863827      3.344559
  C      -5.565795      3.243136      2.426188
  H      -5.961923      4.253711      2.311945
  H      -6.035513      2.797299      3.305864
  H      -4.495501      3.323290      2.630931
  C       1.981521     -4.573998      4.007570
  H       1.155187     -5.079672      4.512589
  H       2.832820     -5.256881      3.994855
  H       2.257467     -3.707643      4.613062
104
Coordinates from ORCA-job orca E -2047.545025482896
  C       0.446291      0.575168     -1.292195
  C       0.954481      0.654966      0.157513
  O       1.753399     -0.154413      0.569802
  O       0.541781      1.598617      0.980284
  C      -0.667334      1.600519     -1.558950
  H      -1.612571      1.232356     -1.168899
  H      -0.782397      1.731721     -2.638483
  C      -0.362807      2.670469      0.634834
  H      -1.352814      2.331615      0.959898
  C      -0.379989      2.915437     -0.857925
  H      -1.164341      3.639715     -1.084343
  H       0.575203      3.346799     -1.166210
  C       0.017558     -0.891417     -1.588550
  H       0.855943     -1.518388     -1.300750
  H      -0.067766     -0.986542     -2.674778
  C       1.616970      0.937770     -2.282340
  C       3.125704      0.727377     -1.974088
  H       1.516369      1.996657     -2.514003
  H       1.411886      0.403380     -3.213896
  C       3.551944      1.672256     -0.836985
  C       3.544282     -0.745922     -1.750868
  C       3.862022      1.290108     -3.160523
  O       2.932825      2.664164     -0.555853
  O       4.719525      1.442857     -0.239674
  H       3.921965     -1.135169     -2.699530
  H       2.681788     -1.346360     -1.487026
  C       4.598094     -0.915987     -0.661064
  H       3.855541      2.357166     -3.344260
  H       4.312175      0.633954     -3.893301
  C       5.507676      0.290889     -0.593615
  H       5.184863     -1.817433     -0.842924
  H       4.110615     -1.020063      0.311024
  H       5.956487      0.484518     -1.577534
  C       0.079737      3.858962      1.467236
  H       1.087129      4.146081      1.150770
  H       0.158550      3.526855      2.506140
  C       6.603415      0.209788      0.452537
  H       6.138727      0.040553      1.429058
  H       7.086309      1.189813      0.504908
  C      -3.935623     -1.653210     -1.687936
  C      -4.218188     -1.976495     -0.217588
  O      -3.754300     -2.959575      0.302565
  O      -5.055155     -1.223134      0.489832
  C      -4.854671     -0.524190     -2.176066
  H      -5.862744     -0.920707     -2.336498
  H      -4.501891     -0.168647     -3.147731
  C      -5.527891      0.092136      0.126568
  H      -6.607379     -0.032802     -0.019866
  C      -4.914524      0.600944     -1.163066
  H      -5.524038      1.426075     -1.534895
  H      -3.915646      0.993615     -0.959016
  C      -4.282182     -2.923533     -2.480297
  H      -3.667662     -3.771755     -2.189913
  H      -4.143074     -2.736987     -3.547719
  C      -2.457201     -1.217286     -1.949932
  C      -1.279121     -1.578838     -1.016013
  H      -2.462118     -0.139075     -2.071734
  H      -2.191312     -1.619707     -2.932821
  C      -1.520733     -1.040175      0.391204
  C      -1.017665     -3.110382     -1.031561
  O      -2.250724     -0.097857      0.596632
  O      -0.872101     -1.577181      1.408884
  H      -0.236061     -3.307363     -1.770018
  H      -1.908635     -3.622138     -1.379344
  C      -0.635407     -3.702464      0.324481
  C       0.038689     -2.681481      1.212301
  H       0.022281     -4.562534      0.189371
  H      -1.536362     -4.047533      0.835765
  H       0.940175     -2.273677      0.747340
  C      -5.274218      0.982522      1.331712
  H      -4.195727      1.009103      1.506579
  H      -5.723494      0.502885      2.205709
  C       0.394956     -3.171165      2.601673
  H      -0.486750     -3.632786      3.057956
  H       0.642011     -2.292606      3.203490
  H      -5.324865     -3.204229     -2.318713
  C      -5.826706      2.395319      1.180743
  H      -6.900732      2.352916      0.967188
  H      -5.362084      2.888274      0.321440
  C       1.572205     -4.139327      2.612397
  H       1.332605     -5.030997      2.024976
  H       2.428086     -3.665658      2.119609
  C      -0.869889      5.048301      1.381876
  H      -1.886974      4.723564      1.629278
  H      -0.908945      5.422801      0.354719
  C       7.650865     -0.861238      0.171611
  H       7.189038     -1.852192      0.198145
  H       8.042540     -0.732364     -0.843401
  C       8.801230     -0.817449      1.169142
  H       9.537902     -1.595296      0.962215
  H       9.314415      0.146196      1.135018
  H       8.440412     -0.962874      2.189904
  C      -0.457868      6.183510      2.310094
  H       0.547067      6.538021      2.070038
  H      -1.139714      7.031870      2.230024
  H      -0.451869      5.856648      3.352366
  C      -5.585383      3.237938      2.426694
  H      -5.988443      4.245721      2.312692
  H      -6.055176      2.787351      3.303825
  H      -4.516646      3.325738      2.635791
  C       1.964542     -4.557598      4.023304
  H       1.137476     -5.062510      4.527737
  H       2.816487     -5.239621      4.014884
  H       2.238083     -3.689271      4.626952
104
Coordinates from ORCA-job orca E -2047.545056394630
  C       0.446942      0.569218     -1.287916
  C       0.959318      0.648345      0.160252
  O       1.761482     -0.159475      0.569252
  O       0.549158      1.592096      0.984284
  C      -0.667927      1.594196     -1.551324
  H      -1.611999      1.224812     -1.159547
  H      -0.785474      1.726005     -2.630540
  C      -0.358894      2.662081      0.642736
  H      -1.347311      2.320614      0.969940
  C      -0.380669      2.908823     -0.849732
  H      -1.166934      3.631960     -1.073222
  H       0.572946      3.342175     -1.160166
  C       0.016931     -0.897001     -1.583989
  H       0.855150     -1.525245     -1.298126
  H      -0.069898     -0.991117     -2.670225
  C       1.614821      0.931945     -2.281071
  C       3.124046      0.724174     -1.975384
  H       1.511949      1.990193     -2.514677
  H       1.408672      0.395555     -3.211253
  C       3.551483      1.673352     -0.841610
  C       3.544499     -0.747588     -1.748422
  C       3.857884      1.286746     -3.163252
  O       2.927372      2.660916     -0.556463
  O       4.718989      1.445450     -0.243270
  H       3.915538     -1.140972     -2.697990
  H       2.683478     -1.346531     -1.476178
  C       4.604003     -0.913928     -0.663183
  H       3.820744      2.349771     -3.365933
  H       4.352830      0.635047     -3.870615
  C       5.509892      0.295868     -0.597570
  H       5.193212     -1.813232     -0.847705
  H       4.121098     -1.020094      0.310958
  H       5.957573      0.490541     -1.581755
  C       0.083036      3.850660      1.475423
  H       1.088935      4.140421      1.156605
  H       0.165464      3.517425      2.513707
  C       6.607252      0.218187      0.447272
  H       6.144270      0.049825      1.424767
  H       7.088547      1.199147      0.497322
  C      -3.938273     -1.650807     -1.685263
  C      -4.226834     -1.969617     -0.215005
  O      -3.769576     -2.953951      0.308598
  O      -5.063830     -1.212036      0.487805
  C      -4.853112     -0.520977     -2.179431
  H      -5.861496     -0.915714     -2.342514
  H      -4.496149     -0.168747     -3.150796
  C      -5.533544      0.102548      0.118860
  H      -6.612661     -0.021111     -0.031696
  C      -4.914293      0.606920     -1.169644
  H      -5.520672      1.432418     -1.545830
  H      -3.915380      0.997963     -0.962794
  C      -4.285662     -2.922073     -2.475691
  H      -3.674104     -3.771169     -2.181601
  H      -4.142918     -2.738369     -3.543152
  C      -2.457846     -1.218970     -1.944874
  C      -1.280296     -1.582899     -1.010699
  H      -2.459984     -0.140770     -2.067308
  H      -2.192057     -1.622113     -2.927499
  C      -1.520427     -1.044948      0.397125
  C      -1.020958     -3.114825     -1.027223
  O      -2.244229     -0.098001      0.603270
  O      -0.869889     -1.582333      1.413334
  H      -0.240729     -3.312440     -1.766983
  H      -1.913137     -3.625242     -1.373805
  C      -0.637024     -3.707796      0.327927
  C       0.039509     -2.687339      1.214556
  H       0.019899     -4.568250      0.191414
  H      -1.537326     -4.052374      0.840546
  H       0.940046     -2.280265      0.747174
  C      -5.283546      0.995981      1.322455
  H      -4.205855      1.020533      1.502249
  H      -5.737958      0.520007      2.195839
  C       0.398722     -3.177181      2.603116
  H      -0.482410     -3.637631      3.061736
  H       0.648257     -2.298709      3.204081
  H      -5.329536     -3.199845     -2.316608
  C      -5.831856      2.409511      1.164228
  H      -6.904747      2.369085      0.944463
  H      -5.360985      2.898782      0.306187
  C       1.574776     -4.146807      2.611259
  H       1.332431     -5.038490      2.024945
  H       2.429975     -3.674555      2.115906
  C      -0.869703      5.037750      1.394057
  H      -1.885287      4.710247      1.644124
  H      -0.912754      5.413086      0.367343
  C       7.656089     -0.851472      0.166278
  H       7.196406     -1.843305      0.197604
  H       8.043942     -0.725062     -0.850547
  C       8.809841     -0.802161      1.159608
  H       9.547350     -1.579224      0.952578
  H       9.320986      0.162405      1.120620
  H       8.453008     -0.945100      2.182145
  C      -0.457817      6.173133      2.322105
  H       0.545469      6.530540      2.079356
  H      -1.142155      7.019787      2.244915
  H      -0.447795      5.845326      3.364076
  C      -5.595533      3.255214      2.408932
  H      -5.995603      4.263610      2.289663
  H      -6.071363      2.808328      3.284733
  H      -4.527737      3.341056      2.623866
  C       1.970340     -4.564787      4.021344
  H       1.143920     -5.068180      4.528398
  H       2.821267     -5.248090      4.011039
  H       2.246812     -3.696483      4.623737
104
Coordinates from ORCA-job orca E -2047.545090814412
  C       0.448609      0.569589     -1.286090
  C       0.959145      0.650149      0.162676
  O       1.759824     -0.157726      0.574417
  O       0.550881      1.597350      0.983829
  C      -0.664674      1.595698     -1.552237
  H      -1.609475      1.228569     -1.160574
  H      -0.780936      1.725382     -2.631895
  C      -0.356614      2.666856      0.639795
  H      -1.345626      2.326169      0.966185
  C      -0.376574      2.911357     -0.853127
  H      -1.162205      3.634626     -1.078698
  H       0.577774      3.343278     -1.163471
  C       0.017361     -0.896911     -1.581814
  H       0.855624     -1.525831     -1.297153
  H      -0.069415     -0.990309     -2.668163
  C       1.616926      0.930049     -2.279877
  C       3.126060      0.722058     -1.976214
  H       1.513723      1.987802     -2.515915
  H       1.409893      0.392115     -3.208984
  C       3.557933      1.677197     -0.847627
  C       3.545026     -0.748379     -1.743181
  C       3.859241      1.282201     -3.164864
  O       2.932042      2.663015     -0.560725
  O       4.724724      1.448388     -0.247740
  H       3.905337     -1.149169     -2.693844
  H       2.684306     -1.341994     -1.458578
  C       4.611890     -0.912150     -0.664174
  H       3.765723      2.333841     -3.405248
  H       4.440705      0.645849     -3.818034
  C       5.516017      0.299116     -0.600730
  H       5.202375     -1.809856     -0.852546
  H       4.135110     -1.020243      0.312767
  H       5.964285      0.493341     -1.584607
  C       0.084554      3.856660      1.471211
  H       1.091142      4.145309      1.153476
  H       0.165233      3.525129      2.510235
  C       6.613991      0.223149      0.443803
  H       6.151500      0.058168      1.422126
  H       7.096469      1.203739      0.490628
  C      -3.938861     -1.649353     -1.685531
  C      -4.227974     -1.970801     -0.215913
  O      -3.776638     -2.959762      0.304093
  O      -5.061738     -1.211993      0.489453
  C      -4.851338     -0.516598     -2.177320
  H      -5.860540     -0.908913     -2.341581
  H      -4.493472     -0.162902     -3.147876
  C      -5.531530      0.102719      0.121712
  H      -6.610438     -0.020952     -0.030867
  C      -4.910464      0.609142     -1.165026
  H      -5.514887      1.436846     -1.539604
  H      -3.910733      0.997488     -0.956579
  C      -4.288505     -2.918090     -2.479141
  H      -3.678440     -3.769088     -2.187331
  H      -4.145480     -2.731941     -3.546189
  C      -2.457720     -1.218881     -1.944000
  C      -1.280492     -1.583598     -1.009337
  H      -2.459232     -0.140753     -2.066161
  H      -2.191639     -1.621980     -2.926603
  C      -1.522994     -1.048691      0.399349
  C      -1.022051     -3.115768     -1.028023
  O      -2.242838     -0.098846      0.605908
  O      -0.873486     -1.587878      1.415375
  H      -0.240752     -3.312555     -1.766924
  H      -1.914069     -3.624719     -1.377106
  C      -0.641015     -3.711845      0.326666
  C       0.035115     -2.693489      1.215970
  H       0.015523     -4.572559      0.189581
  H      -1.542476     -4.056699      0.837138
  H       0.936358     -2.286867      0.749943
  C      -5.284337      0.994571      1.327136
  H      -4.206725      1.021674      1.507895
  H      -5.738113      0.515477      2.199196
  C       0.391933     -3.185636      2.604321
  H      -0.490549     -3.645434      3.061085
  H       0.641787     -2.308223      3.206793
  H      -5.332909     -3.194485     -2.320783
  C      -5.837460      2.406537      1.171153
  H      -6.908791      2.362221      0.944355
  H      -5.363432      2.901146      0.317874
  C       1.566631     -4.156905      2.613044
  H       1.323922     -5.047517      2.025173
  H       2.423365     -3.685218      2.119706
  C      -0.867567      5.043956      1.386189
  H      -1.883647      4.717332      1.635587
  H      -0.909137      5.417160      0.358584
  C       7.661261     -0.848582      0.164638
  H       7.200960     -1.839932      0.202884
  H       8.045366     -0.727756     -0.854351
  C       8.818759     -0.795163      1.153367
  H       9.554837     -1.573960      0.947493
  H       9.330594      0.168790      1.107559
  H       8.465825     -0.932709      2.178048
  C      -0.456488      6.181148      2.312389
  H       0.547213      6.537847      2.070101
  H      -1.140576      7.027832      2.232578
  H      -0.447842      5.855528      3.355107
  C      -5.613605      3.248819      2.420532
  H      -6.018896      4.255329      2.302522
  H      -6.092361      2.795814      3.291652
  H      -4.547760      3.340355      2.642727
  C       1.959143     -4.577359      4.023263
  H       1.131025     -5.080217      4.528185
  H       2.809028     -5.262045      4.013539
  H       2.235860     -3.710276      4.627377
104
Coordinates from ORCA-job orca E -2047.545033495453
  C       0.450643      0.563699     -1.284790
  C       0.964574      0.643467      0.162722
  O       1.763793     -0.166288      0.573548
  O       0.560801      1.592489      0.984258
  C      -0.662100      1.591068     -1.548339
  H      -1.606422      1.225284     -1.154270
  H      -0.780685      1.720387     -2.627794
  C      -0.347652      2.661820      0.642477
  H      -1.336015      2.321018      0.970664
  C      -0.370831      2.906612     -0.850410
  H      -1.156737      3.630177     -1.074158
  H       0.583108      3.337756     -1.163201
  C       0.016208     -0.902277     -1.579797
  H       0.854279     -1.532977     -1.298388
  H      -0.073862     -0.994739     -2.665964
  C       1.616488      0.923434     -2.281528
  C       3.125611      0.718779     -1.981133
  H       1.510493      1.980557     -2.519379
  H       1.408479      0.383432     -3.209190
  C       3.557165      1.678738     -0.854007
  C       3.548580     -0.748782     -1.744534
  C       3.858148      1.284094     -3.166236
  O       2.928856      2.663242     -0.568490
  O       4.724822      1.453276     -0.253904
  H       3.897894     -1.154388     -2.697301
  H       2.690424     -1.339462     -1.446985
  C       4.624073     -0.908309     -0.672666
  H       3.671422      2.307874     -3.464984
  H       4.578267      0.701472     -3.723698
  C       5.521317      0.307988     -0.606773
  H       5.220194     -1.800721     -0.868377
  H       4.154504     -1.024317      0.306864
  H       5.972114      0.506042     -1.588412
  C       0.095089      3.851471      1.473301
  H       1.101177      4.140030      1.153847
  H       0.177570      3.519861      2.512182
  C       6.618027      0.235076      0.439575
  H       6.154627      0.069124      1.417266
  H       7.098036      1.216876      0.486724
  C      -3.942310     -1.647758     -1.678170
  C      -4.234105     -1.965075     -0.208100
  O      -3.783531     -2.952370      0.315782
  O      -5.063330     -1.200523      0.496507
  C      -4.853268     -0.515705     -2.174515
  H      -5.862653     -0.907668     -2.338806
  H      -4.493988     -0.165439     -3.145795
  C      -5.535782      0.111038      0.121320
  H      -6.614097     -0.015710     -0.033456
  C      -4.912673      0.613252     -1.165901
  H      -5.516057      1.440246     -1.543801
  H      -3.912973      1.001489     -0.957206
  C      -4.291617     -2.918174     -2.469158
  H      -3.681797     -3.768698     -2.175124
  H      -4.147787     -2.734305     -3.536505
  C      -2.460199     -1.219186     -1.936723
  C      -1.281648     -1.586788     -1.004383
  H      -2.460233     -0.141012     -2.058345
  H      -2.195662     -1.621893     -2.919904
  C      -1.520073     -1.053041      0.405520
  C      -1.027535     -3.119807     -1.025524
  O      -2.234158     -0.099395      0.614570
  O      -0.870945     -1.596065      1.419962
  H      -0.247506     -3.317681     -1.765482
  H      -1.921458     -3.625369     -1.374854
  C      -0.647172     -3.719560      0.327776
  C       0.033470     -2.704781      1.217644
  H       0.006553     -4.582083      0.188403
  H      -1.549128     -4.062571      0.838617
  H       0.935073     -2.300871      0.750364
  C      -5.294291      1.008924      1.323336
  H      -4.217258      1.040261      1.506933
  H      -5.748892      0.532188      2.196301
  C       0.390335     -3.199930      2.604883
  H      -0.493564     -3.656553      3.062115
  H       0.644542     -2.324251      3.208080
  H      -5.336169     -3.194092     -2.310898
  C      -5.852151      2.418051      1.159175
  H      -6.921110      2.368328      0.922320
  H      -5.372383      2.912853      0.309194
  C       1.561116     -4.175933      2.611208
  H       1.314080     -5.065114      2.022951
  H       2.419183     -3.707228      2.117301
  C      -0.857195      5.038758      1.390012
  H      -1.872777      4.712144      1.641519
  H      -0.900779      5.411793      0.362417
  C       7.668159     -0.834179      0.161296
  H       7.210968     -1.826802      0.203907
  H       8.049273     -0.715389     -0.859096
  C       8.827964     -0.774508      1.146929
  H       9.565785     -1.551757      0.941317
  H       9.336846      0.190828      1.097122
  H       8.478228     -0.910330      2.172948
  C      -0.444193      6.176135      2.315167
  H       0.558910      6.532953      2.070535
  H      -1.128615      7.022701      2.236720
  H      -0.433208      5.850672      3.357923
  C      -5.644317      3.264414      2.408521
  H      -6.053530      4.268583      2.284125
  H      -6.129174      2.811009      3.276079
  H      -4.581141      3.361959      2.640855
  C       1.953444     -4.599164      4.020684
  H       1.123746     -5.099161      4.525897
  H       2.800459     -5.287406      4.009489
  H       2.234231     -3.733757      4.625332
104
Coordinates from ORCA-job orca E -2047.545132900830
  C       0.449323      0.570751     -1.289389
  C       0.964043      0.650420      0.157803
  O       1.763627     -0.159761      0.567230
  O       0.556431      1.595274      0.982102
  C      -0.664957      1.596628     -1.551482
  H      -1.608722      1.229453     -1.157201
  H      -0.784455      1.727326     -2.630641
  C      -0.350645      2.666296      0.640465
  H      -1.339144      2.326357      0.969021
  C      -0.373940      2.911673     -0.852222
  H      -1.159812      3.635453     -1.075291
  H       0.579882      3.343140     -1.164866
  C       0.018232     -0.896337     -1.582944
  H       0.857120     -1.523709     -1.297034
  H      -0.069824     -0.992133     -2.668942
  C       1.613962      0.933179     -2.286561
  C       3.123866      0.727142     -1.989326
  H       1.508296      1.991276     -2.520030
  H       1.404145      0.396118     -3.215531
  C       3.557074      1.681321     -0.858817
  C       3.547704     -0.742677     -1.761700
  C       3.853193      1.294239     -3.175782
  O       2.932559      2.668457     -0.573542
  O       4.723897      1.452330     -0.258928
  H       3.912185     -1.137659     -2.713263
  H       2.687338     -1.339174     -1.482643
  C       4.610984     -0.909116     -0.679466
  H       3.706279      2.332577     -3.445121
  H       4.508688      0.684102     -3.781901
  C       5.515294      0.301367     -0.607115
  H       5.203541     -1.805078     -0.870017
  H       4.131248     -1.022631      0.295332
  H       5.973075      0.496793     -1.586024
  C       0.093812      3.855037      1.471549
  H       1.100208      4.142563      1.152199
  H       0.175695      3.523221      2.510381
  C       6.604200      0.221499      0.446737
  H       6.133106      0.053191      1.420326
  H       7.086880      1.201574      0.501057
  C      -3.937618     -1.651558     -1.677895
  C      -4.224559     -1.969516     -0.207144
  O      -3.765599     -2.952875      0.316915
  O      -5.056287     -1.208828      0.498824
  C      -4.853823     -0.522873     -2.172319
  H      -5.862202     -0.918527     -2.333641
  H      -4.498281     -0.171639     -3.144589
  C      -5.532237      0.102426      0.125509
  H      -6.610756     -0.026759     -0.025305
  C      -4.914464      0.606083     -1.163737
  H      -5.521876      1.430778     -1.540190
  H      -3.915584      0.998042     -0.958128
  C      -4.284079     -2.923679     -2.467455
  H      -3.670750     -3.771854     -2.174009
  H      -4.143034     -2.739851     -3.535156
  C      -2.457700     -1.218293     -1.939130
  C      -1.278198     -1.582837     -1.007529
  H      -2.460879     -0.140048     -2.060509
  H      -2.193164     -1.620442     -2.922535
  C      -1.516600     -1.047865      0.401784
  C      -1.019801     -3.115076     -1.027279
  O      -2.238107     -0.099818      0.610820
  O      -0.865880     -1.588079      1.416785
  H      -0.238805     -3.311504     -1.766586
  H      -1.911966     -3.623866     -1.376542
  C      -0.638062     -3.712053      0.326786
  C       0.040793     -2.695406      1.215823
  H       0.016826     -4.573831      0.188324
  H      -1.539353     -4.055890      0.838328
  H       0.942301     -2.289814      0.749472
  C      -5.287944      1.000373      1.326866
  H      -4.210420      1.032892      1.506995
  H      -5.739407      0.523416      2.201302
  C       0.397176     -3.189369      2.603634
  H      -0.486511     -3.647155      3.060049
  H       0.649615     -2.313230      3.206856
  H      -5.327332     -3.203007     -2.306821
  C      -5.847202      2.409243      1.164921
  H      -6.917483      2.359278      0.934367
  H      -5.372389      2.903830      0.312067
  C       1.569574     -4.163454      2.611291
  H       1.324667     -5.053377      2.023323
  H       2.427223     -3.693394      2.117999
  C      -0.856774      5.043823      1.388614
  H      -1.873061      4.718488      1.638728
  H      -0.898600      5.418268      0.361488
  C       7.653145     -0.850028      0.172725
  H       7.191796     -1.841158      0.203134
  H       8.046466     -0.725559     -0.842291
  C       8.801706     -0.801700      1.172129
  H       9.539082     -1.580100      0.969448
  H       9.314542      0.162098      1.135096
  H       8.439409     -0.943403      2.192950
  C      -0.442814      6.179383      2.315639
  H       0.561250      6.534488      2.072575
  H      -1.125470      7.027349      2.237366
  H      -0.433720      5.852588      3.357967
  C      -5.631824      3.255973      2.412811
  H      -6.039809      4.260801      2.290019
  H      -6.112883      2.803752      3.283051
  H      -4.567243      3.351632      2.639359
  C       1.961382     -4.585376      4.021360
  H       1.132059     -5.086745      4.525772
  H       2.809645     -5.272051      4.011212
  H       2.239919     -3.719217      4.625912
104
Coordinates from ORCA-job orca E -2047.545121828601
  C       0.444796      0.576968     -1.293910
  C       0.958106      0.655651      0.153711
  O       1.762656     -0.151282      0.560035
  O       0.547881      1.597679      0.979661
  C      -0.669515      1.602662     -1.556582
  H      -1.613867      1.235121     -1.164123
  H      -0.787696      1.735098     -2.635663
  C      -0.356284      2.671394      0.637174
  H      -1.345484      2.333709      0.965941
  C      -0.378606      2.916901     -0.855404
  H      -1.163536      3.641691     -1.078469
  H       0.575635      3.348044     -1.167140
  C       0.017198     -0.890958     -1.586793
  H       0.856450     -1.515004     -1.294955
  H      -0.067203     -0.990205     -2.672733
  C       1.611035      0.940917     -2.288160
  C       3.120626      0.730763     -1.988603
  H       1.508393      2.000129     -2.517328
  H       1.401530      0.407384     -3.219237
  C       3.552727      1.677722     -0.853090
  C       3.542601     -0.741831     -1.767586
  C       3.852351      1.299081     -3.174004
  O       2.932987      2.668838     -0.570400
  O       4.719978      1.447103     -0.255871
  H       3.924716     -1.127458     -2.715874
  H       2.679446     -1.344124     -1.509500
  C       4.591932     -0.913828     -0.673885
  H       3.768256      2.354422     -3.400897
  H       4.412707      0.660843     -3.843404
  C       5.504803      0.289962     -0.600501
  H       5.178962     -1.815241     -0.855840
  H       4.101497     -1.019905      0.296318
  H       5.965383      0.480718     -1.579425
  C       0.091287      3.859004      1.468105
  H       1.098526      4.143825      1.149004
  H       0.171795      3.527270      2.507037
  C       6.589850      0.204785      0.456805
  H       6.114679      0.035610      1.428296
  H       7.074943      1.183408      0.515052
  C      -3.935983     -1.655221     -1.680864
  C      -4.217922     -1.974886     -0.209675
  O      -3.753152     -2.956403      0.312711
  O      -5.052930     -1.219112      0.497667
  C      -4.856394     -0.528626     -2.172168
  H      -5.864061     -0.926904     -2.331119
  H      -4.504157     -0.175550     -3.144946
  C      -5.530356      0.093078      0.128390
  H      -6.609275     -0.036632     -0.018549
  C      -4.917424      0.599155     -1.162243
  H      -5.528076      1.422566     -1.536253
  H      -3.919064      0.993697     -0.959159
  C      -4.280950     -2.927983     -2.470110
  H      -3.665242     -3.774734     -2.177780
  H      -4.142283     -2.743588     -3.538010
  C      -2.458118     -1.218036     -1.944202
  C      -1.278345     -1.579636     -1.012581
  H      -2.463963     -0.139697     -2.065279
  H      -2.193289     -1.619647     -2.927730
  C      -1.517987     -1.044381      0.396323
  C      -1.014340     -3.110755     -1.030536
  O      -2.244048     -0.099740      0.605034
  O      -0.860637     -1.577937      1.410462
  H      -0.233484     -3.305313     -1.770479
  H      -1.904730     -3.624231     -1.377512
  C      -0.627203     -3.702864      0.324033
  C       0.050054     -2.682035      1.209581
  H       0.030061     -4.562892      0.185988
  H      -1.526000     -4.048443      0.838694
  H       0.949494     -2.273300      0.741499
  C      -5.281579      0.988961      1.330294
  H      -4.203376      1.021081      1.506409
  H      -5.730024      0.510988      2.205683
  C       0.410608     -3.172664      2.597574
  H      -0.470522     -3.633347      3.055973
  H       0.660681     -2.294857      3.199334
  H      -5.323278     -3.209601     -2.307538
  C      -5.840537      2.398551      1.172962
  H      -6.912491      2.349957      0.950171
  H      -5.371249      2.893264      0.317140
  C       1.586934     -4.142020      2.604470
  H       1.344754     -5.033750      2.018161
  H       2.441749     -3.669049      2.109102
  C      -0.855612      5.050835      1.384840
  H      -1.873262      4.728537      1.633238
  H      -0.894674      5.426474      0.358067
  C       7.637248     -0.868911      0.185400
  H       7.172590     -1.858733      0.206255
  H       8.039863     -0.739999     -0.825372
  C       8.777308     -0.829516      1.194992
  H       9.514106     -1.609011      0.994543
  H       9.293317      0.132895      1.167555
  H       8.405381     -0.975339      2.211740
  C      -0.439211      6.184137      2.313600
  H       0.566568      6.535721      2.072549
  H      -1.118567      7.034684      2.234923
  H      -0.433111      5.856324      3.355614
  C      -5.614872      3.243945      2.420036
  H      -6.020639      4.250054      2.300572
  H      -6.091462      2.792497      3.293096
  H      -4.548509      3.336261      2.639400
  C       1.982961     -4.560427      4.014439
  H       1.156638     -5.064725      4.520812
  H       2.834190     -5.243386      4.003695
  H       2.258754     -3.692268      4.617351
104
Coordinates from ORCA-job orca E -2047.545156994170
  C       0.448012      0.575879     -1.294026
  C       0.964591      0.655054      0.152497
  O       1.767207     -0.153836      0.558750
  O       0.554242      1.595940      0.979728
  C      -0.667690      1.600751     -1.554245
  H      -1.611029      1.231946     -1.160466
  H      -0.787749      1.733544     -2.633070
  C      -0.352581      2.668065      0.639640
  H      -1.340696      2.328146      0.969310
  C      -0.377423      2.914906     -0.852686
  H      -1.163822      3.638644     -1.073990
  H       0.575720      3.347651     -1.165503
  C       0.019751     -0.892089     -1.585925
  H       0.859119     -1.516604     -1.295425
  H      -0.066080     -0.991297     -2.671752
  C       1.611452      0.939948     -2.291567
  C       3.121657      0.731140     -1.996449
  H       1.507261      1.998922     -2.521169
  H       1.399783      0.405911     -3.221856
  C       3.556194      1.680276     -0.862555
  C       3.545378     -0.740527     -1.775446
  C       3.850535      1.301887     -3.182008
  O       2.934041      2.668847     -0.576489
  O       4.722466      1.448471     -0.263549
  H       3.923564     -1.127131     -2.724945
  H       2.683004     -1.342146     -1.513484
  C       4.597131     -0.912500     -0.683779
  H       3.728610      2.348477     -3.431020
  H       4.469119      0.680385     -3.814708
  C       5.508447      0.292315     -0.607919
  H       5.185568     -1.812448     -0.868397
  H       4.108388     -1.021481      0.286975
  H       5.971168      0.484538     -1.585378
  C       0.093762      3.855718      1.471182
  H       1.100036      4.142744      1.151066
  H       0.176283      3.523097      2.509677
  C       6.591920      0.206682      0.451040
  H       6.115296      0.037542      1.421803
  H       7.077223      1.185157      0.510091
  C      -3.934139     -1.653842     -1.679873
  C      -4.217882     -1.972927     -0.208846
  O      -3.756488     -2.956041      0.313539
  O      -5.052247     -1.215903      0.497895
  C      -4.852821     -0.526357     -2.172379
  H      -5.860637     -0.923690     -2.332825
  H      -4.498893     -0.173586     -3.144653
  C      -5.530053      0.095533      0.126858
  H      -6.608545     -0.034952     -0.022691
  C      -4.914403      0.601413     -1.162484
  H      -5.523665      1.425432     -1.537412
  H      -3.916018      0.994954     -0.957522
  C      -4.279852     -2.926269     -2.469317
  H      -3.665345     -3.773706     -2.176485
  H      -4.140095     -2.742092     -3.537110
  C      -2.455517     -1.218049     -1.942457
  C      -1.275827     -1.579680     -1.010503
  H      -2.460565     -0.139806     -2.064256
  H      -2.190639     -1.620393     -2.925672
  C      -1.514845     -1.042539      0.397830
  C      -1.013055     -3.111111     -1.027375
  O      -2.242010     -0.098592      0.605808
  O      -0.860704     -1.577726      1.413272
  H      -0.231495     -3.306735     -1.766299
  H      -1.903499     -3.623751     -1.375309
  C      -0.628595     -3.703448      0.327867
  C       0.048585     -2.683298      1.214200
  H       0.027900     -4.564237      0.190954
  H      -1.528566     -4.047942      0.841214
  H       0.949270     -2.276161      0.747275
  C      -5.285166      0.992199      1.328973
  H      -4.207428      1.025970      1.507600
  H      -5.734906      0.513836      2.203490
  C       0.406186     -3.173939      2.602926
  H      -0.476402     -3.633105      3.060041
  H       0.656562     -2.296265      3.204746
  H      -5.322628     -3.206730     -2.307629
  C      -5.846206      2.400729      1.169622
  H      -6.916924      2.349911      0.941403
  H      -5.373728      2.896784      0.316342
  C       1.581027     -4.145072      2.612178
  H       1.338518     -5.036597      2.025693
  H       2.437450     -3.673558      2.118204
  C      -0.855554      5.045757      1.390334
  H      -1.872204      4.721263      1.639971
  H      -0.896881      5.422156      0.363928
  C       7.639296     -0.867321      0.180778
  H       7.174526     -1.857065      0.202706
  H       8.041864     -0.739522     -0.830162
  C       8.779385     -0.827078      1.190274
  H       9.515997     -1.606953      0.990614
  H       9.295596      0.135192      1.161812
  H       8.407531     -0.971796      2.207205
  C      -0.439968      6.179092      2.319400
  H       0.564714      6.532912      2.077066
  H      -1.121162      7.028332      2.242509
  H      -0.431565      5.850426      3.361128
  C      -5.628908      3.246196      2.418109
  H      -6.036766      4.251255      2.296962
  H      -6.108728      2.793154      3.288570
  H      -4.563945      3.341357      2.642970
  C       1.973855     -4.563714      4.022969
  H       1.145837     -5.066604      4.527971
  H       2.824027     -5.248011      4.013961
  H       2.249893     -3.695834      4.626169
104
Coordinates from ORCA-job orca E -2047.545165106429
  C       0.447072      0.575367     -1.294269
  C       0.964413      0.654496      0.152032
  O       1.768977     -0.153044      0.557118
  O       0.556285      1.596630      0.978907
  C      -0.668838      1.600248     -1.553432
  H      -1.611763      1.232215     -1.158005
  H      -0.790387      1.732363     -2.632173
  C      -0.349648      2.669625      0.638990
  H      -1.337641      2.331368      0.970756
  C      -0.376682      2.914858     -0.853561
  H      -1.162963      3.638904     -1.074355
  H       0.576271      3.346665     -1.168347
  C       0.018912     -0.892887     -1.585715
  H       0.858559     -1.516976     -1.295186
  H      -0.067313     -0.992504     -2.671468
  C       1.609232      0.940499     -2.292864
  C       3.119776      0.733035     -2.000117
  H       1.503889      1.999578     -2.521670
  H       1.396845      0.406982     -3.223286
  C       3.554520      1.682078     -0.865368
  C       3.546512     -0.737906     -1.781434
  C       3.847344      1.307963     -3.184181
  O       2.933604      2.672039     -0.581397
  O       4.721035      1.450794     -0.266602
  H       3.927645     -1.121586     -2.730999
  H       2.684702     -1.341955     -1.523353
  C       4.595600     -0.910554     -0.687343
  H       3.698782      2.347617     -3.447253
  H       4.507726      0.702487     -3.789518
  C       5.507089      0.293928     -0.608311
  H       5.184587     -1.810310     -0.871345
  H       4.104553     -1.020240      0.282163
  H       5.973703      0.485946     -1.583864
  C       0.099827      3.857637      1.468336
  H       1.106155      4.142512      1.146412
  H       0.183223      3.526290      2.507182
  C       6.586869      0.207349      0.454403
  H       6.106685      0.038389      1.423441
  H       7.072682      1.185481      0.515309
  C      -3.935170     -1.655053     -1.676669
  C      -4.218319     -1.973230     -0.205292
  O      -3.755429     -2.955175      0.317993
  O      -5.051306     -1.215099      0.501883
  C      -4.854438     -0.528308     -2.169792
  H      -5.862227     -0.926065     -2.329514
  H      -4.500966     -0.176271     -3.142511
  C      -5.530763      0.095251      0.129157
  H      -6.609146     -0.036655     -0.020133
  C      -4.915890      0.600295     -1.160842
  H      -5.525639      1.423800     -1.536160
  H      -3.917548      0.994361     -0.956632
  C      -4.280368     -2.928181     -2.465156
  H      -3.665211     -3.775050     -2.171930
  H      -4.141041     -2.744601     -3.533121
  C      -2.456833     -1.218692     -1.940070
  C      -1.276257     -1.580838     -1.009468
  H      -2.462254     -0.140404     -2.061122
  H      -2.192714     -1.620252     -2.923831
  C      -1.513920     -1.045158      0.399684
  C      -1.013890     -3.112312     -1.027735
  O      -2.237860     -0.099043      0.609060
  O      -0.856869     -1.580051      1.413459
  H      -0.233030     -3.307606     -1.767491
  H      -1.904802     -3.624521     -1.375202
  C      -0.628309     -3.705546      0.326775
  C       0.051199     -2.686364      1.212425
  H       0.027118     -4.566977      0.188676
  H      -1.527966     -4.049247      0.841273
  H       0.951467     -2.279853      0.744175
  C      -5.287031      0.993791      1.330112
  H      -4.209286      1.029779      1.508449
  H      -5.735719      0.515699      2.205339
  C       0.410591     -3.177965      2.600359
  H      -0.471753     -3.636472      3.058639
  H       0.662797     -2.300824      3.202213
  H      -5.322931     -3.209182     -2.302941
  C      -5.850837      2.401032      1.169055
  H      -6.920991      2.347673      0.938692
  H      -5.377770      2.897740      0.316472
  C       1.584508     -4.150260      2.607317
  H       1.340256     -5.041248      2.020729
  H       2.440647     -3.679294      2.112314
  C      -0.847487      5.049255      1.387173
  H      -1.864427      4.726876      1.638381
  H      -0.889309      5.424527      0.360358
  C       7.634369     -0.867415      0.187689
  H       7.168784     -1.856822      0.207947
  H       8.040637     -0.739883     -0.821822
  C       8.770882     -0.828111      1.201267
  H       9.507555     -1.608619      1.004260
  H       9.287996      0.133737      1.174627
  H       8.395219     -0.972469      2.216861
  C      -0.428726      6.182926      2.314418
  H       0.576372      6.534519      2.070528
  H      -1.108370      7.033395      2.237229
  H      -0.419816      5.855507      3.356546
  C      -5.638127      3.247603      2.417572
  H      -6.047923      4.251713      2.294989
  H      -6.118907      2.793926      3.287186
  H      -4.573871      3.345261      2.644763
  C       1.979030     -4.570078      4.017309
  H       1.151261     -5.072476      4.523240
  H       2.828534     -5.255198      4.006647
  H       2.256798     -3.702796      4.620592
104
Coordinates from ORCA-job orca E -2047.545174780839
  C       0.447616      0.577968     -1.296274
  C       0.966970      0.657112      0.149271
  O       1.771748     -0.150886      0.553068
  O       0.557240      1.596854      0.977947
  C      -0.669332      1.602168     -1.553785
  H      -1.611760      1.232931     -1.158229
  H      -0.791669      1.735414     -2.632291
  C      -0.349497      2.669759      0.639638
  H      -1.337001      2.330624      0.971946
  C      -0.377797      2.916275     -0.852649
  H      -1.164702      3.640026     -1.072150
  H       0.574612      3.349133     -1.167650
  C       0.020554     -0.890681     -1.586754
  H       0.860630     -1.513670     -1.295172
  H      -0.065512     -0.991546     -2.672388
  C       1.608385      0.943776     -2.295898
  C       3.119124      0.735126     -2.005115
  H       1.503484      2.003178     -2.523234
  H       1.394551      0.411497     -3.226694
  C       3.555465      1.682562     -0.869609
  C       3.545938     -0.736401     -1.789301
  C       3.845697      1.311784     -3.189140
  O       2.934907      2.672328     -0.583956
  O       4.721507      1.449454     -0.270908
  H       3.932507     -1.116653     -2.738022
  H       2.683442     -1.342676     -1.538451
  C       4.590094     -0.911626     -0.691297
  H       3.701969      2.353380     -3.447122
  H       4.500784      0.704988     -3.798845
  C       5.504894      0.290211     -0.610842
  H       5.176854     -1.813381     -0.872615
  H       4.095170     -1.018922      0.276477
  H       5.973699      0.480600     -1.585759
  C       0.100124      3.857219      1.469690
  H       1.106152      4.142679      1.147383
  H       0.184254      3.525032      2.508198
  C       6.582360      0.201007      0.453999
  H       6.099783      0.032504      1.421929
  H       7.069844      1.178199      0.516428
  C      -3.932788     -1.655834     -1.676747
  C      -4.215283     -1.973954     -0.205239
  O      -3.752034     -2.955862      0.317802
  O      -5.049859     -1.217218      0.501501
  C      -4.853044     -0.529926     -2.169962
  H      -5.860436     -0.928596     -2.329831
  H      -4.499741     -0.177495     -3.142594
  C      -5.530412      0.092770      0.128912
  H      -6.608634     -0.040090     -0.020626
  C      -4.915733      0.598518     -1.160897
  H      -5.526178      1.421502     -1.536214
  H      -3.917810      0.993484     -0.956426
  C      -4.277203     -2.929433     -2.464826
  H      -3.661580     -3.775819     -2.171266
  H      -4.137977     -2.746155     -3.532847
  C      -2.454884     -1.218291     -1.940460
  C      -1.273992     -1.578989     -1.009823
  H      -2.461186     -0.140014     -2.061783
  H      -2.190560     -1.619870     -2.924156
  C      -1.511322     -1.041827      0.398834
  C      -1.010048     -3.110204     -1.026719
  O      -2.238336     -0.097998      0.607875
  O      -0.853750     -1.575346      1.413004
  H      -0.228866     -3.305388     -1.766170
  H      -1.900319     -3.623766     -1.373787
  C      -0.624067     -3.701749      0.328384
  C       0.054849     -2.681442      1.213204
  H       0.031702     -4.563050      0.191187
  H      -1.523560     -4.045301      0.843252
  H       0.955211     -2.274884      0.745084
  C      -5.287710      0.991355      1.330021
  H      -4.210030      1.028322      1.508560
  H      -5.736166      0.512816      2.205107
  C       0.413956     -3.171744      2.601690
  H      -0.468268     -3.630463      3.059979
  H       0.665373     -2.294004      3.202985
  H      -5.319603     -3.210974     -2.302532
  C      -5.852659      2.398152      1.168963
  H      -6.922698      2.343894      0.938310
  H      -5.379763      2.895342      0.316576
  C       1.588484     -4.143288      2.609850
  H       1.345146     -5.034736      2.023594
  H       2.444592     -3.672042      2.115068
  C      -0.847454      5.048740      1.390190
  H      -1.864270      4.725911      1.641301
  H      -0.889598      5.425239      0.363846
  C       7.628514     -0.875547      0.189344
  H       7.160948     -1.864064      0.206729
  H       8.038575     -0.747545     -0.818562
  C       8.761566     -0.839643      1.206935
  H       9.497379     -1.621385      1.011673
  H       9.280664      0.121199      1.183154
  H       8.381935     -0.984289      2.221002
  C      -0.428545      6.181317      2.318693
  H       0.576527      6.533151      2.075058
  H      -1.108146      7.031909      2.242636
  H      -0.419465      5.852661      3.360424
  C      -5.641017      3.244721      2.417666
  H      -6.051205      4.248646      2.294952
  H      -6.122044      2.790753      3.286979
  H      -4.576928      3.342853      2.645378
  C       1.982485     -4.562136      4.020274
  H       1.154789     -5.064860      4.525983
  H       2.832489     -5.246638      4.010433
  H       2.259309     -3.694365      4.623279
104
Coordinates from ORCA-job orca E -2047.545183338394
  C       0.446969      0.578660     -1.298193
  C       0.966590      0.657391      0.147214
  O       1.772218     -0.150242      0.550023
  O       0.556894      1.596634      0.976324
  C      -0.670120      1.602846     -1.555071
  H      -1.612476      1.233481     -1.159361
  H      -0.792782      1.736454     -2.633486
  C      -0.349278      2.670167      0.638480
  H      -1.336787      2.331636      0.971333
  C      -0.378164      2.916770     -0.853772
  H      -1.164878      3.640835     -1.072869
  H       0.574267      3.349415     -1.169048
  C       0.020139     -0.889988     -1.588467
  H       0.860349     -1.512625     -1.296575
  H      -0.065997     -0.991256     -2.674059
  C       1.607679      0.944583     -2.297581
  C       3.118315      0.735150     -2.006776
  H       1.503401      2.004129     -2.524511
  H       1.393703      0.412875     -3.228682
  C       3.555429      1.682866     -0.871862
  C       3.545112     -0.736480     -1.790717
  C       3.844779      1.311279     -3.191419
  O       2.935497      2.673305     -0.586995
  O       4.721332      1.449565     -0.273139
  H       3.935996     -1.115717     -2.738108
  H       2.682143     -1.344175     -1.544572
  C       4.585411     -0.911931     -0.689397
  H       3.707282      2.354623     -3.445756
  H       4.494854      0.702070     -3.804112
  C       5.502757      0.288088     -0.610027
  H       5.170148     -1.815743     -0.866911
  H       4.087310     -1.015492      0.277131
  H       5.972784      0.475623     -1.584960
  C       0.101595      3.857243      1.468372
  H       1.107778      4.141784      1.145760
  H       0.185762      3.524917      2.506832
  C       6.578830      0.198917      0.456176
  H       6.094837      0.032154      1.423706
  H       7.067209      1.175689      0.518059
  C      -3.932970     -1.655989     -1.677060
  C      -4.214668     -1.974863     -0.205541
  O      -3.750222     -2.956448      0.317029
  O      -5.049626     -1.219026      0.501663
  C      -4.853624     -0.529993     -2.169323
  H      -5.860980     -0.928710     -2.329180
  H      -4.500647     -0.176865     -3.141820
  C      -5.530551      0.091042      0.130118
  H      -6.608762     -0.041929     -0.019370
  C      -4.916237      0.597787     -1.159505
  H      -5.526876      1.420945     -1.534091
  H      -3.918307      0.992729     -0.954977
  C      -4.277619     -2.929290     -2.465536
  H      -3.662095     -3.775852     -2.172361
  H      -4.138555     -2.745708     -3.533518
  C      -2.455309     -1.217925     -1.941180
  C      -1.274031     -1.578341     -1.010998
  H      -2.461954     -0.139579     -2.062197
  H      -2.191212     -1.619121     -2.925082
  C      -1.510546     -1.040667      0.397585
  C      -1.009349     -3.109414     -1.027386
  O      -2.238421     -0.097568      0.606891
  O      -0.851227     -1.572967      1.411241
  H      -0.228698     -3.304576     -1.767402
  H      -1.899617     -3.623692     -1.373324
  C      -0.621867     -3.699919      0.327738
  C       0.057554     -2.678856      1.211394
  H       0.033936     -4.561187      0.190561
  H      -1.520838     -4.043264      0.843666
  H       0.957606     -2.272301      0.742482
  C      -5.287949      0.988950      1.331749
  H      -4.210246      1.026349      1.510014
  H      -5.735929      0.509620      2.206635
  C       0.417930     -3.168278      2.599878
  H      -0.463616     -3.627367      3.059099
  H       0.669209     -2.290080      3.200555
  H      -5.320029     -3.210751     -2.303209
  C      -5.853628      2.395566      1.171686
  H      -6.923707      2.340857      0.941345
  H      -5.381261      2.893413      0.319400
  C       1.593043     -4.139097      2.607582
  H       1.349935     -5.030720      2.021491
  H       2.448616     -3.667426      2.112283
  C      -0.844866      5.049663      1.389250
  H      -1.861986      4.727740      1.640297
  H      -0.886709      5.426483      0.363018
  C       7.624324     -0.878917      0.194385
  H       7.155671     -1.866926      0.211030
  H       8.037009     -0.751806     -0.812559
  C       8.754896     -0.843685      1.214759
  H       9.490374     -1.626305      1.021803
  H       9.275058      0.116589      1.191729
  H       8.372480     -0.987308      2.227917
  C      -0.424843      6.181547      2.318085
  H       0.580620      6.532386      2.074645
  H      -1.103512      7.032902      2.242266
  H      -0.416153      5.852591      3.359719
  C      -5.642098      3.241569      2.420774
  H      -6.052836      4.245338      2.298690
  H      -6.122703      2.786935      3.289964
  H      -4.578014      3.340145      2.648271
  C       1.988042     -4.557603      4.017799
  H       1.160967     -5.060806      4.524022
  H       2.838502     -5.241517      4.007554
  H       2.264646     -3.689624      4.620602
104
Coordinates from ORCA-job orca E -2047.545180181976
  C       0.446900      0.579694     -1.297490
  C       0.967307      0.658686      0.147584
  O       1.772903     -0.149098      0.550116
  O       0.557603      1.597702      0.976876
  C      -0.670305      1.603828     -1.553989
  H      -1.612517      1.234395     -1.158013
  H      -0.793294      1.737439     -2.632379
  C      -0.348712      2.671193      0.639437
  H      -1.336110      2.332648      0.972663
  C      -0.378160      2.917763     -0.852821
  H      -1.164912      3.641862     -1.071648
  H       0.574186      3.350394     -1.168438
  C       0.020232     -0.889013     -1.587725
  H       0.860581     -1.511518     -1.295973
  H      -0.065841     -0.990181     -2.673335
  C       1.607268      0.945537     -2.297031
  C       3.117803      0.735221     -2.006626
  H       1.503474      2.005213     -2.523628
  H       1.392828      0.414358     -3.228330
  C       3.555706      1.682363     -0.871547
  C       3.544308     -0.736563     -1.791238
  C       3.844079      1.311661     -3.191368
  O       2.936643      2.673339     -0.586625
  O       4.721967      1.448625     -0.273701
  H       3.936451     -1.115150     -2.738402
  H       2.681124     -1.344760     -1.546905
  C       4.583422     -0.912790     -0.689023
  H       3.708297      2.355563     -3.444368
  H       4.495346      0.702999     -3.803341
  C       5.502170      0.286215     -0.610177
  H       5.166811     -1.817704     -0.865369
  H       4.084318     -1.014825      0.277146
  H       5.972173      0.472767     -1.585325
  C       0.102504      3.858258      1.469181
  H       1.108685      4.142580      1.146349
  H       0.186886      3.525889      2.507616
  C       6.578276      0.196415      0.455882
  H       6.094262      0.030095      1.423486
  H       7.067242      1.172910      0.517617
  C      -3.932465     -1.656309     -1.676436
  C      -4.213852     -1.974395     -0.204693
  O      -3.749317     -2.955711      0.318287
  O      -5.049951     -1.219090      0.501699
  C      -4.853856     -0.531268     -2.169514
  H      -5.860870     -0.930802     -2.329478
  H      -4.500879     -0.178361     -3.142092
  C      -5.531907      0.090301      0.129419
  H      -6.609979     -0.043526     -0.020381
  C      -4.917608      0.596961     -1.160269
  H      -5.528733      1.419508     -1.535402
  H      -3.920018      0.992707     -0.955619
  C      -4.276057     -2.930417     -2.464010
  H      -3.659788     -3.776251     -2.170223
  H      -4.137158     -2.747530     -3.532138
  C      -2.455117     -1.217511     -1.940583
  C      -1.273840     -1.577763     -1.010450
  H      -2.462193     -0.139143     -2.061347
  H      -2.190882     -1.618358     -2.924593
  C      -1.510620     -1.040670      0.398316
  C      -1.008995     -3.108797     -1.027162
  O      -2.238612     -0.097755      0.608034
  O      -0.850234     -1.572573      1.411472
  H      -0.228699     -3.303760     -1.767599
  H      -1.899443     -3.623158     -1.372617
  C      -0.620768     -3.699308      0.327736
  C       0.058850     -2.678070      1.211068
  H       0.035105     -4.560473      0.190282
  H      -1.519477     -4.042747      0.844066
  H       0.958527     -2.271227      0.741666
  C      -5.290426      0.989002      1.330674
  H      -4.212796      1.027330      1.509283
  H      -5.738312      0.509734      2.205647
  C       0.420399     -3.167362      2.599297
  H      -0.460418     -3.627329      3.059043
  H       0.671195     -2.288969      3.199899
  H      -5.318227     -3.212651     -2.301474
  C      -5.857121      2.395075      1.169606
  H      -6.927045      2.339395      0.938757
  H      -5.384712      2.892785      0.317264
  C       1.596408     -4.137106      2.606176
  H       1.353885     -5.028687      2.019758
  H       2.451376     -3.664483      2.110722
  C      -0.843739      5.050833      1.390282
  H      -1.860894      4.729074      1.641404
  H      -0.885661      5.427733      0.364079
  C       7.623100     -0.882034      0.194114
  H       7.153771     -1.869742      0.210141
  H       8.036330     -0.754830     -0.812593
  C       8.753212     -0.847916      1.215043
  H       9.488320     -1.630907      1.022164
  H       9.273970      0.112056      1.192638
  H       8.370185     -0.991688      2.227955
  C      -0.423399      6.182525      2.319177
  H       0.582127      6.533181      2.075710
  H      -1.101879      7.034045      2.243528
  H      -0.414674      5.853469      3.360782
  C      -5.646896      3.241908      2.418324
  H      -6.058347      4.245297      2.295465
  H      -6.127649      2.787420      3.287513
  H      -4.583011      3.341391      2.646366
  C       1.992363     -4.555849      4.016030
  H       1.165999     -5.060044      4.522430
  H       2.843491     -5.238930      4.005147
  H       2.268408     -3.687865      4.619100
104
Coordinates from ORCA-job orca E -2047.545175227965
  C       0.447141      0.580028     -1.297335
  C       0.967527      0.659180      0.147732
  O       1.773503     -0.148230      0.550219
  O       0.558071      1.598515      0.976776
  C      -0.669943      1.604246     -1.553961
  H      -1.612167      1.234923     -1.157918
  H      -0.792927      1.737663     -2.632386
  C      -0.348215      2.671964      0.639276
  H      -1.335642      2.333543      0.972583
  C      -0.377712      2.918290     -0.853037
  H      -1.164400      3.642418     -1.071981
  H       0.574655      3.350813     -1.168735
  C       0.020177     -0.888617     -1.587526
  H       0.860450     -1.511309     -1.296007
  H      -0.065962     -0.989638     -2.673145
  C       1.607544      0.945519     -2.296963
  C       3.118077      0.734797     -2.006821
  H       1.504014      2.005199     -2.523710
  H       1.392875      0.414432     -3.228254
  C       3.556604      1.682092     -0.872092
  C       3.544396     -0.736976     -1.791341
  C       3.844086      1.310972     -3.191912
  O       2.937823      2.673197     -0.587040
  O       4.722947      1.448081     -0.274434
  H       3.936718     -1.115655     -2.738401
  H       2.681129     -1.345140     -1.547260
  C       4.583194     -0.913384     -0.688852
  H       3.707739      2.354643     -3.445600
  H       4.498301      0.703352     -3.801793
  C       5.502590      0.285149     -0.610357
  H       5.165904     -1.818849     -0.864611
  H       4.083754     -1.014634      0.277226
  H       5.972784      0.471028     -1.585542
  C       0.103137      3.859152      1.468800
  H       1.109400      4.143180      1.145956
  H       0.187448      3.526937      2.507293
  C       6.578567      0.195136      0.455804
  H       6.094410      0.029255      1.423414
  H       7.067935      1.171449      0.517352
  C      -3.932585     -1.656161     -1.676989
  C      -4.214484     -1.975178     -0.205514
  O      -3.749455     -2.956323      0.317340
  O      -5.050516     -1.220072      0.501173
  C      -4.853821     -0.530832     -2.169664
  H      -5.860807     -0.930228     -2.330197
  H      -4.500544     -0.177361     -3.141933
  C      -5.532521      0.089377      0.129412
  H      -6.610506     -0.044517     -0.020968
  C      -4.917800      0.596819     -1.159779
  H      -5.528738      1.419639     -1.534605
  H      -3.920226      0.992346     -0.954574
  C      -4.275945     -2.929732     -2.465507
  H      -3.659733     -3.775757     -2.172193
  H      -4.136811     -2.746120     -3.533482
  C      -2.455196     -1.217020     -1.940506
  C      -1.273954     -1.577245     -1.010250
  H      -2.462477     -0.138610     -2.060883
  H      -2.190637     -1.617416     -2.924620
  C      -1.510723     -1.039982      0.398454
  C      -1.009141     -3.108300     -1.026724
  O      -2.238944     -0.097253      0.608179
  O      -0.850063     -1.571676      1.411548
  H      -0.229057     -3.303391     -1.767355
  H      -1.899705     -3.622691     -1.371774
  C      -0.620582     -3.698559      0.328189
  C       0.059118     -2.677059      1.211131
  H       0.035312     -4.559718      0.190808
  H      -1.519177     -4.041913      0.844761
  H       0.958602     -2.270263      0.741369
  C      -5.291889      0.987575      1.331237
  H      -4.214338      1.026394      1.510294
  H      -5.739832      0.507545      2.205764
  C       0.421263     -3.165977      2.599327
  H      -0.459174     -3.626296      3.059442
  H       0.671815     -2.287347      3.199695
  H      -5.318145     -3.212113     -2.303418
  C      -5.859413      2.393364      1.170681
  H      -6.929070      2.337045      0.938728
  H      -5.386548      2.892011      0.319136
  C       1.597697     -4.135199      2.605974
  H       1.355458     -5.026815      2.019483
  H       2.452401     -3.662194      2.110422
  C      -0.842875      5.051876      1.389631
  H      -1.860106      4.730353      1.640754
  H      -0.884696      5.428564      0.363343
  C       7.622917     -0.883820      0.194290
  H       7.153066     -1.871294      0.210061
  H       8.036503     -0.756753     -0.812286
  C       8.752737     -0.850391      1.215573
  H       9.487570     -1.633661      1.022778
  H       9.273916      0.109362      1.193510
  H       8.369355     -0.994200      2.228349
  C      -0.422380      6.183670      2.318320
  H       0.583229      6.534102      2.074865
  H      -1.100691      7.035302      2.242470
  H      -0.413775      5.854829      3.359997
  C      -5.651180      3.239480      2.420211
  H      -6.063462      4.242569      2.297670
  H      -6.132396      2.783930      3.288592
  H      -4.587636      3.339813      2.649434
  C       1.994034     -4.553906      4.015718
  H       1.167962     -5.058461      4.522240
  H       2.845441     -5.236640      4.004656
  H       2.269835     -3.685865      4.618824
