44

O         -1.52198       -0.33201       -2.74326
C         -1.65623        0.18885       -1.66837
C         -1.88248       -0.66016       -0.40255
C         -2.20261        0.15455        0.87448
H         -1.31763        0.20870        1.51563
H         -2.94531       -0.38847        1.47470
C         -2.64702        1.58441        0.60203
H         -2.67901        2.14626        1.54706
H         -3.65937        1.62948        0.17334
C         -1.66094        2.24119       -0.34250
H         -0.64792        2.19192        0.09791
C         -1.97841        3.68188       -0.70708
C         -1.85165        4.65949        0.45843
H         -2.58272        4.40552        1.24407
H         -0.85517        4.54767        0.92009
C         -2.05936        6.10896        0.03292
H         -1.97033        6.79589        0.88738
H         -3.05717        6.25263       -0.41045
H         -1.31596        6.41197       -0.72091
H         -2.99556        3.72388       -1.13333
H         -1.28969        3.97713       -1.51503
C         -0.63337       -1.57431       -0.21207
H         -0.85559       -2.23109        0.64367
H         -0.58195       -2.21836       -1.10191
C         -3.01985       -1.67110       -0.73909
H         -3.03282       -2.41846        0.06920
C         -4.48393       -1.21695       -0.97207
C         -5.14265       -0.71853        0.31217
O         -5.07404       -1.62383        1.30102
C         -5.67707       -1.25894        2.52985
H         -5.54386       -2.11229        3.20408
H         -5.19404       -0.36393        2.95010
H         -6.74648       -1.04360        2.39412
O         -5.69968        0.34010        0.45168
C         -5.26894       -2.47599       -1.40291
H         -5.16384       -3.28666       -0.66880
H         -6.33998       -2.24971       -1.51816
H         -4.89176       -2.83068       -2.37348
C         -4.63415       -0.15154       -2.06075
H         -4.16869        0.80275       -1.78585
H         -5.69749        0.05198       -2.24933
H         -4.16380       -0.49744       -2.99078
H         -2.71277       -2.19416       -1.65621
O         -1.62271        1.52263       -1.58689
