41
Coordinates from ORCA-job orca E -848.313718046752
  O       3.221663     -2.743204     -1.872679
  C       3.881882     -2.297974     -0.951041
  C       4.312551     -3.104696      0.189004
  C       4.902760     -2.472876      1.409411
  H       4.440056     -2.909804      2.313960
  H       5.975640     -2.752651      1.473536
  C       4.758873     -0.951039      1.394065
  H       5.409056     -0.494148      2.154871
  H       3.720213     -0.665956      1.626653
  C       5.114937     -0.423527      0.010410
  H       6.138037     -0.764781     -0.247751
  C       5.037100      1.088159     -0.163090
  C       5.996961      1.883099      0.724057
  H       5.755461      1.713669      1.788552
  H       7.029278      1.510795      0.585140
  C       5.946971      3.383659      0.434339
  H       6.632883      3.946182      1.087910
  H       4.930177      3.781490      0.588318
  H       6.228223      3.597298     -0.610386
  H       3.999347      1.414918      0.010801
  H       5.250119      1.305329     -1.223855
  C       4.076560     -4.573439      0.153966
  H       3.304750     -4.862464      0.894131
  H       4.991054     -5.128145      0.433843
  H       3.738017     -4.896525     -0.838815
  C       0.578719     -1.671483      0.122728
  H       0.489040     -1.902319      1.185712
  C       0.998563     -0.467281     -0.296809
  C       1.352033      0.600224      0.684310
  O       1.360991      0.180038      1.970528
  C       1.660854      1.172294      2.947997
  H       1.562490      0.680911      3.924393
  H       2.685538      1.555035      2.817574
  H       0.964028      2.021033      2.873862
  O       1.629495      1.739503      0.378153
  C       1.137398     -0.077024     -1.739894
  H       2.171836      0.231289     -1.950772
  H       0.484390      0.778835     -1.977034
  H       0.893200     -0.921548     -2.397326
  H       0.328597     -2.455073     -0.597052
  O       4.209317     -0.978252     -0.964130
41
Coordinates from ORCA-job orca E -848.316097036534
  O       3.230746     -2.732407     -1.864884
  C       3.884142     -2.289053     -0.945379
  C       4.305717     -3.091055      0.192083
  C       4.899254     -2.462718      1.405302
  H       4.440466     -2.893893      2.302071
  H       5.962127     -2.741180      1.464734
  C       4.757184     -0.947484      1.388749
  H       5.403616     -0.493943      2.141566
  H       3.725697     -0.665454      1.620408
  C       5.113043     -0.425463      0.009695
  H       6.127650     -0.763138     -0.247999
  C       5.030840      1.080977     -0.161900
  C       5.987796      1.868186      0.724604
  H       5.746978      1.698571      1.779180
  H       7.011056      1.500205      0.584951
  C       5.935133      3.362665      0.436328
  H       6.612924      3.920079      1.085322
  H       4.926376      3.753919      0.588404
  H       6.214897      3.574524     -0.598470
  H       4.000244      1.406921      0.012908
  H       5.242830      1.298806     -1.213283
  C       4.066279     -4.554128      0.161447
  H       3.298112     -4.833418      0.893037
  H       4.970719     -5.103712      0.442923
  H       3.734023     -4.877232     -0.822269
  C       0.612596     -1.668748      0.119237
  H       0.532935     -1.903808      1.171935
  C       1.006994     -0.466815     -0.294467
  C       1.355102      0.596880      0.687667
  O       1.365713      0.176347      1.967196
  C       1.667227      1.170452      2.938564
  H       1.570486      0.684166      3.906086
  H       2.683477      1.549961      2.808156
  H       0.974434      2.008973      2.863841
  O       1.626542      1.731962      0.384416
  C       1.139562     -0.073639     -1.732657
  H       2.164747      0.233079     -1.944570
  H       0.489394      0.772666     -1.963099
  H       0.896616     -0.910977     -2.383978
  H       0.375097     -2.445687     -0.596758
  O       4.210291     -0.975837     -0.963509
41
Coordinates from ORCA-job orca E -848.316237533745
  O       3.237606     -2.730710     -1.869427
  C       3.887036     -2.287033     -0.947768
  C       4.298881     -3.087410      0.192309
  C       4.896759     -2.460812      1.403342
  H       4.437635     -2.889996      2.300158
  H       5.958432     -2.741454      1.459969
  C       4.757952     -0.946041      1.385824
  H       5.404993     -0.493396      2.137786
  H       3.726988     -0.664093      1.617468
  C       5.115312     -0.425835      0.007762
  H       6.129684     -0.762193     -0.249232
  C       5.031567      1.080131     -0.162769
  C       5.987383      1.866353      0.725447
  H       5.745235      1.696157      1.778843
  H       7.010419      1.499892      0.585641
  C       5.933027      3.360519      0.437683
  H       6.608275      3.918448      1.088125
  H       4.923639      3.749241      0.588055
  H       6.214487      3.572459     -0.596000
  H       4.001647      1.405550      0.012983
  H       5.243713      1.299776     -1.213096
  C       4.051523     -4.548631      0.166603
  H       3.278313     -4.818897      0.895173
  H       4.951743     -5.100689      0.454217
  H       3.722802     -4.874478     -0.816934
  C       0.638931     -1.676967      0.117090
  H       0.567613     -1.918095      1.168795
  C       1.010663     -0.469273     -0.293529
  C       1.352818      0.595637      0.690552
  O       1.364404      0.175190      1.968076
  C       1.667437      1.171128      2.937217
  H       1.572460      0.685149      3.904718
  H       2.682618      1.549697      2.804301
  H       0.973394      2.007773      2.862545
  O       1.619172      1.730986      0.387520
  C       1.135562     -0.071146     -1.730534
  H       2.158978      0.237508     -1.945113
  H       0.482181      0.773195     -1.955896
  H       0.892348     -0.907803     -2.381969
  H       0.410282     -2.454548     -0.600858
  O       4.215146     -0.975737     -0.967485
41
Coordinates from ORCA-job orca E -848.316406982774
  O       3.257739     -2.728194     -1.886538
  C       3.896187     -2.283601     -0.957280
  C       4.282823     -3.081218      0.190941
  C       4.890216     -2.458778      1.398773
  H       4.429902     -2.883944      2.296449
  H       5.950100     -2.745476      1.449842
  C       4.759722     -0.943563      1.379470
  H       5.408009     -0.493590      2.131407
  H       3.729185     -0.660818      1.610745
  C       5.122517     -0.425584      0.003330
  H       6.138379     -0.758504     -0.249952
  C       5.035370      1.080184     -0.165252
  C       5.988034      1.866360      0.727073
  H       5.742409      1.695262      1.778965
  H       7.011841      1.503128      0.587956
  C       5.929953      3.360609      0.439694
  H       6.599575      3.920640      1.093838
  H       4.918233      3.744202      0.585622
  H       6.215868      3.572744     -0.592365
  H       4.005596      1.403680      0.012131
  H       5.248251      1.304067     -1.214117
  C       4.011040     -4.537912      0.177701
  H       3.223622     -4.783885      0.899014
  H       4.899131     -5.099866      0.482013
  H       3.689710     -4.870158     -0.805988
  C       0.703884     -1.699940      0.114144
  H       0.653290     -1.954042      1.164114
  C       1.022154     -0.477487     -0.290796
  C       1.346127      0.592383      0.696820
  O       1.359146      0.172720      1.971703
  C       1.665459      1.172516      2.937217
  H       1.575330      0.686571      3.905196
  H       2.679432      1.549328      2.797284
  H       0.968212      2.005924      2.863418
  O       1.599151      1.729808      0.392710
  C       1.125630     -0.066963     -1.725842
  H       2.145214      0.248301     -1.948247
  H       0.463166      0.772999     -1.938084
  H       0.881489     -0.902343     -2.378509
  H       0.497367     -2.480331     -0.607661
  O       4.230598     -0.975679     -0.979348
41
Coordinates from ORCA-job orca E -848.316519289008
  O       3.282696     -2.727205     -1.907906
  C       3.907963     -2.281586     -0.969418
  C       4.269273     -3.077112      0.187719
  C       4.883775     -2.458424      1.394214
  H       4.422706     -2.880493      2.292915
  H       5.942461     -2.750642      1.441366
  C       4.760852     -0.942204      1.373792
  H       5.409539     -0.495348      2.127394
  H       3.730561     -0.657481      1.604148
  C       5.131041     -0.424612     -0.000379
  H       6.149794     -0.753780     -0.247131
  C       5.040558      1.081243     -0.167730
  C       5.989569      1.868959      0.728061
  H       5.741200      1.696802      1.779187
  H       7.014708      1.508776      0.590288
  C       5.927831      3.363602      0.441152
  H       6.593028      3.925693      1.098241
  H       4.913950      3.743141      0.583684
  H       6.217005      3.576518     -0.589943
  H       4.010032      1.402092      0.010373
  H       5.254430      1.308572     -1.215667
  C       3.970427     -4.528834      0.185336
  H       3.169039     -4.750701      0.899297
  H       4.844708     -5.103221      0.506176
  H       3.654914     -4.865778     -0.798810
  C       0.763472     -1.721365      0.115132
  H       0.730807     -1.983448      1.164100
  C       1.035951     -0.487000     -0.287087
  C       1.339212      0.589073      0.701745
  O       1.352411      0.171368      1.976218
  C       1.661391      1.174260      2.939332
  H       1.576415      0.688377      3.907956
  H       2.674794      1.549685      2.792036
  H       0.961712      2.005641      2.866747
  O       1.578336      1.729118      0.395267
  C       1.116977     -0.066754     -1.721096
  H       2.132461      0.256437     -1.952596
  H       0.445226      0.768724     -1.920611
  H       0.872026     -0.901248     -2.375030
  H       0.576173     -2.505249     -0.608455
  O       4.249639     -0.976048     -0.992425
41
Coordinates from ORCA-job orca E -848.316607769183
  O       3.311625     -2.727951     -1.931345
  C       3.922532     -2.281557     -0.983217
  C       4.259711     -3.075392      0.183027
  C       4.877598     -2.459488      1.389857
  H       4.416224     -2.879430      2.289543
  H       5.935622     -2.755884      1.435355
  C       4.761030     -0.942216      1.368728
  H       5.409198     -0.498720      2.125321
  H       3.731161     -0.653635      1.597456
  C       5.140555     -0.423772     -0.003132
  H       6.163203     -0.749064     -0.240251
  C       5.046645      1.082139     -0.169996
  C       5.991835      1.872342      0.728285
  H       5.742549      1.697987      1.779250
  H       7.018621      1.515493      0.591503
  C       5.925728      3.367536      0.443307
  H       6.588270      3.931067      1.102224
  H       4.910145      3.743754      0.584928
  H       6.215699      3.582826     -0.587401
  H       4.014732      1.399864      0.007901
  H       5.261589      1.311666     -1.217452
  C       3.936306     -4.522348      0.187529
  H       3.122906     -4.724813      0.894338
  H       4.797083     -5.109252      0.522766
  H       3.625655     -4.861244     -0.797777
  C       0.809351     -1.737544      0.121377
  H       0.789659     -2.001254      1.170488
  C       1.049743     -0.495708     -0.282154
  C       1.332763      0.587234      0.705069
  O       1.344580      0.173131      1.981191
  C       1.655695      1.178448      2.942320
  H       1.575673      0.693364      3.911915
  H       2.668919      1.552632      2.787801
  H       0.954949      2.009273      2.870691
  O       1.558643      1.729743      0.395292
  C       1.110034     -0.071147     -1.716320
  H       2.121014      0.260215     -1.958165
  H       0.429841      0.760077     -1.905128
  H       0.864218     -0.905509     -2.370539
  H       0.635797     -2.525750     -0.601222
  O       4.271958     -0.977561     -1.005773
41
Coordinates from ORCA-job orca E -848.316672751199
  O       3.337440     -2.729409     -1.950827
  C       3.936397     -2.283077     -0.995078
  C       4.255920     -3.076017      0.178075
  C       4.872172     -2.461315      1.386630
  H       4.410106     -2.880203      2.286583
  H       5.929976     -2.759783      1.433716
  C       4.759994     -0.943478      1.365138
  H       5.406958     -0.502964      2.125059
  H       3.730968     -0.649496      1.591685
  C       5.148864     -0.423714     -0.004298
  H       6.175203     -0.745953     -0.231066
  C       5.052064      1.082079     -0.171328
  C       5.994339      1.874629      0.727947
  H       5.746457      1.697196      1.779147
  H       7.022491      1.520836      0.591016
  C       5.923975      3.370261      0.446228
  H       6.586435      3.934113      1.105240
  H       4.907693      3.744456      0.590098
  H       6.211685      3.589028     -0.584671
  H       4.018746      1.396872      0.005672
  H       5.267698      1.312076     -1.218757
  C       3.918790     -4.520152      0.183015
  H       3.098609     -4.714597      0.884829
  H       4.770923     -5.115549      0.526100
  H       3.611516     -4.857356     -0.804090
  C       0.829886     -1.744607      0.131887
  H       0.815504     -2.003869      1.182247
  C       1.058700     -0.500862     -0.276632
  C       1.328278      0.588088      0.706735
  O       1.337611      0.178647      1.985598
  C       1.649909      1.185747      2.944567
  H       1.573480      0.702602      3.915454
  H       2.663040      1.559191      2.784727
  H       0.949568      2.017235      2.872970
  O       1.544784      1.732009      0.393715
  C       1.106108     -0.079113     -1.712242
  H       2.113053      0.258439     -1.963598
  H       0.420375      0.749028     -1.895606
  H       0.859462     -0.914466     -2.364989
  H       0.661602     -2.537122     -0.587343
  O       4.292279     -0.979881     -1.015964
41
Coordinates from ORCA-job orca E -848.316708915537
  O       3.357905     -2.729428     -1.966118
  C       3.948018     -2.284189     -1.004847
  C       4.253937     -3.076676      0.173191
  C       4.866398     -2.462822      1.383718
  H       4.402222     -2.880563      2.283107
  H       5.923707     -2.763110      1.434431
  C       4.758651     -0.944967      1.361815
  H       5.404369     -0.507220      2.124660
  H       3.730887     -0.644756      1.585787
  C       5.156351     -0.424442     -0.005096
  H       6.185570     -0.744364     -0.222401
  C       5.056973      1.081074     -0.172162
  C       5.996896      1.875384      0.727595
  H       5.751888      1.693851      1.778929
  H       7.026158      1.525231      0.589025
  C       5.921342      3.371341      0.450486
  H       6.584779      3.934996      1.108714
  H       4.904784      3.743182      0.598729
  H       6.204826      3.594499     -0.580715
  H       4.022496      1.392911      0.003846
  H       5.272858      1.310876     -1.219606
  C       3.909303     -4.518965      0.175716
  H       3.086428     -4.711465      0.875057
  H       4.756461     -5.120249      0.521180
  H       3.603248     -4.852560     -0.812984
  C       0.840156     -1.747537      0.143685
  H       0.828134     -2.000449      1.195553
  C       1.064581     -0.504342     -0.270686
  C       1.325678      0.590008      0.708040
  O       1.332605      0.185676      1.989375
  C       1.644877      1.195055      2.945179
  H       1.571259      0.714890      3.917677
  H       2.657424      1.568841      2.781552
  H       0.944820      2.026844      2.872672
  O       1.535346      1.734377      0.391974
  C       1.104453     -0.088980     -1.708126
  H       2.107512      0.253555     -1.968219
  H       0.414729      0.736436     -1.889740
  H       0.856843     -0.926351     -2.357692
  H       0.674198     -2.543958     -0.571711
  O       4.309990     -0.982086     -1.023999
41
Coordinates from ORCA-job orca E -848.316733451538
  O       3.367301     -2.727418     -1.974417
  C       3.953822     -2.284086     -1.010556
  C       4.252711     -3.076910      0.169378
  C       4.861490     -2.463861      1.381538
  H       4.393880     -2.880232      2.279711
  H       5.917951     -2.766327      1.436635
  C       4.758221     -0.946179      1.359250
  H       5.403276     -0.510578      2.123880
  H       3.731784     -0.640430      1.580770
  C       5.161768     -0.425601     -0.005849
  H       6.192338     -0.744569     -0.217727
  C       5.060840      1.079763     -0.172572
  C       5.999098      1.875017      0.727575
  H       5.757247      1.689189      1.778834
  H       7.029231      1.528773      0.586358
  C       5.917939      3.371283      0.455435
  H       6.582245      3.934753      1.112850
  H       4.901077      3.740113      0.608442
  H       6.196937      3.598873     -0.575951
  H       4.025592      1.389106      0.002587
  H       5.276654      1.309245     -1.220017
  C       3.906398     -4.518501      0.168612
  H       3.085432     -4.713501      0.869355
  H       4.753162     -5.122504      0.510309
  H       3.598051     -4.848008     -0.820639
  C       0.842520     -1.747706      0.153423
  H       0.830214     -1.994894      1.206555
  C       1.067118     -0.506315     -0.265872
  C       1.325640      0.591971      0.708799
  O       1.331264      0.191890      1.991749
  C       1.641923      1.203952      2.944239
  H       1.569926      0.726982      3.918339
  H       2.653458      1.579635      2.779119
  H       0.941123      2.034949      2.870097
  O       1.532208      1.735896      0.390123
  C       1.105394     -0.098221     -1.705056
  H       2.105797      0.247255     -1.970956
  H       0.413495      0.725087     -1.888776
  H       0.857071     -0.938259     -2.350612
  H       0.676788     -2.546823     -0.558909
  O       4.320676     -0.983258     -1.028462
41
Coordinates from ORCA-job orca E -848.316772743994
  O       3.374021     -2.721526     -1.983852
  C       3.958542     -2.281884     -1.017554
  C       4.249024     -3.075860      0.163619
  C       4.853897     -2.464947      1.378043
  H       4.379515     -2.878479      2.273881
  H       5.908403     -2.772501      1.439803
  C       4.758989     -0.947353      1.355196
  H       5.403837     -0.515031      2.121723
  H       3.734508     -0.633571      1.572937
  C       5.169505     -0.427385     -0.007675
  H       6.200973     -0.745938     -0.214727
  C       5.066962      1.077905     -0.173211
  C       6.002380      1.874198      0.728346
  H       5.764736      1.681558      1.779164
  H       7.033999      1.534847      0.582703
  C       5.911515      3.370987      0.463990
  H       6.575776      3.934797      1.120979
  H       4.893562      3.733597      0.623407
  H       6.184534      3.605368     -0.567314
  H       4.030573      1.383382      0.000714
  H       5.282871      1.307548     -1.220444
  C       3.900000     -4.516368      0.159094
  H       3.084791     -4.714508      0.865272
  H       4.748072     -5.123975      0.490990
  H       3.584396     -4.840003     -0.829661
  C       0.849228     -1.749392      0.166859
  H       0.836819     -1.989569      1.221490
  C       1.071261     -0.510288     -0.258999
  C       1.327586      0.593782      0.709854
  O       1.332528      0.199893      1.994604
  C       1.638734      1.217211      2.941807
  H       1.568890      0.745251      3.918423
  H       2.648082      1.597748      2.775664
  H       0.934699      2.045104      2.864486
  O       1.531018      1.736510      0.386644
  C       1.108540     -0.112529     -1.700620
  H       2.105416      0.236991     -1.973570
  H       0.413206      0.706943     -1.889397
  H       0.859924     -0.957371     -2.339487
  H       0.684961     -2.552128     -0.541590
  O       4.332784     -0.983468     -1.034002
41
Coordinates from ORCA-job orca E -848.316808880065
  O       3.376785     -2.712822     -1.993296
  C       3.961405     -2.277762     -1.025069
  C       4.243078     -3.073536      0.156632
  C       4.845033     -2.465940      1.373784
  H       4.361836     -2.875693      2.266615
  H       5.896763     -2.780859      1.442702
  C       4.760891     -0.948085      1.350487
  H       5.406245     -0.519798      2.118668
  H       3.738390     -0.625600      1.564041
  C       5.177938     -0.429129     -0.010395
  H       6.209614     -0.748060     -0.214745
  C       5.074389      1.076371     -0.174002
  C       6.006010      1.873563      0.730284
  H       5.771395      1.673891      1.780292
  H       7.039423      1.542055      0.580584
  C       5.904512      3.370993      0.473797
  H       6.567053      3.935812      1.131548
  H       4.884726      3.725827      0.638157
  H       6.172971      3.612168     -0.557019
  H       4.036578      1.377515     -0.001547
  H       5.291002      1.307212     -1.220707
  C       3.889845     -4.512768      0.149519
  H       3.082741     -4.712621      0.864117
  H       4.740304     -5.124199      0.468142
  H       3.563469     -4.830819     -0.837476
  C       0.861242     -1.753446      0.181343
  H       0.849914     -1.987517      1.237316
  C       1.077022     -0.516127     -0.251518
  C       1.331071      0.594524      0.710944
  O       1.336385      0.207545      1.997415
  C       1.635452      1.231763      2.938940
  H       1.567883      0.765159      3.918274
  H       2.641800      1.619610      2.772516
  H       0.925499      2.054133      2.857464
  O       1.531878      1.735593      0.381578
  C       1.112289     -0.128572     -1.695732
  H       2.105622      0.225509     -1.975081
  H       0.412156      0.685504     -1.890764
  H       0.865006     -0.979432     -2.327056
  H       0.699765     -2.560208     -0.523098
  O       4.343682     -0.982202     -1.040062
41
Coordinates from ORCA-job orca E -848.316841521853
  O       3.377660     -2.702679     -2.003468
  C       3.963368     -2.272464     -1.033405
  C       4.235420     -3.070355      0.148562
  C       4.835284     -2.466933      1.369009
  H       4.342242     -2.872408      2.258434
  H       5.883744     -2.790710      1.444842
  C       4.763267     -0.948416      1.345513
  H       5.409733     -0.524832      2.115248
  H       3.742666     -0.617096      1.554878
  C       5.186462     -0.430601     -0.013733
  H       6.217858     -0.750678     -0.217019
  C       5.082729      1.075412     -0.174863
  C       6.009613      1.873349      0.733563
  H       5.775619      1.667852      1.782492
  H       7.044958      1.549162      0.581765
  C       5.898645      3.371417      0.483295
  H       6.557622      3.937810      1.143269
  H       4.876440      3.718371      0.649410
  H       6.165503      3.618037     -0.546619
  H       4.043338      1.372292     -0.004126
  H       5.300996      1.308666     -1.220632
  C       3.876548     -4.508253      0.140129
  H       3.078099     -4.707761      0.864219
  H       4.729505     -5.123483      0.444855
  H       3.538257     -4.821837     -0.844308
  C       0.878808     -1.759909      0.196302
  H       0.870912     -1.989326      1.253353
  C       1.084348     -0.523537     -0.243744
  C       1.335323      0.594121      0.712065
  O       1.341952      0.214602      2.000343
  C       1.631443      1.246830      2.936431
  H       1.566235      0.785264      3.918374
  H       2.634172      1.643853      2.770196
  H       0.913211      2.061506      2.850013
  O       1.533634      1.733300      0.375024
  C       1.114779     -0.144768     -1.690455
  H       2.104789      0.214378     -1.975099
  H       0.408225      0.662421     -1.891275
  H       0.871242     -1.002256     -2.314440
  H       0.720965     -2.571081     -0.503991
  O       4.353445     -0.979714     -1.046814
41
Coordinates from ORCA-job orca E -848.316865864069
  O       3.379171     -2.693172     -2.014511
  C       3.965083     -2.266922     -1.042325
  C       4.227412     -3.066702      0.140130
  C       4.825713     -2.467450      1.363968
  H       4.323741     -2.868869      2.250322
  H       5.871027     -2.799882      1.445474
  C       4.765173     -0.948136      1.340433
  H       5.413002     -0.529285      2.111608
  H       3.746365     -0.608731      1.546211
  C       5.194034     -0.431321     -0.017543
  H       6.225006     -0.753072     -0.220212
  C       5.091047      1.075304     -0.175955
  C       6.013132      1.873152      0.737604
  H       5.777311      1.663444      1.785330
  H       7.050187      1.554078      0.586217
  C       5.896062      3.371890      0.491785
  H       6.550788      3.939365      1.155137
  H       4.871543      3.712843      0.656672
  H       6.164248      3.622403     -0.536906
  H       4.050178      1.368686     -0.007009
  H       5.311917      1.312028     -1.220411
  C       3.862529     -4.503383      0.131111
  H       3.070892     -4.701021      0.863057
  H       4.717063     -5.122038      0.424943
  H       3.514466     -4.813964     -0.850957
  C       0.898862     -1.767901      0.211273
  H       0.896625     -1.993544      1.269250
  C       1.092284     -0.531956     -0.236108
  C       1.339163      0.592688      0.713012
  O       1.347599      0.221012      2.003375
  C       1.625935      1.261402      2.934674
  H       1.563175      0.804036      3.918831
  H       2.624774      1.668303      2.768686
  H       0.898345      2.067262      2.842870
  O       1.534417      1.730103      0.367562
  C       1.114652     -0.160233     -1.685047
  H       2.101607      0.204444     -1.973694
  H       0.400461      0.639157     -1.889725
  H       0.877426     -1.024172     -2.302896
  H       0.744683     -2.583834     -0.484452
  O       4.361960     -0.976462     -1.054196
41
Coordinates from ORCA-job orca E -848.316891775962
  O       3.381128     -2.691700     -2.018031
  C       3.965720     -2.265641     -1.044827
  C       4.225822     -3.065733      0.137921
  C       4.823363     -2.467335      1.362671
  H       4.319939     -2.868257      2.248450
  H       5.868191     -2.801205      1.445148
  C       4.764818     -0.947864      1.339383
  H       5.412856     -0.530174      2.111082
  H       3.746409     -0.606799      1.544532
  C       5.194995     -0.430940     -0.018341
  H       6.225900     -0.753303     -0.220532
  C       5.092648      1.075815     -0.176136
  C       6.013955      1.873138      0.738784
  H       5.776607      1.663721      1.786219
  H       7.050989      1.553442      0.588965
  C       5.898219      3.371868      0.492718
  H       6.552332      3.939003      1.157000
  H       4.873703      3.713380      0.656036
  H       6.167938      3.622061     -0.535636
  H       4.051571      1.368898     -0.007637
  H       5.314470      1.313641     -1.220178
  C       3.860216     -4.502239      0.128224
  H       3.068586     -4.699702      0.860196
  H       4.714512     -5.121329      0.421861
  H       3.512090     -4.812357     -0.853967
  C       0.903314     -1.770347      0.215448
  H       0.903323     -1.994990      1.273769
  C       1.093771     -0.534400     -0.234078
  C       1.339352      0.591963      0.713341
  O       1.348288      0.222433      2.004521
  C       1.623301      1.264813      2.934849
  H       1.561261      0.808081      3.919359
  H       2.621135      1.674284      2.768918
  H       0.893258      2.068427      2.841420
  O       1.533307      1.729181      0.365767
  C       1.113290     -0.163918     -1.683524
  H       2.099623      0.202500     -1.972538
  H       0.396816      0.633465     -1.888253
  H       0.878862     -1.029200     -2.300606
  H       0.749801     -2.587812     -0.478736
  O       4.363384     -0.975319     -1.055972
41
Coordinates from ORCA-job orca E -848.316902548570
  O       3.386900     -2.687524     -2.028880
  C       3.967360     -2.261094     -1.053118
  C       4.222709     -3.062190      0.129929
  C       4.817269     -2.465933      1.357540
  H       4.309979     -2.865726      2.241667
  H       5.860788     -2.803587      1.442769
  C       4.763792     -0.946124      1.335332
  H       5.412603     -0.531836      2.108402
  H       3.746608     -0.600546      1.539152
  C       5.196875     -0.428736     -0.021952
  H       6.227077     -0.754039     -0.223714
  C       5.097863      1.078490     -0.177136
  C       6.017417      1.872454      0.742864
  H       5.773462      1.664484      1.789343
  H       7.054118      1.548129      0.599571
  C       5.909327      3.371730      0.495847
  H       6.561841      3.936410      1.163906
  H       4.885113      3.717477      0.652985
  H       6.185619      3.620688     -0.531267
  H       4.056555      1.371959     -0.009934
  H       5.323338      1.320866     -1.219450
  C       3.856184     -4.498778      0.117999
  H       3.062340     -4.696006      0.848182
  H       4.709467     -5.118567      0.414173
  H       3.510628     -4.808308     -0.865358
  C       0.911019     -1.777471      0.230079
  H       0.915417     -1.997209      1.289217
  C       1.097347     -0.543764     -0.226691
  C       1.340468      0.587827      0.714480
  O       1.352169      0.226022      2.008382
  C       1.612613      1.275918      2.935319
  H       1.553171      0.821118      3.920888
  H       2.606210      1.696329      2.770383
  H       0.872816      2.069966      2.835090
  O       1.530186      1.724028      0.359351
  C       1.108280     -0.177520     -1.677538
  H       2.092821      0.194985     -1.965061
  H       0.384108      0.612434     -1.882409
  H       0.886528     -1.047289     -2.292940
  H       0.755684     -2.599183     -0.458389
  O       4.364990     -0.970334     -1.061424
41
Coordinates from ORCA-job orca E -848.316897555731
  O       3.389776     -2.685845     -2.032989
  C       3.967987     -2.259394     -1.056040
  C       4.221369     -3.060689      0.127571
  C       4.814731     -2.464791      1.355663
  H       4.306815     -2.864525      2.239453
  H       5.858064     -2.802812      1.441731
  C       4.762187     -0.945093      1.333691
  H       5.410924     -0.531569      2.107168
  H       3.745390     -0.598351      1.537310
  C       5.196594     -0.427577     -0.023065
  H       6.226801     -0.753464     -0.223747
  C       5.098659      1.079699     -0.177279
  C       6.018786      1.871659      0.743780
  H       5.772972      1.664530      1.789909
  H       7.054757      1.544367      0.602304
  C       5.915344      3.371019      0.496271
  H       6.568646      3.933826      1.165009
  H       4.892099      3.720055      0.651920
  H       6.193678      3.619117     -0.530424
  H       4.057550      1.373956     -0.010189
  H       5.324910      1.322929     -1.219137
  C       3.854795     -4.497210      0.114549
  H       3.058912     -4.694652      0.842332
  H       4.706929     -5.117215      0.413320
  H       3.511905     -4.806384     -0.869808
  C       0.916048     -1.781618      0.234877
  H       0.923547     -2.000317      1.294498
  C       1.097496     -0.546771     -0.223720
  C       1.338883      0.586848      0.715670
  O       1.351454      0.227243      2.010004
  C       1.607564      1.279479      2.935329
  H       1.549317      0.825798      3.921451
  H       2.599650      1.703190      2.770265
  H       0.865288      2.070794      2.833094
  O       1.525953      1.722862      0.358927
  C       1.106570     -0.181892     -1.674878
  H       2.090061      0.193380     -1.962434
  H       0.379923      0.605812     -1.879500
  H       0.888110     -1.052801     -2.289710
  H       0.763255     -2.605597     -0.452254
  O       4.365364     -0.968446     -1.063334
41
Coordinates from ORCA-job orca E -848.316904493494
  O       3.392122     -2.683450     -2.037229
  C       3.968248     -2.256913     -1.059347
  C       4.221346     -3.058697      0.124211
  C       4.812503     -2.463020      1.353105
  H       4.303779     -2.863258      2.236268
  H       5.855833     -2.800793      1.440620
  C       4.760155     -0.943488      1.331730
  H       5.408798     -0.530568      2.105552
  H       3.743669     -0.595966      1.535578
  C       5.195392     -0.425660     -0.024508
  H       6.225320     -0.752655     -0.224680
  C       5.099694      1.081835     -0.177386
  C       6.021494      1.870563      0.744727
  H       5.772758      1.665436      1.790397
  H       7.056154      1.538045      0.605898
  C       5.925985      3.370052      0.495785
  H       6.580634      3.930082      1.165503
  H       4.904307      3.724721      0.648809
  H       6.207917      3.616236     -0.530285
  H       4.059213      1.378247     -0.010272
  H       5.326803      1.325756     -1.218831
  C       3.856806     -4.495531      0.109112
  H       3.057951     -4.694536      0.832955
  H       4.708021     -5.114617      0.411692
  H       3.518448     -4.804420     -0.876899
  C       0.915720     -1.785492      0.241312
  H       0.923815     -2.001771      1.301458
  C       1.096259     -0.551298     -0.219163
  C       1.336589      0.584636      0.717921
  O       1.350852      0.227618      2.012612
  C       1.599403      1.283343      2.935749
  H       1.542760      0.831458      3.922755
  H       2.588977      1.712941      2.771123
  H       0.852876      2.070130      2.830379
  O       1.520201      1.720287      0.359047
  C       1.105588     -0.188733     -1.670771
  H       2.087856      0.190535     -1.956973
  H       0.375974      0.595928     -1.876405
  H       0.892102     -1.061382     -2.284792
  H       0.762913     -2.610761     -0.444218
  O       4.363827     -0.965289     -1.064948
41
Coordinates from ORCA-job orca E -848.316928664875
  O       3.396957     -2.679135     -2.044210
  C       3.970057     -2.253079     -1.064638
  C       4.221445     -3.055680      0.118983
  C       4.809666     -2.460607      1.349121
  H       4.299112     -2.861433      2.230991
  H       5.852813     -2.798335      1.439171
  C       4.757892     -0.941190      1.328627
  H       5.406343     -0.529098      2.103027
  H       3.741828     -0.592967      1.532916
  C       5.194658     -0.422807     -0.026635
  H       6.224514     -0.750599     -0.225642
  C       5.101825      1.085026     -0.177933
  C       6.026352      1.869529      0.745047
  H       5.774670      1.666127      1.790333
  H       7.059380      1.530847      0.608145
  C       5.940029      3.369488      0.495320
  H       6.596619      3.925903      1.166170
  H       4.920232      3.730823      0.646178
  H       6.225844      3.614063     -0.530088
  H       4.062405      1.384869     -0.010633
  H       5.329556      1.328968     -1.219194
  C       3.855834     -4.492383      0.102337
  H       3.051581     -4.690497      0.820598
  H       4.704220     -5.112389      0.410900
  H       3.523251     -4.801145     -0.885637
  C       0.918003     -1.791805      0.250236
  H       0.925394     -2.004534      1.310957
  C       1.095742     -0.558453     -0.212336
  C       1.332404      0.581063      0.721851
  O       1.349045      0.227227      2.016954
  C       1.587362      1.287801      2.936840
  H       1.533339      0.839036      3.925356
  H       2.573146      1.725776      2.772226
  H       0.834763      2.068157      2.827728
  O       1.509637      1.716493      0.360182
  C       1.106110     -0.199255     -1.664683
  H       2.085955      0.186669     -1.949920
  H       0.372158      0.580830     -1.872451
  H       0.898106     -1.074324     -2.276920
  H       0.767231     -2.618656     -0.433732
  O       4.363585     -0.960775     -1.067951
41
Coordinates from ORCA-job orca E -848.316934335897
  O       3.398739     -2.676221     -2.047844
  C       3.970342     -2.250560     -1.067242
  C       4.221043     -3.053769      0.115894
  C       4.807340     -2.459445      1.347382
  H       4.295237     -2.860874      2.228054
  H       5.850288     -2.797244      1.439075
  C       4.755887     -0.939907      1.327742
  H       5.404335     -0.528444      2.102530
  H       3.739950     -0.591736      1.532471
  C       5.193376     -0.421059     -0.027077
  H       6.223071     -0.749536     -0.225792
  C       5.103082      1.087024     -0.178057
  C       6.029812      1.869128      0.744850
  H       5.776142      1.667923      1.790049
  H       7.061578      1.526182      0.609246
  C       5.949954      3.369114      0.493306
  H       6.607854      3.923594      1.164518
  H       4.931522      3.734967      0.642328
  H       6.238359      3.611373     -0.531919
  H       4.064495      1.389892     -0.010748
  H       5.331215      1.330086     -1.219470
  C       3.856491     -4.490429      0.097391
  H       3.048898     -4.688808      0.811515
  H       4.703574     -5.109778      0.409870
  H       3.528552     -4.799297     -0.892112
  C       0.919997     -1.795190      0.255617
  H       0.926357     -2.006113      1.316651
  C       1.095570     -0.562416     -0.208233
  C       1.328767      0.579021      0.724548
  O       1.346697      0.226690      2.020057
  C       1.579071      1.289796      2.938497
  H       1.526248      0.842805      3.927855
  H       2.562680      1.732623      2.774021
  H       0.822779      2.066308      2.827560
  O       1.501986      1.714444      0.361260
  C       1.106791     -0.205135     -1.661077
  H       2.085093      0.184943     -1.945523
  H       0.370268      0.571983     -1.870839
  H       0.901726     -1.081691     -2.272147
  H       0.771414     -2.622853     -0.427616
  O       4.362479     -0.957842     -1.069004
41
Coordinates from ORCA-job orca E -848.316936675100
  O       3.400575     -2.673490     -2.051050
  C       3.971206     -2.248359     -1.069550
  C       4.220795     -3.052221      0.113087
  C       4.805614     -2.458785      1.345962
  H       4.291683     -2.860556      2.225377
  H       5.848214     -2.797162      1.439094
  C       4.754593     -0.939036      1.327314
  H       5.403047     -0.528342      2.102545
  H       3.738627     -0.591280      1.532487
  C       5.192758     -0.419556     -0.027103
  H       6.222413     -0.748439     -0.225560
  C       5.104545      1.088701     -0.178171
  C       6.033065      1.869359      0.744231
  H       5.778347      1.669794      1.789545
  H       7.063997      1.523713      0.609053
  C       5.957194      3.369403      0.491200
  H       6.616044      3.922834      1.162352
  H       4.939582      3.738007      0.639306
  H       6.246867      3.609826     -0.534154
  H       4.066705      1.394335     -0.010903
  H       5.332933      1.330579     -1.219848
  C       3.854720     -4.488671      0.094052
  H       3.043676     -4.685215      0.805086
  H       4.699957     -5.108856      0.410284
  H       3.530202     -4.798012     -0.896442
  C       0.924187     -1.798121      0.259608
  H       0.929855     -2.008213      1.320808
  C       1.096427     -0.565400     -0.205334
  C       1.325189      0.577382      0.726727
  O       1.343885      0.225904      2.022700
  C       1.572273      1.290490      2.940477
  H       1.520189      0.844581      3.930363
  H       2.554368      1.736647      2.776073
  H       0.813205      2.064259      2.828765
  O       1.494802      1.713074      0.362519
  C       1.107714     -0.209496     -1.658547
  H       2.084630      0.184158     -1.942750
  H       0.368794      0.564935     -1.870202
  H       0.904902     -1.087256     -2.268648
  H       0.778857     -2.626563     -0.423240
  O       4.362425     -0.955401     -1.069924
41
Coordinates from ORCA-job orca E -848.316937170533
  O       3.399283     -2.672858     -2.050506
  C       3.970252     -2.247778     -1.069033
  C       4.220833     -3.051959      0.112941
  C       4.805454     -2.458769      1.346278
  H       4.291304     -2.860973      2.225339
  H       5.848060     -2.797033      1.439237
  C       4.753733     -0.938896      1.328277
  H       5.402255     -0.528324      2.103549
  H       3.737472     -0.592198      1.533976
  C       5.191510     -0.419111     -0.026224
  H       6.220993     -0.748432     -0.225123
  C       5.104651      1.089161     -0.177929
  C       6.034426      1.869522      0.743497
  H       5.779659      1.671376      1.789095
  H       7.064895      1.522573      0.608307
  C       5.960350      3.369424      0.488877
  H       6.619939      3.922770      1.159374
  H       4.943187      3.739270      0.636764
  H       6.250027      3.608180     -0.536885
  H       4.067327      1.396684     -0.010654
  H       5.333046      1.329908     -1.219921
  C       3.856117     -4.488660      0.093416
  H       3.044096     -4.685483      0.803136
  H       4.701363     -5.107850      0.411199
  H       3.533525     -4.798637     -0.897529
  C       0.924810     -1.798053      0.259482
  H       0.929616     -2.008813      1.320547
  C       1.096161     -0.565078     -0.205333
  C       1.322857      0.577362      0.727355
  O       1.341367      0.225247      2.023411
  C       1.569802      1.289259      2.941885
  H       1.517267      0.842942      3.931590
  H       2.552036      1.735325      2.777861
  H       0.810632      2.063079      2.830764
  O       1.491843      1.713443      0.363794
  C       1.107872     -0.209040     -1.658475
  H       2.084680      0.185286     -1.942138
  H       0.368535      0.564731     -1.871168
  H       0.905804     -1.086932     -2.268693
  H       0.781194     -2.626478     -0.423754
  O       4.360826     -0.954638     -1.068996
41
Coordinates from ORCA-job orca E -848.316938115784
  O       3.398177     -2.671945     -2.050411
  C       3.969688     -2.247189     -1.069012
  C       4.220655     -3.051742      0.112613
  C       4.805155     -2.458780      1.346208
  H       4.290529     -2.860948      2.225038
  H       5.847621     -2.797476      1.439244
  C       4.753535     -0.938826      1.328540
  H       5.402123     -0.528522      2.103901
  H       3.737153     -0.592443      1.534329
  C       5.191364     -0.418967     -0.025925
  H       6.220699     -0.748730     -0.224978
  C       5.105237      1.089270     -0.177866
  C       6.035532      1.869541      0.743154
  H       5.781146      1.671574      1.788959
  H       7.065905      1.522442      0.607569
  C       5.961601      3.369473      0.488266
  H       6.621568      3.922855      1.158352
  H       4.944524      3.739416      0.636545
  H       6.250747      3.607818     -0.537753
  H       4.068128      1.397630     -0.010659
  H       5.333722      1.329592     -1.219946
  C       3.856209     -4.488643      0.093110
  H       3.044441     -4.685553      0.803245
  H       4.701827     -5.107659      0.410662
  H       3.533414     -4.798793     -0.897748
  C       0.926281     -1.798213      0.259742
  H       0.931079     -2.009466      1.320761
  C       1.096300     -0.564919     -0.205305
  C       1.321521      0.577580      0.727557
  O       1.339677      0.225390      2.023698
  C       1.568183      1.289183      2.942456
  H       1.515411      0.842571      3.932058
  H       2.550521      1.735162      2.778682
  H       0.808908      2.063018      2.831661
  O       1.490239      1.713890      0.364327
  C       1.107570     -0.209130     -1.658474
  H       2.084191      0.185761     -1.942249
  H       0.367455      0.563754     -1.871917
  H       0.906754     -1.087463     -2.268542
  H       0.783855     -2.626846     -0.423557
  O       4.360414     -0.954115     -1.068742
41
Coordinates from ORCA-job orca E -848.316939829138
  O       3.396402     -2.671631     -2.049333
  C       3.968759     -2.247024     -1.068359
  C       4.220941     -3.051815      0.112913
  C       4.805440     -2.458767      1.346453
  H       4.290990     -2.861060      2.225349
  H       5.847962     -2.797349      1.439283
  C       4.753423     -0.938831      1.328914
  H       5.401994     -0.528457      2.104241
  H       3.736899     -0.592858      1.534807
  C       5.191044     -0.419037     -0.025635
  H       6.220192     -0.749279     -0.224906
  C       5.105464      1.089158     -0.177794
  C       6.036216      1.869331      0.742822
  H       5.782338      1.671426      1.788754
  H       7.066497      1.522108      0.606852
  C       5.962326      3.369239      0.487827
  H       6.622743      3.922627      1.157464
  H       4.945368      3.739291      0.636637
  H       6.250866      3.607381     -0.538406
  H       4.068525      1.398086     -0.010604
  H       5.333948      1.329227     -1.219940
  C       3.857761     -4.489047      0.093222
  H       3.046932     -4.687001      0.804138
  H       4.704279     -5.107373      0.409802
  H       3.534329     -4.799144     -0.897447
  C       0.925507     -1.797604      0.259215
  H       0.930130     -2.009339      1.320166
  C       1.095721     -0.564194     -0.205678
  C       1.320596      0.578079      0.727494
  O       1.338149      0.225580      2.023564
  C       1.567260      1.288899      2.942693
  H       1.514175      0.841826      3.932094
  H       2.549926      1.734271      2.779200
  H       0.808472      2.063265      2.832277
  O       1.489726      1.714534      0.364829
  C       1.107120     -0.208424     -1.658800
  H       2.083777      0.186513     -1.942495
  H       0.366724      0.564043     -1.872709
  H       0.907405     -1.086979     -2.268926
  H       0.783239     -2.626160     -0.424280
  O       4.359497     -0.953961     -1.068110
