41
Coordinates from ORCA-job orca E -847.148576700223
  O           3.22166290531489     -2.74320412326526     -1.87267857403088
  C           3.88188226811790     -2.29797364264467     -0.95104117733933
  C           4.31255143572445     -3.10469597752791      0.18900416730717
  C           4.90275986817312     -2.47287645924508      1.40941121006029
  H           4.44005611694816     -2.90980448872477      2.31395966792029
  H           5.97563990253738     -2.75265089609578      1.47353581369582
  C           4.75887252714030     -0.95103862409951      1.39406464032347
  H           5.40905641040262     -0.49414770427129      2.15487143915961
  H           3.72021323525023     -0.66595572221559      1.62665335949461
  C           5.11493696533163     -0.42352671827800      0.01041024839557
  H           6.13803738845301     -0.76478103933677     -0.24775122750824
  C           5.03709985299426      1.08815889227860     -0.16308975421061
  C           5.99696061554151      1.88309912670958      0.72405739286469
  H           5.75546088072818      1.71366890286619      1.78855213172332
  H           7.02927773045689      1.51079492857188      0.58514015195093
  C           5.94697058584780      3.38365873883195      0.43433891735766
  H           6.63288264178590      3.94618178272903      1.08791043416365
  H           4.93017693726620      3.78148988436734      0.58831812026846
  H           6.22822316696278      3.59729755178574     -0.61038638454078
  H           3.99934722699253      1.41491794745260      0.01080050151944
  H           5.25011908988340      1.30532867852458     -1.22385472183793
  C           4.07656032237201     -4.57343920175053      0.15396585266943
  H           3.30474999244687     -4.86246433099685      0.89413110992062
  H           4.99105428707589     -5.12814486906810      0.43384348363700
  H           3.73801748018643     -4.89652525307602     -0.83881538358890
  C           0.57871867516872     -1.67148276341643      0.12272770744627
  H           0.48904030498182     -1.90231930718072      1.18571226614892
  C           0.99856339906026     -0.46728106544469     -0.29680869582678
  C           1.35203292143018      0.60022442416302      0.68430952406571
  O           1.36099147917608      0.18003788982723      1.97052766242878
  C           1.66085385884425      1.17229446718636      2.94799669369123
  H           1.56249030150798      0.68091053706834      3.92439297838232
  H           2.68553827310457      1.55503488273458      2.81757393213791
  H           0.96402845035713      2.02103318763109      2.87386158090328
  O           1.62949499160876      1.73950260070394      0.37815255682963
  C           1.13739803971582     -0.07702361976480     -1.73989361559141
  H           2.17183560616033      0.23128875478559     -1.95077241868948
  H           0.48438953667223      0.77883522435259     -1.97703386580219
  H           0.89319988271970     -0.92154785344062     -2.39732593632714
  H           0.32859694849824     -2.45507296920969     -0.59705168119525
  O           4.20931749705683     -0.97825177351681     -0.96413010797751
