41
Coordinates from ORCA-job orca E -848.316939829138
  O           3.39640243797452     -2.67163144993311     -2.04933258179522
  C           3.96875863872251     -2.24702404673710     -1.06835943973124
  C           4.22094108518313     -3.05181546379662      0.11291325817643
  C           4.80543953816388     -2.45876731599927      1.34645329549406
  H           4.29098975745727     -2.86105976741374      2.22534876375778
  H           5.84796199233970     -2.79734853351155      1.43928335661384
  C           4.75342337887941     -0.93883063127190      1.32891421758566
  H           5.40199397185065     -0.52845668588193      2.10424135454241
  H           3.73689889949609     -0.59285847347296      1.53480669372966
  C           5.19104357893412     -0.41903704151860     -0.02563461655068
  H           6.22019213365454     -0.74927926470043     -0.22490581365624
  C           5.10546350771806      1.08915753384388     -0.17779408386769
  C           6.03621590552102      1.86933053191855      0.74282167135005
  H           5.78233827033947      1.67142608703507      1.78875413145668
  H           7.06649684488323      1.52210774656821      0.60685215950320
  C           5.96232555256247      3.36923882862585      0.48782747575495
  H           6.62274290649062      3.92262674486049      1.15746359059792
  H           4.94536835137674      3.73929115275628      0.63663669451673
  H           6.25086638647789      3.60738137092225     -0.53840646071958
  H           4.06852457017676      1.39808640683407     -0.01060423649091
  H           5.33394817202731      1.32922744796775     -1.21993987463517
  C           3.85776101829607     -4.48904701452077      0.09322208904674
  H           3.04693248839542     -4.68700108101795      0.80413835959579
  H           4.70427865474525     -5.10737336078684      0.40980195421393
  H           3.53432852937005     -4.79914362180120     -0.89744692577966
  C           0.92550674861992     -1.79760399069728      0.25921509565974
  H           0.93013002751949     -2.00933915060652      1.32016634794024
  C           1.09572084887064     -0.56419377049822     -0.20567817599590
  C           1.32059645405892      0.57807940664617      0.72749376351238
  O           1.33814915288924      0.22558026283166      2.02356410340016
  C           1.56726028129194      1.28889896772490      2.94269325273882
  H           1.51417462994107      0.84182574443468      3.93209415462099
  H           2.54992574751044      1.73427056323631      2.77919966855081
  H           0.80847201086142      2.06326482604413      2.83227747998269
  O           1.48972558472787      1.71453434875916      0.36482918410732
  C           1.10711961543156     -0.20842361445382     -1.65879992733101
  H           2.08377730690049      0.18651263278017     -1.94249481075916
  H           0.36672373583535      0.56404282375090     -1.87270897477794
  H           0.90740496671789     -1.08697881102089     -2.26892645224689
  H           0.78323915338027     -2.62615964908570     -0.42427983531447
  O           4.35949716440440     -0.95396068881374     -1.06810990679762
