44
Coordinates from ORCA-job orca E -887.606597434848
  O      -1.395243     -0.687389     -2.027887
  C      -1.295805     -0.004778     -1.033983
  C      -1.133205     -0.574421      0.345955
  C      -0.796233      0.391590      1.452429
  H       0.285136      0.625613      1.412496
  H      -0.979326     -0.070806      2.435292
  C      -1.596352      1.680489      1.277535
  H      -1.329050      2.411746      2.056105
  H      -2.672618      1.469429      1.359282
  C      -1.308539      2.298885     -0.084827
  H      -0.278216      2.703913     -0.083915
  C      -2.285633      3.396597     -0.493224
  C      -2.284015      4.616832      0.429560
  H      -2.598367      4.320433      1.445674
  H      -1.252273      5.002768      0.530725
  C      -3.200280      5.732870     -0.072880
  H      -3.195276      6.599328      0.607805
  H      -4.241838      5.381005     -0.160670
  H      -2.888519      6.087840     -1.069558
  H      -3.291584      2.946725     -0.542262
  H      -2.027269      3.706051     -1.520202
  C      -1.287286     -1.894322      0.513448
  H      -1.187592     -2.352650      1.501752
  H      -1.513545     -2.540010     -0.336231
  C      -4.008795     -2.417470     -1.735907
  H      -4.201550     -3.370653     -1.236991
  C      -4.967492     -1.274092     -1.550862
  C      -4.660955     -0.648708     -0.179402
  O      -4.871491     -1.520735      0.823274
  C      -4.609946     -1.058436      2.144695
  H      -4.933131     -1.860955      2.819916
  H      -3.535690     -0.863611      2.281587
  H      -5.167453     -0.133486      2.357544
  O      -4.268138      0.479919      0.010539
  C      -6.427681     -1.781472     -1.538225
  H      -6.577046     -2.546286     -0.762622
  H      -7.130688     -0.953559     -1.349060
  H      -6.672533     -2.222584     -2.516753
  C      -4.771665     -0.209115     -2.639796
  H      -3.728985      0.133975     -2.678709
  H      -5.418120      0.662503     -2.456979
  H      -5.029565     -0.638067     -3.620321
  H      -3.051600     -2.246116     -2.230062
  O      -1.340526      1.330842     -1.162132
44
Coordinates from ORCA-job orca E -887.609022689967
  O      -1.394001     -0.671951     -2.019073
  C      -1.296494      0.005687     -1.028326
  C      -1.128239     -0.564045      0.347302
  C      -0.796371      0.398887      1.449916
  H       0.274568      0.633515      1.410601
  H      -0.979100     -0.059327      2.423879
  C      -1.599888      1.679132      1.274304
  H      -1.336814      2.405496      2.045679
  H      -2.669196      1.467626      1.354697
  C      -1.311441      2.295108     -0.082708
  H      -0.290024      2.697328     -0.082550
  C      -2.287844      3.386141     -0.490294
  C      -2.283877      4.599051      0.432158
  H      -2.599568      4.305019      1.438034
  H      -1.260977      4.980642      0.533290
  C      -3.194051      5.710468     -0.073302
  H      -3.189338      6.569410      0.600152
  H      -4.225930      5.362004     -0.162326
  H      -2.880130      6.059567     -1.060141
  H      -3.287490      2.941362     -0.539995
  H      -2.030392      3.695669     -1.507577
  C      -1.283411     -1.873935      0.512850
  H      -1.182960     -2.328336      1.491998
  H      -1.511178     -2.518228     -0.327532
  C      -4.014276     -2.412045     -1.731962
  H      -4.203400     -3.355668     -1.235324
  C      -4.970292     -1.273668     -1.547498
  C      -4.666811     -0.650725     -0.179646
  O      -4.874140     -1.518410      0.820656
  C      -4.606178     -1.048307      2.135188
  H      -4.923697     -1.842167      2.806569
  H      -3.539561     -0.852489      2.270120
  H      -5.162059     -0.133316      2.342902
  O      -4.273506      0.472252      0.008601
  C      -6.423595     -1.778296     -1.540781
  H      -6.573965     -2.543293     -0.779303
  H      -7.119944     -0.958320     -1.348404
  H      -6.663160     -2.206288     -2.515327
  C      -4.774052     -0.210111     -2.628789
  H      -3.740039      0.134619     -2.666630
  H      -5.417670      0.651630     -2.445987
  H      -5.028434     -0.634687     -3.601545
  H      -3.063497     -2.241452     -2.221409
  O      -1.343558      1.334082     -1.160315
44
Coordinates from ORCA-job orca E -887.609209553660
  O      -1.383835     -0.666819     -2.017436
  C      -1.288281      0.011147     -1.027558
  C      -1.117470     -0.558562      0.348045
  C      -0.788462      0.404498      1.449793
  H       0.281086      0.641336      1.411658
  H      -0.972875     -0.054051      2.422345
  C      -1.595829      1.681114      1.273157
  H      -1.334919      2.408124      2.043655
  H      -2.664173      1.467682      1.353212
  C      -1.307635      2.297396     -0.082498
  H      -0.287542      2.700709     -0.081830
  C      -2.285181      3.387327     -0.488538
  C      -2.281861      4.598079      0.436264
  H      -2.599626      4.302775      1.440145
  H      -1.260038      4.979772      0.538400
  C      -3.191395      5.709229     -0.069953
  H      -3.187582      6.567324      0.603602
  H      -4.222161      5.360236     -0.160239
  H      -2.875183      6.058019     -1.055297
  H      -3.284198      2.943184     -0.538887
  H      -2.027897      3.699487     -1.504233
  C      -1.275592     -1.865280      0.514353
  H      -1.175077     -2.318391      1.493690
  H      -1.506805     -2.512541     -0.322078
  C      -4.023984     -2.418611     -1.732642
  H      -4.212183     -3.360149     -1.233733
  C      -4.977310     -1.279725     -1.548657
  C      -4.673657     -0.657179     -0.180904
  O      -4.880469     -1.522247      0.820200
  C      -4.610377     -1.046201      2.132263
  H      -4.924779     -1.838956      2.805714
  H      -3.544750     -0.847659      2.265989
  H      -5.169137     -0.133272      2.337060
  O      -4.279573      0.464785      0.006030
  C      -6.430407     -1.781155     -1.544676
  H      -6.583031     -2.550163     -0.788552
  H      -7.124678     -0.961226     -1.348373
  H      -6.669554     -2.202563     -2.521460
  C      -4.778683     -0.216993     -2.629032
  H      -3.745814      0.129558     -2.665891
  H      -5.423047      0.643723     -2.447626
  H      -5.031098     -0.641965     -3.601443
  H      -3.073371     -2.249910     -2.220766
  O      -1.337546      1.337743     -1.161120
44
Coordinates from ORCA-job orca E -887.609487163165
  O      -1.358206     -0.657942     -2.014306
  C      -1.267530      0.022798     -1.026264
  C      -1.091846     -0.546209      0.350118
  C      -0.768195      0.417610      1.451243
  H       0.299482      0.660993      1.416120
  H      -0.955878     -0.043730      2.421441
  C      -1.584903      1.686972      1.271969
  H      -1.330135      2.416258      2.042092
  H      -2.652022      1.468049      1.350439
  C      -1.296672      2.305413     -0.081478
  H      -0.278104      2.711698     -0.079055
  C      -2.276362      3.393984     -0.484778
  C      -2.276013      4.601347      0.445093
  H      -2.598827      4.302772      1.445886
  H      -1.255362      4.984038      0.550521
  C      -3.184938      5.712777     -0.062767
  H      -3.183928      6.569590      0.612220
  H      -4.214449      5.362068     -0.156743
  H      -2.863380      6.062355     -1.045743
  H      -3.274691      2.949957     -0.536892
  H      -2.019107      3.712047     -1.498322
  C      -1.255580     -1.849021      0.518247
  H      -1.154951     -2.299896      1.498913
  H      -1.494124     -2.501882     -0.311080
  C      -4.047071     -2.436712     -1.737850
  H      -4.233339     -3.375961     -1.234737
  C      -4.994385     -1.295250     -1.552580
  C      -4.688394     -0.673602     -0.184781
  O      -4.896470     -1.534468      0.818136
  C      -4.625034     -1.046940      2.126355
  H      -4.931696     -1.838815      2.804544
  H      -3.561094     -0.840435      2.256880
  H      -5.191788     -0.138226      2.325522
  O      -4.292597      0.447645     -0.000425
  C      -6.449027     -1.789272     -1.550905
  H      -6.605827     -2.564990     -0.802624
  H      -7.139054     -0.967859     -1.347127
  H      -6.689789     -2.200480     -2.531465
  C      -4.791294     -0.234177     -2.632341
  H      -3.759949      0.115763     -2.666025
  H      -5.437715      0.625687     -2.454757
  H      -5.039006     -0.660633     -3.605168
  H      -3.095170     -2.271249     -2.222985
  O      -1.321562      1.347554     -1.162392
44
Coordinates from ORCA-job orca E -887.609621988816
  O      -1.337349     -0.652984     -2.010942
  C      -1.250377      0.030806     -1.024494
  C      -1.072476     -0.536416      0.352913
  C      -0.751571      0.428215      1.454168
  H       0.314798      0.678021      1.420742
  H      -0.939802     -0.036378      2.422895
  C      -1.575830      1.692495      1.272750
  H      -1.327132      2.423829      2.043384
  H      -2.642271      1.468367      1.349173
  C      -1.287140      2.312991     -0.079734
  H      -0.269177      2.721457     -0.075696
  C      -2.267962      3.400734     -0.482355
  C      -2.270502      4.606867      0.449956
  H      -2.596738      4.306411      1.449291
  H      -1.250218      4.990339      0.558314
  C      -3.179091      5.718709     -0.059232
  H      -3.180482      6.574755      0.617099
  H      -4.208141      5.366853     -0.156368
  H      -2.854001      6.069572     -1.040856
  H      -3.265990      2.955917     -0.535771
  H      -2.010547      3.721991     -1.495106
  C      -1.238444     -1.838674      0.522505
  H      -1.137454     -2.288272      1.504138
  H      -1.481301     -2.493444     -0.303828
  C      -4.064588     -2.450872     -1.746041
  H      -4.249439     -3.390613     -1.242636
  C      -5.008049     -1.307128     -1.556337
  C      -4.699317     -0.686743     -0.188344
  O      -4.909600     -1.546420      0.815281
  C      -4.640475     -1.053138      2.122446
  H      -4.940145     -1.845790      2.803289
  H      -3.577984     -0.838425      2.249800
  H      -5.214427     -0.148142      2.318825
  O      -4.302503      0.434592     -0.005080
  C      -6.464664     -1.796376     -1.553123
  H      -6.622758     -2.574979     -0.807704
  H      -7.151785     -0.973472     -1.344424
  H      -6.708841     -2.203236     -2.534968
  C      -4.803110     -0.246389     -2.635756
  H      -3.772183      0.104898     -2.665574
  H      -5.450916      0.613356     -2.460900
  H      -5.047011     -0.673392     -3.609577
  H      -3.110605     -2.285833     -2.228072
  O      -1.308388      1.355574     -1.161901
44
Coordinates from ORCA-job orca E -887.609721308954
  O      -1.319790     -0.650118     -2.006020
  C      -1.235730      0.036487     -1.021062
  C      -1.056807     -0.527723      0.357478
  C      -0.736827      0.438019      1.458714
  H       0.328231      0.694623      1.425206
  H      -0.922580     -0.029559      2.426858
  C      -1.567783      1.698145      1.275292
  H      -1.325909      2.431515      2.046758
  H      -2.633523      1.468237      1.348955
  C      -1.278176      2.320017     -0.076997
  H      -0.260399      2.730037     -0.071446
  C      -2.259641      3.406632     -0.480800
  C      -2.264978      4.613381      0.451257
  H      -2.593053      4.312702      1.450371
  H      -1.244739      4.997485      0.561914
  C      -3.173405      5.725124     -0.059449
  H      -3.176910      6.580991      0.617606
  H      -4.202360      5.372533     -0.159105
  H      -2.846463      6.077083     -1.040498
  H      -3.257209      2.960070     -0.534824
  H      -2.002167      3.728357     -1.493771
  C      -1.221988     -1.831151      0.528643
  H      -1.120019     -2.279918      1.510773
  H      -1.466976     -2.484497     -0.298217
  C      -4.079529     -2.461648     -1.757741
  H      -4.263595     -3.404210     -1.258249
  C      -5.020172     -1.316183     -1.560081
  C      -4.707724     -0.698272     -0.191729
  O      -4.920596     -1.559180      0.811228
  C      -4.656865     -1.064614      2.119429
  H      -4.949060     -1.859722      2.800951
  H      -3.596218     -0.839988      2.243353
  H      -5.238479     -0.163939      2.315311
  O      -4.310598      0.423291     -0.007869
  C      -6.478555     -1.802507     -1.552810
  H      -6.635451     -2.582223     -0.807836
  H      -7.163274     -0.978383     -1.339551
  H      -6.727873     -2.207386     -2.534581
  C      -4.815210     -0.254050     -2.638414
  H      -3.783950      0.096712     -2.662881
  H      -5.463701      0.605849     -2.465018
  H      -5.055567     -0.680135     -3.613848
  H      -3.123244     -2.294394     -2.235847
  O      -1.297115      1.362143     -1.159299
44
Coordinates from ORCA-job orca E -887.609777350847
  O      -1.309284     -0.649641     -2.000637
  C      -1.226113      0.038449     -1.016665
  C      -1.046890     -0.522548      0.362786
  C      -0.726945      0.444866      1.463071
  H       0.336959      0.706682      1.427336
  H      -0.907823     -0.023528      2.431884
  C      -1.562631      1.702206      1.278407
  H      -1.326195      2.437150      2.050283
  H      -2.627720      1.467386      1.349721
  C      -1.272479      2.323866     -0.074328
  H      -0.254839      2.734795     -0.067912
  C      -2.254678      3.408942     -0.480343
  C      -2.261589      4.617828      0.448816
  H      -2.589021      4.318842      1.448934
  H      -1.241370      5.002645      0.559588
  C      -3.170595      5.728224     -0.063426
  H      -3.175240      6.584819      0.612903
  H      -4.199524      5.375043     -0.163486
  H      -2.844288      6.080029     -1.044958
  H      -3.251586      2.960330     -0.533497
  H      -1.997803      3.728300     -1.494395
  C      -1.209599     -1.827219      0.535566
  H      -1.106254     -2.275595      1.517606
  H      -1.454860     -2.476969     -0.294116
  C      -4.089725     -2.466146     -1.768083
  H      -4.274489     -3.412143     -1.274844
  C      -5.028390     -1.319723     -1.562376
  C      -4.713091     -0.705315     -0.193163
  O      -4.927017     -1.569266      0.807723
  C      -4.668026     -1.077497      2.117994
  H      -4.953438     -1.876246      2.798051
  H      -3.609250     -0.843553      2.239065
  H      -5.256133     -0.181229      2.316116
  O      -4.316361      0.416163     -0.006979
  C      -6.487841     -1.804201     -1.552531
  H      -6.643460     -2.584436     -0.807703
  H      -7.170711     -0.979227     -1.335853
  H      -6.741186     -2.207331     -2.534137
  C      -4.822741     -0.254845     -2.638354
  H      -3.790406      0.093442     -2.657376
  H      -5.470491      0.605635     -2.464623
  H      -5.060742     -0.678345     -3.615563
  H      -3.131874     -2.295847     -2.242757
  O      -1.290238      1.364839     -1.155593
44
Coordinates from ORCA-job orca E -887.609810729150
  O      -1.303919     -0.651252     -1.994650
  C      -1.220504      0.037793     -1.011483
  C      -1.040366     -0.520009      0.368790
  C      -0.720171      0.449907      1.466874
  H       0.342786      0.715391      1.427292
  H      -0.895080     -0.017039      2.437491
  C      -1.559388      1.705023      1.281211
  H      -1.326975      2.441362      2.052905
  H      -2.623758      1.466046      1.350729
  C      -1.269303      2.325173     -0.072386
  H      -0.251887      2.736729     -0.065877
  C      -2.252496      3.408442     -0.480746
  C      -2.259696      4.620136      0.444288
  H      -2.584343      4.323802      1.446189
  H      -1.239598      5.006130      0.552803
  C      -3.170666      5.728005     -0.068945
  H      -3.175605      6.586030      0.605564
  H      -4.199458      5.373721     -0.167070
  H      -2.847146      6.078601     -1.051874
  H      -3.248641      2.957846     -0.531668
  H      -1.996907      3.723955     -1.496344
  C      -1.200526     -1.825256      0.543310
  H      -1.095985     -2.273488      1.524998
  H      -1.445020     -2.470963     -0.289771
  C      -4.097064     -2.466532     -1.775808
  H      -4.284154     -3.415653     -1.289452
  C      -5.033867     -1.319370     -1.563716
  C      -4.716626     -0.709229     -0.193116
  O      -4.930045     -1.577080      0.804775
  C      -4.673956     -1.089997      2.117228
  H      -4.952645     -1.893294      2.794479
  H      -3.617107     -0.847305      2.236119
  H      -5.268092     -0.198514      2.319575
  O      -4.320722      0.411916     -0.003375
  C      -6.493990     -1.801862     -1.553585
  H      -6.649483     -2.582913     -0.809636
  H      -7.175206     -0.976162     -1.334325
  H      -6.749692     -2.202465     -2.535588
  C      -4.826225     -0.251180     -2.636485
  H      -3.792681      0.093539     -2.650349
  H      -5.472251      0.610204     -2.461306
  H      -5.062604     -0.671262     -3.615502
  H      -3.138212     -2.293716     -2.247654
  O      -1.286705      1.364419     -1.151756
44
Coordinates from ORCA-job orca E -887.609845007432
  O      -1.302289     -0.655420     -1.987486
  C      -1.217758      0.034748     -1.005270
  C      -1.035832     -0.519784      0.375879
  C      -0.715042      0.453576      1.470439
  H       0.347176      0.721450      1.425488
  H      -0.883126     -0.009872      2.443922
  C      -1.557194      1.706680      1.283779
  H      -1.327604      2.444431      2.054747
  H      -2.620794      1.463978      1.352118
  C      -1.268189      2.324360     -0.071161
  H      -0.251161      2.736753     -0.065568
  C      -2.253106      3.405280     -0.481865
  C      -2.259618      4.620701      0.437762
  H      -2.579543      4.328096      1.442256
  H      -1.239822      5.008698      0.541476
  C      -3.174191      5.724667     -0.076426
  H      -3.178595      6.585257      0.594731
  H      -4.202720      5.368483     -0.169918
  H      -2.855487      6.072379     -1.061895
  H      -3.248416      2.952573     -0.528886
  H      -1.999854      3.715723     -1.499554
  C      -1.194066     -1.825066      0.552206
  H      -1.088766     -2.273567      1.533382
  H      -1.437016     -2.466744     -0.284435
  C      -4.102826     -2.463610     -1.780972
  H      -4.294371     -3.415492     -1.302035
  C      -5.037193     -1.315238     -1.564300
  C      -4.718814     -0.710669     -0.191511
  O      -4.930071     -1.583652      0.802275
  C      -4.674808     -1.103198      2.117120
  H      -4.945729     -1.912548      2.790077
  H      -3.619988     -0.851591      2.234251
  H      -5.275352     -0.217549      2.326276
  O      -4.324256      0.410002      0.003283
  C      -6.498179     -1.794302     -1.556428
  H      -6.655656     -2.576535     -0.814266
  H      -7.177412     -0.967446     -1.335515
  H      -6.754569     -2.191455     -2.539544
  C      -4.825363     -0.243311     -2.632910
  H      -3.790281      0.096676     -2.641703
  H      -5.468574      0.619537     -2.455422
  H      -5.060637     -0.659123     -3.613886
  H      -3.143212     -2.289400     -2.250524
  O      -1.285674      1.361154     -1.147837
44
Coordinates from ORCA-job orca E -887.609876352582
  O      -1.303815     -0.663449     -1.978167
  C      -1.217284      0.028767     -0.997516
  C      -1.032461     -0.521926      0.384798
  C      -0.710689      0.456221      1.474242
  H       0.350935      0.725428      1.422195
  H      -0.871013     -0.001390      2.451764
  C      -1.555671      1.707181      1.286159
  H      -1.327918      2.446710      2.055650
  H      -2.618415      1.460799      1.354096
  C      -1.269269      2.321254     -0.070859
  H      -0.252993      2.735272     -0.067622
  C      -2.257191      3.398660     -0.484023
  C      -2.261882      4.619245      0.428223
  H      -2.574410      4.331879      1.436458
  H      -1.242655      5.010609      0.523511
  C      -3.182648      5.717229     -0.086972
  H      -3.185383      6.582081      0.578572
  H      -4.210730      5.357837     -0.171842
  H      -2.871657      6.059586     -1.076669
  H      -3.251553      2.943492     -0.524518
  H      -2.008003      3.702445     -1.504607
  C      -1.189787     -1.826788      0.563052
  H      -1.084406     -2.276137      1.543566
  H      -1.430260     -2.464687     -0.277205
  C      -4.107954     -2.457210     -1.783598
  H      -4.307205     -3.411592     -1.313256
  C      -5.038214     -1.306189     -1.564043
  C      -4.719634     -0.709549     -0.187782
  O      -4.926883     -1.589821      0.800077
  C      -4.670177     -1.119013      2.117896
  H      -4.930535     -1.937126      2.784256
  H      -3.617746     -0.857038      2.233332
  H      -5.278697     -0.241493      2.337997
  O      -4.327400      0.410555      0.014438
  C      -6.500914     -1.778739     -1.561498
  H      -6.663576     -2.562721     -0.822408
  H      -7.177026     -0.949662     -1.339649
  H      -6.756518     -2.170982     -2.546683
  C      -4.818437     -0.229936     -2.627002
  H      -3.781142      0.103400     -2.630381
  H      -5.457064      0.635447     -2.446256
  H      -5.053106     -0.640038     -3.610378
  H      -3.147641     -2.283434     -2.251348
  O      -1.286954      1.354454     -1.143848
44
Coordinates from ORCA-job orca E -887.609910764345
  O      -1.307151     -0.674146     -1.968848
  C      -1.218535      0.021217     -0.990479
  C      -1.030477     -0.525740      0.393166
  C      -0.707718      0.457160      1.477466
  H       0.353611      0.726437      1.419215
  H      -0.862371      0.005743      2.458798
  C      -1.554934      1.706189      1.287302
  H      -1.327688      2.447727      2.054796
  H      -2.616934      1.457099      1.356041
  C      -1.272307      2.316587     -0.072056
  H      -0.257124      2.733077     -0.072337
  C      -2.264148      3.389849     -0.486904
  C      -2.266413      4.615931      0.417815
  H      -2.570512      4.334032      1.430068
  H      -1.248050      5.011620      0.502718
  C      -3.195039      5.706940     -0.098081
  H      -3.195191      6.577000      0.560564
  H      -4.222463      5.343431     -0.171575
  H      -2.893250      6.042253     -1.092935
  H      -3.257707      2.932469     -0.519309
  H      -2.020317      3.687341     -1.510553
  C      -1.188661     -1.829875      0.572914
  H      -1.084205     -2.280355      1.552933
  H      -1.426446     -2.466044     -0.269509
  C      -4.111738     -2.449396     -1.782859
  H      -4.320617     -3.405215     -1.320057
  C      -5.036093     -1.293971     -1.562812
  C      -4.718564     -0.706111     -0.182489
  O      -4.921261     -1.594286      0.798815
  C      -4.661375     -1.134016      2.119572
  H      -4.910068     -1.961880      2.778323
  H      -3.611196     -0.862393      2.233479
  H      -5.277975     -0.265559      2.352614
  O      -4.329474      0.413556      0.027988
  C      -6.501521     -1.756990     -1.567333
  H      -6.672094     -2.542694     -0.831868
  H      -7.173302     -0.924492     -1.345430
  H      -6.755425     -2.144030     -2.554959
  C      -4.805614     -0.214157     -2.619944
  H      -3.765892      0.111944     -2.618985
  H      -5.438650      0.654568     -2.436059
  H      -5.040413     -0.618293     -3.605685
  H      -3.150812     -2.278741     -2.249932
  O      -1.289864      1.345846     -1.141441
44
Coordinates from ORCA-job orca E -887.609940863507
  O      -1.308517     -0.684509     -1.961407
  C      -1.218989      0.014684     -0.985733
  C      -1.028234     -0.528992      0.399257
  C      -0.705245      0.457363      1.480017
  H       0.355917      0.726584      1.418722
  H      -0.858100      0.010130      2.463581
  C      -1.554477      1.704455      1.287126
  H      -1.327312      2.448176      2.052515
  H      -2.615904      1.453516      1.357559
  C      -1.275743      2.312186     -0.074151
  H      -0.261822      2.731614     -0.078075
  C      -2.271599      3.381386     -0.489702
  C      -2.271629      4.612175      0.408932
  H      -2.568878      4.334841      1.424414
  H      -1.254136      5.011770      0.484597
  C      -3.207273      5.697209     -0.107697
  H      -3.204624      6.572119      0.544478
  H      -4.234070      5.330059     -0.170372
  H      -2.913377      6.025486     -1.107231
  H      -3.264640      2.922481     -0.514273
  H      -2.033221      3.674436     -1.515879
  C      -1.188602     -1.832368      0.580004
  H      -1.085760     -2.283550      1.559996
  H      -1.424354     -2.469436     -0.262413
  C      -4.115076     -2.443341     -1.780973
  H      -4.333175     -3.399653     -1.323716
  C      -5.032354     -1.282430     -1.561136
  C      -4.716665     -0.702617     -0.176977
  O      -4.915948     -1.597767      0.798384
  C      -4.652969     -1.146614      2.121642
  H      -4.890483     -1.983365      2.773429
  H      -3.604693     -0.866873      2.233881
  H      -5.276932     -0.286768      2.366632
  O      -4.331217      0.416918      0.041011
  C      -6.501080     -1.734792     -1.572094
  H      -6.679916     -2.522136     -0.840257
  H      -7.167811     -0.898404     -1.349752
  H      -6.753892     -2.116890     -2.561961
  C      -4.791430     -0.200261     -2.613259
  H      -3.749697      0.119711     -2.609671
  H      -5.419255      0.671760     -2.426994
  H      -5.026936     -0.599117     -3.600999
  H      -3.153488     -2.277793     -2.248225
  O      -1.292378      1.338246     -1.141079
44
Coordinates from ORCA-job orca E -887.609973418931
  O      -1.305694     -0.694732     -1.954859
  C      -1.216921      0.009012     -0.982323
  C      -1.024122     -0.531062      0.404270
  C      -0.701922      0.457950      1.482813
  H       0.358993      0.727909      1.421518
  H      -0.856254      0.012871      2.467163
  C      -1.553665      1.702644      1.286125
  H      -1.327116      2.449176      2.049113
  H      -2.614440      1.449834      1.358890
  C      -1.278885      2.308300     -0.076805
  H      -0.266466      2.731264     -0.084344
  C      -2.279032      3.373156     -0.492622
  C      -2.277035      4.608438      0.400443
  H      -2.568449      4.335334      1.418755
  H      -1.260412      5.011669      0.467721
  C      -3.219124      5.688006     -0.117119
  H      -3.213504      6.567609      0.528734
  H      -4.245337      5.317600     -0.169284
  H      -2.932401      6.009154     -1.121057
  H      -3.271712      2.913113     -0.509180
  H      -2.046431      3.662788     -1.521093
  C      -1.187283     -1.833788      0.586315
  H      -1.086464     -2.284667      1.566899
  H      -1.421520     -2.473874     -0.254363
  C      -4.119752     -2.439228     -1.780367
  H      -4.347256     -3.395831     -1.328413
  C      -5.028073     -1.271588     -1.559264
  C      -4.714603     -0.700007     -0.171170
  O      -4.911517     -1.602038      0.798214
  C      -4.646430     -1.159587      2.124090
  H      -4.871795     -2.005182      2.768946
  H      -3.600227     -0.871223      2.233977
  H      -5.278323     -0.308971      2.380672
  O      -4.333804      0.419693      0.054476
  C      -6.500768     -1.711943     -1.575886
  H      -6.687876     -2.501362     -0.848208
  H      -7.161358     -0.871229     -1.351562
  H      -6.753817     -2.088210     -2.568015
  C      -4.777123     -0.187180     -2.606283
  H      -3.733613      0.127205     -2.600949
  H      -5.399870      0.688087     -2.417723
  H      -5.013778     -0.580408     -3.596093
  H      -3.157168     -2.280629     -2.247986
  O      -1.293634      1.331557     -1.142015
44
Coordinates from ORCA-job orca E -887.609993797815
  O      -1.298145     -0.704441     -1.948928
  C      -1.211859      0.003854     -0.979454
  C      -1.018071     -0.531899      0.409006
  C      -0.697792      0.459433      1.486307
  H       0.362661      0.731348      1.427330
  H      -0.855579      0.014931      2.470423
  C      -1.552572      1.701334      1.284941
  H      -1.327651      2.451415      2.045183
  H      -2.612512      1.446114      1.360240
  C      -1.281338      2.304839     -0.079551
  H      -0.270457      2.731491     -0.090236
  C      -2.285767      3.365206     -0.495924
  C      -2.282016      4.605083      0.391409
  H      -2.568033      4.336197      1.412419
  H      -1.266166      5.011520      0.451193
  C      -3.229935      5.679572     -0.127039
  H      -3.221494      6.563495      0.512950
  H      -4.255636      5.306431     -0.169441
  H      -2.950089      5.994148     -1.135050
  H      -3.278119      2.904154     -0.504504
  H      -2.058933      3.651400     -1.526680
  C      -1.183346     -1.834163      0.593427
  H      -1.084371     -2.283201      1.575247
  H      -1.416353     -2.478216     -0.244626
  C      -4.126206     -2.436397     -1.782932
  H      -4.363258     -3.393738     -1.337399
  C      -5.024144     -1.261568     -1.557376
  C      -4.712836     -0.698808     -0.165261
  O      -4.907952     -1.608107      0.797780
  C      -4.642517     -1.174511      2.126710
  H      -4.854822     -2.028901      2.764499
  H      -3.598900     -0.876022      2.233567
  H      -5.283195     -0.333854      2.394241
  O      -4.337782      0.421265      0.068540
  C      -6.501095     -1.689510     -1.578453
  H      -6.695602     -2.481455     -0.855329
  H      -7.154781     -0.844429     -1.350200
  H      -6.756035     -2.058761     -2.572817
  C      -4.764211     -0.174013     -2.598616
  H      -3.719000      0.134931     -2.591784
  H      -5.381932      0.704287     -2.407109
  H      -5.002377     -0.560581     -3.590781
  H      -3.162231     -2.285757     -2.250520
  O      -1.293531      1.325512     -1.143253
44
Coordinates from ORCA-job orca E -887.610018964444
  O      -1.287316     -0.714168     -1.942824
  C      -1.204775     -0.001866     -0.975983
  C      -1.010945     -0.532294      0.414555
  C      -0.693468      0.461747      1.490657
  H       0.366292      0.736604      1.434763
  H      -0.854836      0.017440      2.474328
  C      -1.551680      1.700576      1.284216
  H      -1.329190      2.454795      2.041274
  H      -2.610540      1.442103      1.362124
  C      -1.283647      2.301153     -0.082088
  H      -0.274295      2.731416     -0.095479
  C      -2.292320      3.356777     -0.499824
  C      -2.286952      4.601868      0.380573
  H      -2.567439      4.338040      1.404513
  H      -1.271736      5.010995      0.433233
  C      -3.240058      5.671266     -0.139107
  H      -3.229234      6.559279      0.495212
  H      -4.265343      5.295940     -0.172699
  H      -2.966953      5.979773     -1.150892
  H      -3.284207      2.894515     -0.500193
  H      -2.071210      3.638243     -1.533140
  C      -1.176626     -1.834215      0.602961
  H      -1.078825     -2.279728      1.586561
  H      -1.408259     -2.482117     -0.232475
  C      -4.134356     -2.433017     -1.789262
  H      -4.381778     -3.391959     -1.352764
  C      -5.020777     -1.251157     -1.555280
  C      -4.711401     -0.698732     -0.158767
  O      -4.903995     -1.616583      0.796842
  C      -4.639665     -1.193037      2.129466
  H      -4.837677     -2.056608      2.759434
  H      -3.599493     -0.882099      2.232858
  H      -5.290233     -0.363537      2.407933
  O      -4.343415      0.421763      0.084464
  C      -6.501961     -1.666579     -1.580335
  H      -6.703108     -2.461641     -0.862384
  H      -7.148336     -0.817347     -1.346466
  H      -6.759765     -2.027216     -2.577137
  C      -4.752371     -0.158737     -2.589143
  H      -3.705283      0.144069     -2.580415
  H      -5.364630      0.722443     -2.393132
  H      -4.992427     -0.536787     -3.584209
  H      -3.168641     -2.290743     -2.256084
  O      -1.293105      1.318993     -1.143733
44
Coordinates from ORCA-job orca E -887.610046991744
  O      -1.273558     -0.726512     -1.934471
  C      -1.196174     -0.010203     -0.970221
  C      -1.002758     -0.533265      0.422862
  C      -0.688968      0.465156      1.496431
  H       0.369808      0.743927      1.442948
  H      -0.852768      0.022145      2.480286
  C      -1.551526      1.700127      1.284173
  H      -1.332181      2.459534      2.037037
  H      -2.608905      1.436960      1.365153
  C      -1.287176      2.295881     -0.084856
  H      -0.279571      2.730164     -0.101251
  C      -2.300760      3.345648     -0.505264
  C      -2.293288      4.597616      0.365329
  H      -2.566667      4.340951      1.393088
  H      -1.278668      5.009356      0.409315
  C      -3.251987      5.660787     -0.156227
  H      -3.238956      6.553561      0.471370
  H      -4.276792      5.283312     -0.180327
  H      -2.986782      5.962435     -1.172209
  H      -3.291805      2.881573     -0.495557
  H      -2.086252      3.619525     -1.541997
  C      -1.166808     -1.834723      0.617811
  H      -1.069460     -2.274526      1.603926
  H      -1.396491     -2.486545     -0.215044
  C      -4.145248     -2.426920     -1.799684
  H      -4.406477     -3.388470     -1.377080
  C      -5.017345     -1.237298     -1.552495
  C      -4.709899     -0.699237     -0.150199
  O      -4.897148     -1.629039      0.795000
  C      -4.634614     -1.218979      2.132446
  H      -4.814303     -2.093892      2.751986
  H      -3.599584     -0.890819      2.231945
  H      -5.297955     -0.404265      2.424280
  O      -4.351707      0.421641      0.105932
  C      -6.503307     -1.637646     -1.582696
  H      -6.712305     -2.436952     -0.871712
  H      -7.140864     -0.783836     -1.341233
  H      -6.764420     -1.986423     -2.582814
  C      -4.738394     -0.137257     -2.575601
  H      -3.688782      0.156867     -2.563721
  H      -5.343301      0.747338     -2.372325
  H      -4.980835     -0.503132     -3.574663
  H      -3.177223     -2.294575     -2.264700
  O      -1.293776      1.309641     -1.142817
44
Coordinates from ORCA-job orca E -887.610057985592
  O      -1.271867     -0.727580     -1.933759
  C      -1.195927     -0.011637     -0.969224
  C      -1.002625     -0.533810      0.424025
  C      -0.689497      0.465577      1.497044
  H       0.369178      0.744736      1.443410
  H      -0.852866      0.023062      2.481293
  C      -1.552389      1.700218      1.284484
  H      -1.333097      2.460098      2.036785
  H      -2.609465      1.436455      1.365880
  C      -1.288373      2.295030     -0.085070
  H      -0.280763      2.729244     -0.101509
  C      -2.302007      3.344680     -0.506255
  C      -2.294490      4.597055      0.363509
  H      -2.568321      4.341070      1.391253
  H      -1.279700      5.008063      0.408020
  C      -3.252080      5.660570     -0.158748
  H      -3.239786      6.553031      0.469161
  H      -4.276906      5.283729     -0.184483
  H      -2.985734      5.962672     -1.174121
  H      -3.292981      2.880438     -0.496356
  H      -2.087261      3.617420     -1.543200
  C      -1.165117     -1.835295      0.620463
  H      -1.066982     -2.273438      1.607168
  H      -1.394782     -2.487749     -0.211932
  C      -4.146597     -2.425890     -1.801904
  H      -4.409799     -3.388060     -1.381704
  C      -5.017261     -1.235785     -1.552202
  C      -4.709591     -0.699759     -0.149232
  O      -4.894780     -1.631225      0.794618
  C      -4.632494     -1.222408      2.132552
  H      -4.810788     -2.098165      2.751058
  H      -3.598058     -0.892227      2.232086
  H      -5.296964     -0.408986      2.425102
  O      -4.352977      0.421127      0.108699
  C      -6.503461     -1.634980     -1.582838
  H      -6.713057     -2.434497     -0.872339
  H      -7.140438     -0.780913     -1.341001
  H      -6.764584     -1.982735     -2.583223
  C      -4.737681     -0.134220     -2.573608
  H      -3.687868      0.158917     -2.561387
  H      -5.341830      0.750478     -2.368693
  H      -4.980591     -0.498308     -3.573213
  H      -3.178101     -2.294535     -2.266348
  O      -1.295226      1.308160     -1.142110
44
Coordinates from ORCA-job orca E -887.610104960957
  O      -1.259363     -0.741160     -1.923213
  C      -1.193080     -0.024608     -0.958681
  C      -0.999726     -0.538412      0.436655
  C      -0.690620      0.469389      1.503515
  H       0.367187      0.751410      1.446657
  H      -0.849388      0.032549      2.491290
  C      -1.557336      1.700546      1.287104
  H      -1.338970      2.464804      2.034811
  H      -2.612584      1.431690      1.371577
  C      -1.296611      2.287206     -0.086925
  H      -0.289468      2.722379     -0.105425
  C      -2.311985      3.333682     -0.514401
  C      -2.303348      4.591940      0.345784
  H      -2.573535      4.342940      1.376400
  H      -1.288116      5.002979      0.385905
  C      -3.261862      5.651666     -0.180806
  H      -3.251275      6.546915      0.443431
  H      -4.286956      5.274209     -0.205665
  H      -2.997514      5.950793     -1.198025
  H      -3.302025      2.867396     -0.499915
  H      -2.098237      3.596203     -1.554188
  C      -1.152604     -1.839467      0.643707
  H      -1.049898     -2.266700      1.634272
  H      -1.381574     -2.496841     -0.184992
  C      -4.159178     -2.415709     -1.817455
  H      -4.441114     -3.381886     -1.417986
  C      -5.015699     -1.219335     -1.549941
  C      -4.706306     -0.701997     -0.140367
  O      -4.875497     -1.649014      0.790671
  C      -4.614796     -1.253491      2.133411
  H      -4.777166     -2.139981      2.741425
  H      -3.586045     -0.904825      2.232509
  H      -5.291769     -0.453740      2.436855
  O      -4.362455      0.418990      0.133840
  C      -6.505732     -1.603939     -1.586237
  H      -6.723534     -2.407826     -0.882855
  H      -7.134893     -0.745670     -1.338138
  H      -6.768529     -1.939140     -2.590663
  C      -4.725870     -0.106453     -2.557069
  H      -3.673320      0.176141     -2.540254
  H      -5.321854      0.780772     -2.340185
  H      -4.971693     -0.455493     -3.561340
  H      -3.186913     -2.293533     -2.276685
  O      -1.304731      1.294246     -1.136257
44
Coordinates from ORCA-job orca E -887.610125683615
  O      -1.251808     -0.751056     -1.917002
  C      -1.191647     -0.032083     -0.953786
  C      -0.998319     -0.540528      0.443225
  C      -0.691638      0.471784      1.506532
  H       0.365770      0.755359      1.448758
  H      -0.849556      0.037793      2.495651
  C      -1.560964      1.700495      1.286834
  H      -1.342915      2.467631      2.031684
  H      -2.615570      1.429583      1.373518
  C      -1.302279      2.282415     -0.089533
  H      -0.295453      2.718405     -0.109981
  C      -2.318498      3.326982     -0.519543
  C      -2.310318      4.587147      0.337294
  H      -2.581441      4.340663      1.367854
  H      -1.295225      4.997480      0.377466
  C      -3.267520      5.646196     -0.192162
  H      -3.259179      6.541561      0.431412
  H      -4.292023      5.268989     -0.219797
  H      -3.000614      5.944786     -1.208167
  H      -3.308071      2.860163     -0.503248
  H      -2.104872      3.586107     -1.560014
  C      -1.146773     -1.841079      0.656204
  H      -1.041955     -2.262103      1.649270
  H      -1.375905     -2.503884     -0.168014
  C      -4.166390     -2.410220     -1.825434
  H      -4.459798     -3.377412     -1.438144
  C      -5.013432     -1.209637     -1.548430
  C      -4.703116     -0.702865     -0.135620
  O      -4.862799     -1.658460      0.787912
  C      -4.603265     -1.269866      2.132933
  H      -4.756827     -2.161165      2.734664
  H      -3.578214     -0.912073      2.232718
  H      -5.286343     -0.478601      2.441838
  O      -4.367938      0.418478      0.147425
  C      -6.505947     -1.584099     -1.586255
  H      -6.728942     -2.388939     -0.886082
  H      -7.129678     -0.722952     -1.335318
  H      -6.770183     -1.913903     -2.591611
  C      -4.717216     -0.091798     -2.547916
  H      -3.663253      0.184951     -2.529405
  H      -5.308398      0.796962     -2.324876
  H      -4.964750     -0.432784     -3.554334
  H      -3.191856     -2.294645     -2.281378
  O      -1.310860      1.285851     -1.134991
44
Coordinates from ORCA-job orca E -887.610162254490
  O      -1.242333     -0.768062     -1.903490
  C      -1.188809     -0.043355     -0.944053
  C      -0.994118     -0.543095      0.455858
  C      -0.689988      0.476606      1.512590
  H       0.366463      0.763168      1.450949
  H      -0.844250      0.048120      2.504596
  C      -1.564483      1.700768      1.287324
  H      -1.347830      2.472335      2.027989
  H      -2.618209      1.426408      1.376692
  C      -1.309300      2.275393     -0.092724
  H      -0.303258      2.713171     -0.117282
  C      -2.327720      3.315730     -0.527035
  C      -2.320303      4.580377      0.323125
  H      -2.590433      4.338916      1.354983
  H      -1.305883      4.992257      0.359912
  C      -3.279193      5.635422     -0.211385
  H      -3.272199      6.533848      0.407702
  H      -4.302763      5.256286     -0.237008
  H      -3.012611      5.929138     -1.228703
  H      -3.316443      2.847381     -0.506753
  H      -2.115642      3.569406     -1.569193
  C      -1.137922     -1.842740      0.676386
  H      -1.030781     -2.257049      1.672138
  H      -1.367044     -2.512467     -0.142122
  C      -4.178836     -2.400953     -1.836854
  H      -4.490242     -3.370250     -1.469769
  C      -5.011361     -1.193590     -1.546602
  C      -4.699291     -0.704127     -0.128228
  O      -4.844468     -1.673811      0.782913
  C      -4.586616     -1.298167      2.132176
  H      -4.722985     -2.199771      2.723078
  H      -3.567255     -0.924612      2.232494
  H      -5.281981     -0.522284      2.453286
  O      -4.376829      0.417515      0.168703
  C      -6.508172     -1.550606     -1.587834
  H      -6.740381     -2.359056     -0.894718
  H      -7.122332     -0.684665     -1.330013
  H      -6.775514     -1.869290     -2.595968
  C      -4.702693     -0.068447     -2.534141
  H      -3.646027      0.197946     -2.511029
  H      -5.285609      0.823560     -2.302619
  H      -4.951570     -0.396923     -3.544337
  H      -3.200692     -2.293458     -2.286611
  O      -1.318077      1.272657     -1.132273
44
Coordinates from ORCA-job orca E -887.610202746836
  O      -1.237262     -0.789654     -1.884216
  C      -1.188960     -0.055951     -0.931356
  C      -0.991472     -0.545598      0.472302
  C      -0.688130      0.482791      1.519916
  H       0.367114      0.771974      1.450337
  H      -0.835423      0.062385      2.516222
  C      -1.567846      1.702004      1.287835
  H      -1.351644      2.477601      2.024390
  H      -2.621463      1.426996      1.379183
  C      -1.315412      2.267815     -0.096401
  H      -0.309390      2.705284     -0.126877
  C      -2.334118      3.304951     -0.536324
  C      -2.331273      4.571987      0.310710
  H      -2.603060      4.332324      1.342518
  H      -1.318307      4.987954      0.346446
  C      -3.293728      5.622121     -0.229323
  H      -3.289102      6.523527      0.385562
  H      -4.315930      5.238247     -0.252687
  H      -3.026537      5.911039     -1.248182
  H      -3.322208      2.835421     -0.518102
  H      -2.119858      3.557467     -1.578368
  C      -1.131256     -1.844081      0.699987
  H      -1.020767     -2.253078      1.697876
  H      -1.362461     -2.523311     -0.110011
  C      -4.192335     -2.390259     -1.849150
  H      -4.522685     -3.361923     -1.507998
  C      -5.011070     -1.177092     -1.546319
  C      -4.693749     -0.705217     -0.123269
  O      -4.819585     -1.688771      0.775046
  C      -4.564666     -1.325228      2.127984
  H      -4.686043     -2.235468      2.708004
  H      -3.550681     -0.939666      2.233549
  H      -5.270865     -0.564765      2.459821
  O      -4.385250      0.416780      0.186151
  C      -6.511888     -1.514690     -1.587974
  H      -6.753321     -2.327882     -0.903325
  H      -7.115072     -0.644194     -1.320392
  H      -6.784594     -1.820994     -2.598796
  C      -4.689092     -0.046365     -2.522557
  H      -3.629820      0.208792     -2.493586
  H      -5.263456      0.849030     -2.283516
  H      -4.937840     -0.363444     -3.536168
  H      -3.208875     -2.286484     -2.287294
  O      -1.326599      1.257252     -1.129498
44
Coordinates from ORCA-job orca E -887.610221860016
  O      -1.229314     -0.809337     -1.866404
  C      -1.184339     -0.067414     -0.919573
  C      -0.983775     -0.546626      0.487689
  C      -0.682910      0.489752      1.528300
  H       0.370816      0.783614      1.455162
  H      -0.827035      0.075377      2.527672
  C      -1.568108      1.703675      1.288100
  H      -1.354618      2.484956      2.019599
  H      -2.621036      1.425973      1.381790
  C      -1.319190      2.261211     -0.099885
  H      -0.314096      2.700378     -0.136176
  C      -2.340979      3.292613     -0.544540
  C      -2.340532      4.564819      0.295343
  H      -2.610225      4.330260      1.329057
  H      -1.328868      4.984382      0.326931
  C      -3.307301      5.608793     -0.249532
  H      -3.303215      6.514252      0.359427
  H      -4.328362      5.221671     -0.267501
  H      -3.043066      5.891421     -1.270958
  H      -3.327948      2.820729     -0.521911
  H      -2.129369      3.540753     -1.588376
  C      -1.121022     -1.844081      0.723292
  H      -1.009118     -2.247574      1.723394
  H      -1.352045     -2.529786     -0.081274
  C      -4.206816     -2.380156     -1.863770
  H      -4.554131     -3.354821     -1.547174
  C      -5.010961     -1.160833     -1.545217
  C      -4.691058     -0.706277     -0.116486
  O      -4.802555     -1.704118      0.768488
  C      -4.550909     -1.357025      2.126732
  H      -4.651548     -2.279333      2.693504
  H      -3.543481     -0.954119      2.232777
  H      -5.271388     -0.615543      2.473871
  O      -4.396114      0.415999      0.207049
  C      -6.516115     -1.479935     -1.589210
  H      -6.766428     -2.297856     -0.913112
  H      -7.108562     -0.605170     -1.311557
  H      -6.793738     -1.772644     -2.602796
  C      -4.676096     -0.022425     -2.508870
  H      -3.614059      0.221245     -2.473807
  H      -5.241794      0.876467     -2.261672
  H      -4.925240     -0.326000     -3.526798
  H      -3.218691     -2.280998     -2.292762
  O      -1.330642      1.243359     -1.126666
44
Coordinates from ORCA-job orca E -887.610228458650
  O      -1.231879     -0.811856     -1.862638
  C      -1.184357     -0.068450     -0.917373
  C      -0.981916     -0.545809      0.490535
  C      -0.681121      0.491546      1.530212
  H       0.372248      0.786488      1.456776
  H      -0.824877      0.078215      2.530093
  C      -1.566080      1.705133      1.288171
  H      -1.352686      2.487205      2.018871
  H      -2.619242      1.429079      1.381829
  C      -1.316843      2.261436     -0.100345
  H      -0.311292      2.699345     -0.137764
  C      -2.338173      3.293101     -0.546282
  C      -2.340561      4.564290      0.295380
  H      -2.612088      4.328142      1.328385
  H      -1.329211      4.984768      0.329720
  C      -3.307363      5.608151     -0.249756
  H      -3.303915      6.513212      0.359989
  H      -4.328464      5.220572     -0.268613
  H      -3.042435      5.891712     -1.270997
  H      -3.325224      2.820828     -0.527016
  H      -2.124603      3.543521     -1.589203
  C      -1.119148     -1.843112      0.727566
  H      -1.006275     -2.246357      1.727680
  H      -1.350909     -2.529534     -0.076238
  C      -4.208497     -2.379484     -1.867378
  H      -4.554575     -3.356255     -1.555980
  C      -5.013773     -1.161549     -1.546225
  C      -4.692007     -0.706857     -0.117830
  O      -4.801237     -1.704972      0.766582
  C      -4.550693     -1.359023      2.125015
  H      -4.652140     -2.281798      2.690734
  H      -3.542941     -0.957015      2.233466
  H      -5.271191     -0.617854      2.472500
  O      -4.397656      0.415448      0.205430
  C      -6.518720     -1.480794     -1.588663
  H      -6.767971     -2.300216     -0.913762
  H      -7.110848     -0.606710     -1.308186
  H      -6.798040     -1.771551     -2.602484
  C      -4.679628     -0.022324     -2.509274
  H      -3.617600      0.220971     -2.473358
  H      -5.245431      0.876380     -2.261689
  H      -4.928433     -0.325166     -3.527535
  H      -3.218686     -2.275406     -2.291795
  O      -1.329498      1.242174     -1.126402
44
Coordinates from ORCA-job orca E -887.610247705928
  O      -1.237270     -0.818290     -1.855710
  C      -1.184814     -0.072343     -0.912955
  C      -0.978931     -0.545371      0.495955
  C      -0.679413      0.494367      1.533805
  H       0.373493      0.791096      1.461851
  H      -0.824697      0.083014      2.534299
  C      -1.563664      1.707401      1.287715
  H      -1.350093      2.492083      2.015568
  H      -2.617252      1.433821      1.382714
  C      -1.314335      2.260120     -0.102114
  H      -0.308340      2.696597     -0.141580
  C      -2.335536      3.291013     -0.550551
  C      -2.342039      4.561563      0.292206
  H      -2.615726      4.324203      1.324523
  H      -1.331043      4.983076      0.330501
  C      -3.308540      5.604879     -0.253784
  H      -3.306215      6.509571      0.356740
  H      -4.329825      5.217260     -0.274140
  H      -3.043014      5.889733     -1.274761
  H      -3.322199      2.817503     -0.534918
  H      -2.119676      3.543172     -1.592610
  C      -1.115180     -1.842187      0.737398
  H      -1.000320     -2.243014      1.738145
  H      -1.347267     -2.530108     -0.065078
  C      -4.210994     -2.374574     -1.875039
  H      -4.556290     -3.355023     -1.574387
  C      -5.016791     -1.158890     -1.546875
  C      -4.692925     -0.706606     -0.117816
  O      -4.797327     -1.707662      0.763452
  C      -4.548272     -1.367400      2.123268
  H      -4.648974     -2.292844      2.684410
  H      -3.541129     -0.964765      2.235302
  H      -5.269740     -0.628960      2.474103
  O      -4.401532      0.415684      0.208081
  C      -6.521566     -1.478104     -1.587889
  H      -6.769475     -2.299526     -0.914865
  H      -7.113321     -0.605110     -1.303554
  H      -6.802683     -1.765530     -2.602047
  C      -4.683482     -0.016384     -2.507000
  H      -3.621203      0.225294     -2.470362
  H      -5.248603      0.881966     -2.256627
  H      -4.933002     -0.315543     -3.526178
  H      -3.218167     -2.263544     -2.291310
  O      -1.328606      1.237992     -1.125736
44
Coordinates from ORCA-job orca E -887.610259074046
  O      -1.243265     -0.825248     -1.849082
  C      -1.186323     -0.076895     -0.908472
  C      -0.977180     -0.545693      0.501075
  C      -0.678945      0.496612      1.536777
  H       0.373849      0.794089      1.466456
  H      -0.826318      0.087305      2.537746
  C      -1.562683      1.709166      1.287202
  H      -1.348309      2.496508      2.011935
  H      -2.616626      1.437364      1.384234
  C      -1.313575      2.257933     -0.104102
  H      -0.307379      2.693753     -0.145108
  C      -2.334804      3.287740     -0.554866
  C      -2.344903      4.558015      0.288143
  H      -2.621644      4.320287      1.319466
  H      -1.334191      4.979655      0.330523
  C      -3.309645      5.601319     -0.260140
  H      -3.309510      6.505497      0.351077
  H      -4.330843      5.214156     -0.284160
  H      -3.041416      5.887371     -1.279891
  H      -3.320710      2.812705     -0.541807
  H      -2.116920      3.540394     -1.596335
  C      -1.111661     -1.841883      0.746940
  H      -0.994514     -2.239497      1.748584
  H      -1.343803     -2.531626     -0.053929
  C      -4.212512     -2.367629     -1.881598
  H      -4.558115     -3.350730     -1.590492
  C      -5.018305     -1.153944     -1.546782
  C      -4.692914     -0.706187     -0.116484
  O      -4.791908     -1.711538      0.760388
  C      -4.543879     -1.377772      2.121814
  H      -4.642983     -2.306524      2.677690
  H      -3.537655     -0.973628      2.237185
  H      -5.266933     -0.642777      2.476597
  O      -4.405333      0.415853      0.213742
  C      -6.522976     -1.472998     -1.587141
  H      -6.769978     -2.296369     -0.916136
  H      -7.114586     -0.600914     -1.299604
  H      -6.805086     -1.757201     -2.601949
  C      -4.685740     -0.007783     -2.503215
  H      -3.623129      0.232346     -2.466780
  H      -5.249892      0.890022     -2.248897
  H      -4.936742     -0.302753     -3.523207
  H      -3.217074     -2.251925     -2.290400
  O      -1.328920      1.233054     -1.124846
44
Coordinates from ORCA-job orca E -887.610270453352
  O      -1.249533     -0.836263     -1.839724
  C      -1.188019     -0.084369     -0.902020
  C      -0.975392     -0.547296      0.508420
  C      -0.678588      0.498888      1.540674
  H       0.374364      0.796065      1.472262
  H      -0.829221      0.092637      2.542359
  C      -1.561930      1.710708      1.286430
  H      -1.346108      2.501737      2.006683
  H      -2.616039      1.440266      1.386805
  C      -1.313836      2.253567     -0.107242
  H      -0.307880      2.689756     -0.150212
  C      -2.336025      3.280956     -0.561063
  C      -2.349828      4.552219      0.280165
  H      -2.627888      4.315260      1.311263
  H      -1.339777      4.975446      0.324222
  C      -3.315213      5.593290     -0.270872
  H      -3.318025      6.497952      0.339589
  H      -4.335849      5.204626     -0.296734
  H      -3.046009      5.879378     -1.290322
  H      -3.320581      2.803399     -0.548764
  H      -2.117065      3.532167     -1.602652
  C      -1.107227     -1.842600      0.760151
  H      -0.987397     -2.235118      1.763408
  H      -1.339079     -2.535457     -0.038075
  C      -4.214568     -2.356099     -1.889251
  H      -4.563558     -3.341281     -1.609590
  C      -5.018095     -1.143429     -1.545850
  C      -4.691663     -0.704800     -0.112944
  O      -4.783128     -1.717657      0.756178
  C      -4.536379     -1.393835      2.120208
  H      -4.631350     -2.327681      2.667921
  H      -3.532250     -0.985877      2.239375
  H      -5.262667     -0.665231      2.481144
  O      -4.410488      0.416484      0.225627
  C      -6.523329     -1.459962     -1.586853
  H      -6.771189     -2.285233     -0.918598
  H      -7.113812     -0.588068     -1.296480
  H      -6.805753     -1.740169     -2.602546
  C      -4.684533      0.008101     -2.495850
  H      -3.621157      0.245261     -2.460220
  H      -5.246177      0.905591     -2.234952
  H      -4.938203     -0.280004     -3.517107
  H      -3.215852     -2.238496     -2.289322
  O      -1.329686      1.224802     -1.123489
44
Coordinates from ORCA-job orca E -887.610281686158
  O      -1.254476     -0.845476     -1.831471
  C      -1.189205     -0.090508     -0.896296
  C      -0.973685     -0.548744      0.514768
  C      -0.677359      0.500682      1.543909
  H       0.376031      0.796493      1.476480
  H      -0.830707      0.096971      2.546162
  C      -1.560645      1.711874      1.286241
  H      -1.343259      2.505731      2.002926
  H      -2.614640      1.441781      1.389755
  C      -1.313947      2.249912     -0.109612
  H      -0.308566      2.687426     -0.153948
  C      -2.337667      3.274690     -0.566031
  C      -2.354778      4.547196      0.272947
  H      -2.634447      4.311464      1.303718
  H      -1.345571      4.971906      0.317942
  C      -3.320553      5.585965     -0.281645
  H      -3.326922      6.491245      0.327722
  H      -4.340135      5.195353     -0.310006
  H      -3.049206      5.871494     -1.300455
  H      -3.320780      2.794360     -0.553471
  H      -2.118242      3.523951     -1.607975
  C      -1.102903     -1.843396      0.770533
  H      -0.980728     -2.231672      1.775160
  H      -1.334457     -2.538837     -0.025550
  C      -4.215970     -2.345294     -1.894646
  H      -4.568081     -3.331260     -1.621954
  C      -5.017552     -1.133214     -1.544780
  C      -4.690751     -0.704005     -0.109280
  O      -4.776340     -1.723968      0.752230
  C      -4.530923     -1.408710      2.118575
  H      -4.622171     -2.347103      2.659333
  H      -3.528579     -0.997224      2.240884
  H      -5.260449     -0.685662      2.484412
  O      -4.414922      0.416058      0.237753
  C      -6.523291     -1.447622     -1.587025
  H      -6.772171     -2.275034     -0.921754
  H      -7.112879     -0.575867     -1.294093
  H      -6.805633     -1.724092     -2.603916
  C      -4.683344      0.023104     -2.488672
  H      -3.619429      0.258544     -2.454763
  H      -5.242912      0.919995     -2.221323
  H      -4.939813     -0.259049     -3.510868
  H      -3.214590     -2.227844     -2.287711
  O      -1.329334      1.218016     -1.122058
44
Coordinates from ORCA-job orca E -887.610290221775
  O      -1.255428     -0.852864     -1.824668
  C      -1.188474     -0.095289     -0.891644
  C      -0.971443     -0.549997      0.520166
  C      -0.674711      0.502116      1.546537
  H       0.379133      0.796104      1.478590
  H      -0.829318      0.100720      2.549543
  C      -1.558311      1.712623      1.286320
  H      -1.339919      2.508336      2.000633
  H      -2.611907      1.441848      1.392168
  C      -1.313280      2.247038     -0.111352
  H      -0.308784      2.686532     -0.156819
  C      -2.339153      3.268916     -0.569809
  C      -2.358601      4.543215      0.266237
  H      -2.637124      4.308884      1.297649
  H      -1.350474      4.970804      0.308943
  C      -3.327811      5.578121     -0.290272
  H      -3.336917      6.484631      0.317205
  H      -4.346096      5.183731     -0.317653
  H      -3.057259      5.862211     -1.309785
  H      -3.320968      2.786018     -0.555489
  H      -2.120512      3.515662     -1.612540
  C      -1.098624     -1.844357      0.778239
  H      -0.975095     -2.229623      1.783923
  H      -1.329894     -2.541864     -0.016172
  C      -4.217698     -2.336683     -1.898151
  H      -4.573489     -3.322118     -1.628079
  C      -5.016598     -1.123973     -1.543904
  C      -4.690324     -0.703387     -0.105945
  O      -4.772568     -1.729275      0.748962
  C      -4.528789     -1.420565      2.117275
  H      -4.616861     -2.362161      2.652891
  H      -3.528132     -1.005893      2.241619
  H      -5.261061     -0.702014      2.486232
  O      -4.418465      0.415224      0.248865
  C      -6.523056     -1.435451     -1.588089
  H      -6.773926     -2.264271     -0.925396
  H      -7.111295     -0.563317     -1.293713
  H      -6.804854     -1.709126     -2.605848
  C      -4.681034      0.036175     -2.482268
  H      -3.616693      0.270481     -2.450201
  H      -5.238609      0.932666     -2.209302
  H      -4.939947     -0.240854     -3.505271
  H      -3.214276     -2.222040     -2.286595
  O      -1.327334      1.212696     -1.120883
44
Coordinates from ORCA-job orca E -887.610296274086
  O      -1.254180     -0.854981     -1.821836
  C      -1.187013     -0.096394     -0.889784
  C      -0.969499     -0.550134      0.522514
  C      -0.671588      0.503022      1.547452
  H       0.382434      0.795896      1.477266
  H      -0.824799      0.103006      2.551238
  C      -1.555686      1.713111      1.286755
  H      -1.337195      2.508949      2.000898
  H      -2.608872      1.441345      1.393213
  C      -1.311821      2.246690     -0.111586
  H      -0.307951      2.687496     -0.157644
  C      -2.339206      3.266959     -0.570840
  C      -2.360133      4.542104      0.263913
  H      -2.638215      4.308417      1.295563
  H      -1.352779      4.971401      0.305299
  C      -3.331201      5.574923     -0.293649
  H      -3.341989      6.481927      0.313028
  H      -4.348478      5.178206     -0.320787
  H      -3.060445      5.858211     -1.313283
  H      -3.320400      2.782689     -0.555609
  H      -2.121101      3.512755     -1.613913
  C      -1.095539     -1.844677      0.780291
  H      -0.971498     -2.229769      1.786060
  H      -1.326715     -2.542578     -0.013864
  C      -4.218575     -2.333840     -1.898845
  H      -4.575256     -3.318329     -1.626335
  C      -5.016751     -1.120765     -1.543796
  C      -4.691289     -0.703797     -0.104705
  O      -4.773882     -1.731794      0.747609
  C      -4.531336     -1.425068      2.116688
  H      -4.619134     -2.367455      2.651186
  H      -3.530991     -1.009847      2.241858
  H      -5.264403     -0.707250      2.485755
  O      -4.419882      0.413790      0.253448
  C      -6.523420     -1.431274     -1.589352
  H      -6.775244     -2.261384     -0.928521
  H      -7.111128     -0.559206     -1.293664
  H      -6.804932     -1.703139     -2.607818
  C      -4.681013      0.040980     -2.479724
  H      -3.616760      0.275914     -2.449078
  H      -5.238134      0.936994     -2.204188
  H      -4.941074     -0.233997     -3.503026
  H      -3.214313     -2.220986     -2.285636
  O      -1.324597      1.211507     -1.120398
44
Coordinates from ORCA-job orca E -887.610299199121
  O      -1.251920     -0.858973     -1.817533
  C      -1.184983     -0.098690     -0.886995
  C      -0.966710     -0.550316      0.526286
  C      -0.667857      0.504940      1.548813
  H       0.385925      0.797931      1.475247
  H      -0.818175      0.107478      2.554077
  C      -1.552925      1.714010      1.286644
  H      -1.335010      2.510551      2.000176
  H      -2.605799      1.441321      1.393611
  C      -1.310321      2.245815     -0.112504
  H      -0.306937      2.687468     -0.160174
  C      -2.339202      3.264012     -0.572865
  C      -2.361816      4.540110      0.260464
  H      -2.638265      4.306953      1.292764
  H      -1.355296      4.971750      0.299942
  C      -3.336031      5.570138     -0.297150
  H      -3.347703      6.477839      0.308536
  H      -4.352499      5.170784     -0.322138
  H      -3.067017      5.852511     -1.317675
  H      -3.319793      2.778487     -0.556779
  H      -2.121758      3.509046     -1.616275
  C      -1.091287     -1.844904      0.785145
  H      -0.966614     -2.229389      1.791080
  H      -1.322377     -2.543914     -0.008034
  C      -4.220901     -2.330580     -1.901509
  H      -4.579489     -3.314504     -1.629200
  C      -5.017168     -1.116921     -1.543850
  C      -4.692458     -0.703998     -0.103280
  O      -4.774538     -1.734648      0.745920
  C      -4.533664     -1.431226      2.116118
  H      -4.620253     -2.374797      2.648603
  H      -3.534104     -1.014743      2.242439
  H      -5.267989     -0.715279      2.486171
  O      -4.422482      0.412761      0.258662
  C      -6.524307     -1.424946     -1.590909
  H      -6.777793     -2.256617     -0.932664
  H      -7.110610     -0.552824     -1.292852
  H      -6.805936     -1.693671     -2.610132
  C      -4.679965      0.047072     -2.476371
  H      -3.615526      0.281274     -2.446150
  H      -5.235842      0.942978     -2.197873
  H      -4.940942     -0.224356     -3.500420
  H      -3.215261     -2.219209     -2.285303
  O      -1.322379      1.208904     -1.119914
44
Coordinates from ORCA-job orca E -887.610301296402
  O      -1.251235     -0.859538     -1.816200
  C      -1.183785     -0.098980     -0.886129
  C      -0.964777     -0.550088      0.527459
  C      -0.664925      0.505924      1.548740
  H       0.388529      0.799517      1.472247
  H      -0.812066      0.109922      2.555012
  C      -1.550472      1.714552      1.286596
  H      -1.333154      2.510925      2.000463
  H      -2.603206      1.441578      1.393343
  C      -1.308444      2.246257     -0.112599
  H      -0.305216      2.688078     -0.161116
  C      -2.338020      3.263647     -0.573382
  C      -2.362226      4.539636      0.260179
  H      -2.638805      4.306142      1.292352
  H      -1.356124      4.972107      0.300246
  C      -3.337037      5.568999     -0.297493
  H      -3.349275      6.476570      0.308408
  H      -4.353192      5.169044     -0.322569
  H      -3.068014      5.851618     -1.317922
  H      -3.318393      2.777548     -0.558025
  H      -2.120337      3.509345     -1.616585
  C      -1.088276     -1.844763      0.786447
  H      -0.962880     -2.229924      1.792047
  H      -1.319369     -2.543752     -0.006824
  C      -4.221288     -2.329812     -1.902386
  H      -4.578407     -3.313658     -1.627761
  C      -5.018249     -1.116813     -1.544195
  C      -4.694257     -0.704320     -0.103277
  O      -4.778230     -1.735031      0.745520
  C      -4.538160     -1.432425      2.115952
  H      -4.626944     -2.375832      2.648447
  H      -3.537917     -1.017690      2.243343
  H      -5.271518     -0.715073      2.485390
  O      -4.423168      0.411923      0.259231
  C      -6.525209     -1.425357     -1.591968
  H      -6.778581     -2.258036     -0.934968
  H      -7.111827     -0.553938     -1.292526
  H      -6.806651     -1.692688     -2.611570
  C      -4.681623      0.048137     -2.475667
  H      -3.617340      0.283006     -2.446084
  H      -5.237679      0.943589     -2.196026
  H      -4.943129     -0.221952     -3.499953
  H      -3.214968     -2.217441     -2.284261
  O      -1.320139      1.208676     -1.119787
44
Coordinates from ORCA-job orca E -887.610302288526
  O      -1.249931     -0.862086     -1.814259
  C      -1.182524     -0.100717     -0.884846
  C      -0.962671     -0.550367      0.529144
  C      -0.662795      0.507046      1.548882
  H       0.390139      0.802099      1.470428
  H      -0.807553      0.112559      2.556081
  C      -1.549386      1.714727      1.285996
  H      -1.332934      2.511796      1.999341
  H      -2.602028      1.441350      1.392874
  C      -1.308083      2.245458     -0.113480
  H      -0.305058      2.687549     -0.163211
  C      -2.338392      3.261659     -0.574735
  C      -2.363539      4.538017      0.258320
  H      -2.639439      4.304767      1.290766
  H      -1.357714      4.971287      0.298210
  C      -3.339325      5.566394     -0.299225
  H      -3.351496      6.474276      0.306243
  H      -4.355426      5.166129     -0.323194
  H      -3.071515      5.848719     -1.320075
  H      -3.318509      2.775072     -0.559215
  H      -2.121052      3.507386     -1.618000
  C      -1.085124     -1.844825      0.789829
  H      -0.958906     -2.229363      1.795517
  H      -1.316190     -2.544830     -0.002550
  C      -4.222641     -2.327851     -1.904252
  H      -4.580060     -3.311781     -1.630275
  C      -5.018436     -1.114784     -1.544001
  C      -4.695093     -0.704092     -0.102278
  O      -4.779511     -1.735960      0.745107
  C      -4.539951     -1.435829      2.116133
  H      -4.628953     -2.380010      2.647041
  H      -3.539773     -1.021364      2.244383
  H      -5.273241     -0.719078      2.486687
  O      -4.424541      0.411836      0.261816
  C      -6.525726     -1.421826     -1.592883
  H      -6.780077     -2.255667     -0.937684
  H      -7.111617     -0.550557     -1.291536
  H      -6.807170     -1.686501     -2.613186
  C      -4.680527      0.051500     -2.473521
  H      -3.615975      0.285168     -2.443772
  H      -5.235584      0.947101     -2.192372
  H      -4.942529     -0.216002     -3.498360
  H      -3.215494     -2.215467     -2.284052
  O      -1.319628      1.206692     -1.119684
44
Coordinates from ORCA-job orca E -887.610305459387
  O      -1.249490     -0.861459     -1.815725
  C      -1.181998     -0.100611     -0.885890
  C      -0.961536     -0.550513      0.527808
  C      -0.661466      0.506938      1.547223
  H       0.390964      0.803526      1.467313
  H      -0.803849      0.112591      2.554783
  C      -1.548923      1.714106      1.285378
  H      -1.333206      2.510960      1.999169
  H      -2.601534      1.440454      1.391788
  C      -1.307966      2.245545     -0.113810
  H      -0.305020      2.687765     -0.163830
  C      -2.338535      3.261614     -0.574560
  C      -2.363809      4.537526      0.259204
  H      -2.639775      4.303852      1.291519
  H      -1.357870      4.970475      0.299922
  C      -3.339085      5.566466     -0.297757
  H      -3.350680      6.474146      0.308012
  H      -4.355533      5.167165     -0.321649
  H      -3.071721      5.849212     -1.318553
  H      -3.318709      2.775112     -0.559471
  H      -2.121263      3.508196     -1.617628
  C      -1.083395     -1.844832      0.789062
  H      -0.956283     -2.229703      1.794488
  H      -1.314476     -2.544987     -0.003232
  C      -4.221874     -2.327941     -1.903086
  H      -4.576855     -3.311771     -1.625648
  C      -5.018477     -1.115291     -1.543816
  C      -4.696197     -0.703553     -0.102174
  O      -4.783940     -1.734281      0.746131
  C      -4.543814     -1.434132      2.116919
  H      -4.636373     -2.377776      2.648170
  H      -3.542260     -1.023008      2.245741
  H      -5.274772     -0.714739      2.487018
  O      -4.423444      0.412125      0.260943
  C      -6.525605     -1.423141     -1.593675
  H      -6.779991     -2.256836     -0.938463
  H      -7.112296     -0.552301     -1.292795
  H      -6.806019     -1.687882     -2.614077
  C      -4.680498      0.050619     -2.473749
  H      -3.615933      0.284165     -2.444334
  H      -5.235532      0.946329     -2.192949
  H      -4.942755     -0.216748     -3.498525
  H      -3.214793     -2.214608     -2.282792
  O      -1.319396      1.206856     -1.120252
44
Coordinates from ORCA-job orca E -887.610311169303
  O      -1.248532     -0.863040     -1.815915
  C      -1.181320     -0.101974     -0.886102
  C      -0.959792     -0.551161      0.527458
  C      -0.660013      0.507077      1.546075
  H       0.391855      0.805405      1.465167
  H      -0.800710      0.112979      2.553947
  C      -1.549075      1.713125      1.284645
  H      -1.334101      2.510477      1.998108
  H      -2.601507      1.438630      1.391032
  C      -1.309030      2.244375     -0.114743
  H      -0.306401      2.687257     -0.165385
  C      -2.340315      3.259660     -0.575232
  C      -2.365574      4.535766      0.258200
  H      -2.641293      4.302370      1.290613
  H      -1.359633      4.968679      0.298870
  C      -3.340828      5.564531     -0.298838
  H      -3.352100      6.472578      0.306367
  H      -4.357431      5.165701     -0.322144
  H      -3.074143      5.846849     -1.319871
  H      -3.320259      2.772829     -0.559493
  H      -2.123737      3.506153     -1.618465
  C      -1.080846     -1.845195      0.790256
  H      -0.952477     -2.229114      1.795866
  H      -1.311947     -2.546453     -0.001056
  C      -4.222052     -2.326086     -1.902594
  H      -4.576372     -3.309691     -1.623531
  C      -5.017812     -1.113001     -1.543124
  C      -4.696456     -0.702668     -0.100879
  O      -4.786264     -1.733865      0.746684
  C      -4.545617     -1.435575      2.117780
  H      -4.639884     -2.379804      2.647705
  H      -3.543332     -1.026443      2.247243
  H      -5.275339     -0.715487      2.488974
  O      -4.422768      0.412525      0.263153
  C      -6.525222     -1.419554     -1.594546
  H      -6.780766     -2.253728     -0.940382
  H      -7.111558     -0.548548     -1.293217
  H      -6.804882     -1.682783     -2.615602
  C      -4.677990      0.053147     -2.472085
  H      -3.613018      0.284885     -2.442514
  H      -5.231714      0.949488     -2.190722
  H      -4.940639     -0.212828     -3.497122
  H      -3.214769     -2.213112     -2.281787
  O      -1.320316      1.205255     -1.120643
