44
Coordinates from ORCA-job orca E -887.610311169303
  O          -1.24853244333802     -0.86304009555382     -1.81591483247073
  C          -1.18132034074498     -0.10197357596472     -0.88610197569020
  C          -0.95979211347697     -0.55116057799064      0.52745780685325
  C          -0.66001323144513      0.50707693709370      1.54607463193668
  H           0.39185528595996      0.80540512562150      1.46516725738854
  H          -0.80071019048946      0.11297921702262      2.55394691771628
  C          -1.54907541272000      1.71312541010677      1.28464486650431
  H          -1.33410067164840      2.51047651216486      1.99810775329845
  H          -2.60150684800260      1.43863046222803      1.39103164206818
  C          -1.30902981542605      2.24437459647688     -0.11474345945637
  H          -0.30640058160316      2.68725676775991     -0.16538516842584
  C          -2.34031478745497      3.25965975581873     -0.57523193794587
  C          -2.36557367066445      4.53576605414044      0.25820029859804
  H          -2.64129277505466      4.30237013458970      1.29061312210288
  H          -1.35963328649658      4.96867931125785      0.29887026443193
  C          -3.34082776358751      5.56453074491297     -0.29883805595687
  H          -3.35210008620308      6.47257751003415      0.30636732673286
  H          -4.35743073026790      5.16570069962959     -0.32214352670735
  H          -3.07414340006794      5.84684864260714     -1.31987106111928
  H          -3.32025889421283      2.77282888721455     -0.55949345943849
  H          -2.12373657110269      3.50615327446426     -1.61846541778349
  C          -1.08084631661124     -1.84519452973926      0.79025649156105
  H          -0.95247746398801     -2.22911446369274      1.79586642560177
  H          -1.31194707517987     -2.54645331151211     -0.00105610718966
  C          -4.22205152117909     -2.32608563213851     -1.90259410959255
  H          -4.57637209603087     -3.30969106590149     -1.62353065939482
  C          -5.01781231517386     -1.11300105686670     -1.54312403549021
  C          -4.69645597273190     -0.70266753822715     -0.10087927208480
  O          -4.78626353028859     -1.73386476024311      0.74668374782979
  C          -4.54561650939895     -1.43557522153378      2.11777989885744
  H          -4.63988427929377     -2.37980392140594      2.64770452986668
  H          -3.54333190804014     -1.02644262090163      2.24724264134384
  H          -5.27533902463533     -0.71548675205587      2.48897396478323
  O          -4.42276757656276      0.41252524666059      0.26315254702599
  C          -6.52522223856273     -1.41955367378092     -1.59454585485436
  H          -6.78076622467044     -2.25372821969157     -0.94038183878549
  H          -7.11155821861359     -0.54854848957747     -1.29321681858225
  H          -6.80488156575159     -1.68278332815232     -2.61560155521220
  C          -4.67799005704546      0.05314694398918     -2.47208481688816
  H          -3.61301834075076      0.28488452743890     -2.44251447341129
  H          -5.23171432687029      0.94948796477628     -2.19072173522205
  H          -4.94063935783738     -0.21282834316760     -3.49712156876766
  H          -3.21476940215950     -2.21311242120793     -2.28178727890281
  O          -1.32031635057322      1.20525487329600     -1.12064311512815
