46
Coordinates from ORCA-job orca E -1038.132490553437
  C           3.60039416698970     -1.74241662632378      0.49142290365212
  C           4.26142565466502     -2.14066679635929      1.82448169784717
  H           4.24214824974035     -1.31705841637050      2.53895736846714
  H           3.73082332496213     -2.98932585574314      2.26033577408571
  H           5.30050688420408     -2.43683381832617      1.66724978184911
  C           2.18329380953945     -1.22770520109317      0.82000158172038
  H           2.29032222921915     -0.33551410605826      1.43986623547259
  H           1.70531565850606     -1.98523522553113      1.44536295149232
  C           1.20197667466103     -0.86901915808764     -0.31919683148467
  C          -0.04319149781737     -0.23925486715450      0.38739172651210
  H          -0.42441297413480     -0.97199914556923      1.10469600608065
  H           0.32105340162899      0.62056500664011      0.94872705737394
  C          -1.16062781574327      0.18541717691841     -0.50344281159187
  C          -1.34871756077022      1.57638302062317     -0.88422721858316
  O          -0.42976197739298      2.40816796602172     -0.34723650428090
  C          -0.56884051768003      3.77842455275473     -0.70184210175765
  H           0.24553675326992      4.29755841382096     -0.20218663531286
  H          -1.53004291882078      4.16839705235025     -0.36583579744078
  H          -0.49527127284910      3.90663358475117     -1.78202902377040
  O          -2.23642513798846      1.97376179172854     -1.60862938344693
  C          -2.12410881126718     -0.80407337461429     -1.05213020889844
  H          -2.27442741732042     -1.63034361632149     -0.35446091060414
  H          -3.07795100695433     -0.33112037693330     -1.28016028806402
  H          -1.74742321895090     -1.23159213030209     -1.98966246549640
  C           0.73529112460347     -2.11344203097599     -1.07004844041430
  O           0.27452251217711     -3.06152548845659     -0.24004772830644
  C          -0.20292627467902     -4.24935486967239     -0.86697531205886
  H          -0.52881283600617     -4.90054827958191     -0.06010782546960
  H           0.59284198133226     -4.72313116427618     -1.44206856741930
  H          -1.03396430829181     -4.02251572298488     -1.53508810218737
  O           0.73346263590226     -2.24357379907845     -2.26456300895437
  C           1.78849239978596      0.12143146852118     -1.32066985660141
  H           2.09986015834805      1.02976350562109     -0.80437396692408
  H           2.64216455633318     -0.30055651019173     -1.85042967617404
  H           1.05055569696880      0.38971521660057     -2.07600044924217
  C           4.49018179317496     -0.65514023921787     -0.10585160962978
  O           4.41564560875998      0.49338809901727      0.58303923777808
  C           5.23930417565277      1.55367252928802      0.10532086336427
  H           5.04965737774721      2.39635171625390      0.76515954901847
  H           6.29092416767358      1.26974796448124      0.14066359494459
  H           4.97694245507624      1.80654031006013     -0.92233542763508
  O           5.22244189678343     -0.79962251719058     -1.04755086257302
  C           3.59816273032258     -2.94979685520087     -0.44361657331760
  H           2.95126796131696     -3.72945693850192     -0.03655575296288
  H           4.60436390140078     -3.35502257859044     -0.54591984670066
  H           3.25360560592131     -2.69522366674466     -1.44549314235543
