46
Coordinates from ORCA-job orca E -1038.100633283815
  C       3.548650     -1.695820      0.431880
  C       4.286940     -2.088200      1.730050
  H       4.279570     -1.265540      2.459190
  H       3.798280     -2.962290      2.186630
  H       5.333440     -2.356090      1.519400
  C       2.128190     -1.240790      0.839450
  H       2.242700     -0.361780      1.490610
  H       1.701770     -2.039480      1.466030
  C       1.065930     -0.869360     -0.235550
  C      -0.142340     -0.347330      0.593080
  H      -0.459760     -1.168540      1.252980
  H       0.246460      0.445820      1.249110
  C      -1.431900      0.206710     -0.077120
  C      -1.109920      1.492080     -0.839980
  O      -0.543410      2.417090     -0.052800
  C      -0.195880      3.639920     -0.678270
  H       0.242200      4.271810      0.102390
  H      -1.084530      4.124540     -1.107950
  H       0.532070      3.469940     -1.485040
  O      -1.324960      1.685490     -2.008220
  C      -2.062920     -0.791140     -1.048910
  H      -2.278600     -1.735130     -0.528960
  H      -2.995960     -0.399620     -1.475120
  H      -1.401890     -0.993220     -1.900260
  C       0.660490     -2.121990     -1.012950
  O       0.180490     -3.080950     -0.209080
  C      -0.235240     -4.277010     -0.844600
  H      -0.587650     -4.942530     -0.048640
  H       0.600690     -4.740780     -1.388030
  H      -1.045820     -4.074790     -1.559970
  O       0.747590     -2.265190     -2.204740
  C       1.590360      0.170320     -1.226670
  H       1.863120      1.091900     -0.693500
  H       2.470940     -0.200550     -1.767520
  H       0.841560      0.406780     -1.992160
  C       4.358700     -0.557420     -0.186720
  O       4.267980      0.572480      0.529340
  C       4.989860      1.686770      0.035610
  H       4.820470      2.503360      0.746450
  H       6.063220      1.460420     -0.036190
  H       4.627170      1.971520     -0.963250
  O       5.045210     -0.645570     -1.170870
  C       3.553360     -2.886920     -0.528660
  H       2.940920     -3.701570     -0.113610
  H       4.576560     -3.259700     -0.674200
  H       3.161470     -2.622800     -1.518720
46
Coordinates from ORCA-job orca E -1038.112097518639
  C       3.558072     -1.700049      0.444849
  C       4.280371     -2.063733      1.756512
  H       4.254287     -1.235560      2.468191
  H       3.797864     -2.930516      2.216614
  H       5.325742     -2.321221      1.564821
  C       2.130030     -1.251238      0.826312
  H       2.231547     -0.368232      1.462408
  H       1.701621     -2.037979      1.454907
  C       1.082273     -0.892655     -0.264648
  C      -0.131026     -0.352878      0.550642
  H      -0.463058     -1.160924      1.210796
  H       0.253631      0.433472      1.206324
  C      -1.382723      0.210001     -0.137609
  C      -1.117559      1.520280     -0.841088
  O      -0.506395      2.406743     -0.040659
  C      -0.176829      3.654515     -0.632056
  H       0.295452      4.246014      0.150546
  H      -1.073371      4.158308     -1.000408
  H       0.512561      3.514494     -1.469198
  O      -1.400088      1.761742     -1.985611
  C      -2.130691     -0.749917     -1.037247
  H      -2.360147     -1.671792     -0.496609
  H      -3.062807     -0.315471     -1.404866
  H      -1.531781     -0.999327     -1.916481
  C       0.680479     -2.150681     -1.035086
  O       0.190225     -3.102136     -0.228261
  C      -0.220406     -4.303284     -0.864727
  H      -0.581006     -4.958545     -0.073627
  H       0.616383     -4.768281     -1.391046
  H      -1.016652     -4.104830     -1.586213
  O       0.777133     -2.301212     -2.223704
  C       1.621191      0.132703     -1.259208
  H       1.891093      1.052967     -0.735794
  H       2.499970     -0.245972     -1.782776
  H       0.887185      0.363135     -2.030831
  C       4.364306     -0.563177     -0.178979
  O       4.248037      0.576849      0.517889
  C       4.956787      1.695690      0.007508
  H       4.770651      2.514381      0.700815
  H       6.026848      1.486508     -0.054142
  H       4.595259      1.956865     -0.990814
  O       5.063307     -0.658366     -1.152061
  C       3.591365     -2.905404     -0.493182
  H       2.986100     -3.715432     -0.075801
  H       4.614310     -3.266037     -0.614446
  H       3.216043     -2.664966     -1.488016
46
Coordinates from ORCA-job orca E -1038.119498871031
  C       3.561368     -1.693924      0.442871
  C       4.285538     -2.072767      1.747350
  H       4.265069     -1.254623      2.465265
  H       3.802996     -2.939626      2.198416
  H       5.325691     -2.330744      1.548966
  C       2.136565     -1.245746      0.832029
  H       2.239722     -0.368847      1.469672
  H       1.712269     -2.033438      1.455962
  C       1.083511     -0.886450     -0.252667
  C      -0.130599     -0.346221      0.554872
  H      -0.475612     -1.144721      1.215755
  H       0.234032      0.446589      1.207591
  C      -1.314864      0.183401     -0.200134
  C      -1.096113      1.490234     -0.868174
  O      -0.486410      2.377529     -0.063382
  C      -0.175608      3.634729     -0.653061
  H       0.292141      4.223667      0.129313
  H      -1.077015      4.127360     -1.012555
  H       0.510793      3.505729     -1.489698
  O      -1.410633      1.738356     -2.004529
  C      -2.099168     -0.778189     -1.030326
  H      -2.343636     -1.669932     -0.452687
  H      -3.020308     -0.336761     -1.405483
  H      -1.507301     -1.088237     -1.896970
  C       0.665111     -2.136025     -1.025653
  O       0.176851     -3.089678     -0.219190
  C      -0.247826     -4.285025     -0.866629
  H      -0.604072     -4.941535     -0.079595
  H       0.579980     -4.747524     -1.401038
  H      -1.045897     -4.074130     -1.576260
  O       0.743679     -2.274382     -2.215978
  C       1.598341      0.148044     -1.247693
  H       1.868101      1.063579     -0.723655
  H       2.467292     -0.218952     -1.787758
  H       0.848110      0.379991     -2.000457
  C       4.371718     -0.555015     -0.171362
  O       4.265630      0.577837      0.540073
  C       4.976555      1.700124      0.029893
  H       4.802879      2.507809      0.733707
  H       6.040304      1.485133     -0.046749
  H       4.601674      1.972022     -0.956436
  O       5.068591     -0.644950     -1.145356
  C       3.585126     -2.889648     -0.505078
  H       2.979865     -3.697935     -0.093171
  H       4.602442     -3.252886     -0.632376
  H       3.208699     -2.639372     -1.493694
46
Coordinates from ORCA-job orca E -1038.125880230609
  C       3.564227     -1.705571      0.460597
  C       4.295345     -2.072371      1.765691
  H       4.271917     -1.249168      2.480333
  H       3.819160     -2.941397      2.223529
  H       5.338146     -2.324648      1.564050
  C       2.138210     -1.262511      0.844545
  H       2.232127     -0.381539      1.481006
  H       1.708472     -2.052350      1.465158
  C       1.105527     -0.908860     -0.255762
  C      -0.128953     -0.349260      0.520145
  H      -0.506471     -1.143569      1.170512
  H       0.229413      0.438474      1.184251
  C      -1.246901      0.191911     -0.298437
  C      -1.099344      1.529442     -0.876231
  O      -0.439841      2.379223     -0.065138
  C      -0.182998      3.670327     -0.610767
  H       0.327180      4.225429      0.172477
  H      -1.112854      4.165912     -0.888417
  H       0.453641      3.589609     -1.493309
  O      -1.531896      1.854472     -1.956924
  C      -2.114659     -0.731206     -1.069881
  H      -2.375595     -1.609862     -0.476074
  H      -3.027756     -0.246673     -1.410414
  H      -1.577277     -1.084476     -1.959709
  C       0.691739     -2.163941     -1.021311
  O       0.197368     -3.110764     -0.209720
  C      -0.216844     -4.314728     -0.854819
  H      -0.581382     -4.964391     -0.063499
  H       0.622161     -4.778053     -1.373585
  H      -1.007316     -4.108823     -1.576366
  O       0.781556     -2.311566     -2.209886
  C       1.647636      0.112204     -1.251333
  H       1.914349      1.032278     -0.730474
  H       2.525955     -0.267963     -1.771316
  H       0.912851      0.342516     -2.021797
  C       4.363738     -0.565947     -0.166895
  O       4.244441      0.575399      0.529831
  C       4.928578      1.703440     -0.011634
  H       4.754196      2.516987      0.687966
  H       5.994812      1.501593     -0.106264
  H       4.525243      1.954415     -0.993632
  O       5.052129     -0.658182     -1.146739
  C       3.585709     -2.906232     -0.481503
  H       2.985685     -3.715391     -0.059480
  H       4.604966     -3.267657     -0.614698
  H       3.199189     -2.661680     -1.470137
46
Coordinates from ORCA-job orca E -1038.128899473127
  C       3.589418     -1.677030      0.444537
  C       4.303652     -2.066304      1.752589
  H       4.252328     -1.262257      2.488994
  H       3.834409     -2.956552      2.178487
  H       5.355361     -2.295106      1.563310
  C       2.147317     -1.267865      0.819285
  H       2.216796     -0.390521      1.466205
  H       1.734766     -2.073092      1.433713
  C       1.098032     -0.930661     -0.274008
  C      -0.138955     -0.371325      0.504903
  H      -0.520231     -1.166574      1.152180
  H       0.226492      0.420050      1.162298
  C      -1.225009      0.168019     -0.354519
  C      -1.157427      1.532425     -0.854861
  O      -0.304801      2.313288     -0.156750
  C      -0.055594      3.598653     -0.718318
  H       0.612689      4.099021     -0.020090
  H      -0.983648      4.159815     -0.832038
  H       0.423517      3.497140     -1.694700
  O      -1.727757      1.920265     -1.851928
  C      -2.180998     -0.739395     -1.036497
  H      -2.435204     -1.595410     -0.405920
  H      -3.092629     -0.222353     -1.332485
  H      -1.726791     -1.141047     -1.953968
  C       0.661550     -2.186500     -1.027160
  O       0.197514     -3.135505     -0.200298
  C      -0.259545     -4.330237     -0.835588
  H      -0.593358     -4.981945     -0.031121
  H       0.551966     -4.796453     -1.395961
  H      -1.081222     -4.107970     -1.517699
  O       0.664734     -2.314337     -2.221966
  C       1.597402      0.094779     -1.288821
  H       1.879788      1.015974     -0.776751
  H       2.453465     -0.280084     -1.848511
  H       0.827324      0.325616     -2.026072
  C       4.386001     -0.509296     -0.133951
  O       4.259993      0.600265      0.611444
  C       4.948846      1.751801      0.125893
  H       4.777157      2.529394      0.867346
  H       6.014678      1.549140      0.019602
  H       4.541046      2.051670     -0.841960
  O       5.114586     -0.570646     -1.087303
  C       3.652741     -2.855697     -0.524547
  H       3.057250     -3.685233     -0.134075
  H       4.681802     -3.197796     -0.642181
  H       3.286126     -2.595274     -1.516797
46
Coordinates from ORCA-job orca E -1038.130295768413
  C       3.597311     -1.715580      0.474777
  C       4.306257     -2.084965      1.790996
  H       4.254314     -1.269455      2.513265
  H       3.833562     -2.966232      2.229445
  H       5.357204     -2.319460      1.609596
  C       2.157561     -1.289228      0.833760
  H       2.229791     -0.408295      1.474285
  H       1.727881     -2.084419      1.448292
  C       1.133808     -0.945443     -0.278390
  C      -0.109581     -0.342878      0.460901
  H      -0.529972     -1.122565      1.099720
  H       0.261281      0.451045      1.109871
  C      -1.143819      0.197770     -0.460084
  C      -1.125129      1.585949     -0.882373
  O      -0.300505      2.364269     -0.144767
  C      -0.151055      3.702993     -0.603789
  H       0.489871      4.193061      0.125537
  H      -1.116259      4.204750     -0.664641
  H       0.320861      3.712285     -1.588212
  O      -1.821340      2.038104     -1.768687
  C      -2.115250     -0.705597     -1.128921
  H      -2.377804     -1.551529     -0.489926
  H      -3.016914     -0.174046     -1.429091
  H      -1.678123     -1.124776     -2.046483
  C       0.662477     -2.195451     -1.021162
  O       0.226880     -3.148740     -0.183832
  C      -0.228661     -4.350616     -0.805467
  H      -0.538367     -5.002366      0.007318
  H       0.576913     -4.808802     -1.379339
  H      -1.065555     -4.140273     -1.471268
  O       0.663735     -2.335153     -2.214889
  C       1.670957      0.050168     -1.303523
  H       1.987276      0.964156     -0.801740
  H       2.510048     -0.362074     -1.861456
  H       0.907410      0.304198     -2.039570
  C       4.399543     -0.562809     -0.125078
  O       4.237792      0.574742      0.569039
  C       4.866641      1.730896      0.018789
  H       4.687985      2.529370      0.734600
  H       5.934709      1.564000     -0.114463
  H       4.416604      1.976923     -0.944987
  O       5.096159     -0.634799     -1.101493
  C       3.652625     -2.912304     -0.472547
  H       3.056369     -3.731636     -0.064067
  H       4.678763     -3.260485     -0.589007
  H       3.281322     -2.669853     -1.466998
46
Coordinates from ORCA-job orca E -1038.130933370912
  C       3.570460     -1.711230      0.482449
  C       4.303356     -2.077293      1.786851
  H       4.270439     -1.257558      2.505056
  H       3.834875     -2.952918      2.240098
  H       5.348826     -2.319047      1.586499
  C       2.142261     -1.274403      0.856811
  H       2.221325     -0.390983      1.492019
  H       1.708264     -2.065541      1.472744
  C       1.137958     -0.932650     -0.265686
  C      -0.122792     -0.335981      0.453513
  H      -0.545907     -1.118632      1.086248
  H       0.234795      0.462513      1.102566
  C      -1.158711      0.194033     -0.474153
  C      -1.175027      1.593965     -0.858958
  O      -0.302963      2.353137     -0.156903
  C      -0.153369      3.693258     -0.608141
  H       0.519983      4.169440      0.100458
  H      -1.112866      4.208572     -0.629099
  H       0.282615      3.706529     -1.608614
  O      -1.878134      2.055045     -1.734347
  C      -2.121395     -0.716284     -1.145666
  H      -2.368465     -1.568357     -0.509644
  H      -3.029959     -0.189713     -1.433658
  H      -1.689362     -1.121585     -2.070463
  C       0.695248     -2.187595     -1.017000
  O       0.263984     -3.149895     -0.187949
  C      -0.174646     -4.353396     -0.816465
  H      -0.483432     -5.011771     -0.009048
  H       0.638910     -4.801679     -1.386405
  H      -1.008842     -4.150445     -1.487591
  O       0.705070     -2.320961     -2.211357
  C       1.703036      0.063242     -1.275099
  H       2.000205      0.979325     -0.766042
  H       2.561416     -0.348062     -1.804795
  H       0.962943      0.312133     -2.035162
  C       4.360000     -0.566631     -0.149055
  O       4.246364      0.569183      0.557053
  C       4.897276      1.711877      0.006428
  H       4.765031      2.505739      0.736885
  H       5.955062      1.513650     -0.159619
  H       4.429530      1.987031     -0.940808
  O       5.053425     -0.657078     -1.126028
  C       3.588357     -2.911698     -0.460754
  H       3.005006     -3.726761     -0.026920
  H       4.607891     -3.263490     -0.614930
  H       3.177538     -2.672187     -1.441383
46
Coordinates from ORCA-job orca E -1038.131227420757
  C       3.592224     -1.694864      0.465711
  C       4.300774     -2.086093      1.775626
  H       4.249574     -1.282105      2.510882
  H       3.827233     -2.973644      2.200261
  H       5.351506     -2.319236      1.591209
  C       2.152348     -1.274635      0.825975
  H       2.215670     -0.390618      1.462787
  H       1.726730     -2.071407      1.440698
  C       1.139545     -0.950961     -0.296952
  C      -0.113528     -0.345619      0.429596
  H      -0.532432     -1.122749      1.073410
  H       0.256254      0.455170      1.068741
  C      -1.171746      0.188498     -0.474118
  C      -1.183317      1.587001     -0.870218
  O      -0.278820      2.336604     -0.201187
  C      -0.134472      3.676366     -0.653802
  H       0.559412      4.149435      0.037459
  H      -1.091836      4.197028     -0.649638
  H       0.275914      3.689909     -1.665103
  O      -1.912766      2.053389     -1.719501
  C      -2.171814     -0.711696     -1.102164
  H      -2.411169     -1.550371     -0.445290
  H      -3.080340     -0.169868     -1.361958
  H      -1.781084     -1.133881     -2.036845
  C       0.693264     -2.217814     -1.025384
  O       0.252421     -3.160179     -0.178955
  C      -0.222537     -4.360065     -0.786038
  H      -0.535786     -5.002107      0.033293
  H       0.572204     -4.834909     -1.361852
  H      -1.061313     -4.146740     -1.448961
  O       0.662706     -2.357397     -2.218685
  C       1.689360      0.033055     -1.326203
  H       1.986583      0.958682     -0.833674
  H       2.543358     -0.381673     -1.860162
  H       0.939691      0.266735     -2.081337
  C       4.394481     -0.534634     -0.120223
  O       4.267341      0.583053      0.611581
  C       4.930440      1.737832      0.103886
  H       4.791495      2.511923      0.854648
  H       5.990081      1.540220     -0.053550
  H       4.478152      2.043145     -0.841927
  O       5.102757     -0.598843     -1.088525
  C       3.639386     -2.874874     -0.502151
  H       3.054380     -3.703986     -0.098030
  H       4.665364     -3.214443     -0.642973
  H       3.247893     -2.617786     -1.486415
46
Coordinates from ORCA-job orca E -1038.131346633944
  C       3.588950     -1.706374      0.474280
  C       4.288186     -2.081700      1.793271
  H       4.232190     -1.268563      2.518049
  H       3.811164     -2.963668      2.225609
  H       5.340170     -2.317620      1.619295
  C       2.146964     -1.277704      0.823388
  H       2.213061     -0.393618      1.460017
  H       1.714156     -2.070387      1.438357
  C       1.137843     -0.945357     -0.302516
  C      -0.111829     -0.336625      0.423220
  H      -0.533217     -1.111873      1.068366
  H       0.260393      0.464850      1.060128
  C      -1.173320      0.197804     -0.475915
  C      -1.195181      1.600047     -0.859560
  O      -0.270462      2.341272     -0.209432
  C      -0.142689      3.688209     -0.644845
  H       0.564403      4.155054      0.037312
  H      -1.102042      4.204239     -0.611598
  H       0.244814      3.719511     -1.664765
  O      -1.940215      2.072828     -1.690878
  C      -2.180759     -0.699445     -1.095337
  H      -2.416868     -1.536017     -0.434490
  H      -3.089503     -0.153666     -1.346309
  H      -1.798834     -1.122871     -2.032906
  C       0.679282     -2.203374     -1.038272
  O       0.270916     -3.163782     -0.195737
  C      -0.182704     -4.368641     -0.808376
  H      -0.471693     -5.025635      0.008105
  H       0.615830     -4.820152     -1.397738
  H      -1.033798     -4.169527     -1.460085
  O       0.666896     -2.343591     -2.231858
  C       1.687422      0.045018     -1.325587
  H       1.988267      0.966441     -0.826600
  H       2.538285     -0.367067     -1.865813
  H       0.935005      0.287093     -2.075464
  C       4.399062     -0.555470     -0.119038
  O       4.255389      0.575720      0.588326
  C       4.926107      1.721654      0.071685
  H       4.775890      2.508863      0.806534
  H       5.988099      1.521934     -0.066484
  H       4.489119      2.011363     -0.886196
  O       5.114478     -0.632632     -1.081135
  C       3.644617     -2.899955     -0.476698
  H       3.058629     -3.724739     -0.065150
  H       4.672311     -3.239017     -0.605932
  H       3.260797     -2.657983     -1.467291
46
Coordinates from ORCA-job orca E -1038.131506071429
  C       3.595605     -1.719189      0.489268
  C       4.299897     -2.067945      1.812781
  H       4.245175     -1.241172      2.521639
  H       3.825933     -2.941758      2.263906
  H       5.351405     -2.305617      1.640048
  C       2.155557     -1.282708      0.833867
  H       2.225807     -0.396533      1.466655
  H       1.715811     -2.069862      1.450398
  C       1.157306     -0.944137     -0.298944
  C      -0.095004     -0.329119      0.412980
  H      -0.522633     -1.099360      1.060112
  H       0.271168      0.478521      1.045386
  C      -1.150966      0.193548     -0.498044
  C      -1.199121      1.600660     -0.862720
  O      -0.292061      2.350707     -0.197919
  C      -0.205591      3.712129     -0.596238
  H       0.481132      4.183582      0.102899
  H      -1.181130      4.195662     -0.556644
  H       0.187365      3.783912     -1.611896
  O      -1.962018      2.073141     -1.677444
  C      -2.140319     -0.715071     -1.130139
  H      -2.371783     -1.555683     -0.473031
  H      -3.053132     -0.179674     -1.387784
  H      -1.742670     -1.130561     -2.064605
  C       0.693408     -2.195865     -1.041309
  O       0.263402     -3.152249     -0.204883
  C      -0.218404     -4.341796     -0.825103
  H      -0.523000     -4.997204     -0.013426
  H       0.568658     -4.808508     -1.417573
  H      -1.064354     -4.118929     -1.475376
  O       0.666035     -2.323283     -2.236044
  C       1.721098      0.045157     -1.314892
  H       2.023162      0.963318     -0.811214
  H       2.574063     -0.370342     -1.848874
  H       0.975445      0.293976     -2.069238
  C       4.400155     -0.578763     -0.130574
  O       4.252011      0.566957      0.551986
  C       4.923248      1.702592      0.014669
  H       4.775893      2.502619      0.735678
  H       5.984411      1.499388     -0.122571
  H       4.485227      1.976994     -0.946996
  O       5.119370     -0.675616     -1.088037
  C       3.648471     -2.930591     -0.438893
  H       3.069286     -3.749453     -0.007082
  H       4.676241     -3.267569     -0.570222
  H       3.256016     -2.709453     -1.430617
46
Coordinates from ORCA-job orca E -1038.131653254625
  C       3.590474     -1.714002      0.479038
  C       4.295431     -2.096792      1.792973
  H       4.257226     -1.282020      2.516307
  H       3.810152     -2.970610      2.231265
  H       5.341925     -2.347970      1.611068
  C       2.158047     -1.266346      0.833765
  H       2.235634     -0.377951      1.462087
  H       1.718270     -2.049844      1.454440
  C       1.159273     -0.935914     -0.298767
  C      -0.093284     -0.316181      0.406449
  H      -0.519606     -1.077522      1.064989
  H       0.270721      0.501641      1.026472
  C      -1.154659      0.191668     -0.507346
  C      -1.214549      1.596664     -0.882196
  O      -0.300318      2.355215     -0.237289
  C      -0.239040      3.718619     -0.632636
  H       0.445250      4.199789      0.061808
  H      -1.221701      4.186022     -0.584357
  H       0.144538      3.799791     -1.651000
  O      -2.000408      2.062058     -1.678606
  C      -2.148480     -0.726880     -1.119367
  H      -2.376805     -1.555394     -0.446251
  H      -3.062079     -0.194444     -1.379328
  H      -1.755630     -1.157842     -2.048475
  C       0.700644     -2.194890     -1.030953
  O       0.280041     -3.148595     -0.186686
  C      -0.198003     -4.344357     -0.797044
  H      -0.496012     -4.996240      0.019526
  H       0.588429     -4.811138     -1.389794
  H      -1.047612     -4.130686     -1.445252
  O       0.668473     -2.329438     -2.224755
  C       1.720739      0.045825     -1.323059
  H       2.017564      0.969650     -0.828053
  H       2.576535     -0.370971     -1.851890
  H       0.974439      0.283944     -2.079888
  C       4.407391     -0.573624     -0.124322
  O       4.289810      0.557231      0.588400
  C       4.980704      1.691810      0.075301
  H       4.866148      2.472146      0.822951
  H       6.033661      1.467016     -0.087089
  H       4.534384      2.007912     -0.869339
  O       5.120083     -0.662977     -1.087344
  C       3.618068     -2.907323     -0.472717
  H       3.034813     -3.727666     -0.049925
  H       4.639963     -3.252536     -0.624290
  H       3.214937     -2.661997     -1.454880
46
Coordinates from ORCA-job orca E -1038.131798675447
  C       3.595267     -1.718639      0.476602
  C       4.292123     -2.118852      1.789694
  H       4.257661     -1.310214      2.520246
  H       3.798222     -2.992762      2.218394
  H       5.337436     -2.376707      1.609521
  C       2.164344     -1.264365      0.830538
  H       2.245342     -0.378347      1.461953
  H       1.719894     -2.047845      1.448098
  C       1.168197     -0.926925     -0.301370
  C      -0.079999     -0.302268      0.405970
  H      -0.498224     -1.055103      1.079904
  H       0.285433      0.525454      1.012055
  C      -1.157936      0.189135     -0.498952
  C      -1.237671      1.590842     -0.885118
  O      -0.310536      2.360833     -0.273423
  C      -0.278404      3.723963     -0.672979
  H       0.413076      4.217911      0.005403
  H      -1.267176      4.176069     -0.604961
  H       0.081525      3.809006     -1.699575
  O      -2.035135      2.040244     -1.678864
  C      -2.154448     -0.742866     -1.086862
  H      -2.370853     -1.562357     -0.398625
  H      -3.073771     -0.218071     -1.341913
  H      -1.769199     -1.184573     -2.013987
  C       0.703982     -2.182859     -1.035077
  O       0.279819     -3.135915     -0.191842
  C      -0.205971     -4.327639     -0.803532
  H      -0.507132     -4.979495      0.012121
  H       0.576768     -4.798470     -1.398281
  H      -1.055205     -4.108212     -1.450605
  O       0.666975     -2.314069     -2.229115
  C       1.735161      0.054729     -1.323269
  H       2.035157      0.976489     -0.825863
  H       2.590190     -0.363779     -1.852592
  H       0.989751      0.297564     -2.079425
  C       4.425224     -0.579627     -0.111766
  O       4.304950      0.549169      0.603865
  C       5.012051      1.680671      0.106878
  H       4.895999      2.457361      0.858320
  H       6.064896      1.447339     -0.044935
  H       4.580799      2.007823     -0.841008
  O       5.134451     -0.663516     -1.077827
  C       3.619570     -2.903329     -0.485860
  H       3.031008     -3.724799     -0.072776
  H       4.640562     -3.251515     -0.637786
  H       3.221404     -2.646636     -1.467436
46
Coordinates from ORCA-job orca E -1038.131899624212
  C       3.599037     -1.722102      0.469218
  C       4.288313     -2.120885      1.787003
  H       4.247339     -1.311781      2.517196
  H       3.793607     -2.995990      2.213121
  H       5.335801     -2.376163      1.613650
  C       2.164998     -1.269337      0.817480
  H       2.244920     -0.385671      1.452779
  H       1.717210     -2.053911      1.431717
  C       1.171581     -0.921992     -0.313306
  C      -0.065960     -0.286702      0.399861
  H      -0.472147     -1.022576      1.100404
  H       0.306770      0.555203      0.982343
  C      -1.165167      0.187575     -0.489836
  C      -1.257956      1.583008     -0.894629
  O      -0.315033      2.361600     -0.319293
  C      -0.319827      3.728245     -0.708141
  H       0.377821      4.231785     -0.042717
  H      -1.316301      4.158854     -0.613116
  H       0.012587      3.828908     -1.742626
  O      -2.076327      2.019757     -1.673987
  C      -2.173909     -0.754631     -1.040809
  H      -2.380937     -1.557696     -0.330066
  H      -3.096524     -0.232986     -1.289944
  H      -1.802826     -1.217231     -1.963466
  C       0.693953     -2.171917     -1.049122
  O       0.268559     -3.125355     -0.206835
  C      -0.220121     -4.315061     -0.820024
  H      -0.523301     -4.967620     -0.005174
  H       0.561513     -4.787525     -1.415650
  H      -1.069012     -4.093041     -1.467269
  O       0.660744     -2.303243     -2.243255
  C       1.746108      0.060329     -1.331417
  H       2.054056      0.977607     -0.829073
  H       2.597984     -0.360803     -1.864186
  H       1.000443      0.313479     -2.084042
  C       4.432751     -0.581701     -0.111883
  O       4.309232      0.544870      0.606868
  C       5.056934      1.665030      0.145258
  H       4.933261      2.437339      0.900516
  H       6.109188      1.409655      0.025387
  H       4.665602      2.011562     -0.813389
  O       5.167761     -0.670451     -1.058031
  C       3.638323     -2.907774     -0.491742
  H       3.050408     -3.732545     -0.084240
  H       4.663362     -3.249579     -0.633309
  H       3.250761     -2.653687     -1.478283
46
Coordinates from ORCA-job orca E -1038.132041595432
  C       3.599425     -1.728888      0.475584
  C       4.282470     -2.133726      1.794943
  H       4.251355     -1.322650      2.523286
  H       3.776144     -3.001303      2.222441
  H       5.326635     -2.402730      1.622948
  C       2.171332     -1.257351      0.821759
  H       2.260318     -0.372699      1.454468
  H       1.715217     -2.035297      1.438028
  C       1.180569     -0.905180     -0.310570
  C      -0.060056     -0.275320      0.401196
  H      -0.458791     -1.010117      1.106953
  H       0.307666      0.572588      0.978252
  C      -1.164288      0.184737     -0.489625
  C      -1.278504      1.577313     -0.896251
  O      -0.343000      2.372001     -0.330826
  C      -0.379853      3.739078     -0.717273
  H       0.311969      4.256322     -0.056507
  H      -1.384612      4.147664     -0.613767
  H      -0.058669      3.848743     -1.754252
  O      -2.111760      2.001387     -1.667324
  C      -2.164105     -0.770932     -1.033612
  H      -2.361978     -1.572387     -0.318581
  H      -3.092310     -0.260598     -1.284847
  H      -1.788968     -1.235013     -1.953946
  C       0.707957     -2.152805     -1.053206
  O       0.277121     -3.108434     -0.216178
  C      -0.210751     -4.295316     -0.835840
  H      -0.518193     -4.950077     -0.024533
  H       0.572906     -4.766452     -1.429602
  H      -1.056472     -4.069608     -1.485728
  O       0.676830     -2.278321     -2.247981
  C       1.753947      0.083892     -1.322596
  H       2.057907      0.999414     -0.814905
  H       2.608256     -0.331382     -1.855529
  H       1.008733      0.338755     -2.075130
  C       4.451271     -0.602875     -0.107343
  O       4.335459      0.531446      0.600219
  C       5.101455      1.637475      0.134201
  H       4.980042      2.418914      0.880180
  H       6.151352      1.367246      0.027734
  H       4.724484      1.978565     -0.831767
  O       5.182751     -0.704522     -1.054918
  C       3.621970     -2.917851     -0.481987
  H       3.021818     -3.732789     -0.072517
  H       4.641914     -3.274907     -0.621734
  H       3.238617     -2.661158     -1.469375
46
Coordinates from ORCA-job orca E -1038.132177901093
  C       3.602111     -1.733513      0.475313
  C       4.282235     -2.152891      1.792079
  H       4.260387     -1.345624      2.524867
  H       3.767055     -3.017306      2.214967
  H       5.323165     -2.431811      1.617242
  C       2.180616     -1.247822      0.824930
  H       2.278275     -0.363785      1.457451
  H       1.718661     -2.021815      1.441704
  C       1.189733     -0.888690     -0.305811
  C      -0.050398     -0.257573      0.406637
  H      -0.437292     -0.988696      1.121980
  H       0.316429      0.598584      0.972274
  C      -1.159618      0.181589     -0.487470
  C      -1.301048      1.568987     -0.898741
  O      -0.382656      2.387438     -0.338788
  C      -0.451807      3.750948     -0.734876
  H       0.237488      4.286561     -0.086539
  H      -1.463284      4.139475     -0.621613
  H      -0.147174      3.859143     -1.776932
  O      -2.146144      1.973045     -1.668869
  C      -2.140637     -0.794772     -1.028499
  H      -2.325306     -1.597985     -0.312171
  H      -3.077440     -0.303874     -1.286221
  H      -1.755564     -1.256377     -1.946345
  C       0.713813     -2.133346     -1.050895
  O       0.265093     -3.082371     -0.215789
  C      -0.224887     -4.267930     -0.837380
  H      -0.545033     -4.917376     -0.026952
  H       0.562289     -4.745488     -1.420932
  H      -1.061982     -4.037454     -1.496386
  O       0.693647     -2.261334     -2.245590
  C       1.767490      0.097932     -1.316777
  H       2.076465      1.010921     -0.808162
  H       2.620138     -0.322239     -1.849010
  H       1.024460      0.357186     -2.070049
  C       4.468243     -0.616718     -0.102931
  O       4.367507      0.516630      0.608090
  C       5.150900      1.612410      0.145215
  H       5.028566      2.398102      0.886296
  H       6.198712      1.329147      0.054129
  H       4.789519      1.951540     -0.826907
  O       5.193221     -0.723097     -1.055037
  C       3.608951     -2.918064     -0.488167
  H       2.992403     -3.724201     -0.085796
  H       4.622949     -3.292845     -0.623469
  H       3.235333     -2.649793     -1.476130
46
Coordinates from ORCA-job orca E -1038.132283760450
  C       3.600154     -1.737934      0.480465
  C       4.276477     -2.153294      1.800921
  H       4.258274     -1.341461      2.528792
  H       3.755614     -3.012240      2.228042
  H       5.315989     -2.439127      1.628783
  C       2.183271     -1.238437      0.826924
  H       2.287114     -0.352793      1.456528
  H       1.714183     -2.006345      1.446100
  C       1.195133     -0.874169     -0.304949
  C      -0.047461     -0.248178      0.409194
  H      -0.423351     -0.980811      1.128644
  H       0.318084      0.612072      0.969443
  C      -1.161813      0.179184     -0.483854
  C      -1.320117      1.564029     -0.895298
  O      -0.409684      2.394869     -0.340913
  C      -0.503869      3.757494     -0.735726
  H       0.200271      4.299959     -0.109507
  H      -1.515087      4.136237     -0.590608
  H      -0.234910      3.867681     -1.787297
  O      -2.177571      1.958399     -1.657465
  C      -2.132487     -0.807850     -1.023897
  H      -2.306530     -1.615265     -0.309781
  H      -3.075140     -0.327874     -1.281166
  H      -1.745738     -1.263805     -1.944059
  C       0.726061     -2.116731     -1.058145
  O       0.264903     -3.065405     -0.229424
  C      -0.218932     -4.250374     -0.857798
  H      -0.547199     -4.900369     -0.051051
  H       0.574849     -4.726611     -1.433404
  H      -1.049167     -4.018259     -1.524872
  O       0.718567     -2.242827     -2.253120
  C       1.775777      0.119188     -1.306924
  H       2.086263      1.027409     -0.790241
  H       2.628843     -0.299118     -1.840147
  H       1.035200      0.386252     -2.060122
  C       4.476809     -0.634228     -0.106142
  O       4.387380      0.505760      0.595228
  C       5.191505      1.585561      0.128496
  H       5.057266      2.387210      0.850172
  H       6.238632      1.290722      0.071378
  H       4.857979      1.905658     -0.859591
  O       5.203837     -0.756866     -1.054853
  C       3.597620     -2.930631     -0.473330
  H       2.963716     -3.723174     -0.070467
  H       4.606482     -3.323890     -0.593963
  H       3.238384     -2.664764     -1.467057
46
Coordinates from ORCA-job orca E -1038.132372265346
  C       3.598969     -1.740146      0.485720
  C       4.270415     -2.144524      1.812347
  H       4.250915     -1.326108      2.532824
  H       3.746667     -2.998964      2.245113
  H       5.310027     -2.433582      1.646131
  C       2.183688     -1.230960      0.824749
  H       2.290155     -0.341371      1.448570
  H       1.709434     -1.992251      1.448386
  C       1.198155     -0.868232     -0.310372
  C      -0.046741     -0.242414      0.401521
  H      -0.419070     -0.976648      1.121258
  H       0.319692      0.618904      0.959326
  C      -1.162241      0.180967     -0.491274
  C      -1.334989      1.567786     -0.890486
  O      -0.429550      2.402455     -0.334492
  C      -0.546260      3.768108     -0.712403
  H       0.185184      4.306987     -0.115060
  H      -1.550726      4.141787     -0.514659
  H      -0.330177      3.889563     -1.774698
  O      -2.201041      1.960891     -1.643616
  C      -2.125135     -0.809423     -1.038057
  H      -2.289013     -1.626390     -0.332649
  H      -3.072600     -0.334911     -1.288295
  H      -1.740023     -1.251798     -1.965639
  C       0.733407     -2.111543     -1.064489
  O       0.264705     -3.057354     -0.236579
  C      -0.212636     -4.245138     -0.864886
  H      -0.544622     -4.893534     -0.058309
  H       0.586085     -4.721025     -1.433992
  H      -1.039099     -4.016172     -1.537775
  O       0.737370     -2.241857     -2.258958
  C       1.781846      0.125330     -1.309808
  H       2.093235      1.032373     -0.791430
  H       2.635333     -0.294796     -1.841319
  H       1.043750      0.394687     -2.064724
  C       4.482591     -0.647689     -0.110700
  O       4.403811      0.498247      0.581712
  C       5.222836      1.564436      0.108161
  H       5.072125      2.384111      0.805966
  H       6.270209      1.265070      0.087913
  H       4.917481      1.858680     -0.896643
  O       5.211941     -0.785666     -1.055661
  C       3.594234     -2.943544     -0.454832
  H       2.946171     -3.723843     -0.050493
  H       4.599548     -3.350734     -0.557968
  H       3.249525     -2.684912     -1.455492
46
Coordinates from ORCA-job orca E -1038.132445246004
  C       3.599644     -1.741621      0.489830
  C       4.264868     -2.137788      1.822004
  H       4.241302     -1.315328      2.537678
  H       3.739610     -2.990258      2.256925
  H       5.305394     -2.427384      1.662603
  C       2.183107     -1.229095      0.820769
  H       2.288902     -0.337088      1.441202
  H       1.706048     -1.987284      1.446137
  C       1.200089     -0.869137     -0.317283
  C      -0.045498     -0.240898      0.392207
  H      -0.420731     -0.976730      1.109072
  H       0.322393      0.618409      0.951690
  C      -1.161490      0.184517     -0.498836
  C      -1.342437      1.574373     -0.886442
  O      -0.429040      2.406729     -0.341002
  C      -0.564487      3.775945     -0.699292
  H       0.207512      4.306234     -0.147002
  H      -1.551844      4.151071     -0.429661
  H      -0.421330      3.907945     -1.772350
  O      -2.221950      1.971204     -1.621269
  C      -2.126101     -0.803457     -1.046659
  H      -2.283259     -1.625982     -0.346386
  H      -3.075952     -0.327657     -1.285668
  H      -1.748816     -1.237461     -1.981316
  C       0.736244     -2.113380     -1.069996
  O       0.268407     -3.058983     -0.241121
  C      -0.205810     -4.248374     -0.868327
  H      -0.535494     -4.897550     -0.061402
  H       0.593578     -4.722555     -1.437962
  H      -1.033427     -4.022261     -1.540842
  O       0.742272     -2.245844     -2.264177
  C       1.786419      0.122829     -1.316831
  H       2.099507      1.029637     -0.798909
  H       2.639178     -0.299833     -1.847653
  H       1.049309      0.393380     -2.072283
  C       4.486568     -0.653820     -0.110013
  O       4.410893      0.495155      0.577472
  C       5.235060      1.555663      0.099467
  H       5.064320      2.389493      0.775521
  H       6.284259      1.261768      0.111345
  H       4.953859      1.825359     -0.918883
  O       5.218956     -0.798971     -1.051612
  C       3.597990     -2.950738     -0.443404
  H       2.943369     -3.725705     -0.039479
  H       4.602281     -3.362987     -0.535769
  H       3.261908     -2.696692     -1.448154
46
Coordinates from ORCA-job orca E -1038.132469649887
  C       3.601640     -1.742755      0.492103
  C       4.259735     -2.138771      1.827505
  H       4.234174     -1.315740      2.542377
  H       3.731139     -2.990130      2.260584
  H       5.300505     -2.430546      1.673517
  C       2.184178     -1.227399      0.817179
  H       2.290048     -0.334154      1.435743
  H       1.704822     -1.983711      1.443078
  C       1.203721     -0.869180     -0.323170
  C      -0.040852     -0.236746      0.383849
  H      -0.418903     -0.970725      1.101523
  H       0.327427      0.623133      0.942154
  C      -1.159823      0.186043     -0.504727
  C      -1.352825      1.577632     -0.882235
  O      -0.425380      2.408591     -0.359359
  C      -0.579331      3.780544     -0.700339
  H       0.243829      4.300516     -0.216298
  H      -1.534830      4.162633     -0.339833
  H      -0.532388      3.918006     -1.780920
  O      -2.251224      1.975684     -1.592653
  C      -2.124311     -0.803482     -1.050619
  H      -2.270782     -1.630976     -0.353835
  H      -3.078803     -0.330251     -1.275886
  H      -1.753841     -1.229170     -1.991607
  C       0.736953     -2.113756     -1.073292
  O       0.269645     -3.058440     -0.242780
  C      -0.206474     -4.247463     -0.868634
  H      -0.534639     -4.896919     -0.061297
  H       0.590725     -4.722504     -1.440660
  H      -1.035707     -4.021368     -1.539235
  O       0.741659     -2.247820     -2.267279
  C       1.793202      0.119392     -1.324585
  H       2.108867      1.026424     -0.808566
  H       2.644672     -0.306876     -1.854643
  H       1.056610      0.390665     -2.080159
  C       4.492600     -0.656589     -0.104933
  O       4.418544      0.492312      0.582995
  C       5.245400      1.550877      0.105376
  H       5.051781      2.395968      0.760931
  H       6.296572      1.266533      0.149386
  H       4.989741      1.798565     -0.925056
  O       5.227363     -0.803396     -1.044450
  C       3.601549     -2.951837     -0.440944
  H       2.944537     -3.725821     -0.039187
  H       4.605531     -3.365388     -0.530692
  H       3.268524     -2.696755     -1.446490
46
Coordinates from ORCA-job orca E -1038.132483330596
  C       3.600906     -1.742045      0.491151
  C       4.261038     -2.139340      1.825030
  H       4.238429     -1.316292      2.540032
  H       3.731915     -2.989769      2.259295
  H       5.301048     -2.432819      1.668947
  C       2.183614     -1.227150      0.818516
  H       2.290031     -0.334216      1.437399
  H       1.705404     -1.984026      1.444581
  C       1.201901     -0.869544     -0.320991
  C      -0.043006     -0.238404      0.386022
  H      -0.422954     -0.972342      1.102760
  H       0.323482      0.620921      0.946534
  C      -1.160710      0.186233     -0.504044
  C      -1.349824      1.577811     -0.883652
  O      -0.430393      2.409390     -0.347421
  C      -0.573563      3.780418     -0.697159
  H       0.234763      4.301714     -0.189999
  H      -1.539299      4.164286     -0.367213
  H      -0.493208      3.913869     -1.776322
  O      -2.238026      1.975124     -1.607258
  C      -2.123313     -0.802979     -1.054359
  H      -2.273250     -1.630426     -0.358108
  H      -3.076979     -0.329869     -1.283145
  H      -1.747433     -1.228761     -1.993109
  C       0.735206     -2.114789     -1.070301
  O       0.272461     -3.060963     -0.239017
  C      -0.204112     -4.250104     -0.864233
  H      -0.529737     -4.900250     -0.056399
  H       0.592072     -4.724241     -1.438457
  H      -1.035200     -4.024618     -1.532764
  O       0.735866     -2.247770     -2.264456
  C       1.789055      0.119301     -1.323673
  H       2.102682      1.027548     -0.808593
  H       2.641340     -0.305126     -1.853777
  H       1.051354      0.388182     -2.079011
  C       4.491277     -0.655370     -0.106270
  O       4.417789      0.493224      0.582450
  C       5.242617      1.552832      0.104300
  H       5.055860      2.394758      0.765943
  H       6.293678      1.266679      0.137397
  H       4.978477      1.807279     -0.922455
  O       5.224447     -0.801163     -1.047120
  C       3.599096     -2.950212     -0.442983
  H       2.946973     -3.726833     -0.038331
  H       4.604011     -3.360059     -0.539306
  H       3.259795     -2.695239     -1.446491
46
Coordinates from ORCA-job orca E -1038.132487783468
  C       3.600800     -1.742159      0.491146
  C       4.261831     -2.140270      1.824244
  H       4.240966     -1.317186      2.539260
  H       3.732248     -2.990045      2.259181
  H       5.301373     -2.434870      1.667193
  C       2.183536     -1.227782      0.819688
  H       2.290280     -0.335485      1.439419
  H       1.705677     -1.985331      1.445124
  C       1.201918     -0.869279     -0.319405
  C      -0.043115     -0.239056      0.387511
  H      -0.423793     -0.972261      1.104645
  H       0.321908      0.620591      0.948499
  C      -1.160726      0.185314     -0.503041
  C      -1.349006      1.576274     -0.884157
  O      -0.429517      2.408087     -0.348202
  C      -0.569732      3.778477     -0.701830
  H       0.241225      4.298835     -0.197925
  H      -1.533427      4.166131     -0.370363
  H      -0.491337      3.908205     -1.781553
  O      -2.237203      1.973344     -1.608023
  C      -2.123993     -0.804170     -1.051914
  H      -2.274270     -1.630563     -0.354417
  H      -3.077711     -0.331141     -1.280404
  H      -1.747617     -1.231487     -1.989684
  C       0.735052     -2.113795     -1.069969
  O       0.272903     -3.061158     -0.239801
  C      -0.204646     -4.249070     -0.866525
  H      -0.530711     -4.900039     -0.059545
  H       0.591080     -4.723105     -1.441460
  H      -1.035606     -4.022188     -1.534727
  O       0.734345     -2.244767     -2.264371
  C       1.788556      0.120872     -1.321111
  H       2.100622      1.029144     -0.805109
  H       2.641792     -0.301782     -1.851070
  H       1.050688      0.389386     -2.076422
  C       4.490463     -0.654723     -0.106033
  O       4.416493      0.493522      0.583361
  C       5.240563      1.553796      0.105936
  H       5.052739      2.395580      0.767442
  H       6.291909      1.268718      0.139290
  H       4.976784      1.808379     -0.920911
  O       5.222476     -0.799154     -1.047947
  C       3.598874     -2.949586     -0.443873
  H       2.950447     -3.728426     -0.037680
  H       4.604682     -3.356188     -0.544380
  H       3.255759     -2.694739     -1.446144
46
Coordinates from ORCA-job orca E -1038.132490553437
  C       3.600394     -1.742417      0.491423
  C       4.261426     -2.140667      1.824482
  H       4.242148     -1.317058      2.538957
  H       3.730823     -2.989326      2.260336
  H       5.300507     -2.436834      1.667250
  C       2.183294     -1.227705      0.820002
  H       2.290322     -0.335514      1.439866
  H       1.705316     -1.985235      1.445363
  C       1.201977     -0.869019     -0.319197
  C      -0.043191     -0.239255      0.387392
  H      -0.424413     -0.971999      1.104696
  H       0.321053      0.620565      0.948727
  C      -1.160628      0.185417     -0.503443
  C      -1.348718      1.576383     -0.884227
  O      -0.429762      2.408168     -0.347237
  C      -0.568841      3.778425     -0.701842
  H       0.245537      4.297558     -0.202187
  H      -1.530043      4.168397     -0.365836
  H      -0.495271      3.906634     -1.782029
  O      -2.236425      1.973762     -1.608629
  C      -2.124109     -0.804073     -1.052130
  H      -2.274427     -1.630344     -0.354461
  H      -3.077951     -0.331120     -1.280160
  H      -1.747423     -1.231592     -1.989662
  C       0.735291     -2.113442     -1.070048
  O       0.274523     -3.061525     -0.240048
  C      -0.202926     -4.249355     -0.866975
  H      -0.528813     -4.900548     -0.060108
  H       0.592842     -4.723131     -1.442069
  H      -1.033964     -4.022516     -1.535088
  O       0.733463     -2.243574     -2.264563
  C       1.788492      0.121431     -1.320670
  H       2.099860      1.029764     -0.804374
  H       2.642165     -0.300557     -1.850430
  H       1.050556      0.389715     -2.076000
  C       4.490182     -0.655140     -0.105852
  O       4.415646      0.493388      0.583039
  C       5.239304      1.553673      0.105321
  H       5.049657      2.396352      0.765160
  H       6.290924      1.269748      0.140664
  H       4.976942      1.806540     -0.922335
  O       5.222442     -0.799623     -1.047551
  C       3.598163     -2.949797     -0.443617
  H       2.951268     -3.729457     -0.036556
  H       4.604364     -3.355023     -0.545920
  H       3.253606     -2.695224     -1.445493
