46

C          3.54865       -1.69582        0.43188
C          4.28694       -2.08820        1.73005
H          4.27957       -1.26554        2.45919
H          3.79828       -2.96229        2.18663
H          5.33344       -2.35609        1.51940
C          2.12819       -1.24079        0.83945
H          2.24270       -0.36178        1.49061
H          1.70177       -2.03948        1.46603
C          1.06593       -0.86936       -0.23555
C         -0.14234       -0.34733        0.59308
H         -0.45976       -1.16854        1.25298
H          0.24646        0.44582        1.24911
C         -1.43190        0.20671       -0.07712
C         -1.10992        1.49208       -0.83998
O         -0.54341        2.41709       -0.05280
C         -0.19588        3.63992       -0.67827
H          0.24220        4.27181        0.10239
H         -1.08453        4.12454       -1.10795
H          0.53207        3.46994       -1.48504
O         -1.32496        1.68549       -2.00822
C         -2.06292       -0.79114       -1.04891
H         -2.27860       -1.73513       -0.52896
H         -2.99596       -0.39962       -1.47512
H         -1.40189       -0.99322       -1.90026
C          0.66049       -2.12199       -1.01295
O          0.18049       -3.08095       -0.20908
C         -0.23524       -4.27701       -0.84460
H         -0.58765       -4.94253       -0.04864
H          0.60069       -4.74078       -1.38803
H         -1.04582       -4.07479       -1.55997
O          0.74759       -2.26519       -2.20474
C          1.59036        0.17032       -1.22667
H          1.86312        1.09190       -0.69350
H          2.47094       -0.20055       -1.76752
H          0.84156        0.40678       -1.99216
C          4.35870       -0.55742       -0.18672
O          4.26798        0.57248        0.52934
C          4.98986        1.68677        0.03561
H          4.82047        2.50336        0.74645
H          6.06322        1.46042       -0.03619
H          4.62717        1.97152       -0.96325
O          5.04521       -0.64557       -1.17087
C          3.55336       -2.88692       -0.52866
H          2.94092       -3.70157       -0.11361
H          4.57656       -3.25970       -0.67420
H          3.16147       -2.62280       -1.51872
