104
Coordinates from ORCA-job orca E -2047.499821661428
  C           0.41697137112829      0.53908524079038     -1.34180086765708
  C           0.93494149989225      0.63859167672167      0.10153819632811
  O           1.62258748142193     -0.23437922345234      0.57290988704299
  O           0.68034976528410      1.69932315839024      0.85049306094926
  C          -0.70119240927889      1.56416315768720     -1.60406378472588
  H          -1.63012549833233      1.21094946309743     -1.16550383780019
  H          -0.85436734915653      1.65738248999722     -2.68291951043391
  C          -0.28854840614614      2.72017538643841      0.52887580371524
  H          -1.24410301804885      2.35161716067361      0.92032357738948
  C          -0.39857380132881      2.90882515578537     -0.96634695627741
  H          -1.21128674689155      3.60687231751973     -1.17523258568886
  H           0.52451673659378      3.35658900392889     -1.34229864331619
  C           0.00379598810786     -0.93060770663422     -1.63254211180292
  H           0.85327955373937     -1.54535150191309     -1.34813460215872
  H          -0.08895005794022     -1.03042065133610     -2.71799195354732
  C           1.55023128582335      0.91771885690803     -2.35441791375704
  C           3.02460217567320      0.50024007099758     -2.31562303766871
  H           1.57165899738172      2.00452593184511     -2.42074898349859
  H           1.16866010915426      0.57301562902175     -3.31978154781591
  C           3.66767711439416      2.00987397970227     -0.80454319399082
  C           3.56215386848117     -0.77644024087650     -1.67919091728033
  C           3.78163897740085      1.06185178894216     -3.30395127277856
  O           3.09266668530316      3.04876249531505     -0.77606680683752
  O           4.90732977221089      1.81467577093439     -0.40772381922699
  H           4.15626819072252     -1.28622871209833     -2.44216880211947
  H           2.74988671810272     -1.44921227981282     -1.41694499875925
  C           4.43193859985056     -0.59130575344502     -0.43211516803554
  H           3.43399750093494      1.92430301145137     -3.86014878765424
  H           4.78013012161398      0.70571304148317     -3.52366494763278
  C           5.48858597396083      0.49058350036819     -0.53727869095948
  H           4.93650831190971     -1.53935591083767     -0.23170928548468
  H           3.80497940864933     -0.37533099286663      0.43334585768736
  H           5.97354436348118      0.46935733100744     -1.52016993431458
  C           0.14374210785293      3.95368424266879      1.29743550073213
  H           1.11070986349772      4.28681264791727      0.90797955664621
  H           0.30711928615544      3.65947463413157      2.33793219941960
  C           6.55264103209103      0.41258375861152      0.54507010678339
  H           6.06010063777827      0.31571463682426      1.51818182210340
  H           7.08377444524809      1.36843817439084      0.55795574725837
  C          -3.95868961069780     -1.64768676796299     -1.63664731589515
  C          -4.20387215860912     -1.98156481417030     -0.16255195325799
  O          -3.74857873859187     -2.98227665579719      0.33076703443107
  O          -4.99636289636689     -1.21496846159827      0.58128768685880
  C          -4.86990523612832     -0.49581789068548     -2.08430183623290
  H          -5.89082704909495     -0.87007950083840     -2.21419748855291
  H          -4.54202582603908     -0.13892197101931     -3.06417463328556
  C          -5.45121829412691      0.11435965202366      0.24581426228213
  H          -6.53778935510087      0.01550528931354      0.13684007773117
  C          -4.87193473753261      0.62094816690140     -1.06016648462997
  H          -5.47603126996233      1.46231961969223     -1.40363644777359
  H          -3.85908355988263      0.99176808952877     -0.88693785391235
  C          -4.35031212152379     -2.90325734433230     -2.43133395795425
  H          -3.74728813606936     -3.76610805501475     -2.16005655251385
  H          -4.23132630306409     -2.71098673882149     -3.50016160252511
  C          -2.48017791575013     -1.23508765496785     -1.93687139464244
  C          -1.27886112113493     -1.62916346746390     -1.04514224333956
  H          -2.47070373061975     -0.15667679415946     -2.04710991461888
  H          -2.25085099855205     -1.62999308586777     -2.93191956157623
  C          -1.47264950312643     -1.12322622694462      0.38235330785109
  C          -1.03021082482214     -3.16138649778727     -1.11757969430233
  O          -2.13545416844416     -0.13834711627992      0.61975423657481
  O          -0.85606814081895     -1.72865307077204      1.37959104404528
  H          -0.24158475314300     -3.33669129385048     -1.85408927277290
  H          -1.92067722582569     -3.65007509115305     -1.49987857387708
  C          -0.66654836310370     -3.81510059288114      0.21403432283963
  C           0.02926289688495     -2.84413527026453      1.13940265155901
  H          -0.02783477464243     -4.68332422013681      0.04376175952188
  H          -1.57506404429454     -4.15973698530964      0.71134257235397
  H           0.93790263661712     -2.43635120103890      0.68726588556206
  C          -5.13215159453783      0.98628730957015      1.44909637455270
  H          -4.04882061824226      0.97146226280109      1.59297783502923
  H          -5.57395457440132      0.51730063295683      2.33270605310349
  C           0.37248562771574     -3.39530773805805      2.50906619018433
  H          -0.52486927980550     -3.84070158828254      2.95070064599392
  H           0.65102217478784     -2.54822200080278      3.14168143636297
  H          -5.39478137356699     -3.16358054377868     -2.24810909546113
  C          -5.63437925789689      2.42009159501406      1.32312770316293
  H          -6.71387374504122      2.42117627635267      1.13396789389632
  H          -5.17080575563686      2.90320215422079      0.45758995360566
  C           1.51366821758041     -4.40530345913125      2.48283079928509
  H           1.23741070688815     -5.27152897427697      1.87402823400378
  H           2.38284017203699     -3.95025738347625      1.99556011078862
  C          -0.87443075356905      5.08705811212849      1.24045072303078
  H          -1.85186416535755      4.71595190627806      1.56897168428498
  H          -1.00442187247364      5.42093080966349      0.20677072034444
  C           7.55598384186672     -0.71710653692673      0.34311761430695
  H           7.04230323048846     -1.68281918873630      0.33636299099755
  H           8.02446017817582     -0.61321561429817     -0.64142353168654
  C           8.63260550454886     -0.73176150678760      1.42058536670819
  H           9.34558004448274     -1.54178611431011      1.25917256803415
  H           9.19121110623300      0.20696812113539      1.43078344329254
  H           8.19371187167375     -0.86533288004368      2.41193626274034
  C          -0.46575808703514      6.27640221763869      2.09981503804305
  H           0.49663939298184      6.67885252672795      1.77553777802663
  H          -1.20092649153740      7.08081581207101      2.04097554564996
  H          -0.36734289229806      5.98893274931071      3.14904751934370
  C          -5.33229950521725      3.24143739017727      2.57010847831151
  H          -5.69324811632675      4.26668689875601      2.47137710560565
  H          -5.80361072772367      2.80438581896119      3.45328874886522
  H          -4.25679036852843      3.28121921196585      2.75862100818823
  C           1.90186722451935     -4.87624195247984      3.87835931079040
  H           1.06032509083356     -5.36353638048565      4.37622474318605
  H           2.72684362516974     -5.58987633396822      3.84320553584542
  H           2.21270583606278     -4.03575839850672      4.50310079680225
