104
Coordinates from ORCA-job orca E -2044.682584854336
  C           0.40925929910083      0.53023136848850     -1.42208179217260
  C           0.93553325640125      0.58967246699710      0.02607772021280
  O           1.64163412480731     -0.29416828165045      0.46442223115900
  O           0.65199928264982      1.61885754459848      0.81354298686514
  C          -0.72180298596952      1.55931725662431     -1.65755027455093
  H          -1.65711059757700      1.18203704202473     -1.23554602167086
  H          -0.87311067440403      1.68694739560658     -2.74220948218907
  C          -0.30245746278191      2.66890082548913      0.52085662195059
  H          -1.26662245271209      2.30343510300495      0.91597510418815
  C          -0.42653775574822      2.89175733687197     -0.97634302704488
  H          -1.25113167716500      3.59740213302871     -1.16307839178122
  H           0.49797620956966      3.35833447493662     -1.35042450793816
  C          -0.00470856143380     -0.94127250555118     -1.73046778339996
  H           0.86300884966682     -1.55845122119170     -1.47687292878983
  H          -0.12665511651081     -1.02665670763439     -2.82253845730108
  C           1.54148271702245      0.93244142726646     -2.43905023134904
  C           3.02818045635275      0.56251895978672     -2.37205494976738
  H           1.52669523199903      2.02668474799790     -2.52164679706054
  H           1.17649846370662      0.56228090502070     -3.41230838813226
  C           3.56149526465325      2.01507374345478     -0.72828909666620
  C           3.57784596083126     -0.73964294565641     -1.78823534120495
  C           3.81068720567866      1.19898127040704     -3.31394030257228
  O           2.94501477579268      3.03429964493641     -0.64857900612800
  O           4.79626928312089      1.82379788146468     -0.30514590778924
  H           4.19793739918697     -1.20792243482300     -2.57107455703696
  H           2.76451941055294     -1.44268627800545     -1.57450979069226
  C           4.42699165035476     -0.60536866867427     -0.51123190406385
  H           3.46104773433744      2.09708145582782     -3.83066124934705
  H           4.83211593527976      0.87211488357056     -3.52252255368244
  C           5.43984949909182      0.53129064534611     -0.50597762223051
  H           4.97720898084094     -1.54949393022285     -0.36829055524110
  H           3.77007649526064     -0.48080755038606      0.36045169557613
  H           5.95918119398108      0.59922807082173     -1.47916604272080
  C           0.15663052836457      3.87905265213915      1.32256815057464
  H           1.13197925928411      4.21135829248444      0.92873571951487
  H           0.33481341502318      3.54034500839800      2.35739174462668
  C           6.48023493792182      0.42662131367236      0.60485974358380
  H           5.95922248721891      0.24810138845545      1.56238086414351
  H           6.96676453336194      1.41251049174781      0.69539652629805
  C          -3.97166125624430     -1.69792723486688     -1.62379490635352
  C          -4.16250915273352     -1.99051093597615     -0.12517055043252
  O          -3.67416868656960     -2.97206125666305      0.38603607357113
  O          -4.94794435368137     -1.20311277650920      0.61619703904673
  C          -4.92145576623393     -0.56869394498035     -2.07505151110508
  H          -5.95035447932998     -0.96274506830385     -2.15020963716685
  H          -4.64108556775065     -0.23808188905627     -3.08891918374845
  C          -5.41641298549173      0.12280090045678      0.26714380259776
  H          -6.51625535749943      0.02341774373483      0.20751227957673
  C          -4.89607553084461      0.58831538956171     -1.08642691949049
  H          -5.52596370993807      1.41963806166718     -1.43862884927703
  H          -3.87263423610663      0.97556281497557     -0.97325043191771
  C          -4.36293545021924     -2.99427445036812     -2.36415460351146
  H          -3.73885706309519     -3.84321218082292     -2.06045444587702
  H          -4.26292667751321     -2.84872170329400     -3.45198060390404
  C          -2.50306049573173     -1.27039727821797     -1.98118416616718
  C          -1.27673195240256     -1.64664235721677     -1.10710055619435
  H          -2.50222109392891     -0.18427837970299     -2.09766670807642
  H          -2.29743947815050     -1.67209343702181     -2.98723679105406
  C          -1.46188301137810     -1.10600777625640      0.31584341508432
  C          -1.01305096388273     -3.18707256857469     -1.14677913947350
  O          -2.13749258177780     -0.11760025788789      0.53326347582841
  O          -0.81986318569978     -1.68075386629145      1.32026704049478
  H          -0.19309869520649     -3.37143074886610     -1.85978452501628
  H          -1.88947241795002     -3.69925664067336     -1.55533676706920
  C          -0.67950996659413     -3.81323418260057      0.21218934412644
  C           0.04017541196658     -2.83093091000509      1.11842969415134
  H          -0.05884055246320     -4.71166736084233      0.07242625699576
  H          -1.60961018561130     -4.11639195751769      0.71439162053719
  H           0.96521488154983     -2.45633322251421      0.65261414324265
  C          -5.04645133344552      1.02872866179289      1.43875021929113
  H          -3.95102291397312      0.99808506296660      1.54775333929349
  H          -5.46541552867023      0.58103385939949      2.35601937643595
  C           0.36708205187561     -3.34304541541084      2.51304463635742
  H          -0.56080245995741     -3.71043992366374      2.98616320886553
  H           0.70249381738052     -2.47561911131433      3.10587629873323
  H          -5.40993068175306     -3.26402284010067     -2.15271843295902
  C          -5.53390259428006      2.47188766196056      1.29714404332510
  H          -6.63148385744631      2.48558477106684      1.15919411729517
  H          -5.10850626925022      2.92484482298862      0.38427754598323
  C           1.44541820515367     -4.42807414074375      2.53656409062961
  H           1.10081882465817     -5.31636462617458      1.97811344067154
  H           2.34117754717217     -4.06159532454847      2.00190039866206
  C          -0.84901172625066      5.03244319164065      1.32639645445533
  H          -1.83707827217304      4.65667797507823      1.65258505666698
  H          -0.99278150523463      5.41082631431144      0.29886487196686
  C           7.54483362512372     -0.64702424341812      0.36983078986439
  H           7.06881530036847     -1.63874923364594      0.27413559727574
  H           8.04545268586530     -0.45787611641823     -0.59771072103658
  C           8.58850167826328     -0.69531580916353      1.48574217350348
  H           9.34829302024424     -1.46995503051724      1.29511135124539
  H           9.11204164493450      0.27031501909523      1.58526113406121
  H           8.12066711028392     -0.91780579283109      2.45941105480390
  C          -0.41702717019204      6.18784799963384      2.22936530161241
  H           0.55615210784755      6.59754896304600      1.91078025406587
  H          -1.14913554594995      7.01122821731218      2.21299270699592
  H          -0.30753048066980      5.85701508565965      3.27582727796001
  C          -5.15614481960368      3.33518915718596      2.50141684009379
  H          -5.51619685746950      4.37051541747015      2.38886187413269
  H          -5.58317687978073      2.93061790421973      3.43429093100025
  H          -4.06127788503538      3.37223881606863      2.63184814210745
  C           1.83192722705556     -4.84529547115191      3.95562401127155
  H           0.96153647380353     -5.24086941954227      4.50571920867574
  H           2.60773587316622     -5.62786176493203      3.95103984721503
  H           2.22244759133923     -3.98884236935923      4.53050752389004
