65
Coordinates from ORCA-job orca E -1423.955265177514
  C       1.740630      0.738800     -1.057330
  H       1.847480      1.697020     -0.529720
  H       2.694580      0.492170     -1.541730
  C       1.315710     -0.352780     -0.074390
  C       2.357670     -0.552600      1.064190
  H       2.015620     -1.396320      1.683450
  H       2.307600      0.342150      1.701920
  C       3.849560     -0.802670      0.743890
  C       1.139180     -1.660910     -0.846030
  O       1.313350     -1.805550     -2.028060
  O       0.757170     -2.668640     -0.049310
  C       4.521380      0.432760      0.146230
  O       5.268080      0.432000     -0.797190
  O       4.228810      1.546900      0.832340
  C       4.079800     -1.992990     -0.189650
  H       5.152530     -2.215720     -0.271630
  H       3.568240     -2.882170      0.208690
  H       3.710770     -1.801270     -1.204840
  C       4.561810     -1.067160      2.088150
  H       4.178730     -1.996710      2.535910
  H       5.646180     -1.183590      1.940220
  H       4.395000     -0.244770      2.798310
  C       0.554310     -3.920450     -0.681060
  H       0.256650     -4.619500      0.108490
  H      -0.235060     -3.846950     -1.443410
  H       1.477640     -4.265480     -1.168490
  C       4.809900      2.747350      0.355060
  H       4.467250      2.963590     -0.667770
  H       4.484920      3.540060      1.038300
  H       5.906970      2.677710      0.346330
  H       1.010220      0.854460     -1.867100
  C      -0.000030     -0.000230      0.676350
  C      -1.315740      0.352670     -0.074290
  H       0.232960      0.849310      1.335610
  H      -0.233040     -0.850040      1.335250
  C      -2.357690      0.552220      1.064350
  C      -1.139080      1.661030     -0.845510
  C      -1.740740     -0.738550     -1.057590
  C      -3.849560      0.802530      0.744120
  H      -2.307700     -0.342750      1.701790
  H      -2.015560      1.395700      1.683880
  O      -1.313130      1.806040     -2.027510
  O      -0.756890      2.668440     -0.048470
  H      -1.010360     -0.853990     -1.867410
  H      -1.847650     -1.696950     -0.530300
  H      -2.694680     -0.491700     -1.541900
  C      -4.079670      1.993140     -0.189090
  C      -4.521520     -0.432660      0.146130
  C      -0.553790      3.920410     -0.679840
  H      -3.568010      2.882150      0.209490
  H      -3.710670      1.801640     -1.204330
  H      -5.152380      2.216010     -0.271000
  O      -5.268230     -0.431560     -0.797270
  O      -4.229140     -1.547010      0.831990
  H      -1.477060      4.265760     -1.167170
  H      -0.256010      4.619160      0.109920
  H       0.235560      3.847000     -1.442210
  C      -4.810410     -2.747250      0.354420
  H      -4.485570     -3.540170      1.037490
  H      -5.907470     -2.677440      0.345680
  H      -4.467770     -2.963310     -0.668450
  C      -4.561770      1.066730      2.088460
  H      -4.178580      1.996120      2.536480
  H      -5.646120      1.183320      1.940570
  H      -4.395040      0.244130      2.798400
65
Coordinates from ORCA-job orca E -1423.957170189606
  C       1.748088      0.713282     -1.096070
  H       1.861415      1.665481     -0.575206
  H       2.693058      0.459278     -1.574728
  C       1.312666     -0.368898     -0.111714
  C       2.345549     -0.567143      1.033436
  H       2.009141     -1.413262      1.638152
  H       2.274533      0.314584      1.673317
  C       3.846075     -0.790890      0.740381
  C       1.126137     -1.678596     -0.876693
  O       1.298921     -1.829012     -2.056420
  O       0.723876     -2.677096     -0.077154
  C       4.521168      0.461516      0.186908
  O       5.296001      0.484443     -0.731475
  O       4.208443      1.557560      0.894022
  C       4.118732     -1.959219     -0.204152
  H       5.188040     -2.162269     -0.259247
  H       3.615780     -2.856282      0.164172
  H       3.777946     -1.758467     -1.218234
  C       4.525639     -1.074337      2.093151
  H       4.148212     -2.012902      2.504140
  H       5.606704     -1.169935      1.971989
  H       4.327793     -0.278872      2.812740
  C       0.500725     -3.926775     -0.713698
  H       0.189256     -4.614149      0.068986
  H      -0.278072     -3.837815     -1.472903
  H       1.412711     -4.285686     -1.192776
  C       4.805430      2.769687      0.457912
  H       4.492781      3.007274     -0.560521
  H       4.464174      3.539557      1.145726
  H       5.893358      2.698481      0.478570
  H       1.026029      0.832499     -1.901408
  C       0.000820     -0.001310      0.635087
  C      -1.311668      0.365759     -0.110858
  H       0.242245      0.839121      1.289566
  H      -0.240382     -0.841787      1.289590
  C      -2.344128      0.563285      1.034779
  C      -1.126250      1.675455     -0.876122
  C      -1.746470     -0.716696     -1.095185
  C      -3.843855      0.791832      0.741413
  H      -2.274318     -0.318404      1.674847
  H      -2.007390      1.410084      1.638360
  O      -1.299875      1.825632     -2.055756
  O      -0.725503      2.674660     -0.076706
  H      -1.023773     -0.836150     -1.899919
  H      -1.860313     -1.668776     -0.574208
  H      -2.690883     -0.462583     -1.574889
  C      -4.112712      1.961741     -0.202254
  C      -4.522323     -0.458150      0.186609
  C      -0.504915      3.924758     -0.713331
  H      -3.607441      2.857077      0.167090
  H      -3.771954      1.760870     -1.216322
  H      -5.181421      2.167806     -0.257791
  O      -5.296696     -0.478140     -0.732225
  O      -4.212347     -1.555817      0.892423
  H      -1.417815      4.282069     -1.191863
  H      -0.194214      4.612654      0.069199
  H       0.273569      3.837207     -1.473007
  C      -4.811641     -2.766092      0.454347
  H      -4.472570     -3.537560      1.141451
  H      -5.899427     -2.692558      0.474279
  H      -4.498713     -3.003087     -0.564146
  C      -4.523088      1.076099      2.094178
  H      -4.143054      2.013191      2.506123
  H      -5.603823      1.174977      1.972700
  H      -4.327843      0.279434      2.813148
65
Coordinates from ORCA-job orca E -1423.956970557120
  C       1.745920      0.718628     -1.059820
  H       1.854589      1.669933     -0.539545
  H       2.692540      0.467873     -1.533544
  C       1.310678     -0.363200     -0.076417
  C       2.346809     -0.558685      1.062581
  H       2.009958     -1.395285      1.677035
  H       2.293630      0.328405      1.693623
  C       3.835669     -0.806568      0.746024
  C       1.134667     -1.674807     -0.839509
  O       1.330314     -1.829341     -2.014419
  O       0.761668     -2.681176     -0.034327
  C       4.513487      0.426413      0.155141
  O       5.261599      0.423455     -0.784766
  O       4.197009      1.546344      0.823268
  C       4.067000     -1.994139     -0.184194
  H       5.130085     -2.209690     -0.268326
  H       3.567602     -2.877234      0.216707
  H       3.695539     -1.809630     -1.189326
  C       4.540763     -1.075877      2.087992
  H       4.163337     -2.003138      2.519321
  H       5.616206     -1.183813      1.945472
  H       4.365851     -0.269753      2.798818
  C       0.571076     -3.939137     -0.670974
  H       0.279319     -4.630991      0.112953
  H      -0.209661     -3.870376     -1.427437
  H       1.490685     -4.273129     -1.148737
  C       4.783792      2.745800      0.333024
  H       4.462650      2.938851     -0.689947
  H       4.440901      3.537463      0.991916
  H       5.870173      2.681761      0.350644
  H       1.027371      0.836215     -1.866410
  C      -0.001962      0.001246      0.669770
  C      -1.313647      0.368067     -0.077000
  H       0.237781      0.839680      1.324198
  H      -0.242749     -0.839188      1.321251
  C      -2.349980      0.563767      1.061768
  C      -1.134363      1.679996     -0.838792
  C      -1.750829     -0.712013     -1.061493
  C      -3.840191      0.805117      0.745655
  H      -2.293714     -0.321710      1.694659
  H      -2.015718      1.403048      1.674049
  O      -1.325166      1.835169     -2.014407
  O      -0.757161      2.684234     -0.032897
  H      -1.032241     -0.830669     -1.867876
  H      -1.862020     -1.663424     -0.541965
  H      -2.696733     -0.458708     -1.535365
  C      -4.078152      1.990932     -0.185073
  C      -4.512567     -0.431376      0.155902
  C      -0.559422      3.941404     -0.668932
  H      -3.581878      2.876724      0.213710
  H      -3.708864      1.806558     -1.190978
  H      -5.142397      2.201318     -0.267519
  O      -5.261701     -0.432469     -0.783202
  O      -4.190821     -1.549292      0.824891
  H      -1.476774      4.280218     -1.147654
  H      -0.265062      4.631520      0.115557
  H       0.221829      3.868918     -1.424511
  C      -4.772841     -2.751720      0.336248
  H      -4.426113     -3.541268      0.995671
  H      -5.859472     -2.692306      0.354570
  H      -4.451592     -2.944409     -0.686752
  C      -4.545743      1.071751      2.087911
  H      -4.172575      2.001084      2.518494
  H      -5.621790      1.174373      1.946012
  H      -4.366457      0.266897      2.799094
65
Coordinates from ORCA-job orca E -1423.957339401917
  C       1.738777      0.725475     -1.069424
  H       1.847380      1.677381     -0.547980
  H       2.684413      0.478113     -1.549392
  C       1.312101     -0.359136     -0.084782
  C       2.351780     -0.552886      1.052659
  H       2.020416     -1.395088      1.664384
  H       2.292685      0.331866      1.688319
  C       3.843362     -0.789767      0.736642
  C       1.135320     -1.670260     -0.848795
  O       1.311687     -1.819628     -2.027532
  O       0.737004     -2.671151     -0.048584
  C       4.516712      0.452075      0.158928
  O       5.276612      0.459383     -0.771594
  O       4.220009      1.558771      0.857719
  C       4.084945     -1.968606     -0.202720
  H       5.150917     -2.176813     -0.285363
  H       3.589747     -2.858939      0.190310
  H       3.715039     -1.778415     -1.208457
  C       4.546481     -1.066224      2.078913
  H       4.173060     -2.000492      2.501658
  H       5.624167     -1.166418      1.938451
  H       4.364375     -0.266281      2.796830
  C       0.519739     -3.922041     -0.691692
  H       0.208416     -4.610499      0.089377
  H      -0.256929     -3.831229     -1.451576
  H       1.434608     -4.275254     -1.167341
  C       4.824941      2.761434      0.396792
  H       4.503460      2.985855     -0.620836
  H       4.495924      3.541455      1.078266
  H       5.911301      2.678865      0.409767
  H       1.014237      0.842160     -1.872590
  C      -0.000145     -0.000127      0.664015
  C      -1.311916      0.360600     -0.084850
  H       0.236747      0.840618      1.318442
  H      -0.237648     -0.842481      1.316163
  C      -2.351993      0.553674      1.052278
  C      -1.133768      1.672486     -0.847225
  C      -1.738446     -0.722572     -1.071163
  C      -3.843851      0.788385      0.735678
  H      -2.292015     -0.330672      1.688290
  H      -2.021967      1.396770      1.663547
  O      -1.309968      1.823522     -2.025769
  O      -0.736697      2.672505     -0.045294
  H      -1.013714     -0.838261     -1.874321
  H      -1.847404     -1.675176     -0.551090
  H      -2.683915     -0.474344     -1.551028
  C      -4.086492      1.966006     -0.204893
  C      -4.515752     -0.454758      0.159019
  C      -0.518902      3.924244     -0.686574
  H      -3.591649      2.857275      0.186438
  H      -3.717825      1.774334     -1.210820
  H      -5.152706      2.173047     -0.287378
  O      -5.275521     -0.463793     -0.771601
  O      -4.219358     -1.560140      0.860023
  H      -1.433218      4.277788     -1.163043
  H      -0.208847      4.611830      0.095770
  H       0.258843      3.834579     -1.445500
  C      -4.824002     -2.763686      0.401015
  H      -4.495281     -3.542432      1.084090
  H      -5.910372     -2.681162      0.413290
  H      -4.502005     -2.989964     -0.616035
  C      -4.547535      1.065460      2.077526
  H      -4.175274      2.000613      2.499348
  H      -5.625311      1.164264      1.936767
  H      -4.364635      0.266505      2.796338
65
Coordinates from ORCA-job orca E -1423.957302571949
  C       1.745932      0.706804     -1.092219
  H       1.865723      1.658077     -0.570363
  H       2.688432      0.449652     -1.574833
  C       1.309861     -0.373752     -0.106608
  C       2.345535     -0.574115      1.035528
  H       2.013465     -1.423646      1.638372
  H       2.274763      0.305174      1.679112
  C       3.844843     -0.795776      0.736605
  C       1.118190     -1.683741     -0.869867
  O       1.290759     -1.835874     -2.048987
  O       0.733493     -2.685651     -0.064188
  C       4.518318      0.458248      0.185673
  O       5.292913      0.483246     -0.732558
  O       4.193690      1.555472      0.887068
  C       4.115753     -1.961997     -0.211002
  H       5.185932     -2.160324     -0.272947
  H       3.619910     -2.861657      0.161700
  H       3.766902     -1.763172     -1.222939
  C       4.529892     -1.081765      2.086570
  H       4.158181     -2.025158      2.492541
  H       5.611393     -1.170596      1.961662
  H       4.329154     -0.291396      2.811402
  C       0.518677     -3.939152     -0.703602
  H       0.216309     -4.627902      0.081889
  H      -0.264218     -3.853253     -1.458760
  H       1.433305     -4.288004     -1.184856
  C       4.794563      2.768847      0.448588
  H       4.493480      2.996439     -0.575370
  H       4.439921      3.540017      1.128625
  H       5.882040      2.698331      0.486552
  H       1.020551      0.831486     -1.894391
  C       0.000492     -0.001891      0.641795
  C      -1.309869      0.368863     -0.105493
  H       0.245567      0.838441      1.295209
  H      -0.243867     -0.841557      1.296321
  C      -2.344102      0.569776      1.037710
  C      -1.120820      1.678627     -0.869808
  C      -1.746637     -0.712785     -1.089619
  C      -3.842324      0.798133      0.738860
  H      -2.275711     -0.310161      1.680680
  H      -2.009765      1.418462      1.640445
  O      -1.296364      1.830131     -2.048564
  O      -0.734247      2.681016     -0.065611
  H      -1.022164     -0.837684     -1.892595
  H      -1.865192     -1.663752     -0.566901
  H      -2.689751     -0.456483     -1.571435
  C      -4.107293      1.966939     -0.207263
  C      -4.520969     -0.452148      0.185777
  C      -0.521736      3.934334     -0.706154
  H      -3.607593      2.863769      0.167037
  H      -3.758585      1.768008     -1.219270
  H      -5.176531      2.170266     -0.269703
  O      -5.294293     -0.472733     -0.733632
  O      -4.197860     -1.552538      0.882914
  H      -1.437885      4.282658     -1.184881
  H      -0.217326      4.623512      0.078173
  H       0.258970      3.848408     -1.463571
  C      -4.800848     -2.763292      0.440107
  H      -4.447272     -3.537552      1.117179
  H      -5.888197     -2.691132      0.478646
  H      -4.500422     -2.987590     -0.584775
  C      -4.526638      1.085254      2.088950
  H      -4.150945      2.026451      2.496346
  H      -5.607692      1.179002      1.963758
  H      -4.329649      0.293030      2.812778
65
Coordinates from ORCA-job orca E -1423.957396271261
  C       1.745716      0.717385     -1.078982
  H       1.858203      1.668888     -0.556863
  H       2.691407      0.465552     -1.557184
  C       1.311644     -0.365216     -0.095112
  C       2.347684     -0.562517      1.045820
  H       2.015221     -1.408144      1.652904
  H       2.283022      0.319551      1.685278
  C       3.842682     -0.793692      0.738450
  C       1.129787     -1.676155     -0.858827
  O       1.308023     -1.827341     -2.037080
  O       0.735064     -2.677171     -0.056620
  C       4.517948      0.452818      0.173107
  O       5.285438      0.466993     -0.751153
  O       4.203710      1.557053      0.868431
  C       4.097026     -1.967526     -0.203984
  H       5.164890     -2.171319     -0.277318
  H       3.601727     -2.861713      0.181021
  H       3.736383     -1.774521     -1.212653
  C       4.537001     -1.074598      2.084673
  H       4.163752     -2.012950      2.499370
  H       5.616431     -1.169897      1.951648
  H       4.346384     -0.278992      2.805671
  C       0.520785     -3.929624     -0.699538
  H       0.209054     -4.617161      0.082596
  H      -0.254858     -3.839515     -1.460831
  H       1.437909     -4.281218     -1.172613
  C       4.808521      2.763992      0.415913
  H       4.502179      2.984430     -0.607414
  H       4.462115      3.541726      1.091836
  H       5.895191      2.687577      0.448094
  H       1.023374      0.838316     -1.883736
  C      -0.000137      0.000285      0.652345
  C      -1.311703      0.366234     -0.095297
  H       0.240694      0.840700      1.306357
  H      -0.241227     -0.840591      1.305674
  C      -2.347984      0.562921      1.045581
  C      -1.129516      1.677503     -0.858378
  C      -1.745294     -0.715982     -1.079815
  C      -3.843252      0.793023      0.738283
  H      -2.282645     -0.318934      1.685235
  H      -2.016344      1.409114      1.652317
  O      -1.306726      1.829085     -2.036728
  O      -0.733955      2.677879     -0.055774
  H      -1.022610     -0.836530     -1.884315
  H      -1.857936     -1.667716     -0.558154
  H      -2.690797     -0.464031     -1.558304
  C      -4.098796      1.967006     -0.203647
  C      -4.517467     -0.453854      0.172540
  C      -0.518661      3.930403     -0.698211
  H      -3.603626      2.861374      0.181039
  H      -3.739267      1.774250     -1.212734
  H      -5.166849      2.170207     -0.276118
  O      -5.285795     -0.468234     -0.751020
  O      -4.203735     -1.557686      0.868731
  H      -1.435534      4.282980     -1.171043
  H      -0.206249      4.617357      0.084164
  H       0.256808      3.839929     -1.459634
  C      -4.808570     -2.764817      0.416757
  H      -4.462697     -3.542134      1.093431
  H      -5.895241     -2.688155      0.448279
  H      -4.501696     -2.986057     -0.606243
  C      -4.537692      1.072734      2.084686
  H      -4.165298      2.011273      2.499733
  H      -5.617226      1.167070      1.951813
  H      -4.346251      0.277019      2.805355
65
Coordinates from ORCA-job orca E -1423.957399400083
  C       1.741713      0.715862     -1.078078
  H       1.854354      1.667603     -0.556632
  H       2.686559      0.464951     -1.558265
  C       1.311028     -0.366665     -0.092762
  C       2.349410     -0.562547      1.046244
  H       2.019598     -1.408747      1.653854
  H       2.285069      0.319234      1.685947
  C       3.843638     -0.792043      0.735007
  C       1.128989     -1.678000     -0.855635
  O       1.305182     -1.829370     -2.034138
  O       0.738724     -2.679601     -0.051834
  C       4.516105      0.455358      0.168368
  O       5.284324      0.469917     -0.755260
  O       4.207375      1.557908      0.868897
  C       4.096309     -1.965471     -0.208335
  H       5.164081     -2.168215     -0.284672
  H       3.603065     -2.860111      0.178122
  H       3.732711     -1.772861     -1.215956
  C       4.541935     -1.072455      2.079381
  H       4.170813     -2.011214      2.494861
  H       5.621015     -1.166550      1.943351
  H       4.352495     -0.277170      2.800943
  C       0.524244     -3.932604     -0.694501
  H       0.215079     -4.619996      0.088653
  H      -0.253228     -3.842827     -1.453794
  H       1.440838     -4.282921     -1.169279
  C       4.814258      2.764980      0.418193
  H       4.505141      2.989192     -0.603352
  H       4.471789      3.540948      1.097994
  H       5.900650      2.685034      0.447208
  H       1.017277      0.835799     -1.881106
  C       0.000026     -0.002162      0.655947
  C      -1.311239      0.363039     -0.091997
  H       0.240694      0.838438      1.309630
  H      -0.240436     -0.843249      1.309077
  C      -2.348686      0.560464      1.047497
  C      -1.128861      1.674065     -0.855283
  C      -1.743651     -0.719363     -1.076688
  C      -3.842288      0.793855      0.736387
  H      -2.286268     -0.321763      1.686760
  H      -2.016833      1.405685      1.655370
  O      -1.307768      1.825772     -2.033329
  O      -0.740082      2.676233     -0.051450
  H      -1.020155     -0.839894     -1.880475
  H      -1.856350     -1.670961     -0.554972
  H      -2.688874     -0.467945     -1.555892
  C      -4.091362      1.968133     -0.206843
  C      -4.518262     -0.451513      0.169462
  C      -0.527248      3.929535     -0.694084
  H      -3.595406      2.861278      0.179587
  H      -3.728483      1.774378     -1.214541
  H      -5.158531      2.174042     -0.283244
  O      -5.284909     -0.464095     -0.755505
  O      -4.208136     -1.556099      0.866169
  H      -1.444186      4.278471     -1.169213
  H      -0.219407      4.617417      0.089165
  H       0.250666      3.840888     -1.453073
  C      -4.815434     -2.761951      0.412751
  H      -4.471506     -3.539943      1.089493
  H      -5.901794     -2.682435      0.443956
  H      -4.508103     -2.982856     -0.610045
  C      -4.539904      1.076178      2.080704
  H      -4.166252      2.013949      2.496148
  H      -5.618717      1.173201      1.944609
  H      -4.352655      0.280429      2.802309
65
Coordinates from ORCA-job orca E -1423.957405222640
  C       1.743106      0.720325     -1.076400
  H       1.855729      1.671255     -0.553360
  H       2.688260      0.469956     -1.556352
  C       1.311433     -0.363554     -0.092999
  C       2.348870     -0.561727      1.046569
  H       2.017591     -1.408228      1.653034
  H       2.285156      0.319404      1.687293
  C       3.842997     -0.793239      0.736231
  C       1.129430     -1.673704     -0.857964
  O       1.305979     -1.823259     -2.036650
  O       0.738786     -2.676512     -0.055793
  C       4.518799      0.453698      0.172544
  O       5.287493      0.468352     -0.750709
  O       4.205855      1.556997      0.870052
  C       4.094577     -1.965757     -0.208555
  H       5.162116     -2.170388     -0.283729
  H       3.599180     -2.860051      0.176064
  H       3.732820     -1.771097     -1.216459
  C       4.539700     -1.077163      2.080775
  H       4.166520     -2.016024      2.494273
  H       5.618763     -1.172903      1.945448
  H       4.351053     -0.282716      2.803513
  C       0.524759     -3.928676     -0.700842
  H       0.213439     -4.616664      0.080973
  H      -0.251008     -3.836901     -1.461620
  H       1.442386     -4.278720     -1.173855
  C       4.814035      2.764015      0.420036
  H       4.510740      2.985162     -0.603893
  H       4.466274      3.540830      1.096213
  H       5.900301      2.685071      0.456158
  H       1.019178      0.841839     -1.879710
  C      -0.000005      0.000149      0.655319
  C      -1.311421      0.364036     -0.092940
  H       0.239918      0.841111      1.308882
  H      -0.239928     -0.840983      1.308657
  C      -2.348930      0.561496      1.046652
  C      -1.129809      1.674633     -0.857222
  C      -1.742844     -0.719463     -1.076851
  C      -3.843072      0.792655      0.736196
  H      -2.285065     -0.319921      1.686966
  H      -2.017911      1.407784      1.653551
  O      -1.306627      1.824794     -2.035788
  O      -0.738071      2.676811     -0.054782
  H      -1.019065     -0.840145     -1.880429
  H      -1.854855     -1.670760     -0.554348
  H      -2.688269     -0.469274     -1.556381
  C      -4.094677      1.965264     -0.208467
  C      -4.518545     -0.454316      0.172207
  C      -0.523671      3.929171     -0.699329
  H      -3.599407      2.859564      0.176279
  H      -3.732812      1.770724     -1.216377
  H      -5.162233      2.169799     -0.283733
  O      -5.287337     -0.468913     -0.750964
  O      -4.206234     -1.557506      0.870174
  H      -1.441347      4.279965     -1.171692
  H      -0.211558      4.616601      0.082663
  H       0.251653      3.837339     -1.460555
  C      -4.814793     -2.764425      0.420402
  H      -4.467549     -3.541157      1.096940
  H      -5.901035     -2.685014      0.456192
  H      -4.511306     -2.986047     -0.603368
  C      -4.539992      1.076275      2.080697
  H      -4.167114      2.015209      2.494306
  H      -5.619066      1.171735      1.945267
  H      -4.351198      0.281829      2.803398
65
Coordinates from ORCA-job orca E -1423.957407550794
  C       1.747272      0.720275     -1.077452
  H       1.858049      1.670966     -0.553388
  H       2.694307      0.470342     -1.554172
  C       1.312289     -0.364241     -0.096173
  C       2.347339     -0.563746      1.045296
  H       2.015237     -1.411423      1.649788
  H       2.281558      0.316428      1.687277
  C       3.842411     -0.793589      0.737897
  C       1.131523     -1.673850     -0.862549
  O       1.309888     -1.822405     -2.041118
  O       0.735920     -2.676457     -0.062587
  C       4.518703      0.454461      0.177270
  O       5.290745      0.470363     -0.743202
  O       4.202018      1.557079      0.874101
  C       4.097682     -1.964926     -0.207412
  H       5.165722     -2.168507     -0.279607
  H       3.601999     -2.860095      0.174936
  H       3.738906     -1.769624     -1.216310
  C       4.536650     -1.078069      2.083720
  H       4.163522     -2.017735      2.495646
  H       5.616160     -1.172578      1.950477
  H       4.345718     -0.284312      2.806749
  C       0.522096     -3.927875     -0.709656
  H       0.203462     -4.614931      0.070123
  H      -0.248290     -3.833003     -1.475527
  H       1.442042     -4.280377     -1.176454
  C       4.812496      2.764660      0.427938
  H       4.516348      2.984921     -0.598278
  H       4.459050      3.541154      1.101636
  H       5.898556      2.686152      0.472282
  H       1.026218      0.842224     -1.883279
  C      -0.000027     -0.000126      0.651046
  C      -1.312107      0.364415     -0.096333
  H       0.240091      0.840718      1.304858
  H      -0.240236     -0.841178      1.304560
  C      -2.347401      0.563761      1.045033
  C      -1.130652      1.674163     -0.862304
  C      -1.747079     -0.719750     -1.078007
  C      -3.842594      0.793336      0.737849
  H      -2.281519     -0.316503      1.686903
  H      -2.015390      1.411327      1.649728
  O      -1.308410      1.823057     -2.040922
  O      -0.736282      2.676744     -0.061700
  H      -1.025751     -0.841809     -1.883562
  H      -1.858400     -1.670503     -0.554157
  H      -2.693873     -0.469446     -1.555001
  C      -4.098563      1.964784     -0.207149
  C      -4.518704     -0.454799      0.177221
  C      -0.522306      3.928397     -0.708259
  H      -3.603070      2.860014      0.175313
  H      -3.739886      1.769911     -1.216145
  H      -5.166677      2.168123     -0.278929
  O      -5.291141     -0.470729     -0.742919
  O      -4.201399     -1.557467      0.873691
  H      -1.441864      4.280556     -1.176078
  H      -0.204928      4.615449      0.072036
  H       0.249047      3.834046     -1.473223
  C      -4.811979     -2.765079      0.427748
  H      -4.457931     -3.541630      1.101063
  H      -5.898022     -2.686759      0.472879
  H      -4.516533     -2.985114     -0.598715
  C      -4.536641      1.077343      2.083865
  H      -4.163783      2.017097      2.495830
  H      -5.616219      1.171453      1.950882
  H      -4.345227      0.283557      2.806735
65
Coordinates from ORCA-job orca E -1423.957414033022
  C       1.747471      0.722281     -1.077177
  H       1.857879      1.672673     -0.552511
  H       2.694766      0.472862     -1.553671
  C       1.312266     -0.362907     -0.096749
  C       2.347134     -0.563729      1.044706
  H       2.014667     -1.411917      1.648284
  H       2.281631      0.315794      1.687614
  C       3.842029     -0.794050      0.737037
  C       1.131275     -1.671769     -0.864324
  O       1.309973     -1.819282     -2.042989
  O       0.739513     -2.676032     -0.064601
  C       4.519897      0.454431      0.179266
  O       5.292987      0.471131     -0.740341
  O       4.203536      1.556132      0.877595
  C       4.096449     -1.963780     -0.210501
  H       5.164320     -2.168316     -0.282599
  H       3.599693     -2.859178      0.169903
  H       3.738398     -1.766170     -1.219223
  C       4.536036     -1.081779      2.082356
  H       4.162054     -2.021860      2.492561
  H       5.615447     -1.177007      1.948846
  H       4.345868     -0.289136      2.806814
  C       0.527415     -3.927433     -0.712633
  H       0.209189     -4.615131      0.066737
  H      -0.242603     -3.832744     -1.478845
  H       1.448230     -4.278408     -1.178870
  C       4.816735      2.763756      0.434711
  H       4.524685      2.984953     -0.592427
  H       4.461282      3.539728      1.107941
  H       5.902514      2.683952      0.483425
  H       1.026659      0.844483     -1.883201
  C      -0.000156      0.000921      0.650391
  C      -1.312418      0.364763     -0.096978
  H       0.239724      0.842004      1.304004
  H      -0.240075     -0.840119      1.304039
  C      -2.347773      0.564473      1.044300
  C      -1.131435      1.674097     -0.863747
  C      -1.746997     -0.719980     -1.078186
  C      -3.842973      0.792937      0.736680
  H      -2.281356     -0.315106      1.687060
  H      -2.016258      1.412827      1.648156
  O      -1.308579      1.821956     -2.042606
  O      -0.738302      2.677534     -0.063670
  H      -1.025802     -0.841663     -1.883942
  H      -1.857487     -1.670654     -0.554054
  H      -2.694158     -0.470508     -1.554908
  C      -4.099271      1.962524     -0.210538
  C      -4.519093     -0.456402      0.178724
  C      -0.524724      3.928921     -0.711235
  H      -3.603994      2.858576      0.170293
  H      -3.740581      1.765954     -1.219214
  H      -5.167439      2.165478     -0.282584
  O      -5.293000     -0.473832     -0.740182
  O      -4.202932     -1.557386      0.878270
  H      -1.445137      4.281200     -1.177275
  H      -0.205596      4.615932      0.068372
  H       0.245123      3.833581     -1.477532
  C      -4.815923     -2.765485      0.436399
  H      -4.460757     -3.540737      1.110609
  H      -5.901727     -2.685641      0.484575
  H      -4.523430     -2.987771     -0.590378
  C      -4.537299      1.079272      2.082144
  H      -4.164666      2.019785      2.492582
  H      -5.616861      1.172948      1.948750
  H      -4.345905      0.286694      2.806360
65
Coordinates from ORCA-job orca E -1423.957421775690
  C       1.746515      0.728936     -1.073712
  H       1.854832      1.677968     -0.546296
  H       2.694307      0.483172     -1.551005
  C       1.313644     -0.360195     -0.096618
  C       2.348914     -0.564004      1.044152
  H       2.016670     -1.414173      1.644936
  H       2.283366      0.313316      1.690003
  C       3.843572     -0.793637      0.735321
  C       1.133803     -1.666286     -0.869034
  O       1.308418     -1.807933     -2.049062
  O       0.746109     -2.674687     -0.072756
  C       4.524027      0.457056      0.185678
  O       5.299275      0.477342     -0.732117
  O       4.207114      1.555649      0.888325
  C       4.097121     -1.958251     -0.218754
  H       5.164724     -2.163882     -0.291005
  H       3.598777     -2.855064      0.156036
  H       3.740405     -1.754402     -1.226683
  C       4.537420     -1.089738      2.078998
  H       4.162524     -2.031542      2.484256
  H       5.616633     -1.185361      1.944648
  H       4.348256     -0.300750      2.807639
  C       0.534680     -3.923831     -0.725894
  H       0.211818     -4.613167      0.050029
  H      -0.231317     -3.825090     -1.495395
  H       1.457427     -4.274573     -1.188414
  C       4.825920      2.764177      0.454890
  H       4.545229      2.987933     -0.574690
  H       4.463915      3.538311      1.126638
  H       5.910945      2.682693      0.515567
  H       1.025196      0.851555     -1.879276
  C       0.000639     -0.000424      0.651045
  C      -1.312585      0.359054     -0.096334
  H       0.238264      0.841585      1.304264
  H      -0.236670     -0.842134      1.304760
  C      -2.347819      0.562320      1.044491
  C      -1.133673      1.665544     -0.868264
  C      -1.745475     -0.729828     -1.073706
  C      -3.842038      0.793487      0.735330
  H      -2.283116     -0.315822      1.689313
  H      -2.014842      1.411308      1.646545
  O      -1.309678      1.807796     -2.048023
  O      -0.746996      2.674005     -0.071594
  H      -1.024331     -0.852041     -1.879500
  H      -1.853475     -1.679062     -0.546604
  H      -2.693446     -0.484065     -1.550640
  C      -4.093729      1.958631     -0.218562
  C      -4.523625     -0.456340      0.185040
  C      -0.537601      3.923806     -0.724115
  H      -3.595290      2.854932      0.157460
  H      -3.735339      1.755238     -1.226007
  H      -5.161057      2.165072     -0.292088
  O      -5.298497     -0.475453     -0.733097
  O      -4.209131     -1.555332      0.888143
  H      -1.460960      4.273372     -1.186285
  H      -0.215632      4.613229      0.052102
  H       0.228410      3.826620     -1.493797
  C      -4.829721     -2.762875      0.454518
  H      -4.469567     -3.537490      1.126709
  H      -5.914646     -2.679471      0.514418
  H      -4.548697     -2.987362     -0.574809
  C      -4.536123      1.090018      2.078830
  H      -4.160212      2.031213      2.484552
  H      -5.615158      1.187031      1.944035
  H      -4.348285      0.300535      2.807277
65
Coordinates from ORCA-job orca E -1423.957429361822
  C       1.747410      0.731912     -1.072643
  H       1.854197      1.680403     -0.543943
  H       2.696312      0.487135     -1.548290
  C       1.313128     -0.358665     -0.097715
  C       2.347168     -0.563805      1.043800
  H       2.013719     -1.413981      1.643888
  H       2.281712      0.313329      1.689952
  C       3.841864     -0.794278      0.735934
  C       1.134379     -1.663695     -0.872147
  O       1.310617     -1.803665     -2.052151
  O       0.749505     -2.674142     -0.077238
  C       4.523140      0.456053      0.186484
  O       5.299784      0.475544     -0.730169
  O       4.209346      1.554254      0.891001
  C       4.095456     -1.958939     -0.218094
  H       5.162978     -2.165076     -0.289881
  H       3.596444     -2.855575      0.156230
  H       3.739241     -1.754689     -1.226121
  C       4.534794     -1.090381      2.080053
  H       4.159342     -2.031860      2.485560
  H       5.614045     -1.186521      1.946328
  H       4.345558     -0.301086      2.808358
  C       0.542239     -3.923102     -0.731501
  H       0.218903     -4.613889      0.042944
  H      -0.221883     -3.825891     -1.503056
  H       1.466757     -4.271878     -1.192077
  C       4.832172      2.761504      0.460593
  H       4.554813      2.987546     -0.569392
  H       4.470932      3.536049      1.132294
  H       5.916912      2.677364      0.523530
  H       1.027696      0.854820     -1.879571
  C      -0.000569      0.000314      0.649330
  C      -1.314316      0.359250     -0.097602
  H       0.236624      0.842335      1.302732
  H      -0.237594     -0.841535      1.303016
  C      -2.348169      0.564267      1.044102
  C      -1.135559      1.664326     -0.871981
  C      -1.749044     -0.731247     -1.072412
  C      -3.842996      0.794379      0.736726
  H      -2.282418     -0.313016      1.690031
  H      -2.014523      1.414177      1.644459
  O      -1.311067      1.804174     -2.052117
  O      -0.747929      2.674071     -0.077541
  H      -1.029450     -0.854519     -1.879390
  H      -1.856173     -1.679648     -0.543628
  H      -2.697889     -0.486101     -1.547979
  C      -4.097456      1.959309     -0.216718
  C      -4.523935     -0.456025      0.186957
  C      -0.538753      3.922541     -0.732128
  H      -3.599196      2.856114      0.158265
  H      -3.740718      1.756050     -1.224745
  H      -5.165106      2.164681     -0.288466
  O      -5.300339     -0.475538     -0.729899
  O      -4.208350     -1.554688      0.889943
  H      -1.462913      4.272966     -1.192163
  H      -0.213610      4.612838      0.042000
  H       0.224690      3.823775     -1.504157
  C      -4.829837     -2.762210      0.458373
  H      -4.467195     -3.537124      1.128892
  H      -5.914646     -2.679561      0.522070
  H      -4.552801     -2.986602     -0.572058
  C      -4.535724      1.089608      2.081163
  H      -4.160462      2.031009      2.487016
  H      -5.615036      1.185460      1.947726
  H      -4.346080      0.300013      2.809034
65
Coordinates from ORCA-job orca E -1423.957424151109
  C       1.755183      0.734581     -1.071073
  H       1.860702      1.681713     -0.539694
  H       2.705731      0.490097     -1.543700
  C       1.316511     -0.358166     -0.100441
  C       2.347363     -0.566451      1.043152
  H       2.011773     -1.417465      1.640856
  H       2.280638      0.309690      1.690610
  C       3.842910     -0.796469      0.738901
  C       1.138797     -1.661091     -0.878560
  O       1.316910     -1.797963     -2.058654
  O       0.749516     -2.672825     -0.087547
  C       4.524689      0.454608      0.191793
  O       5.302253      0.475375     -0.724055
  O       4.208018      1.552361      0.895657
  C       4.099634     -1.960067     -0.215584
  H       5.167421     -2.165582     -0.284980
  H       3.600058     -2.857368      0.156378
  H       3.745727     -1.754699     -1.224206
  C       4.532510     -1.093048      2.084520
  H       4.156714     -2.035008      2.488643
  H       5.612187     -1.188451      1.953552
  H       4.340869     -0.304406      2.812925
  C       0.542671     -3.919635     -0.744991
  H       0.213637     -4.611703      0.025949
  H      -0.216973     -3.819931     -1.520703
  H       1.468489     -4.270236     -1.201765
  C       4.830517      2.760038      0.467574
  H       4.557465      2.985962     -0.563639
  H       4.465940      3.534821      1.137249
  H       5.915276      2.678150      0.534442
  H       1.038789      0.859597     -1.880538
  C       0.001508      0.000133      0.645125
  C      -1.313129      0.358392     -0.101083
  H       0.238100      0.841968      1.299066
  H      -0.235428     -0.841929      1.298659
  C      -2.344958      0.564886      1.042010
  C      -1.135966      1.662178     -0.877908
  C      -1.750193     -0.733821     -1.073022
  C      -3.840431      0.794640      0.737129
  H      -2.278129     -0.311754      1.688779
  H      -2.010193      1.415582      1.640645
  O      -1.314445      1.800202     -2.057816
  O      -0.752493      2.674601     -0.084955
  H      -1.032790     -0.857954     -1.881749
  H      -1.855939     -1.681385     -0.542477
  H      -2.700260     -0.489315     -1.546591
  C      -4.097041      1.958420     -0.217160
  C      -4.521809     -0.456465      0.189514
  C      -0.549642      3.923055     -0.740535
  H      -3.598032      2.855805      0.155365
  H      -3.742513      1.753509     -1.225660
  H      -5.164877      2.163487     -0.287111
  O      -5.300400     -0.476775     -0.725470
  O      -4.210929     -1.552995      0.897831
  H      -1.475977      4.270141     -1.198939
  H      -0.225300      4.615663      0.031909
  H       0.212116      3.827539     -1.514700
  C      -4.836990     -2.759764      0.472398
  H      -4.476925     -3.533625      1.145570
  H      -5.921583     -2.673559      0.536423
  H      -4.562358     -2.990230     -0.557397
  C      -4.530541      1.090803      2.082607
  H      -4.154901      2.032634      2.487180
  H      -5.610171      1.186227      1.951270
  H      -4.339166      0.301917      2.810829
65
Coordinates from ORCA-job orca E -1423.957429815692
  C       1.752506      0.737190     -1.071107
  H       1.857882      1.683811     -0.538841
  H       2.702804      0.493645     -1.544680
  C       1.315095     -0.356756     -0.101261
  C       2.346213     -0.565326      1.042102
  H       2.010745     -1.416717      1.639335
  H       2.279448      0.310404      1.690095
  C       3.841792     -0.795371      0.737859
  C       1.138360     -1.659098     -0.880480
  O       1.316315     -1.794734     -2.060724
  O       0.751267     -2.672170     -0.090026
  C       4.524747      0.456479      0.193958
  O       5.302439      0.478876     -0.721722
  O       4.210443      1.552407      0.901808
  C       4.098080     -1.956999     -0.219112
  H       5.165753     -2.163051     -0.288586
  H       3.597784     -2.854790      0.150677
  H       3.744679     -1.749106     -1.227403
  C       4.530564     -1.095657      2.083061
  H       4.153943     -2.038342      2.484709
  H       5.610232     -1.191496      1.952377
  H       4.339148     -0.308683      2.813313
  C       0.546262     -3.918748     -0.748449
  H       0.218871     -4.612109      0.022026
  H      -0.213967     -3.819794     -1.523681
  H       1.472404     -4.267370     -1.206075
  C       4.834973      2.760350      0.477520
  H       4.561756      2.990424     -0.552734
  H       4.472309      3.533537      1.150071
  H       5.919619      2.676238      0.543388
  H       1.035488      0.862641     -1.879965
  C      -0.000050     -0.000044      0.644754
  C      -1.315355      0.356728     -0.100980
  H       0.235916      0.842137      1.298483
  H      -0.235832     -0.842273      1.298475
  C      -2.346334      0.564975      1.042543
  C      -1.139032      1.659235     -0.879998
  C      -1.752960     -0.737104     -1.070861
  C      -3.841845      0.795330      0.738340
  H      -2.279595     -0.310952      1.690279
  H      -2.010789      1.416198      1.639975
  O      -1.317032      1.794973     -2.060224
  O      -0.750917      2.671979     -0.089629
  H      -1.035994     -0.862689     -1.879755
  H      -1.858528     -1.683724     -0.538636
  H      -2.703204     -0.493271     -1.544418
  C      -4.097904      1.957356     -0.218214
  C      -4.524883     -0.456247      0.193871
  C      -0.545515      3.918531     -0.747990
  H      -3.597851      2.855046      0.152136
  H      -3.744159      1.749945     -1.226502
  H      -5.165589      2.163249     -0.288003
  O      -5.302229     -0.478253     -0.722115
  O      -4.210619     -1.552531      0.901182
  H      -1.471631      4.267651     -1.205286
  H      -0.217529      4.611640      0.022459
  H       0.214418      3.819285     -1.523478
  C      -4.834985     -2.760290      0.476129
  H      -4.472273     -3.533836      1.148238
  H      -5.919643     -2.676343      0.541988
  H      -4.561686     -2.989719     -0.554249
  C      -4.530643      1.095183      2.083641
  H      -4.153895      2.037663      2.485655
  H      -5.610295      1.191219      1.952955
  H      -4.339355      0.307907      2.813595
65
Coordinates from ORCA-job orca E -1423.957427567114
  C       1.752289      0.740587     -1.067988
  H       1.857712      1.686201     -0.533970
  H       2.702476      0.497984     -1.542230
  C       1.315267     -0.355147     -0.100000
  C       2.346364     -0.565114      1.043131
  H       2.010656     -1.416891      1.639635
  H       2.280143      0.310050      1.691910
  C       3.841710     -0.795941      0.738353
  C       1.139199     -1.656216     -0.881407
  O       1.316178     -1.789485     -2.062043
  O       0.752842     -2.670919     -0.092567
  C       4.525249      0.455589      0.194439
  O       5.302495      0.477751     -0.721595
  O       4.211760      1.551646      0.902568
  C       4.096841     -1.957546     -0.218957
  H       5.164361     -2.164176     -0.288967
  H       3.596260     -2.855105      0.150968
  H       3.743109     -1.749306     -1.227047
  C       4.530820     -1.096876      2.083242
  H       4.153861     -2.039448      2.484803
  H       5.610374     -1.193261      1.952138
  H       4.340158     -0.309972      2.813737
  C       0.548089     -3.916361     -0.753382
  H       0.221422     -4.611304      0.015952
  H      -0.212588     -3.816192     -1.527981
  H       1.474161     -4.263610     -1.212131
  C       4.837408      2.759150      0.478412
  H       4.564391      2.989558     -0.551793
  H       4.475361      3.532481      1.151102
  H       5.921943      2.674008      0.544336
  H       1.035032      0.867559     -1.876446
  C      -0.000228     -0.000045      0.645985
  C      -1.315388      0.355630     -0.100291
  H       0.234825      0.842220      1.299896
  H      -0.235485     -0.842674      1.299353
  C      -2.346647      0.565426      1.042796
  C      -1.138587      1.656880     -0.881215
  C      -1.752629     -0.739718     -1.068627
  C      -3.842203      0.795643      0.738341
  H      -2.280090     -0.309713      1.691573
  H      -2.011148      1.417273      1.639328
  O      -1.314929      1.790557     -2.061900
  O      -0.752761      2.671322     -0.091791
  H      -1.035247     -0.866842     -1.876946
  H      -1.858617     -1.685401     -0.534845
  H      -2.702552     -0.496527     -1.543084
  C      -4.098401      1.957206     -0.218737
  C      -4.525331     -0.456185      0.194577
  C      -0.547514      3.916966     -0.752073
  H      -3.598261      2.855039      0.151106
  H      -3.744997      1.749326     -1.226998
  H      -5.166086      2.163138     -0.288294
  O      -5.302607     -0.478732     -0.721424
  O      -4.210899     -1.552170      0.902395
  H      -1.473199      4.264281     -1.211549
  H      -0.221572      4.611708      0.017748
  H       0.213860      3.817058     -1.526020
  C      -4.835906     -2.760000      0.478223
  H      -4.473009     -3.533251      1.150547
  H      -5.920471     -2.675626      0.544682
  H      -4.563223     -2.989959     -0.552169
  C      -4.531046      1.096101      2.083469
  H      -4.154448      2.038845      2.484965
  H      -5.610694      1.191920      1.952728
  H      -4.339713      0.309245      2.813839
65
Coordinates from ORCA-job orca E -1423.957435613258
  C       1.753399      0.741737     -1.067561
  H       1.858892      1.686769     -0.532529
  H       2.703702      0.499268     -1.541646
  C       1.315714     -0.354848     -0.100805
  C       2.346297     -0.565731      1.042636
  H       2.010397     -1.418048      1.638263
  H       2.279594      0.308893      1.692114
  C       3.841943     -0.796075      0.738656
  C       1.139817     -1.655166     -0.883426
  O       1.316594     -1.787259     -2.064211
  O       0.753945     -2.670745     -0.095409
  C       4.525661      0.455969      0.196153
  O       5.303184      0.479075     -0.719606
  O       4.211682      1.551414      0.905095
  C       4.098046     -1.956905     -0.219341
  H       5.165671     -2.163268     -0.288616
  H       3.597341     -2.854842      0.149483
  H       3.745189     -1.747908     -1.227576
  C       4.530155     -1.097878      2.083790
  H       4.153138     -2.040845      2.484382
  H       5.609830     -1.193939      1.953387
  H       4.338854     -0.311573      2.814760
  C       0.549398     -3.915589     -0.757381
  H       0.223400     -4.611469      0.011396
  H      -0.211718     -3.815014     -1.531503
  H       1.475358     -4.262017     -1.216988
  C       4.837664      2.759244      0.482416
  H       4.565322      2.990642     -0.547749
  H       4.475266      3.532015      1.155567
  H       5.922164      2.674014      0.548896
  H       1.036578      0.869712     -1.876236
  C       0.000000     -0.000252      0.645124
  C      -1.315672      0.354655     -0.100710
  H       0.234832      0.842186      1.298916
  H      -0.234810     -0.842915      1.298630
  C      -2.346231      0.565268      1.042814
  C      -1.139840      1.655217     -0.882905
  C      -1.753523     -0.741628     -1.067731
  C      -3.841814      0.795965      0.738861
  H      -2.279677     -0.309604      1.691965
  H      -2.010222      1.417311      1.638768
  O      -1.316741      1.787703     -2.063627
  O      -0.753726      2.670491     -0.094618
  H      -1.036757     -0.869502     -1.876474
  H      -1.859125     -1.686780     -0.532940
  H      -2.703781     -0.498859     -1.541744
  C      -4.097642      1.957083     -0.218855
  C      -4.525745     -0.455821      0.196021
  C      -0.549302      3.915560     -0.756204
  H      -3.596916      2.854871      0.150291
  H      -3.744662      1.748337     -1.227102
  H      -5.165243      2.163542     -0.288251
  O      -5.303004     -0.478619     -0.719969
  O      -4.212139     -1.551454      0.904835
  H      -1.475349      4.262154     -1.215504
  H      -0.223136      4.611169      0.012746
  H       0.211652      3.815237     -1.530517
  C      -4.838181     -2.759111      0.481744
  H      -4.476061     -3.532075      1.154825
  H      -5.922686     -2.673745      0.547972
  H      -4.565614     -2.990332     -0.548401
  C      -4.529982      1.097589      2.084057
  H      -4.152792      2.040402      2.484846
  H      -5.609639      1.193870      1.953680
  H      -4.338808      0.311092      2.814853
65
Coordinates from ORCA-job orca E -1423.957421640545
  C       1.762407      0.754992     -1.061619
  H       1.867530      1.694288     -0.516553
  H       2.714171      0.515002     -1.534133
  C       1.319055     -0.350476     -0.107419
  C       2.344796     -0.571499      1.038401
  H       2.007053     -1.429612      1.624583
  H       2.274414      0.297095      1.695695
  C       3.842391     -0.797702      0.739744
  C       1.145595     -1.643023     -0.902761
  O       1.322641     -1.763079     -2.084715
  O       0.761518     -2.667064     -0.124472
  C       4.528507      0.460631      0.215130
  O       5.308682      0.495336     -0.697902
  O       4.211674      1.547467      0.936464
  C       4.104580     -1.947493     -0.229897
  H       5.172763     -2.152474     -0.295148
  H       3.602226     -2.849799      0.125675
  H       3.758050     -1.726810     -1.237867
  C       4.523334     -1.114341      2.085051
  H       4.144979     -2.062102      2.472977
  H       5.603830     -1.208245      1.959563
  H       4.327762     -0.336511      2.823909
  C       0.558953     -3.905456     -0.798790
  H       0.235152     -4.609916     -0.036878
  H      -0.203222     -3.799026     -1.571152
  H       1.485009     -4.245475     -1.263079
  C       4.841373      2.759634      0.532501
  H       4.575366      3.004518     -0.496233
  H       4.476137      3.524511      1.213146
  H       5.925455      2.672504      0.603895
  H       1.049625      0.892201     -1.872286
  C       0.001050     -0.001448      0.637604
  C      -1.318163      0.346744     -0.105634
  H       0.233114      0.842331      1.290846
  H      -0.229990     -0.844726      1.291839
  C      -2.342888      0.567678      1.040926
  C      -1.147805      1.639393     -0.901380
  C      -1.761766     -0.759106     -1.059213
  C      -3.839298      0.798939      0.741286
  H      -2.274905     -0.302192      1.696751
  H      -2.003354      1.424173      1.628387
  O      -1.328756      1.759421     -2.082741
  O      -0.760036      2.663229     -0.124626
  H      -1.049966     -0.895509     -1.870913
  H      -1.864998     -1.698528     -0.514012
  H      -2.714501     -0.520201     -1.530319
  C      -4.095469      1.951130     -0.227087
  C      -4.528654     -0.456220      0.213410
  C      -0.560667      3.901743     -0.799672
  H      -3.590533      2.851063      0.130824
  H      -3.747590      1.730691     -1.234718
  H      -5.162771      2.160107     -0.294232
  O      -5.307355     -0.486807     -0.701014
  O      -4.218440     -1.544870      0.934912
  H      -1.489160      4.242289     -1.258665
  H      -0.232344      4.605845     -0.039369
  H       0.197104      3.795257     -1.576340
  C      -4.851743     -2.754191      0.528054
  H      -4.492296     -3.520920      1.209702
  H      -5.935704     -2.662504      0.595420
  H      -4.582888     -2.999737     -0.499787
  C      -4.520958      1.115858      2.086173
  H      -4.139904      2.061720      2.476085
  H      -5.600946      1.213684      1.959376
  H      -4.329081      0.336226      2.824103
65
Coordinates from ORCA-job orca E -1423.957429274263
  C       1.755749      0.745125     -1.066256
  H       1.861008      1.688833     -0.528866
  H       2.706501      0.503210     -1.539753
  C       1.316539     -0.353542     -0.102500
  C       2.345734     -0.566739      1.041736
  H       2.009170     -1.420303      1.635197
  H       2.278268      0.306583      1.692931
  C       3.841778     -0.796592      0.739126
  C       1.141598     -1.652075     -0.888126
  O       1.318752     -1.781343     -2.069150
  O       0.755920     -2.669643     -0.102487
  C       4.526576      0.456690      0.200860
  O       5.304695      0.482275     -0.714301
  O       4.212431      1.550216      0.912820
  C       4.098768     -1.954894     -0.221703
  H       5.166446     -2.161341     -0.290153
  H       3.597341     -2.853691      0.144010
  H       3.747382     -1.742948     -1.229860
  C       4.528110     -1.102233      2.084323
  H       4.150322     -2.046158      2.481955
  H       5.607941     -1.198301      1.955084
  H       4.336203     -0.317797      2.817144
  C       0.552189     -3.913042     -0.767389
  H       0.227002     -4.611048     -0.000181
  H      -0.209315     -3.811285     -1.540999
  H       1.478240     -4.257623     -1.228218
  C       4.839581      2.758905      0.494393
  H       4.568113      2.993790     -0.535226
  H       4.477281      3.529835      1.169723
  H       5.923989      2.672711      0.561298
  H       1.040073      0.875193     -1.875599
  C       0.000112     -0.000262      0.642963
  C      -1.316362      0.353176     -0.102305
  H       0.234244      0.842451      1.296707
  H      -0.233956     -0.843132      1.296526
  C      -2.345531      0.566118      1.042016
  C      -1.141643      1.651915     -0.887607
  C      -1.755555     -0.745267     -1.066313
  C      -3.841476      0.796520      0.739388
  H      -2.278314     -0.307476      1.692867
  H      -2.008829      1.419397      1.635802
  O      -1.319244      1.781533     -2.068524
  O      -0.755676      2.669256     -0.101813
  H      -1.039883     -0.875115     -1.875700
  H      -1.860750     -1.689109     -0.529140
  H      -2.706311     -0.503271     -1.539753
  C      -4.097958      1.955276     -0.221025
  C      -4.526594     -0.456332      0.200546
  C      -0.552314      3.912867     -0.766431
  H      -3.596290      2.853769      0.145092
  H      -3.746523      1.743604     -1.229227
  H      -5.165563      2.162097     -0.289540
  O      -5.304473     -0.481349     -0.714832
  O      -4.213234     -1.550144      0.912417
  H      -1.478626      4.257594     -1.226626
  H      -0.226703      4.610629      0.000818
  H       0.208752      3.811363     -1.540503
  C      -4.840796     -2.758457      0.493520
  H      -4.479166     -3.529681      1.168872
  H      -5.925190     -2.671742      0.559974
  H      -4.569001     -2.993301     -0.536023
  C      -4.527815      1.101892      2.084641
  H      -4.149794      2.045582      2.482611
  H      -5.607608      1.198311      1.955364
  H      -4.336175      0.317160      2.817215
65
Coordinates from ORCA-job orca E -1423.957429783673
  C       1.754377      0.743595     -1.066662
  H       1.859837      1.687932     -0.530407
  H       2.704828      0.501389     -1.540603
  C       1.316043     -0.354072     -0.101391
  C       2.345989     -0.566070      1.042418
  H       2.009768     -1.418948      1.637058
  H       2.279024      0.307963      1.692681
  C       3.841780     -0.796338      0.739004
  C       1.140546     -1.653477     -0.885526
  O       1.317604     -1.784197     -2.066415
  O       0.754648     -2.670015     -0.098722
  C       4.526041      0.456117      0.198156
  O       5.303807      0.480150     -0.717359
  O       4.212176      1.550807      0.908385
  C       4.098116     -1.956221     -0.220096
  H       5.165746     -2.162720     -0.289039
  H       3.597038     -2.854440      0.147508
  H       3.745910     -1.746035     -1.228323
  C       4.529228     -1.099678      2.084158
  H       4.151803     -2.042943      2.483671
  H       5.608947     -1.195895      1.954186
  H       4.337847     -0.314011      2.815798
  C       0.550718     -3.914213     -0.762139
  H       0.225717     -4.611268      0.005997
  H      -0.210996     -3.813245     -1.535634
  H       1.476662     -4.259289     -1.222775
  C       4.838781      2.758942      0.487427
  H       4.566207      2.992095     -0.542288
  H       4.477003      3.530846      1.161909
  H       5.923245      2.672937      0.553429
  H       1.038020      0.872665     -1.875569
  C      -0.000003     -0.000156      0.644299
  C      -1.316057      0.353930     -0.101282
  H       0.234459      0.842474      1.297998
  H      -0.234428     -0.842921      1.297838
  C      -2.345934      0.565759      1.042611
  C      -1.140617      1.653472     -0.885192
  C      -1.754530     -0.743566     -1.066684
  C      -3.841699      0.796279      0.739291
  H      -2.279060     -0.308465      1.692629
  H      -2.009600      1.418429      1.637482
  O      -1.317803      1.784409     -2.066038
  O      -0.754509      2.669834     -0.098259
  H      -1.038294     -0.872507     -1.875721
  H      -1.859911     -1.687995     -0.530574
  H      -2.705051     -0.501269     -1.540444
  C      -4.097938      1.956580     -0.219331
  C      -4.526040     -0.455898      0.197908
  C      -0.550542      3.914134     -0.761475
  H      -3.596844      2.854626      0.148680
  H      -3.745697      1.746816     -1.227635
  H      -5.165556      2.163151     -0.288230
  O      -5.303725     -0.479510     -0.717686
  O      -4.212349     -1.550886      0.907756
  H      -1.476513      4.259391     -1.221923
  H      -0.225369      4.611014      0.006748
  H       0.211060      3.813232     -1.535088
  C      -4.839076     -2.758791      0.486317
  H      -4.477414     -3.530995      1.160519
  H      -5.923533     -2.672687      0.552312
  H      -4.566496     -2.991586     -0.543476
  C      -4.529097      1.099128      2.084584
  H      -4.151609      2.042221      2.484440
  H      -5.608816      1.195457      1.954687
  H      -4.337732      0.313174      2.815914
