65
Coordinates from ORCA-job orca E -1423.957429783673
  C           1.75437703847930      0.74359454169655     -1.06666163679936
  H           1.85983652811415      1.68793182299997     -0.53040682761945
  H           2.70482841456850      0.50138901870566     -1.54060322504087
  C           1.31604314954166     -0.35407174450657     -0.10139105635321
  C           2.34598863261421     -0.56607045388872      1.04241845128811
  H           2.00976828593319     -1.41894767262424      1.63705783219505
  H           2.27902425932982      0.30796298895788      1.69268050515420
  C           3.84178033676131     -0.79633825313343      0.73900448101867
  C           1.14054619756269     -1.65347664856660     -0.88552565025583
  O           1.31760411813973     -1.78419683990860     -2.06641482271966
  O           0.75464804031273     -2.67001465895314     -0.09872249990862
  C           4.52604086747463      0.45611724188126      0.19815565440804
  O           5.30380722761564      0.48015033229926     -0.71735893085645
  O           4.21217564969745      1.55080677407515      0.90838474281673
  C           4.09811616294758     -1.95622134441696     -0.22009582704002
  H           5.16574578683055     -2.16272041971558     -0.28903900700747
  H           3.59703847457343     -2.85443975860834      0.14750774315059
  H           3.74590960431837     -1.74603500943314     -1.22832309252748
  C           4.52922807315725     -1.09967756639133      2.08415795088431
  H           4.15180349497301     -2.04294311111249      2.48367091318974
  H           5.60894744844946     -1.19589500080382      1.95418619102975
  H           4.33784728629154     -0.31401110640386      2.81579796193263
  C           0.55071756069419     -3.91421288152147     -0.76213918347724
  H           0.22571658299622     -4.61126795036635      0.00599658580203
  H          -0.21099618264304     -3.81324549865425     -1.53563447280354
  H           1.47666221559134     -4.25928935876341     -1.22277544765939
  C           4.83878127033616      2.75894181507472      0.48742696944775
  H           4.56620744337411      2.99209520783720     -0.54228772138505
  H           4.47700318165190      3.53084572465244      1.16190908259076
  H           5.92324521948929      2.67293676339452      0.55342899254977
  H           1.03801992893844      0.87266454677098     -1.87556867692785
  C          -0.00000267094544     -0.00015550173397      0.64429911694588
  C          -1.31605658106576      0.35392990654519     -0.10128156420601
  H           0.23445939479334      0.84247437923439      1.29799813921865
  H          -0.23442827808470     -0.84292052987092      1.29783808565842
  C          -2.34593446895101      0.56575862609775      1.04261068020310
  C          -1.14061749840945      1.65347236848122     -0.88519192105662
  C          -1.75453044719110     -0.74356565474878     -1.06668445274910
  C          -3.84169926208404      0.79627947762984      0.73929068989364
  H          -2.27906046048632     -0.30846477616019      1.69262878475027
  H          -2.00959950381763      1.41842863209553      1.63748205209349
  O          -1.31780293310866      1.78440854990976     -2.06603831099330
  O          -0.75450945301098      2.66983389447756     -0.09825862109262
  H          -1.03829420242601     -0.87250720426748     -1.87572079060009
  H          -1.85991077301328     -1.68799487948776     -0.53057428950925
  H          -2.70505110915446     -0.50126930209758     -1.54044399607035
  C          -4.09793752676071      1.95657978348300     -0.21933097356236
  C          -4.52604015847350     -0.45589794855660      0.19790780023637
  C          -0.55054162122101      3.91413402451588     -0.76147458099152
  H          -3.59684398745412      2.85462593441227      0.14868035012157
  H          -3.74569666898131      1.74681591608554     -1.22763532814674
  H          -5.16555646196359      2.16315084308373     -0.28822994228242
  O          -5.30372512457699     -0.47950991901486     -0.71768626067446
  O          -4.21234852432000     -1.55088580992185      0.90775607671001
  H          -1.47651262319063      4.25939135849529     -1.22192265829356
  H          -0.22536872342295      4.61101421355356      0.00674759423725
  H           0.21106027514039      3.81323233891608     -1.53508803321338
  C          -4.83907613680040     -2.75879123141701      0.48631669128219
  H          -4.47741384341744     -3.53099493668278      1.16051910703982
  H          -5.92353345227741     -2.67268738676536      0.55231233611421
  H          -4.56649590496360     -2.99158624998619     -0.54347637864213
  C          -4.52909683509237      1.09912782337656      2.08458363990389
  H          -4.15160858019765      2.04222099457829      2.48444013163972
  H          -5.60881626659463      1.19545677173726      1.95468652632293
  H          -4.33773188659139      0.31317399342939      2.81591432063589
