44
Coordinates from ORCA-job orca E -886.365742306248
  O          -1.22315796103304     -0.43274402834334     -2.64382097612416
  C          -1.42935585763226      0.09971129180260     -1.58176734291508
  C          -1.50368882846189     -0.66025158741467     -0.27638471997321
  C          -1.92521962972816      0.07238530223419      0.99699823441876
  H          -1.03389156664859      0.17835498882058      1.63922243057113
  H          -2.64131942308358     -0.53875973755350      1.56595591612552
  C          -2.48958668173540      1.46481102435817      0.71991954725224
  H          -2.51899914374830      2.04714939899141      1.65390878418325
  H          -3.52123001777224      1.42571715719590      0.34163094533760
  C          -1.62395019733443      2.18029535640562     -0.30413418414018
  H          -0.57864221768056      2.22456992482827      0.06011491152532
  C          -2.08542071511212      3.58578666561406     -0.66739405926462
  C          -1.92733537076321      4.61080927980253      0.45772093561458
  H          -2.52958326546892      4.30814367870883      1.33230147148393
  H          -0.87614924853562      4.61775142920808      0.80074579147780
  C          -2.33591792779731      6.02079521908499      0.03063998961982
  H          -2.21573774843952      6.74339334572845      0.85353822847940
  H          -3.39121859104222      6.04934004293846     -0.28862564909848
  H          -1.72583112885868      6.37374523208379     -0.81768692891996
  H          -3.13978928860231      3.53594941942727     -0.99269983375717
  H          -1.50405502132813      3.90708692540371     -1.54810427502709
  C          -0.55784984868956     -1.68534572066972     -0.16792132867335
  H          -0.35609800447119     -2.15881416105632      0.79680603404872
  H          -0.08436139451445     -2.09350808025805     -1.06275269551818
  C          -3.26335309462033     -1.83860311765320     -0.85928886702837
  H          -3.20812543105977     -2.54155277409873     -0.02367255775329
  C          -4.62542987746561     -1.20435262736016     -1.06681820138246
  C          -5.18390040811438     -0.61714732989792      0.22972131072792
  O          -5.07050377373883     -1.47364518566715      1.26515027818801
  C          -5.60888050874341     -1.03272854579226      2.51100859637266
  H          -5.46164772209277     -1.85880931666805      3.21796399059140
  H          -5.08562514556080     -0.13054151501116      2.86405072730907
  H          -6.67927558526459     -0.79655493780644      2.41329926172502
  O          -5.70258463852000      0.46779091409633      0.34106745157202
  C          -5.59443848588627     -2.35458267545350     -1.47690137002698
  H          -5.61895073419389     -3.14819000385944     -0.71648019225735
  H          -6.61720755237628     -1.96436150923194     -1.61096973040485
  H          -5.26565152036865     -2.79016860222876     -2.43270727624006
  C          -4.62626664592932     -0.13284922378579     -2.16416059008838
  H          -4.02185727438443      0.74002121821490     -1.88984837747653
  H          -5.64944688905734      0.21941330470105     -2.35881609030198
  H          -4.20784881436622     -0.54872065651950     -3.09228625435158
  H          -2.80057300439043     -2.19883117367115     -1.78232027026403
  O          -1.61602381538426      1.43767139035144     -1.54405306563670
