44
Coordinates from ORCA-job orca E -886.402371718064
  O          -1.54409454034754     -0.35580102946320     -2.75969645240627
  C          -1.67189782738082      0.15484271812195     -1.67596450261327
  C          -1.93774148781587     -0.70897788827155     -0.41552965090859
  C          -2.19363869555572      0.11003231787129      0.87959748196434
  H          -1.25504034855105      0.14655346698421      1.45641529615972
  H          -2.91546847331832     -0.41899621222075      1.51777347197432
  C          -2.62756732436240      1.54861619442525      0.61951957008211
  H          -2.65971869097582      2.10370661803483      1.57008046838249
  H          -3.63830594891817      1.60331442928664      0.18868447431362
  C          -1.63436438111779      2.21170107914731     -0.31741718559500
  H          -0.62390335112715      2.17422107949549      0.13429553359029
  C          -1.95692065384749      3.65319430671616     -0.69146294679294
  C          -1.83903068157672      4.64363484753920      0.46910475035219
  H          -2.55848671809233      4.38076813278941      1.26426442893486
  H          -0.83589999678915      4.55348222454833      0.92564243242872
  C          -2.07583670906806      6.09035121494231      0.03545960720724
  H          -1.98941345645916      6.78638172119176      0.88503996939002
  H          -3.08170054128004      6.21616762083040     -0.39905546730783
  H          -1.34556516529546      6.40263731489640     -0.72977898949237
  H          -2.97407023987259      3.68629459092563     -1.12067599529428
  H          -1.26892978564878      3.94603656199656     -1.50256253269311
  C          -0.68540701742467     -1.53219310268481     -0.25504615898681
  H          -0.34774524447313     -1.82753464128514      0.74162593397363
  H          -0.23420875739485     -1.99799813071880     -1.13377321674049
  C          -3.08091130110743     -1.71509073680168     -0.75390771726241
  H          -3.10111070708550     -2.46104963705724      0.05454910100708
  C          -4.54173160752560     -1.23240870692265     -0.98864208468519
  C          -5.17402286266540     -0.70597856563349      0.30002193278869
  O          -5.13126259419316     -1.61791919180279      1.29436974396860
  C          -5.72758583881595     -1.23252592973444      2.53102528751926
  H          -5.62770571995386     -2.09485870465016      3.20215048615525
  H          -5.21330315543276     -0.35649828262224      2.95683884048155
  H          -6.78858500327159     -0.97548674225007      2.39149065134745
  O          -5.68568328880457      0.37912380931520      0.44366753285909
  C          -5.35614355846496     -2.48036827199260     -1.40885453374714
  H          -5.27524232366700     -3.28275129513488     -0.66195928319195
  H          -6.42178477900147     -2.22943177034850     -1.53337231132142
  H          -4.98219722751600     -2.85878977386452     -2.37295720786807
  C          -4.66867706926768     -0.16617349750132     -2.08400458961215
  H          -4.18220894055762      0.77861792321041     -1.81157534374521
  H          -5.72848916334574      0.06285105395344     -2.26937860261195
  H          -4.20973973505512     -0.52356184438141     -3.01569663270644
  H          -2.77139951038147     -2.23820356816728     -1.67018424508513
  O          -1.56323957719385      1.48969829728732     -1.56797134421245
