44
Coordinates from ORCA-job orca E -886.368906954559
  O          -1.16525312464161     -0.45287018769399     -2.63372150631130
  C          -1.32233844429142      0.07290447567182     -1.55942368281392
  C          -1.20767400201262     -0.65681035396952     -0.24811892640253
  C          -1.70413942214282     -0.00843228555350      1.03600518028240
  H          -0.83942013943794      0.12483659253462      1.70853349442513
  H          -2.40048553594147     -0.68567313151955      1.55373318839134
  C          -2.36195586207760      1.35057804434136      0.79505007105418
  H          -2.39003288888211      1.92657190200506      1.73274975877078
  H          -3.40281165769605      1.25151129076238      0.45500583216927
  C          -1.59864286024275      2.12704155166852     -0.26587008169507
  H          -0.53935338757111      2.23503979423222      0.04054985341251
  C          -2.16933733854068      3.50176348446620     -0.58913415750947
  C          -2.02412861306326      4.52530927181706      0.53923984977394
  H          -2.57070252184530      4.18047812146603      1.43456529277438
  H          -0.96179635374559      4.59206835368794      0.83887018085724
  C          -2.53292680588814      5.91177324869873      0.14375072735331
  H          -2.42449231573691      6.63318336334189      0.96930848466110
  H          -3.59954682506095      5.87904835260149     -0.13478104148431
  H          -1.97821976228555      6.30800222702495     -0.72323153235945
  H          -3.23298413083015      3.38423296378855     -0.86232323978353
  H          -1.65439205583445      3.86864776278590     -1.49305927356926
  C          -0.39907629623455     -1.73854011367422     -0.23410686367906
  H          -0.17779216618835     -2.26781526063468      0.69748426051680
  H           0.01709374994007     -2.12921568707903     -1.16510920906376
  C          -3.34229602772240     -1.82745387658504     -0.87828902152441
  H          -3.22677947209827     -2.41878370249261      0.03123868215002
  C          -4.68827728530932     -1.19870459141483     -1.13545853166862
  C          -5.21559223018704     -0.47918448479484      0.10748310191985
  O          -5.06335861577514     -1.21843037437572      1.22573332217223
  C          -5.57413135173874     -0.65087135227048      2.43090010487856
  H          -5.40059881362108     -1.39534597794088      3.21809555405198
  H          -5.05232373041177      0.28811390760233      2.67272801033229
  H          -6.64917570936838     -0.43469169628498      2.33722946897843
  O          -5.73823811852716      0.60946312641361      0.11794380111213
  C          -5.70565871061892     -2.34172665408058     -1.43969595625346
  H          -5.75796524439574     -3.05733875845881     -0.60646353591293
  H          -6.71227972866231     -1.92502608404378     -1.61202470500152
  H          -5.39517547491742     -2.88000330474645     -2.34824474572140
  C          -4.64966126052278     -0.21743072364574     -2.31550371724550
  H          -3.98910030855633      0.63598712028501     -2.11295440036935
  H          -5.65417818558283      0.17616300398545     -2.52681894852463
  H          -4.26881787370345     -0.72827715792451     -3.21235226487666
  H          -2.78444526937139     -2.15168166316157     -1.75822625924616
  O          -1.61751782865724      1.39121946316401     -1.50913661902143
