44
Coordinates from ORCA-job orca E -886.375839454663
  O          -1.27809945877578     -0.40907340127015     -2.67252511013361
  C          -1.49025297851956      0.11603806357053     -1.60853558506241
  C          -1.66551990241197     -0.68587069003951     -0.32648303385507
  C          -1.99566458774078      0.08308814989022      0.95897841000536
  H          -1.06727231777704      0.17208394101507      1.54974113895403
  H          -2.69414666683098     -0.49992814687455      1.57722363212586
  C          -2.52636806488786      1.49041448303584      0.69639498020386
  H          -2.54452730052078      2.06213392625923      1.63735864286446
  H          -3.55732838730597      1.47971205581704      0.31436571547228
  C          -1.63196918516834      2.19493247380106     -0.30964019794622
  H          -0.59352325032537      2.22016360158163      0.07496890547758
  C          -2.06143756026858      3.61001293886379     -0.67522752120881
  C          -1.91156901336874      4.62545656408854      0.45969036464439
  H          -2.54230447624411      4.33044075446440      1.31657325313992
  H          -0.86963499328973      4.60871432688824      0.82962697313964
  C          -2.27959927381595      6.04605413718573      0.03098696297677
  H          -2.16561722924651      6.76123968644709      0.86121393977219
  H          -3.32549004929350      6.09872659135694     -0.31505517564296
  H          -1.64061436339174      6.39101617000200     -0.79917002928814
  H          -3.10870091147866      3.58015288582673     -1.02504351675242
  H          -1.45466528413051      3.92649511380966     -1.54042609375291
  C          -0.61149994318826     -1.67387868015043     -0.18624623557205
  H          -0.40697592969572     -2.12283217703184      0.78919044040723
  H          -0.13040240277460     -2.08800926083924     -1.07400417391506
  C          -3.21027444024868     -1.82512906896558     -0.82993121163403
  H          -3.19324152768417     -2.54980779336853     -0.00856510825461
  C          -4.59203660017085     -1.21006485438514     -1.04399978472022
  C          -5.16939798000598     -0.63794491225118      0.25082365467173
  O          -5.07381171601988     -1.50810591703403      1.27666587744174
  C          -5.62997455059830     -1.08235825425994      2.51989241346055
  H          -5.49461952604828     -1.91769913409762      3.21827495728656
  H          -5.11061247442265     -0.18568955319811      2.89239288970091
  H          -6.69838953467000     -0.84293126912599      2.40932621234312
  O          -5.68907153317152      0.44597702099907      0.36834388797398
  C          -5.53048001912362     -2.37852929467636     -1.46124033184671
  H          -5.53505704705683     -3.17876300262924     -0.70741134777356
  H          -6.56301386719819     -2.01510698233683     -1.59175383973789
  H          -5.19264246776800     -2.79891748799150     -2.42090806133499
  C          -4.61307655949835     -0.13692029135007     -2.13877499119814
  H          -4.04280670213446      0.75597763418453     -1.85683730900772
  H          -5.64498262981356      0.18354933142728     -2.34268074573556
  H          -4.17218669500804     -0.53587402065105     -3.06355910669582
  H          -2.80973727328414     -2.24881813393244     -1.75765416413247
  O          -1.60738332562295      1.45950247594462     -1.55421057686067
