44
Coordinates from ORCA-job orca E -886.373625408161
  O          -1.09208246938277     -0.46048348233564     -2.59886549657804
  C          -1.24245452299735      0.07463588377065     -1.52790114505485
  C          -1.07765198557910     -0.63276413936504     -0.21077448480892
  C          -1.61702794390884     -0.00722394962295      1.06499252326526
  H          -0.77336623477807      0.13927821205199      1.76124269254899
  H          -2.30995419030112     -0.70813543715036      1.55676445077586
  C          -2.30836195525000      1.33504116118175      0.81976142652467
  H          -2.35048740063563      1.91492203548102      1.75446160546869
  H          -3.34629713181346      1.20581109880646      0.48118130384529
  C          -1.57092853995601      2.12596943795157     -0.24875001216586
  H          -0.51234202003849      2.26162938335097      0.04903297871805
  C          -2.17890077749352      3.48400201101201     -0.57388275010232
  C          -2.04531502235320      4.51738780079705      0.54696233688215
  H          -2.57440351327998      4.16554366967796      1.45003436097464
  H          -0.98167060118448      4.61019142433374      0.83486578787874
  C          -2.58959487961710      5.88959123263304      0.14910174729327
  H          -2.48865154427736      6.61811415117798      0.96935485116586
  H          -3.65808736230377      5.83126094706291     -0.11776877175384
  H          -2.05313314819000      6.29310727514315     -0.72597305454343
  H          -3.24240834798060      3.33843096419015     -0.83363829633356
  H          -1.68336812383700      3.85793219609831     -1.48575741847240
  C          -0.30838798126107     -1.73416498811593     -0.20838473861929
  H          -0.09386227598715     -2.27476462039736      0.71842295890563
  H           0.09841169317780     -2.12542008468813     -1.14342846565040
  C          -3.40980905620514     -1.85665899362530     -0.91746846770585
  H          -3.26307986042792     -2.42511860258642      0.00170791074358
  C          -4.74649915644910     -1.21356101717890     -1.16718620549776
  C          -5.22768806464298     -0.46326238575999      0.07762795732776
  O          -5.09794867253799     -1.20372787093423      1.19772519894305
  C          -5.56634428421275     -0.60760016830425      2.40605889186363
  H          -5.41669140399116     -1.35540717602647      3.19504787124528
  H          -4.99974572873200      0.30794155669514      2.63682989698300
  H          -6.63171124851739     -0.34325454040318      2.32541820981240
  O          -5.69361731493425      0.65090820054296      0.08886693896530
  C          -5.80096216699069     -2.32868447981019     -1.44379154943102
  H          -5.86115849909220     -3.03230371468688     -0.60096309504324
  H          -6.79784798225816     -1.88556777008124     -1.60672786454515
  H          -5.51913428239074     -2.88716199774516     -2.34950671357044
  C          -4.69174591825968     -0.24260532979057     -2.35536082205537
  H          -3.99131306880100      0.58318416956166     -2.16978427627659
  H          -5.68275060736155      0.19131318982699     -2.55139458577518
  H          -4.35102465518686     -0.77568755662128     -3.25565575587899
  H          -2.79450581575847     -2.10499422129073     -1.78301721961435
  O          -1.58207593402062      1.38198652517258     -1.48733071065415
