44
Coordinates from ORCA-job orca E -886.379663735481
  O          -0.98241093167876     -0.60422792578578     -2.63725296781979
  C          -1.02295848396357     -0.10718062339814     -1.53819131341366
  C          -0.61174048873207     -0.83470801027243     -0.28680212392120
  C          -0.75076426972411     -0.14450203260117      1.05211242621467
  H           0.22813628344907      0.28857559041090      1.33133758905869
  H          -0.99645967773542     -0.88230173117882      1.83231590382833
  C          -1.78281273614673      0.97754474900394      1.00510656474772
  H          -1.75669877871663      1.55946991769849      1.93889870858960
  H          -2.79650042672360      0.56250327702630      0.90467431302754
  C          -1.49113937446909      1.89626453377241     -0.17191523875162
  H          -0.47356748735145      2.31723809898549     -0.04901868068279
  C          -2.48379196426853      3.03447524187747     -0.37624699821005
  C          -2.56235932847683      4.02533012739238      0.78645002509713
  H          -2.90191069924937      3.50647114484151      1.70080187006835
  H          -1.55325695418366      4.41553533845171      1.01691035850631
  C          -3.51178364431884      5.18764139481294      0.49419304106406
  H          -3.56921451268847      5.88795173560763      1.34294341064321
  H          -4.53072478483815      4.82010282765292      0.28831008213841
  H          -3.18294748616852      5.75864619641708     -0.39017100082560
  H          -3.47871075043551      2.60336164935300     -0.56976167428386
  H          -2.18900565367394      3.56551838037628     -1.29737232434598
  C          -0.08459991048551     -2.05858211732160     -0.43232548835798
  H           0.23552895605442     -2.64541469614438      0.43357773306108
  H           0.02696770125213     -2.49306909335575     -1.42813230354230
  C          -3.50432681993181     -1.66202246001678     -0.75780565500449
  H          -3.42383511789177     -1.96967411613091      0.28624125110076
  C          -4.73111702537876     -0.93574355069512     -1.23536223953740
  C          -5.14076630297691      0.14929138628750     -0.23461961140596
  O          -5.18754822293330     -0.31929878132309      1.03014662386851
  C          -5.60745202497222      0.60563721225592      2.03147389645077
  H          -5.64735709235196      0.04243543266668      2.97237065889795
  H          -4.89238963703305      1.43890472789086      2.11851338772141
  H          -6.59699229315173      1.02234895397469      1.79046213793892
  O          -5.42133787880977      1.29107119514973     -0.50987822709373
  C          -5.92352895175176     -1.93760221512243     -1.31140494305603
  H          -6.10908155806875     -2.40816254352466     -0.33501036068151
  H          -6.84228721780183     -1.41991732187221     -1.63474749709083
  H          -5.69650638119112     -2.72635302607975     -2.04487145979741
  C          -4.49880807986850     -0.29228383791602     -2.61039484523788
  H          -3.68325846706215      0.44206117957351     -2.57382595234257
  H          -5.40788642685980      0.21875909091938     -2.95898087545587
  H          -4.22426856404710     -1.06764530607293     -3.34152222182056
  H          -2.86953132530605     -2.15110618132744     -1.49722109036045
  O          -1.49497520933705      1.15228618774038     -1.41185488898372
