44
Coordinates from ORCA-job orca E -886.380519102732
  O          -0.88984652538914     -0.66352553996793     -2.60378105525120
  C          -0.93188514178007     -0.14593769317666     -1.51417213889837
  C          -0.54486606896765     -0.85811672495013     -0.24578598064218
  C          -0.66276881552295     -0.12749138311067      1.07142603554687
  H           0.31411560972677      0.33129273533724      1.31562006729494
  H          -0.88137650829273     -0.84187322212130      1.88069564997618
  C          -1.71412417241929      0.97551543636498      1.00242797930713
  H          -1.70316576528966      1.57274672275207      1.92667539838059
  H          -2.72003680701988      0.53968286174834      0.90322795718120
  C          -1.42845585391513      1.88261527098606     -0.18511167408427
  H          -0.42625410887877      2.33496195682458     -0.04936105248002
  C          -2.45177971275231      2.98573926004304     -0.42911720718897
  C          -2.63561955119170      3.96104171620928      0.73451528456658
  H          -2.97492679091245      3.41445734384842      1.63237875376429
  H          -1.66395391679534      4.41549242994796      1.00474797703418
  C          -3.65239620083301      5.05624065349586      0.41115130381220
  H          -3.78601120690888      5.74909029397874      1.25747544956980
  H          -4.63465422904417      4.61581858494898      0.17326813377796
  H          -3.33601385908839      5.65075287817931     -0.46222661321440
  H          -3.41770672711886      2.51813519454200     -0.67430918564904
  H          -2.13415320209440      3.53721560052279     -1.33046074174689
  C          -0.07992136239380     -2.10973145584093     -0.36026552160176
  H           0.21141633667966     -2.68929453884940      0.52056119573620
  H           0.01055952378714     -2.57403468573750     -1.34467382790888
  C          -3.54994156219510     -1.63642389280272     -0.78844430756231
  H          -3.48245027860814     -2.00942067765066      0.23486474825140
  C          -4.75889745362654     -0.86186782068096     -1.23208220728545
  C          -5.13915945649475      0.19448572653576     -0.18827198222608
  O          -5.16913451465930     -0.31439848236932      1.06045657458077
  C          -5.56381037458927      0.58035422749284      2.09883896657502
  H          -5.58704133617135     -0.01216513403066      3.02209533706749
  H          -4.84357965614057      1.40783018725737      2.19701187184900
  H          -6.55626869339359      1.00830074195193      1.89167931761299
  O          -5.41271891687079      1.34765034794662     -0.42151797375880
  C          -5.98055806287588     -1.82450833539409     -1.34195623055853
  H          -6.17815008099759     -2.32455020717048     -0.38265232747265
  H          -6.88407758644984     -1.26868350115786     -1.64407269391350
  H          -5.77718753673007     -2.59281754696952     -2.10348202675746
  C          -4.50998951226321     -0.17294489995388     -2.58180935978012
  H          -3.66164298128034      0.52271573393535     -2.52375048471382
  H          -5.39788009381341      0.39008967722029     -2.90332191875308
  H          -4.27335185611352     -0.92976903333708     -3.34510652059238
  H          -2.88175139701207     -2.04758496917040     -1.54563647581733
  O          -1.38456359329806      1.12254416237202     -1.41559849402718
