44
Coordinates from ORCA-job orca E -886.385658198740
  O          -1.39524253208922     -0.68738855953024     -2.02788728417310
  C          -1.29580523182379     -0.00477782372424     -1.03398300971748
  C          -1.13320474387774     -0.57442079660085      0.34595530191671
  C          -0.79623281363044      0.39158975121216      1.45242914679690
  H           0.28513575824745      0.62561344025166      1.41249590002408
  H          -0.97932604669584     -0.07080598807957      2.43529179396819
  C          -1.59635237558789      1.68048857039051      1.27753452236502
  H          -1.32905008844161      2.41174641044106      2.05610495050793
  H          -2.67261795482117      1.46942884026739      1.35928233464550
  C          -1.30853881687435      2.29888478310674     -0.08482745826564
  H          -0.27821604280700      2.70391271595071     -0.08391515308568
  C          -2.28563296595732      3.39659657238164     -0.49322430767416
  C          -2.28401497847020      4.61683182020074      0.42956023705850
  H          -2.59836692580136      4.32043302086015      1.44567366278107
  H          -1.25227312771793      5.00276766079483      0.53072532097874
  C          -3.20027978410613      5.73287011323414     -0.07288013226549
  H          -3.19527638243934      6.59932822771390      0.60780456693094
  H          -4.24183781936320      5.38100503179596     -0.16067029995940
  H          -2.88851857171130      6.08783979967760     -1.06955811489317
  H          -3.29158400089265      2.94672504896139     -0.54226229280245
  H          -2.02726942111782      3.70605112556511     -1.52020226158287
  C          -1.28728614179543     -1.89432162603185      0.51344778840596
  H          -1.18759230605422     -2.35265007824539      1.50175248755212
  H          -1.51354498888014     -2.54001028367831     -0.33623051063506
  C          -4.00879491402294     -2.41747031730747     -1.73590669044977
  H          -4.20154993709207     -3.37065305515245     -1.23699127636127
  C          -4.96749236730569     -1.27409155258155     -1.55086246626360
  C          -4.66095516993317     -0.64870841582490     -0.17940245426041
  O          -4.87149143096661     -1.52073519251142      0.82327370009387
  C          -4.60994633611618     -1.05843632233348      2.14469533192793
  H          -4.93313138356071     -1.86095491146588      2.81991637760034
  H          -3.53568985784423     -0.86361129253823      2.28158685096235
  H          -5.16745310222716     -0.13348614862345      2.35754441018217
  O          -4.26813794726832      0.47991898553689      0.01053876017764
  C          -6.42768101257494     -1.78147167722521     -1.53822450066169
  H          -6.57704583139197     -2.54628578260766     -0.76262198567972
  H          -7.13068842795171     -0.95355946872507     -1.34906039569072
  H          -6.67253298624542     -2.22258373644374     -2.51675324016545
  C          -4.77166504370608     -0.20911532085976     -2.63979584239531
  H          -3.72898501324598      0.13397497334132     -2.67870906549793
  H          -5.41811980885080      0.66250312347876     -2.45697935781517
  H          -5.02956528622438     -0.63806734468830     -3.62032128740034
  H          -3.05160009265242     -2.24611645694766     -2.23006173244782
  O          -1.34052574810757      1.33084213656340     -1.16213232473205
