44
Coordinates from ORCA-job orca E -886.366426912212
  O          -1.18559224005075     -0.44852648234705     -2.64528825954034
  C          -1.35614930772645      0.07079957066485     -1.57011707127942
  C          -1.28216727431583     -0.67408918758995     -0.26356914181733
  C          -1.74448081205340     -0.00856376330799      1.02605134268342
  H          -0.86340354528410      0.12074434199700      1.67786332754123
  H          -2.43624509896882     -0.67222853437749      1.56632249719953
  C          -2.38656305370945      1.35773390445938      0.78798915929815
  H          -2.40523084903999      1.93203628428759      1.72705220662716
  H          -3.42927447023112      1.27341674576272      0.44989396957810
  C          -1.61253925101626      2.12667334585031     -0.27061549869125
  H          -0.55356214451361      2.22453858894989      0.04016591540078
  C          -2.16861846567416      3.50723554533243     -0.59503673959512
  C          -2.02103891389519      4.52812004746257      0.53536374159617
  H          -2.57580813570681      4.18706224530288      1.42708568150116
  H          -0.95992107561148      4.58522395771960      0.84122323476478
  C          -2.51537485699586      5.91942486071854      0.13851389625453
  H          -2.40527048362947      6.63900519842557      0.96544865032887
  H          -3.58065828444825      5.89639550001078     -0.14606761052045
  H          -1.95232576193777      6.31166641447093     -0.72490022569007
  H          -3.23162875661602      3.39971052874428     -0.87491152020631
  H          -1.64511006887099      3.87051185599650     -1.49549520176771
  C          -0.44815525631181     -1.74679243377140     -0.23938274980864
  H          -0.22751250251359     -2.26933609016840      0.69595926590996
  H          -0.02644113795720     -2.13887280169911     -1.16713281903690
  C          -3.31184949198376     -1.82203826052586     -0.86723955973548
  H          -3.21967890221298     -2.43481310480877      0.03120089154824
  C          -4.65867219102562     -1.18930520756208     -1.12429748840739
  C          -5.20212639955301     -0.48392790635082      0.11912915251704
  O          -5.03832961098540     -1.22254314448356      1.23604444325528
  C          -5.56276747296887     -0.66708006347673      2.44114148948002
  H          -5.37622898248554     -1.40928491440833      3.22748301322050
  H          -5.05955120690288      0.28143996308244      2.68503162848605
  H          -6.64158813989067     -0.47181970674140      2.34542193328189
  O          -5.74885708408340      0.59281124066331      0.12999792848713
  C          -5.66476283444150     -2.33952104781714     -1.44002501761910
  H          -5.71425602812628     -3.06179025534502     -0.61236509182937
  H          -6.67410623532813     -1.92973458667990     -1.61275559726261
  H          -5.34697749366059     -2.86826069656560     -2.35161602359703
  C          -4.62633517187767     -0.20273870736661     -2.29977372015518
  H          -3.98257001099311      0.66123283821218     -2.08999428041162
  H          -5.63587102483034      0.17482255909066     -2.51624507292484
  H          -4.23108034796404     -0.70340818575817     -3.19599227866330
  H          -2.78517460838091     -2.17988434832928     -1.75399578852357
  O          -1.63212501522604      1.39358389227610     -1.51541661187683
