44
Coordinates from ORCA-job orca E -886.392300565801
  O          -1.41353635532883     -0.37821825601659     -2.71825631839066
  C          -1.58756193331778      0.14305545986273     -1.64593227989492
  C          -1.81494297547761     -0.68962493080493     -0.37594972673568
  C          -2.10595643587974      0.10508552239201      0.91376595786534
  H          -1.17052898077501      0.16693155497188      1.49549489077345
  H          -2.81580204597560     -0.44980553641273      1.54428275011921
  C          -2.58608037829837      1.53019889424389      0.65328753510151
  H          -2.60953899820074      2.09244999760782      1.59986617405373
  H          -3.60781135134719      1.55473548046192      0.24677358743944
  C          -1.63920479180041      2.21321470271368     -0.31785707668631
  H          -0.61355714494348      2.20152202871499      0.09997524650488
  C          -2.00840049785268      3.64481603070512     -0.68530835278592
  C          -1.86721398598640      4.64400765520791      0.46510822646461
  H          -2.54740669983476      4.36883855817898      1.29012179167616
  H          -0.84448431807100      4.58019393336575      0.88074651087263
  C          -2.15563427956742      6.08242629869862      0.03494262805448
  H          -2.05013036963414      6.78496186048940      0.87699739059447
  H          -3.18138185948895      6.18243730784869     -0.35778283880993
  H          -1.46520674930056      6.40716947300785     -0.76148404269001
  H          -3.04205937603412      3.65319334953754     -1.07446842476795
  H          -1.35931593753489      3.94861639426275     -1.52397449802930
  C          -0.65033896739697     -1.59615642775418     -0.21582221574947
  H          -0.39543504049329     -1.98598824724988      0.77311529206087
  H          -0.17257714093644     -2.02539445198597     -1.09858555716738
  C          -3.14618713044090     -1.78303905101845     -0.79168395033308
  H          -3.14418362021562     -2.51755402981254      0.02363331403037
  C          -4.56742819471148     -1.23340192502279     -1.01485042996482
  C          -5.17124000825247     -0.68475645151991      0.27820714584490
  O          -5.10698761314524     -1.57891807992756      1.28643860990012
  C          -5.68155404293096     -1.17364656320344      2.52768515946817
  H          -5.56995764348598     -2.02559573835902      3.21006036080591
  H          -5.15871072858129     -0.29179384310376      2.92999134212546
  H          -6.74463907749722     -0.91815360232038      2.40245452634735
  O          -5.68163697894467      0.40204760522785      0.41125885403698
  C          -5.44426903395656     -2.44285529645794     -1.43413692964330
  H          -5.40479220508388     -3.24599060543264     -0.68462397598751
  H          -6.49528254877789     -2.13627542749371     -1.56044068667060
  H          -5.08827908489098     -2.84146369886951     -2.39675009879569
  C          -4.64077185606113     -0.16159573846601     -2.10887305231592
  H          -4.11618780655303      0.75975319382466     -1.82858811746453
  H          -5.68771583973883      0.11039849346545     -2.30766416876223
  H          -4.18519638780771     -0.53713565128701     -3.03572843095273
  H          -2.79137894693814     -2.25629144005104     -1.71566074451177
  O          -1.59547463850927      1.48723119778050     -1.56763537703022
