44
Coordinates from ORCA-job orca E -886.375343872782
  O          -1.05011780049458     -0.46821454370812     -2.57653355088783
  C          -1.19978116047651      0.07165281631955     -1.50774179491926
  C          -1.01558278550710     -0.62547419133356     -0.18791014680516
  C          -1.56588676022995     -0.00582531819562      1.08541473303302
  H          -0.72806304604517      0.15202466600970      1.78628828550797
  H          -2.25165054685281     -0.71717724151848      1.57301975442344
  C          -2.27704493264793      1.32552201091791      0.83656574827658
  H          -2.32630503476792      1.90863577526764      1.76888065710726
  H          -3.31315626767860      1.17824069540611      0.50030794190049
  C          -1.55573248405905      2.12313654392123     -0.23797836667773
  H          -0.49795876937925      2.27627660550187      0.05414912479554
  C          -2.18671558193445      3.46989215819033     -0.56588730958785
  C          -2.06131619139093      4.51057134783837      0.54914372566067
  H          -2.57934031828378      4.15528678712669      1.45725851120763
  H          -0.99732324533628      4.62047545281798      0.82971748446459
  C          -2.62813443677193      5.87276836854128      0.14848348472434
  H          -2.53222304757450      6.60661388826027      0.96459161059615
  H          -3.69742942886210      5.79778358878475     -0.11088612867965
  H          -2.10340229492968      6.27979764326598     -0.73207425755805
  H          -3.24951831643885      3.30622151569421     -0.81754640479713
  H          -1.70305687825041      3.84691620935422     -1.48286445564491
  C          -0.26130280114181     -1.73552657618240     -0.18909423241785
  H          -0.04805535571851     -2.27892744793808      0.73637660368529
  H           0.13907651875470     -2.12897989977287     -1.12605324315684
  C          -3.44551813576552     -1.87107678475592     -0.94290945284886
  H          -3.29293306198025     -2.44332021373895     -0.02678495392906
  C          -4.77640071065996     -1.21559717792867     -1.18617664450630
  C          -5.23014323438934     -0.45081186591730      0.06082609014440
  O          -5.11790310872997     -1.19504181293823      1.18009430487683
  C          -5.55667209987372     -0.58335597494011      2.39166179230671
  H          -5.42986649505734     -1.33692948001191      3.17918164432892
  H          -4.95480480394645      0.31011876176641      2.61969856547697
  H          -6.61196049885337     -0.27948749781767      2.31815365371924
  O          -5.65926900605667      0.67808575706412      0.07442936735103
  C          -5.85065638612194     -2.31456809081454     -1.44775371060862
  H          -5.91383957565664     -3.01313950846183     -0.60100719558279
  H          -6.84211805356462     -1.85682959101126     -1.60329410196185
  H          -5.58610917033902     -2.88173294292483     -2.35327408337102
  C          -4.71483342506850     -0.24937757679897     -2.37780005735652
  H          -3.99245786030211      0.55997613973786     -2.20303528104100
  H          -5.69774469086626      0.20737626077621     -2.56252637760497
  H          -4.39925382222429     -0.79317462112110     -3.28097308218270
  H          -2.80198912097760     -2.07621201926026     -1.79910060412875
  O          -1.56148577354792      1.37303738452779     -1.47288764733222
