44
Coordinates from ORCA-job orca E -886.371438758668
  O          -1.13177685589698     -0.45651552311808     -2.61784959109478
  C          -1.28353601147386      0.07408902701708     -1.54498515584592
  C          -1.14012248642043     -0.64367045137769     -0.23061666658087
  C          -1.66050193059794     -0.00821664293441      1.04914608480498
  H          -0.80743605325762      0.13062657548124      1.73535456371093
  H          -2.35636151111085     -0.69779723741765      1.55185104234008
  C          -2.33482316243616      1.34285293702275      0.80658541414258
  H          -2.36952514824048      1.92059052900281      1.74294996461907
  H          -3.37448866540546      1.22907575421409      0.46750641371795
  C          -1.58468221005063      2.12674007110402     -0.25825146565998
  H          -0.52540297231819      2.24800772256317      0.04324575733617
  C          -2.17363549998167      3.49359554459652     -0.58171875036716
  C          -2.03374232039340      4.52151671268488      0.54337132108836
  H          -2.57187463752430      4.17299784744810      1.44237407500286
  H          -0.97065271575861      4.60061538947049      0.83730256537993
  C          -2.55958212897374      5.90140493713987      0.14720192722655
  H          -2.45468323294155      6.62595825679450      0.97046244161583
  H          -3.62719769020639      5.85650230433589     -0.12573225682810
  H          -2.01362089269260      6.30148074932133     -0.72356145537823
  H          -3.23739908064528      3.36256380239566     -0.84813343055461
  H          -1.66836600023120      3.86434398566012     -1.48953197548909
  C          -0.35335921971687     -1.73580296717071     -0.22380227079201
  H          -0.13463065463007     -2.27143029034341      0.70486185794416
  H           0.05718144960018     -2.12648511214131     -1.15739947855279
  C          -3.37520716996965     -1.84011230947332     -0.89535786957881
  H          -3.24208284305318     -2.41637671842647      0.02113163867063
  C          -4.71718159716916     -1.20658408159120     -1.15019261410541
  C          -5.22303455455459     -0.47143989960229      0.09319939912479
  O          -5.08236304116108     -1.21115578734218      1.21258638486685
  C          -5.57416380200943     -0.62963884730811      2.41884172885397
  H          -5.41216112750053     -1.37554316274074      3.20716650354617
  H          -5.03161574074943      0.29882258002986      2.65567024962835
  H          -6.64497710978884     -0.39108986369265      2.33065512325982
  O          -5.71821934545818      0.63000423077495      0.10362317029780
  C          -5.75200065879520     -2.33691819493039     -1.44111527978904
  H          -5.80840310656816     -3.04621818092567     -0.60278287431941
  H          -6.75410988552956     -1.90801133271008     -1.60987883911868
  H          -5.45440058028897     -2.88556912723070     -2.34778456764505
  C          -4.67019797501274     -0.23071178186717     -2.33458023340030
  H          -3.99046386574326      0.60979827335283     -2.13994953689226
  H          -5.66836910330432      0.18208015477970     -2.53945214443270
  H          -4.30753279293317     -0.75276458670597     -3.23263534723794
  H          -2.78833212012083     -2.12910599428471     -1.76827938506402
  O          -1.60094394898464      1.38712070814488     -1.49934643845053
