44
Coordinates from ORCA-job orca E -886.399499166772
  O          -1.47945353196335     -0.36702102738060     -2.73992060302028
  C          -1.63023518488961      0.14975393837365     -1.66202428933994
  C          -1.87851762418212     -0.69837021906359     -0.39712266002657
  C          -2.15199327599190      0.10865507588829      0.89499862660590
  H          -1.21487644825265      0.15789746711669      1.47427326440443
  H          -2.86804609638361     -0.43296773134949      1.52957976812197
  C          -2.60854614923953      1.54089132823576      0.63449770378222
  H          -2.63700191197814      2.09937925068970      1.58316844298316
  H          -3.62457389172439      1.58091795571594      0.21476916595474
  C          -1.63706113158444      2.21394612167720     -0.31856434245593
  H          -0.61920138342646      2.18852854145140      0.11720575177493
  C          -1.98161064904694      3.65101129498834     -0.68925970090053
  C          -1.85334121567559      4.64497013915405      0.46721515758352
  H          -2.55603266006595      4.37667199750718      1.27544448854101
  H          -0.84141076896851      4.56599890494248      0.90604424147030
  C          -2.11233325078369      6.08838409747209      0.03503987036140
  H          -2.01737299902485      6.78696334304741      0.88161870968471
  H          -3.12711878228125      6.20327076156429     -0.38136701005386
  H          -1.39906238772823      6.40615153622335     -0.74386110554551
  H          -3.00657102589619      3.67260923110364     -1.10025690803490
  H          -1.31134983119630      3.94967935216918     -1.51298523834925
  C          -0.66784383768857     -1.56311508261655     -0.23451653121739
  H          -0.37138313785019     -1.90599462253789      0.76015599397891
  H          -0.20247677592959     -2.01031315518495     -1.11524272166972
  C          -3.11380583588822     -1.75136679505603     -0.77276475850679
  H          -3.12181944454470     -2.49120005867777      0.03943184710165
  C          -4.55454465292260     -1.23451341483192     -1.00103903400191
  C          -5.17269374707629     -0.69770775577557      0.29028513680674
  O          -5.11859055302179     -1.60102691519217      1.29133334360359
  C          -5.70447749372591     -1.20647923482670      2.53051782298941
  H          -5.59920308048421     -2.06423999736321      3.20661693607172
  H          -5.18560279489971     -0.32802539199200      2.94540489268824
  H          -6.76638718063445     -0.94983223795267      2.39778014080551
  O          -5.68401885019732      0.38808370846318      0.42905121452979
  C          -5.40119159591580     -2.46285581095092     -1.42145802175538
  H          -5.34085957337483     -3.26645742959725     -0.67387989160659
  H          -6.45980719080274     -2.18350881882259     -1.54622117082450
  H          -5.03651671609857     -2.85091920638383     -2.38521882224570
  C          -4.65446721729596     -0.16430718844391     -2.09490859994698
  H          -4.14931921274213      0.76894334420702     -1.81746835727373
  H          -5.70803953265196      0.08610822949245     -2.28743342156434
  H          -4.19646393819120     -0.52983859284909     -3.02423745169140
  H          -2.78190374181774     -2.24969109706515     -1.69334725263044
  O          -1.57885369596153      1.49056616443056     -1.56918462718212
