44
Coordinates from ORCA-job orca E -886.381427472968
  O          -0.77962801093678     -0.76990700272858     -2.48555229691322
  C          -0.82427350253791     -0.19574448846574     -1.42458241275046
  C          -0.37020374927766     -0.81754073504596     -0.12895919803697
  C          -0.54328674476136     -0.04471595288753      1.15835265054781
  H           0.39742983726848      0.48845143497000      1.39226631152747
  H          -0.72297892822292     -0.74060695063562      1.99286012155280
  C          -1.66648221313151      0.98073754220817      1.03126964513785
  H          -1.72159544782777      1.60674434450708      1.93447398070902
  H          -2.63947685050233      0.47554852324138      0.91551447369192
  C          -1.40715274203113      1.85885059224502     -0.18391872545112
  H          -0.41714421551113      2.34210148816613     -0.06594811684539
  C          -2.45513574636187      2.92831724553049     -0.46496604769052
  C          -2.61088584612315      3.97561570681971      0.63907367492470
  H          -2.89545738684654      3.48340381983621      1.58606909650999
  H          -1.63976258251731      4.46862682303373      0.83252285660436
  C          -3.66902717824442      5.02287796965352      0.29063962891950
  H          -3.78145053563104      5.76947586427971      1.09323782992594
  H          -4.64943512829250      4.54514254700764      0.12988536020773
  H          -3.40786358855457      5.56254621711180     -0.63510911443668
  H          -3.42460833103899      2.43945564472092     -0.64397006374533
  H          -2.17377990295649      3.42360353785972     -1.40995391631061
  C           0.15480027140115     -2.04862128537301     -0.19367565221595
  H           0.48559488779073     -2.57226281381857      0.70806143327804
  H           0.25925743174259     -2.55032910864438     -1.15819656519565
  C          -3.73804220301038     -1.72665374583161     -0.91411265200362
  H          -3.75094616283310     -2.27812117287550      0.02788939939035
  C          -4.89032277527702     -0.83655821987803     -1.28044295158340
  C          -5.18284232830542      0.15733719621389     -0.14671557476899
  O          -5.19109378376052     -0.43836700817099      1.06230969257481
  C          -5.51558341585829      0.39349664492247      2.17470028836527
  H          -5.47101799465677     -0.25045665978070      3.06202650617768
  H          -4.79662262348370      1.22215398868922      2.26747142293157
  H          -6.52360187546812      0.82157678472197      2.06275058856503
  O          -5.41256001083725      1.33510304645459     -0.28741862131764
  C          -6.18509169876520     -1.68682330332693     -1.44607953580681
  H          -6.40910218323825     -2.24832991870136     -0.52707324538076
  H          -7.04625430804731     -1.03984151310653     -1.68248940009848
  H          -6.05327556909813     -2.40371561585033     -2.27081387007806
  C          -4.59749922300665     -0.05738630692695     -2.57010766005109
  H          -3.68049569505858      0.54057649228458     -2.47097286330595
  H          -5.42720786667359      0.61964007172172     -2.81825182009937
  H          -4.45320936687478     -0.76292124623403     -3.40265501135482
  H          -2.95404948775950     -1.93256490926058     -1.64478858592179
  O          -1.34461522488103      1.04971443134288     -1.38247106017901
