44
Coordinates from ORCA-job orca E -886.381325963436
  O          -0.84447666407788     -0.70960812174383     -2.54934994541385
  C          -0.88089499386295     -0.16507675181275     -1.47255963392271
  C          -0.45683888702240     -0.83574209202005     -0.19261506365934
  C          -0.59976926375305     -0.08648618456493      1.11202071204533
  H           0.36077275614945      0.40732501353586      1.35198536725867
  H          -0.79898620341867     -0.79419167384121      1.93208289231866
  C          -1.68607717612291      0.98064613451972      1.01794030647593
  H          -1.70505454059709      1.59171523350128      1.93288281058019
  H          -2.67935491838420      0.51658822605257      0.90934689584427
  C          -1.41461696147065      1.87584823663199     -0.18228535286807
  H          -0.41855546493133      2.34431444375782     -0.05626756223411
  C          -2.45185375285767      2.96218793214858     -0.44007257960448
  C          -2.61796057547810      3.97198890925963      0.69689187053093
  H          -2.92648287178019      3.44998742817301      1.62023513260288
  H          -1.64556112864201      4.44655366106261      0.92680524764062
  C          -3.65721611412339      5.04349572363759      0.36590795092608
  H          -3.77797296890831      5.76141102274241      1.19307513434348
  H          -4.63938498437163      4.58364021731521      0.16786462968574
  H          -3.37133328381018      5.61362322934146     -0.53388621364816
  H          -3.42082193258371      2.48366738690415     -0.64924230745405
  H          -2.15638243200943      3.48801525451511     -1.36400813486904
  C           0.03433976213959     -2.07896425330218     -0.28528044614814
  H           0.34561705487359     -2.63388705651245      0.60454902479039
  H           0.12822338075315     -2.56004891632923     -1.26133024288023
  C          -3.64499902388412     -1.68811152585573     -0.84229731924027
  H          -3.62213032236667     -2.14816090592641      0.14727905574356
  C          -4.82635791620293     -0.85943113133267     -1.25787800455287
  C          -5.16423507452994      0.17383610588119     -0.17523417736803
  O          -5.18767244707150     -0.37085884245982      1.05793836068329
  C          -5.54387179119502      0.50350548455580      2.12735621391774
  H          -5.53025761618296     -0.10625896826661      3.03947753855908
  H          -4.82326871573146      1.33192709320452      2.21142471410687
  H          -6.54526333585086      0.93122242010693      1.96688859536257
  O          -5.41166761993958      1.34011962380884     -0.37012204137378
  C          -6.08415392454112     -1.76978784916827     -1.39420267434207
  H          -6.29580551605388     -2.29517104794830     -0.45140597401720
  H          -6.96775772299357     -1.17045373684093     -1.67067117082680
  H          -5.91392047604914     -2.51885302435005     -2.18253759951764
  C          -4.55482476324566     -0.13202839470912     -2.58237799182137
  H          -3.67744849926434      0.52486267699979     -2.50294947373256
  H          -5.41884618176059      0.47977053369663     -2.87860283169773
  H          -4.35378408641943     -0.86985939425546     -3.37407029209043
  H          -2.91526145620680     -1.99739712668702     -1.59179962484750
  O          -1.36381134621872      1.09375500657395     -1.39875579528569
