44
Coordinates from ORCA-job orca E -886.369722753704
  O          -1.24231324191928     -0.42250339714223     -2.65610115162000
  C          -1.45547977826212      0.10555874234803     -1.59348030090909
  C          -1.58776888994173     -0.67709195818631     -0.30088566584343
  C          -1.95651404848582      0.07654785081473      0.97939575374112
  H          -1.04264244903322      0.17561439645453      1.59077878481448
  H          -2.66078512729029     -0.51940447229038      1.57841299184695
  C          -2.50541510782110      1.47587551782099      0.70984222584637
  H          -2.52841970917327      2.05329670730564      1.64714328081544
  H          -3.53726162679190      1.44999109733296      0.33111965675974
  C          -1.62710603440866      2.18665977979909     -0.30625599510500
  H          -0.58527474777920      2.22444222865530      0.06830552621507
  C          -2.07610653934044      3.59557198382230     -0.67214133994534
  C          -1.92573433896437      4.61712377630686      0.45719644740137
  H          -2.54224968932414      4.31724709634500      1.32271924200099
  H          -0.87931797995741      4.61532550945155      0.81461303010627
  C          -2.31754491659513      6.03111294009075      0.02767408374732
  H          -2.20319404225587      6.75097883068426      0.85379581039157
  H          -3.36807966301894      6.06855210030198     -0.30606923652721
  H          -1.69310568090990      6.38121665478132     -0.81134698208441
  H          -3.12669080027950      3.55260075816621     -1.01045454407017
  H          -1.48226694012632      3.91545910035682     -1.54502027950454
  C          -0.58822386633330     -1.68808455479224     -0.17499944432449
  H          -0.38833789440089     -2.14970695467089      0.79556751657205
  H          -0.11070310264260     -2.09968664229447     -1.06587633516700
  C          -3.23930934016272     -1.83647760063382     -0.84692289334100
  H          -3.20706370532336     -2.55379064099987     -0.02119498026057
  C          -4.60691171745798     -1.20355987186044     -1.05551583423659
  C          -5.17307543546747     -0.62456453728781      0.24117094176288
  O          -5.06508350431532     -1.48729987876606      1.27187861941049
  C          -5.61180047002756     -1.05495680775902      2.51711155330042
  H          -5.46716643238281     -1.88498550780552      3.21994729675931
  H          -5.09246738320592     -0.15388354137390      2.87872864141674
  H          -6.68204320078099     -0.82025889389031      2.41435364566793
  O          -5.69463186537085      0.45868444917532      0.35570569297143
  C          -5.56580405668907     -2.35830400002904     -1.47106268282247
  H          -5.58416503025031     -3.15662453907312     -0.71538894396068
  H          -6.59176339237358     -1.97637247752940     -1.60253457802756
  H          -5.23464564150571     -2.78616297575202     -2.42963996907057
  C          -4.61337668616624     -0.12969362257822     -2.14996238355275
  H          -4.02353517445019      0.75111293181466     -1.87007984370756
  H          -5.63981759784497      0.21011771335093     -2.34971000823009
  H          -4.18402947224161     -0.53724520011490     -3.07660264167418
  H          -2.81047693897622     -2.22965398597691     -1.77406844099092
  O          -1.60827673995108      1.44685189562751     -1.54799626657223
