44
Coordinates from ORCA-job orca E -886.381173910481
  O          -0.76330315852038     -0.82650651490517     -2.42347198949821
  C          -0.79479776247658     -0.22046875755008     -1.37955758137414
  C          -0.29767033497476     -0.79259651984343     -0.07667277194421
  C          -0.48978892734390     -0.00051940220240      1.19687070100833
  H           0.43819730543859      0.55790607858230      1.42240140829517
  H          -0.65462834794988     -0.68520109448378      2.04363140558462
  C          -1.63464425574780      0.99810637137296      1.05007234635354
  H          -1.70332899325887      1.64085540571089      1.94035268344340
  H          -2.59829436312459      0.47238474775957      0.94204609603792
  C          -1.39354730480703      1.85371885438067     -0.18484787565423
  H          -0.40599428489210      2.34645769860326     -0.08690825355295
  C          -2.45152783450277      2.90891290143724     -0.47985385039258
  C          -2.60928459827760      3.97607970496200      0.60473978774413
  H          -2.89031254379039      3.50067184909533      1.56116563487513
  H          -1.63991640422078      4.47696851246249      0.78666155338080
  C          -3.67271921515711      5.01190584988515      0.23867117325791
  H          -3.78680424357038      5.77313859108742      1.02717470443940
  H          -4.65127809370253      4.52676152412548      0.08939616832749
  H          -3.41581755440517      5.53500866361845     -0.69773262731625
  H          -3.41782738926612      2.40910620131422     -0.64383418286545
  H          -2.17946919110509      3.38873689428810     -1.43554735704843
  C           0.27400552926636     -2.00374141418100     -0.12030465286148
  H           0.63682879806715     -2.49305300429944      0.78838635774706
  H           0.38526351062874     -2.52334567671754     -1.07458639058064
  C          -3.83893740387430     -1.78624176642500     -0.98205828299033
  H          -3.88841334168385     -2.40078184634266     -0.08110308127244
  C          -4.95312533639604     -0.83278081784236     -1.30454502131239
  C          -5.19286895783921      0.13248000330060     -0.13327002145946
  O          -5.19745252314957     -0.50114668901678      1.05601977733959
  C          -5.48949006483933      0.30079730972073      2.19885928228138
  H          -5.48471081838359     -0.37936030628087      3.05991624668454
  H          -4.72945673799272      1.08651365025938      2.33069468320210
  H          -6.47306544537990      0.78446835222337      2.09774582983281
  O          -5.39196674127325      1.32019847584481     -0.23260719470354
  C          -6.28665380188325     -1.61575103990918     -1.48588653511621
  H          -6.52564585333237     -2.20240860582628     -0.58641834053069
  H          -7.12013211721849     -0.92194934830674     -1.68543183202034
  H          -6.19700291917342     -2.30537215828439     -2.33904932779422
  C          -4.63510734657171     -0.02139439541942     -2.56786887474947
  H          -3.69479260606467      0.53654794741908     -2.45295030419233
  H          -5.43853032094395      0.69564809361349     -2.78884970569694
  H          -4.52261777643439     -0.70316694860439     -3.42477483669952
  H          -3.01146070059173     -1.92342432914453     -1.68105877343950
  O          -1.33788952927912      1.01546695451801     -1.36346617476919
