44
Coordinates from ORCA-job orca E -886.381442742053
  O          -0.80494607597921     -0.73632493356751     -2.51835412193228
  C          -0.84863610278643     -0.17818089735550     -1.44887809345614
  C          -0.41298549169867     -0.82634440625226     -0.16036892821074
  C          -0.56952061099390     -0.06438071994309      1.13524379005039
  H           0.38100952721888      0.45044062413579      1.37079675279404
  H          -0.75760041455881     -0.76572459632504      1.96331605628638
  C          -1.67570689597541      0.98097827268429      1.02447792043694
  H          -1.71410972656482      1.59941402770886      1.93381461253859
  H          -2.65812153489800      0.49437395860188      0.91181315133552
  C          -1.41039476456774      1.86865803491993     -0.18244500538368
  H          -0.41809035987371      2.34571368754930     -0.05879255312085
  C          -2.45346684096902      2.94603803001770     -0.45246321793271
  C          -2.61347103513856      3.97535033933970      0.66772891082045
  H          -2.91308849538249      3.46917022933762      1.60268827029595
  H          -1.64057643806846      4.45662002118115      0.88090037048716
  C          -3.65858970468565      5.03778168532168      0.32604513984391
  H          -3.77446399795787      5.77037074679879      1.14096054057062
  H          -4.64104828399155      4.57166893711472      0.14485612376451
  H          -3.38188789159977      5.59213109948752     -0.58639891568262
  H          -3.42292586352875      2.46243259987449     -0.64631349654136
  H          -2.16490095127978      3.45602007819981     -1.38739762341398
  C           0.08876374788801     -2.06629812292501     -0.23858598327600
  H           0.40662083966413     -2.60706917474645      0.65764498196186
  H           0.18630110314048     -2.55834563621076     -1.20878312470127
  C          -3.69071613059195     -1.70745401546650     -0.88009827365683
  H          -3.67655332711000     -2.20656105593127      0.09048681453674
  C          -4.86020678166000     -0.85017104657635     -1.26979664681714
  C          -5.17541396759665      0.16310954808418     -0.16061602278554
  O          -5.18876771853728     -0.40769620396127      1.06060245050072
  C          -5.53252449941357      0.44344002158301      2.15238352673893
  H          -5.50314369881237     -0.18459235987848      3.05166160031515
  H          -4.81517978477529      1.27384387431115      2.24320505973193
  H          -6.53825445501411      0.86938052756977      2.01531031637919
  O          -5.41571556023891      1.33522527699567     -0.32769688085810
  C          -6.13570595508367     -1.73235408261675     -1.42030275465285
  H          -6.35156830517152     -2.27677505028182     -0.48923839385381
  H          -7.00945157911861     -1.10981760907037     -1.67575171212392
  H          -5.98470113646723     -2.46523056080827     -2.22752270747111
  C          -4.57991840522077     -0.09520080853154     -2.57678554061679
  H          -3.68102985636515      0.53077246334566     -2.48654863970399
  H          -5.42661030347437      0.55189481807917     -2.84655901589534
  H          -4.40973224079166     -0.81652710938266     -3.39064014067122
  H          -2.92850541083270     -1.95432109767810     -1.62061956186192
  O          -1.35044462113520      1.07417058526677     -1.39082903476865
