44
Coordinates from ORCA-job orca E -886.378462836698
  O          -1.01488869001301     -0.58532991500276     -2.65909324882410
  C          -1.05730121267788     -0.09774559770602     -1.55584682523281
  C          -0.66745534916854     -0.84245646909203     -0.30824126608830
  C          -0.80128528193257     -0.16009757195833      1.03535537369453
  H           0.18537469937810      0.24921764995255      1.32264947017811
  H          -1.06587635767189     -0.89905010826106      1.80835565877017
  C          -1.80863231756019      0.98406937293661      0.99488906029146
  H          -1.76862004419725      1.56069873303030      1.93146231728809
  H          -2.83081366247715      0.59168649970008      0.89568603341779
  C          -1.50130140548757      1.90395659820682     -0.17710219780849
  H          -0.47947530480412      2.31259138862063     -0.04810711903151
  C          -2.48107794062450      3.05398177052925     -0.37843397049920
  C          -2.55387114478747      4.03840180955260      0.79008722031802
  H          -2.91177402036987      3.51950713704940      1.69735562944413
  H          -1.54019419953373      4.40875214081715      1.03298866950161
  C          -3.47841694384972      5.22021854172141      0.49645925313655
  H          -3.53177760353655      5.91542899800586      1.34966701378982
  H          -4.50206001335821      4.87404827316823      0.27722520400612
  H          -3.12934166249704      5.79118024011573     -0.38013938363087
  H          -3.47937836154577      2.63321946624250     -0.57853023765299
  H          -2.17707087205979      3.58740876686544     -1.29516868347616
  C          -0.13563020332282     -2.06362188808316     -0.46107880830343
  H           0.17832355524361     -2.65773343324122      0.40213241876664
  H          -0.01664529901118     -2.48977547195877     -1.45958642195476
  C          -3.46174428462735     -1.64689156983197     -0.73640118683231
  H          -3.37901099465347     -1.93772965169545      0.31215322173132
  C          -4.69864996074284     -0.94078160259192     -1.22047763984418
  C          -5.12976727825057      0.14034685741785     -0.22539406152758
  O          -5.19123039732361     -0.33016445722523      1.03829105713242
  C          -5.62828482475073      0.59181632639912      2.03503874317160
  H          -5.66246638433334      0.03133473062026      2.97777296683583
  H          -4.92721885737509      1.43691109331623      2.12103508022828
  H          -6.62374541203343      0.99168805814999      1.78955117465035
  O          -5.41296370922664      1.28085810019852     -0.50301405669180
  C          -5.87108958339040     -1.96630640250953     -1.29675687709792
  H          -6.05048216936844     -2.43811049029645     -0.31988173337356
  H          -6.79885107079767     -1.46744249641813     -1.62401013974495
  H          -5.62670402308929     -2.75183753539877     -2.02805168161447
  C          -4.47634011809796     -0.29917494784568     -2.59809947927949
  H          -3.68105141942162      0.45670384775645     -2.56202967551629
  H          -5.39708474598764      0.18608438228555     -2.95304341748207
  H          -4.17799394855305     -1.07057999389544     -3.32389727204614
  H          -2.85362493586601     -2.17419552554890     -1.47165589623359
  O          -1.50848624624432      1.16854434590204     -1.42196428656572
