44
Coordinates from ORCA-job orca E -886.381000560703
  O          -0.77246679018815     -0.87013823185631     -2.36935004089296
  C          -0.79050002782436     -0.23956939011605     -1.33964278091765
  C          -0.27852341172666     -0.78125621001544     -0.02954251877300
  C          -0.44625158013744      0.04668242637981      1.22385688070994
  H           0.48211076274910      0.61846516166455      1.41117458077205
  H          -0.58706739566372     -0.61304738781349      2.09438511645285
  C          -1.60015941907916      1.03423632605459      1.07069705959758
  H          -1.66033499561229      1.69740112698546      1.94652100825879
  H          -2.56216204399973      0.50040590609631      0.98917003040147
  C          -1.38114745366520      1.86202851673515     -0.18709995245978
  H          -0.39600580571845      2.36356465160393     -0.11295152552909
  C          -2.45180838933047      2.90094670982301     -0.49384194211253
  C          -2.60144812970105      3.99605594790892      0.56344775380390
  H          -2.86637433907359      3.54513343533622      1.53611733087743
  H          -1.63293928541196      4.50779844897420      0.71797929635698
  C          -3.67612081789113      5.01535251166986      0.18393047156175
  H          -3.78445270803477      5.79704747503714      0.95299311176766
  H          -4.65363698635568      4.52084633026848      0.06089345931691
  H          -3.43472092230040      5.51424531381308     -0.76965767961940
  H          -3.41453437150795      2.38562703465585     -0.62696271364678
  H          -2.19864989690754      3.35512005695157     -1.46704634754386
  C           0.27995717808697     -1.99914200916463     -0.04957104909095
  H           0.65158473671235     -2.46816593701849      0.86624019151743
  H           0.37155389551503     -2.54480270492043     -0.99130505444712
  C          -3.89168436427810     -1.81971211034476     -1.04405539751003
  H          -3.97726242245631     -2.49914239997475     -0.19357574917549
  C          -4.98235103993575     -0.82637201960231     -1.32351066485546
  C          -5.18922705068120      0.09970506461336     -0.11361983396139
  O          -5.20155888645962     -0.57967849078626      1.04973318732570
  C          -5.46685624714211      0.18231000646154      2.22558894528618
  H          -5.45667290447849     -0.52935514636946      3.06078956347049
  H          -4.69676701691645      0.95492009584620      2.37503463291493
  H          -6.44682199180451      0.67940296607193      2.15855966161842
  O          -5.35914195794054      1.29511935332301     -0.16471803806829
  C          -6.33718090345734     -1.56519454721173     -1.52420209841149
  H          -6.58736013843638     -2.17771040232425     -0.64515796580393
  H          -7.15283847488029     -0.84279365180722     -1.69336623754238
  H          -6.27064885909551     -2.22565488569910     -2.40220139330713
  C          -4.65057906111846      0.02487473081739     -2.55670165395367
  H          -3.68783807707034      0.54117488576473     -2.43269404985159
  H          -5.42882319561286      0.78041019653458     -2.73542908924144
  H          -4.57521666545615     -0.62382751322406     -3.44285121507329
  H          -3.02960623555617     -1.90025338011863     -1.70937981755625
  O          -1.33344631015488      0.99657173897598     -1.34652747266533
