44
Coordinates from ORCA-job orca E -886.381025272741
  O          -0.88307226492294     -0.67708978751118     -2.58815210996096
  C          -0.91532571575477     -0.14886434309969     -1.50332509690713
  C          -0.50181306545818     -0.84349134038276     -0.23307720669800
  C          -0.63618860192994     -0.11238418616230      1.08282315617791
  H           0.33375006200963      0.35745023984437      1.33282312808915
  H          -0.85157036272163     -0.82881019621476      1.89119413037824
  C          -1.69992033019145      0.97872944930495      1.00680055157199
  H          -1.69691838210361      1.58000758642708      1.92841109569946
  H          -2.70435886232517      0.53872136872480      0.90443969314434
  C          -1.41989374750607      1.88235558372987     -0.18508125976067
  H          -0.41815190149823      2.33758573845526     -0.05602486350321
  C          -2.44690919173134      2.98192484168878     -0.42944435479335
  C          -2.62904410517712      3.96057254884250      0.73178750887996
  H          -2.96246913432111      3.41512245021086      1.63250048040896
  H          -1.65787030773597      4.41928761239334      0.99649582676619
  C          -3.65129614227786      5.05092104228028      0.40950318573430
  H          -3.78390655532602      5.74577518095891      1.25434827130006
  H          -4.63291698994153      4.60621057198268      0.17704500733654
  H          -3.34084538960712      5.64404787560134     -0.46695253900982
  H          -3.41296902657215      2.51170532360746     -0.66945587839941
  H          -2.13451558993880      3.53143774760617     -1.33383775949981
  C          -0.01253933776622     -2.08596761616325     -0.34394818363132
  H           0.29483666312619     -2.65507269265786      0.53829087968682
  H           0.08419996594115     -2.55254706267666     -1.32673084984569
  C          -3.60089946531909     -1.67262735826715     -0.79769637445880
  H          -3.54648251959623     -2.05233253144511      0.22388673941496
  C          -4.79078015260492     -0.87144336834808     -1.24134341439207
  C          -5.15140626671108      0.18602643785794     -0.19111382345414
  O          -5.17766957893510     -0.32564840401398      1.05656560258649
  C          -5.56223081969379      0.56886690358663      2.09897923733341
  H          -5.58030440613030     -0.02490231923027      3.02154503325026
  H          -4.83966529532979      1.39476882479316      2.19310713256138
  H          -6.55525158650133      0.99928293849832      1.89955416990500
  O          -5.41472406898715      1.34248106679514     -0.41982952700311
  C          -6.03345935054180     -1.80609552849192     -1.35962421151782
  H          -6.24228968617571     -2.30923564473774     -0.40423023708864
  H          -6.92457924860020     -1.22851033643896     -1.65764291178458
  H          -5.84637236569665     -2.57304710331149     -2.12665397789494
  C          -4.52457735367506     -0.17898886582950     -2.58576997114267
  H          -3.66964950140911      0.50778908730753     -2.51852194728778
  H          -5.40381672492130      0.39563394133020     -2.91073263206549
  H          -4.29173370960445     -0.93475227891830     -3.35124706173523
  H          -2.90904205011088     -2.06036843680422     -1.54638315635540
  O          -1.38133753572416      1.11510503887726     -1.41113148203521
