44
Coordinates from ORCA-job orca E -886.383622756646
  O          -1.34263498630512     -0.39339211860910     -2.69443582026349
  C          -1.53819368472787      0.13080821209706     -1.62706660829266
  C          -1.74363863365844     -0.68633947762578     -0.35170955895995
  C          -2.05239680709270      0.09627409198590      0.93559096891364
  H          -1.11950112806793      0.17140269615747      1.52062983652633
  H          -2.75614478335561     -0.47205441335620      1.56137161921477
  C          -2.55744046306588      1.51296726922711      0.67410055725906
  H          -2.57736009764138      2.07991400064665      1.61795688184335
  H          -3.58424785993781      1.52022809251493      0.28042202275356
  C          -1.63658551858788      2.20652138614955     -0.31497164806604
  H          -0.60412471768316      2.21277380377336      0.08599500962850
  C          -2.03522296838322      3.63031215632790     -0.68168263715850
  C          -1.88764127909256      4.63755738928730      0.46083655736799
  H          -2.54311873646491      4.35296865501757      1.30251337115213
  H          -0.85457900222776      4.59613889559578      0.85307649369772
  C          -2.21466451864778      6.06782759404832      0.03110397426017
  H          -2.10332658087832      6.77655855373723      0.86720506280987
  H          -3.25119427637667      6.14543566487430     -0.33766849433173
  H          -1.54989722725452      6.40221373015968     -0.78297843782288
  H          -3.07634859910559      3.62039525387665     -1.05039709085412
  H          -1.40761472266393      3.94007764524103     -1.53438803887139
  C          -0.63224751594415     -1.63604845427035     -0.19839913621111
  H          -0.40863651776606     -2.06039159060622      0.78385759772146
  H          -0.14967374971125     -2.05564019480817     -1.08295143784813
  C          -3.17885613692066     -1.80759439346764     -0.81084137348675
  H          -3.16925050711185     -2.53759889450157      0.00709670281038
  C          -4.57976223717601     -1.22334688165258     -1.02868020752090
  C          -5.16942498417792     -0.66432513182917      0.26637401110026
  O          -5.09264645447042     -1.54930502337558      1.28139151409469
  C          -5.65678054569329     -1.13503760356164      2.52470176323589
  H          -5.53644579847002     -1.98097976857106      3.21301795440715
  H          -5.13245213152904     -0.24858512136466      2.91453102638812
  H          -6.72167489957450     -0.88349788072694      2.40719123764964
  O          -5.68107712759951      0.42239608270220      0.39406533346975
  C          -5.48821935130292     -2.41149843294249     -1.44880737319473
  H          -5.47095169642051     -3.21481726945326     -0.69857828074969
  H          -6.53029958091987     -2.07580297447369     -1.57633120149879
  H          -5.14160262758499     -2.81945947419072     -2.41081490536065
  C          -4.62560255547188     -0.14883259519517     -2.12135578478490
  H          -4.07912408491536      0.75848919022527     -1.83783694981705
  H          -5.66512904186882      0.14721735074076     -2.32413245610045
  H          -4.17523781645762     -0.53431671547809     -3.04698533944303
  H          -2.80182345002824     -2.25574536604284     -1.73762902797256
  O          -1.60318459766563      1.47576206171683     -1.56223768769485
