44
Coordinates from ORCA-job orca E -886.381343111237
  O          -0.76912569676310     -0.80476796956707     -2.44727721409467
  C          -0.80828997398085     -0.21189875699041     -1.39629369355333
  C          -0.33730649757116     -0.80685478410287     -0.09395288920150
  C          -0.50720421243401     -0.01322776851026      1.18097606643943
  H           0.42906424927438      0.53528590161007      1.39648884584656
  H          -0.67120346019884     -0.69589524473058      2.02948380293660
  C          -1.64297987754183      0.99731740672329      1.04432854158759
  H          -1.70014852315990      1.63707744460662      1.93768387834175
  H          -2.61105519811141      0.47918231701186      0.94228239724647
  C          -1.39860576820763      1.85829959761486     -0.18616482613940
  H          -0.41088480089663      2.34937223047173     -0.08220586973107
  C          -2.45505955478918      2.91630950737223     -0.47779758067663
  C          -2.61527942406786      3.97727122315651      0.61240118461568
  H          -2.89826645242952      3.49648417905597      1.56558149504657
  H          -1.64638233755450      4.47726856939389      0.79922597545398
  C          -3.67818196496931      5.01493019079868      0.24999503867724
  H          -3.79405511421790      5.77169138698604      1.04253288706847
  H          -4.65631100253918      4.53038768093130      0.09602162555557
  H          -3.41954400012822      5.54333724844134     -0.68294504863276
  H          -3.42095296280542      2.41733634975119     -0.64657708551762
  H          -2.18038547749848      3.40105538012539     -1.43020659893188
  C           0.19488433259583     -2.03563396391259     -0.14181165381020
  H           0.53711719089969     -2.54119672816272      0.76596577232983
  H           0.29412433556836     -2.55350235659246     -1.09831322612635
  C          -3.78790000829887     -1.75540507185495     -0.95931958650038
  H          -3.82180653167520     -2.35278350083616     -0.04623041113540
  C          -4.92135260852464     -0.82979889909113     -1.29504206934933
  C          -5.18304862778950      0.14155608291771     -0.13347845873428
  O          -5.19251699970321     -0.48445208275502      1.05987599805271
  C          -5.49394111683374      0.32328057849108      2.19620549319623
  H          -5.49262505670935     -0.35215037132818      3.06099344435305
  H          -4.73641323157817      1.11140869576219      2.32850637924749
  H          -6.47803471843504      0.80383925772847      2.08617665632431
  O          -5.39152757195077      1.32671491831591     -0.24227391129692
  C          -6.23744868327623     -1.64302448038153     -1.47244324755948
  H          -6.46767924058766     -2.22413440451037     -0.56718875059637
  H          -7.08466894139049     -0.96945416173620     -1.68328543099640
  H          -6.12965840300151     -2.34012877413785     -2.31738436991858
  C          -4.61735431627106     -0.02431209526238     -2.56560045333808
  H          -3.68287402289286      0.54477287277245     -2.45845857531463
  H          -5.42952097425247      0.68201043644147     -2.78896998547860
  H          -4.49970779882120     -0.71099412378670     -3.41790754856582
  H          -2.97331574640621     -1.90668968487975     -1.66978530622376
  O          -1.33855321007304      1.02974576664851     -1.37166169089590
