44
Coordinates from ORCA-job orca E -887.606559755923
  O       2.722103     -2.576216     -1.453548
  C       3.506254     -2.151792     -0.642948
  C       3.717765     -2.853983      0.718007
  C       4.928735     -2.294951      1.487247
  H       4.876062     -2.630889      2.536033
  H       5.859469     -2.719538      1.070874
  C       4.978327     -0.775630      1.387401
  H       5.818053     -0.371340      1.973465
  H       4.050699     -0.323102      1.775946
  C       5.158014     -0.378222     -0.068253
  H       6.139414     -0.752283     -0.419597
  C       5.059262      1.115052     -0.356345
  C       6.150336      1.953229      0.313305
  H       6.064527      1.874110      1.411241
  H       7.145630      1.544637      0.055545
  C       6.082656      3.426963     -0.088377
  H       6.867006      4.019951      0.408927
  H       5.107457      3.865631      0.181070
  H       6.208894      3.549980     -1.177206
  H       4.060031      1.458691     -0.045710
  H       5.116221      1.243332     -1.451115
  C       3.903567     -4.366717      0.435745
  H       4.004592     -4.915788      1.384889
  H       4.811814     -4.540231     -0.165477
  H       3.041886     -4.760150     -0.119349
  C       2.449230     -2.644405      1.496580
  H       2.477820     -2.663411      2.589697
  C       0.483209     -0.105958     -0.713580
  C       0.952097      0.257577      0.656438
  O       0.169384     -0.218172      1.643436
  C       0.573123      0.093425      2.972459
  H      -0.198097     -0.323437      3.632647
  H       1.550648     -0.360024      3.198360
  H       0.652319      1.182101      3.114893
  O       1.942414      0.923840      0.880041
  C      -0.540791     -0.957498     -0.879469
  H      -1.062051     -1.392531     -0.025276
  H      -0.870447     -1.245946     -1.881176
  C       1.251664      0.517770     -1.843608
  H       2.299889      0.185117     -1.829344
  H       1.258747      1.616394     -1.751986
  H       0.811633      0.242437     -2.812119
  H       1.482301     -2.690017      0.993001
  O       4.166286     -1.012216     -0.915484
44
Coordinates from ORCA-job orca E -887.608995338200
  O       2.733257     -2.571980     -1.450154
  C       3.509778     -2.146135     -0.639442
  C       3.720407     -2.845127      0.715561
  C       4.923399     -2.286168      1.481767
  H       4.869333     -2.619031      2.521524
  H       5.847560     -2.705592      1.069061
  C       4.969088     -0.772623      1.382452
  H       5.801700     -0.370781      1.963013
  H       4.047279     -0.323851      1.768242
  C       5.151010     -0.380142     -0.068366
  H       6.124207     -0.751808     -0.416653
  C       5.050735      1.108342     -0.355508
  C       6.139997      1.937169      0.314572
  H       6.052355      1.858304      1.402617
  H       7.125470      1.530570      0.057826
  C       6.074467      3.405089     -0.085691
  H       6.852804      3.989425      0.408441
  H       5.108708      3.840268      0.182262
  H       6.200880      3.526295     -1.164473
  H       4.059627      1.452538     -0.045766
  H       5.108311      1.238438     -1.441186
  C       3.910615     -4.350911      0.439688
  H       4.018196     -4.888067      1.383966
  H       4.808789     -4.521316     -0.159628
  H       3.054741     -4.749080     -0.101892
  C       2.455704     -2.639669      1.490234
  H       2.484519     -2.658896      2.573339
  C       0.487446     -0.103250     -0.708978
  C       0.951975      0.257682      0.659570
  O       0.172214     -0.219029      1.640406
  C       0.581147      0.093563      2.964606
  H      -0.180869     -0.320973      3.619790
  H       1.551886     -0.354944      3.185603
  H       0.655833      1.172513      3.103780
  O       1.937030      0.920548      0.883134
  C      -0.525867     -0.949093     -0.875936
  H      -1.043654     -1.384595     -0.032134
  H      -0.848863     -1.232987     -1.869775
  C       1.254746      0.518512     -1.834707
  H       2.295097      0.187761     -1.822724
  H       1.260039      1.606899     -1.743100
  H       0.816753      0.245427     -2.793614
  H       1.496692     -2.687005      0.990798
  O       4.163609     -1.010505     -0.915241
44
Coordinates from ORCA-job orca E -887.609085494077
  O       2.741789     -2.575276     -1.453314
  C       3.514478     -2.146854     -0.640624
  C       3.723353     -2.844322      0.713780
  C       4.923819     -2.284041      1.480798
  H       4.867956     -2.616172      2.520225
  H       5.848597     -2.702169      1.069620
  C       4.967460     -0.771337      1.380562
  H       5.799466     -0.368550      1.960382
  H       4.045624     -0.323409      1.765931
  C       5.150747     -0.381259     -0.069707
  H       6.123842     -0.752441     -0.416702
  C       5.050253      1.106448     -0.356925
  C       6.140512      1.932200      0.314746
  H       6.051189      1.852989      1.401947
  H       7.124769      1.524757      0.057526
  C       6.077242      3.400250     -0.084469
  H       6.856498      3.981957      0.410437
  H       5.112610      3.835923      0.184465
  H       6.204166      3.521437     -1.162584
  H       4.060549      1.451891     -0.046740
  H       5.107785      1.237997     -1.441650
  C       3.916135     -4.349492      0.441804
  H       4.030940     -4.881062      1.387948
  H       4.811034     -4.519333     -0.161506
  H       3.058575     -4.753884     -0.091621
  C       2.458773     -2.640481      1.487394
  H       2.488256     -2.659450      2.569762
  C       0.482407     -0.100550     -0.707984
  C       0.944940      0.259482      0.662156
  O       0.165795     -0.217744      1.641185
  C       0.578333      0.095528      2.964572
  H      -0.181758     -0.320038      3.620892
  H       1.549563     -0.351920      3.182821
  H       0.650730      1.174210      3.102384
  O       1.929260      0.921624      0.886072
  C      -0.527018     -0.946844     -0.876803
  H      -1.044703     -1.385766     -0.035303
  H      -0.847416     -1.230646     -1.871405
  C       1.250213      0.522300     -1.832187
  H       2.289983      0.191089     -1.821902
  H       1.254650      1.610075     -1.739600
  H       0.811297      0.249317     -2.790238
  H       1.499973     -2.688947      0.988747
  O       4.165482     -1.011701     -0.917613
44
Coordinates from ORCA-job orca E -887.609197696415
  O       2.758329     -2.585133     -1.460539
  C       3.524558     -2.151063     -0.644271
  C       3.729192     -2.845242      0.710810
  C       4.925911     -2.281962      1.480596
  H       4.866389     -2.612645      2.520201
  H       5.852745     -2.698499      1.072841
  C       4.966531     -0.769762      1.377776
  H       5.797672     -0.364847      1.957048
  H       4.043957     -0.322800      1.761959
  C       5.152375     -0.383086     -0.072352
  H       6.126636     -0.753163     -0.416589
  C       5.051657      1.104068     -0.360006
  C       6.143620      1.925989      0.314450
  H       6.051238      1.846475      1.401026
  H       7.126706      1.516676      0.056908
  C       6.084617      3.394969     -0.083285
  H       6.865883      3.972670      0.413071
  H       5.121330      3.832177      0.187229
  H       6.212541      3.516169     -1.161038
  H       4.063361      1.451662     -0.048900
  H       5.109304      1.238051     -1.444049
  C       3.926452     -4.350408      0.445156
  H       4.051554     -4.873442      1.394803
  H       4.817401     -4.519705     -0.163744
  H       3.067024     -4.764996     -0.077142
  C       2.463404     -2.643520      1.482020
  H       2.493226     -2.662162      2.564159
  C       0.471473     -0.095197     -0.706108
  C       0.930798      0.264109      0.666591
  O       0.151477     -0.213466      1.643338
  C       0.569445      0.099841      2.966319
  H      -0.187828     -0.318076      3.624470
  H       1.541956     -0.346513      3.179190
  H       0.638615      1.178586      3.102838
  O       1.914991      0.925517      0.890923
  C      -0.532917     -0.944205     -0.878037
  H      -1.050673     -1.388986     -0.039817
  H      -0.849354     -1.228674     -1.873926
  C       1.239767      0.530778     -1.828062
  H       2.278844      0.198198     -1.821032
  H       1.243367      1.618177     -1.733473
  H       0.798780      0.258086     -2.785263
  H       1.504793     -2.693535      0.983822
  O       4.171004     -1.015318     -0.922631
44
Coordinates from ORCA-job orca E -887.609257767819
  O       2.776695     -2.598215     -1.468529
  C       3.536307     -2.157754     -0.648915
  C       3.735838     -2.847989      0.708290
  C       4.929139     -2.281403      1.481597
  H       4.865875     -2.610381      2.521614
  H       5.858323     -2.696840      1.077816
  C       4.967249     -0.769281      1.375659
  H       5.797256     -0.362083      1.955108
  H       4.043613     -0.322936      1.757988
  C       5.155859     -0.385012     -0.074700
  H       6.131961     -0.753564     -0.415695
  C       5.054710      1.101945     -0.362891
  C       6.147663      1.921880      0.313686
  H       6.052386      1.843111      1.400058
  H       7.130191      1.510613      0.056946
  C       6.092584      3.391496     -0.084138
  H       6.875559      3.966410      0.413008
  H       5.130283      3.830669      0.186958
  H       6.221526      3.511898     -1.161902
  H       4.067128      1.451229     -0.050984
  H       5.112929      1.237770     -1.446687
  C       3.937336     -4.353644      0.448025
  H       4.067415     -4.870591      1.400579
  H       4.827175     -4.522608     -0.162716
  H       3.078421     -4.775748     -0.069208
  C       2.467707     -2.647619      1.475978
  H       2.496452     -2.666374      2.558290
  C       0.459730     -0.089111     -0.703575
  C       0.916000      0.270288      0.670778
  O       0.135184     -0.206725      1.645958
  C       0.557052      0.104718      2.969422
  H      -0.198005     -0.316006      3.628497
  H       1.530721     -0.341429      3.176354
  H       0.624318      1.183484      3.106402
  O       1.900702      0.931173      0.895456
  C      -0.540900     -0.941918     -0.878303
  H      -1.058837     -1.391615     -0.042708
  H      -0.854085     -1.227334     -1.875175
  C       1.227823      0.540787     -1.823545
  H       2.266162      0.206237     -1.819620
  H       1.231638      1.627927     -1.726650
  H       0.784794      0.268993     -2.780328
  H       1.509695     -2.698463      0.976836
  O       4.178579     -1.020195     -0.927756
44
Coordinates from ORCA-job orca E -887.609315638614
  O       2.797812     -2.614102     -1.477354
  C       3.550304     -2.166869     -0.654539
  C       3.743961     -2.852495      0.706237
  C       4.933695     -2.282354      1.483653
  H       4.866670     -2.609315      2.524213
  H       5.865351     -2.697122      1.084378
  C       4.969660     -0.770208      1.374277
  H       5.797931     -0.360545      1.954824
  H       4.044595     -0.324297      1.753859
  C       5.161655     -0.387558     -0.076446
  H       6.140051     -0.754292     -0.413615
  C       5.059789      1.099267     -0.365472
  C       6.152736      1.919442      0.311996
  H       6.055206      1.842554      1.398470
  H       7.135314      1.506554      0.057212
  C       6.100231      3.389017     -0.087762
  H       6.884095      3.963020      0.409364
  H       5.138356      3.830073      0.182561
  H       6.230162      3.507767     -1.165787
  H       4.072456      1.449661     -0.053039
  H       5.119057      1.235793     -1.449296
  C       3.949442     -4.358963      0.450888
  H       4.077885     -4.872601      1.405699
  H       4.841625     -4.527794     -0.156851
  H       3.093699     -4.785223     -0.068460
  C       2.472367     -2.652604      1.468628
  H       2.497901     -2.672220      2.551342
  C       0.446932     -0.081748     -0.699998
  C       0.899863      0.278599      0.675035
  O       0.116070     -0.196730      1.649022
  C       0.540155      0.110045      2.973769
  H      -0.213323     -0.314272      3.632453
  H       1.514771     -0.336932      3.173948
  H       0.607132      1.188567      3.113801
  O       1.885276      0.938993      0.900358
  C      -0.550345     -0.939328     -0.877337
  H      -1.068461     -1.392777     -0.043623
  H      -0.860885     -1.225639     -1.874942
  C       1.214063      0.553058     -1.818048
  H       2.251461      0.215808     -1.816824
  H       1.219492      1.639880     -1.718119
  H       0.769311      0.283481     -2.774974
  H       1.515843     -2.703374      0.966420
  O       4.188787     -1.026428     -0.932641
44
Coordinates from ORCA-job orca E -887.609352521791
  O       2.809328     -2.623054     -1.481773
  C       3.557990     -2.172692     -0.657456
  C       3.748888     -2.855895      0.705901
  C       4.937034     -2.284293      1.485247
  H       4.868574     -2.610110      2.526169
  H       5.869651     -2.699281      1.088142
  C       4.972547     -0.772182      1.374314
  H       5.799484     -0.361237      1.956138
  H       4.046597     -0.326352      1.751820
  C       5.166253     -0.389523     -0.076468
  H       6.145722     -0.755381     -0.411964
  C       5.063501      1.097153     -0.365985
  C       6.155262      1.919748      0.310558
  H       6.057937      1.844155      1.397343
  H       7.138578      1.507219      0.057262
  C       6.101471      3.388637     -0.091197
  H       6.884509      3.964474      0.405268
  H       5.139000      3.829637      0.177640
  H       6.231610      3.506450     -1.169463
  H       4.075737      1.446919     -0.053605
  H       5.123545      1.232734     -1.450049
  C       3.955155     -4.362962      0.452431
  H       4.076636     -4.877778      1.407537
  H       4.851335     -4.532353     -0.149541
  H       3.102742     -4.787346     -0.074036
  C       2.474996     -2.654829      1.464241
  H       2.496831     -2.675454      2.547248
  C       0.440736     -0.077375     -0.697879
  C       0.892908      0.283872      0.676447
  O       0.106522     -0.189163      1.650309
  C       0.530013      0.112998      2.976127
  H      -0.223438     -0.313429      3.633432
  H       1.504636     -0.335349      3.172888
  H       0.598594      1.191064      3.120111
  O       1.878884      0.943710      0.902219
  C      -0.555227     -0.937653     -0.875776
  H      -1.073079     -1.391154     -0.041757
  H      -0.865473     -1.224250     -1.873384
  C       1.206852      0.560008     -1.815275
  H       2.243626      0.220986     -1.814250
  H       1.214478      1.646605     -1.713148
  H       0.762020      0.293072     -2.773007
  H       1.520177     -2.704547      0.958292
  O       4.195008     -1.030011     -0.933791
44
Coordinates from ORCA-job orca E -887.609374174345
  O       2.817621     -2.628522     -1.484814
  C       3.563730     -2.176975     -0.659394
  C       3.752820     -2.858710      0.705932
  C       4.940083     -2.286796      1.486231
  H       4.871026     -2.611971      2.527331
  H       5.872961     -2.702338      1.090266
  C       4.975856     -0.774840      1.374900
  H       5.801493     -0.363124      1.958132
  H       4.049126     -0.329073      1.750607
  C       5.170700     -0.391750     -0.075710
  H       6.150577     -0.757163     -0.410602
  C       5.066592      1.094604     -0.365589
  C       6.156416      1.920816      0.309080
  H       6.060922      1.845727      1.396203
  H       7.140816      1.510352      0.056334
  C       6.098351      3.388761     -0.094145
  H       6.879420      3.968058      0.401376
  H       5.134585      3.827860      0.173346
  H       6.227975      3.506392     -1.172574
  H       4.078051      1.442473     -0.053382
  H       5.126961      1.228340     -1.449926
  C       3.957883     -4.366330      0.453926
  H       4.070984     -4.883212      1.408830
  H       4.858101     -4.537258     -0.141662
  H       3.108136     -4.786725     -0.080044
  C       2.477137     -2.655064      1.460562
  H       2.494667     -2.676780      2.543712
  C       0.437215     -0.073802     -0.696493
  C       0.889635      0.288227      0.676964
  O       0.100765     -0.182055      1.650829
  C       0.523259      0.115192      2.977327
  H      -0.230538     -0.312876      3.633027
  H       1.497568     -0.334746      3.171955
  H       0.594075      1.192586      3.125997
  O       1.876092      0.947141      0.903285
  C      -0.557878     -0.935713     -0.874144
  H      -1.075143     -1.387626     -0.038871
  H      -0.868505     -1.222387     -1.871503
  C       1.202920      0.564588     -1.813633
  H       2.239186      0.224097     -1.811375
  H       1.213277      1.650918     -1.709260
  H       0.758937      0.301080     -2.772636
  H       1.524462     -2.703159      0.950191
  O       4.199831     -1.032425     -0.933303
44
Coordinates from ORCA-job orca E -887.609385424115
  O       2.822251     -2.630257     -1.486535
  C       3.567255     -2.178993     -0.660309
  C       3.755094     -2.860208      0.705755
  C       4.942141     -2.288848      1.486326
  H       4.872814     -2.613949      2.527416
  H       5.874866     -2.704937      1.090676
  C       4.978497     -0.776989      1.375322
  H       5.803319     -0.365017      1.959460
  H       4.051258     -0.331376      1.749987
  C       5.173883     -0.393647     -0.075046
  H       6.153700     -0.758953     -0.410084
  C       5.068312      1.092409     -0.365174
  C       6.156373      1.921632      0.308065
  H       6.062923      1.845996      1.395346
  H       7.141727      1.513940      0.054633
  C       6.093427      3.389084     -0.095146
  H       6.872494      3.971405      0.399901
  H       5.128313      3.825338      0.172062
  H       6.222228      3.507409     -1.173582
  H       4.079034      1.438036     -0.053023
  H       5.128311      1.224568     -1.449687
  C       3.957910     -4.368254      0.455187
  H       4.066001     -4.885830      1.410194
  H       4.860052     -4.541250     -0.136800
  H       3.108910     -4.785841     -0.082093
  C       2.478486     -2.653595      1.458055
  H       2.492846     -2.675909      2.541196
  C       0.435971     -0.071651     -0.696046
  C       0.888706      0.290910      0.677106
  O       0.098347     -0.177394      1.650838
  C       0.520967      0.116602      2.977440
  H      -0.232838     -0.312441      3.632425
  H       1.495069     -0.334274      3.171073
  H       0.593044      1.193480      3.129408
  O       1.875526      0.948861      0.903807
  C      -0.558665     -0.933970     -0.873236
  H      -1.075451     -1.384223     -0.036816
  H      -0.869486     -1.220859     -1.870392
  C       1.202245      0.566166     -1.813035
  H       2.238197      0.224817     -1.809189
  H       1.214634      1.652327     -1.707029
  H       0.759244      0.305361     -2.773083
  H       1.527515     -2.700310      0.944364
  O       4.202698     -1.033576     -0.932459
44
Coordinates from ORCA-job orca E -887.609393692451
  O       2.826778     -2.631032     -1.488535
  C       3.570964     -2.180485     -0.661266
  C       3.757054     -2.861316      0.705104
  C       4.944184     -2.291077      1.485950
  H       4.874432     -2.616415      2.526928
  H       5.876656     -2.707711      1.090412
  C       4.981318     -0.779239      1.375583
  H       5.805459     -0.367223      1.960539
  H       4.053569     -0.333946      1.749382
  C       5.177242     -0.395743     -0.074535
  H       6.156923     -0.760937     -0.409857
  C       5.069839      1.090059     -0.364920
  C       6.155904      1.922371      0.307166
  H       6.064679      1.845499      1.394519
  H       7.142266      1.518343      0.052046
  C       6.087009      3.389628     -0.095120
  H       6.863951      3.974990      0.399602
  H       5.120379      3.821971      0.172777
  H       6.214511      3.509148     -1.173532
  H       4.079666      1.432769     -0.052691
  H       5.128882      1.220819     -1.449584
  C       3.956557     -4.369904      0.456676
  H       4.061542     -4.886779      1.412362
  H       4.859321     -4.545857     -0.133322
  H       3.107056     -4.785631     -0.081176
  C       2.479750     -2.650758      1.455290
  H       2.491075     -2.673287      2.538376
  C       0.435276     -0.069755     -0.695898
  C       0.887939      0.293423      0.677415
  O       0.096406     -0.173150      1.650866
  C       0.520308      0.118085      2.977316
  H      -0.232969     -0.311967      3.632253
  H       1.494414     -0.333268      3.169956
  H       0.592795      1.194509      3.132137
  O       1.875230      0.950241      0.904417
  C      -0.559073     -0.932026     -0.872671
  H      -1.075665     -1.380602     -0.035320
  H      -0.869562     -1.219579     -1.869676
  C       1.202994      0.566646     -1.812593
  H       2.238645      0.224504     -1.806920
  H       1.217268      1.652657     -1.704989
  H       0.761050      0.308412     -2.773677
  H       1.530519     -2.696049      0.938352
  O       4.205609     -1.034548     -0.931861
44
Coordinates from ORCA-job orca E -887.609397636327
  O       2.829380     -2.631229     -1.490027
  C       3.573270     -2.181202     -0.662039
  C       3.757866     -2.861727      0.704279
  C       4.945420     -2.292666      1.485221
  H       4.875253     -2.618308      2.526070
  H       5.877637     -2.709764      1.089597
  C       4.983265     -0.780744      1.375313
  H       5.807188     -0.368912      1.960624
  H       4.055228     -0.335740      1.748731
  C       5.179444     -0.397145     -0.074643
  H       6.159035     -0.762189     -0.410211
  C       5.070567      1.088608     -0.365009
  C       6.155146      1.922842      0.306823
  H       6.065306      1.844427      1.394141
  H       7.142211      1.521864      0.049801
  C       6.081746      3.390404     -0.093769
  H       6.857371      3.977453      0.401002
  H       5.114062      3.819429      0.175566
  H       6.208008      3.511311     -1.172135
  H       4.079659      1.428831     -0.052608
  H       5.128580      1.218906     -1.449731
  C       3.954406     -4.370803      0.457850
  H       4.058637     -4.886131      1.414483
  H       4.856716     -4.549436     -0.131954
  H       3.103886     -4.786157     -0.078656
  C       2.480365     -2.647642      1.453343
  H       2.490061     -2.669653      2.536401
  C       0.435553     -0.069029     -0.695996
  C       0.887838      0.294723      0.677633
  O       0.095906     -0.170958      1.650976
  C       0.521453      0.119314      2.977126
  H      -0.230969     -0.311371      3.632688
  H       1.495821     -0.331784      3.169042
  H       0.593304      1.195601      3.133034
  O       1.875572      0.950771      0.904580
  C      -0.559115     -0.930716     -0.872439
  H      -1.076066     -1.378133     -0.034718
  H      -0.869035     -1.219186     -1.869366
  C       1.204801      0.565742     -1.812481
  H       2.240264      0.223082     -1.805564
  H       1.220086      1.651726     -1.704169
  H       0.763424      0.308652     -2.774070
  H       1.532131     -2.692045      0.934572
  O       4.207467     -1.035221     -0.932031
44
Coordinates from ORCA-job orca E -887.609401250382
  O       2.832227     -2.632144     -1.492020
  C       3.575667     -2.182161     -0.663342
  C       3.758354     -2.861993      0.703119
  C       4.946566     -2.294257      1.484121
  H       4.875907     -2.620169      2.524858
  H       5.878495     -2.711886      1.088367
  C       4.985166     -0.782207      1.374498
  H       5.809078     -0.370700      1.960042
  H       4.056891     -0.337485      1.747655
  C       5.181548     -0.398419     -0.075371
  H       6.161228     -0.763063     -0.411051
  C       5.071073      1.087379     -0.365432
  C       6.154122      1.923193      0.306779
  H       6.065298      1.842775      1.393998
  H       7.141890      1.525423      0.047595
  C       6.076316      3.391399     -0.091293
  H       6.851022      3.979515      0.403645
  H       5.107771      3.816989      0.180335
  H       6.200964      3.514142     -1.169613
  H       4.079342      1.424955     -0.052777
  H       5.128008      1.217872     -1.450163
  C       3.951742     -4.371669      0.459237
  H       4.056177     -4.884694      1.417134
  H       4.853060     -4.553300     -0.131153
  H       3.099990     -4.787389     -0.075021
  C       2.480773     -2.643808      1.451127
  H       2.489284     -2.664503      2.534198
  C       0.436266     -0.068784     -0.695974
  C       0.887846      0.295778      0.677928
  O       0.095827     -0.169196      1.651378
  C       0.523215      0.121012      2.977173
  H      -0.228002     -0.310362      3.633758
  H       1.498152     -0.329277      3.168062
  H       0.593690      1.197335      3.133299
  O       1.876066      0.951238      0.904516
  C      -0.559247     -0.929477     -0.872117
  H      -1.077170     -1.375740     -0.034372
  H      -0.868425     -1.219142     -1.868952
  C       1.207232      0.564102     -1.812316
  H       2.242489      0.220803     -1.804435
  H       1.223268      1.650109     -1.703881
  H       0.766133      0.307277     -2.774092
  H       1.533283     -2.687450      0.930978
  O       4.209568     -1.036231     -0.933147
44
Coordinates from ORCA-job orca E -887.609406458721
  O       2.835176     -2.633895     -1.494290
  C       3.577834     -2.183351     -0.665033
  C       3.758607     -2.862200      0.701930
  C       4.947451     -2.295545      1.482929
  H       4.876430     -2.621574      2.523616
  H       5.879113     -2.713668      1.087019
  C       4.986611     -0.783399      1.373369
  H       5.810603     -0.372236      1.959039
  H       4.058174     -0.338863      1.746385
  C       5.183133     -0.399250     -0.076440
  H       6.163098     -0.763203     -0.412047
  C       5.071142      1.086676     -0.365856
  C       6.152857      1.923479      0.307184
  H       6.064317      1.841460      1.394286
  H       7.141198      1.528052      0.046624
  C       6.072089      3.392277     -0.088788
  H       6.846388      3.980785      0.406339
  H       5.103054      3.815484      0.184795
  H       6.195504      3.516458     -1.167078
  H       4.078703      1.422048     -0.052968
  H       5.127403      1.217965     -1.450528
  C       3.949332     -4.372502      0.460422
  H       4.053680     -4.883596      1.419415
  H       4.849922     -4.556765     -0.130295
  H       3.096859     -4.788537     -0.072460
  C       2.481014     -2.640231      1.449004
  H       2.488841     -2.659018      2.532139
  C       0.437168     -0.068978     -0.695626
  C       0.888031      0.296434      0.678368
  O       0.096166     -0.168092      1.652126
  C       0.524790      0.122826      2.977643
  H      -0.225213     -0.309268      3.635183
  H       1.500477     -0.326271      3.167376
  H       0.593648      1.199319      3.133294
  O       1.876562      0.951727      0.904461
  C      -0.559420     -0.928588     -0.871597
  H      -1.078716     -1.373835     -0.034120
  H      -0.868018     -1.219245     -1.868370
  C       1.209516      0.562266     -1.811997
  H       2.244570      0.218268     -1.803593
  H       1.226035      1.648339     -1.704133
  H       0.768400      0.304804     -2.773632
  H       1.533926     -2.683320      0.928085
  O       4.211697     -1.037449     -0.934900
44
Coordinates from ORCA-job orca E -887.609412887090
  O       2.841525     -2.638262     -1.499025
  C       3.582051     -2.186098     -0.668635
  C       3.759188     -2.862717      0.699765
  C       4.948957     -2.297695      1.480707
  H       4.877478     -2.623730      2.521372
  H       5.880156     -2.716668      1.084576
  C       4.988931     -0.785467      1.371125
  H       5.812978     -0.374812      1.957075
  H       4.060259     -0.341154      1.743843
  C       5.185710     -0.400505     -0.078524
  H       6.166461     -0.762714     -0.413741
  C       5.070805      1.085626     -0.366417
  C       6.150203      1.923968      0.308384
  H       6.061542      1.839757      1.395317
  H       7.139552      1.531855      0.046600
  C       6.065427      3.393565     -0.084689
  H       6.839248      3.982547      0.410662
  H       5.095779      3.813636      0.191550
  H       6.187128      3.519789     -1.162942
  H       4.077194      1.417468     -0.053214
  H       5.126476      1.218738     -1.450936
  C       3.945422     -4.374079      0.462331
  H       4.048506     -4.882489      1.422925
  H       4.845306     -4.562767     -0.128148
  H       3.092194     -4.789846     -0.069574
  C       2.481488     -2.634121      1.444855
  H       2.488142     -2.648850      2.528120
  C       0.438775     -0.069479     -0.694450
  C       0.888567      0.297591      0.679365
  O       0.096992     -0.166138      1.653797
  C       0.526921      0.126310      2.978923
  H      -0.221034     -0.307358      3.637775
  H       1.504091     -0.320377      3.166435
  H       0.592969      1.203121      3.133632
  O       1.877362      0.953032      0.904535
  C      -0.559759     -0.927178     -0.870111
  H      -1.081652     -1.370479     -0.033146
  H      -0.867784     -1.219165     -1.866742
  C       1.213198      0.558936     -1.811115
  H       2.247829      0.213495     -1.802034
  H       1.230651      1.645152     -1.704967
  H       0.771916      0.299693     -2.772249
  H       1.534978     -2.676227      0.922784
  O       4.216026     -1.040114     -0.938514
44
Coordinates from ORCA-job orca E -887.609415430228
  O       2.849517     -2.643675     -1.504883
  C       3.587052     -2.189533     -0.672996
  C       3.759937     -2.863518      0.697385
  C       4.950436     -2.300016      1.478271
  H       4.878663     -2.625967      2.518970
  H       5.881187     -2.719878      1.081959
  C       4.991152     -0.787782      1.368768
  H       5.815072     -0.377576      1.955212
  H       4.062263     -0.343568      1.741138
  C       5.188395     -0.401735     -0.080647
  H       6.170256     -0.761535     -0.415206
  C       5.070061      1.084536     -0.366790
  C       6.146971      1.924614      0.309803
  H       6.057955      1.838657      1.396570
  H       7.137445      1.535463      0.047765
  C       6.058542      3.394697     -0.081004
  H       6.831642      3.984432      0.414597
  H       5.088228      3.812112      0.196934
  H       6.179063      3.522700     -1.159182
  H       4.075338      1.413074     -0.053403
  H       5.125718      1.219714     -1.451077
  C       3.941502     -4.376032      0.464237
  H       4.041581     -4.882403      1.426224
  H       4.841499     -4.569278     -0.124668
  H       3.088027     -4.790498     -0.068337
  C       2.481992     -2.627958      1.439937
  H       2.487209     -2.637735      2.523316
  C       0.440569     -0.069868     -0.692639
  C       0.889606      0.298955      0.680748
  O       0.098261     -0.163945      1.655849
  C       0.528635      0.130032      2.980695
  H      -0.217320     -0.305729      3.640365
  H       1.507459     -0.313863      3.165920
  H       0.591867      1.207121      3.134726
  O       1.878286      0.955007      0.905091
  C      -0.560010     -0.925469     -0.867955
  H      -1.084591     -1.366456     -0.031382
  H      -0.867979     -1.218188     -1.864420
  C       1.216955      0.555345     -1.809911
  H       2.251061      0.208156     -1.800135
  H       1.235704      1.641735     -1.706298
  H       0.775527      0.293826     -2.770417
  H       1.536053     -2.668808      0.916668
  O       4.221362     -1.043371     -0.942518
44
Coordinates from ORCA-job orca E -887.609430020746
  O       2.860712     -2.650702     -1.513264
  C       3.593723     -2.194080     -0.678997
  C       3.760805     -2.864609      0.694152
  C       4.951874     -2.302830      1.475077
  H       4.879947     -2.628762      2.515789
  H       5.882120     -2.723648      1.078556
  C       4.993369     -0.790668      1.366041
  H       5.816928     -0.380952      1.953355
  H       4.064312     -0.346456      1.738040
  C       5.191414     -0.402991     -0.082942
  H       6.175028     -0.759034     -0.416323
  C       5.068416      1.083316     -0.366879
  C       6.142201      1.925654      0.311928
  H       6.052098      1.838562      1.398532
  H       7.134111      1.539241      0.051216
  C       6.050483      3.395788     -0.077595
  H       6.822078      3.986866      0.418774
  H       5.079150      3.810917      0.200197
  H       6.171205      3.525187     -1.155600
  H       4.072507      1.408399     -0.053533
  H       5.124851      1.221060     -1.450832
  C       3.936561     -4.378507      0.466115
  H       4.031173     -4.883177      1.429492
  H       4.837550     -4.577311     -0.119483
  H       3.083190     -4.790168     -0.068806
  C       2.482458     -2.620675      1.433126
  H       2.485746     -2.623342      2.516601
  C       0.443145     -0.070327     -0.689705
  C       0.891686      0.300698      0.683003
  O       0.100664     -0.161517      1.658763
  C       0.530545      0.134296      2.983402
  H      -0.213096     -0.304721      3.643425
  H       1.511563     -0.305633      3.166220
  H       0.590163      1.211661      3.137043
  O       1.879610      0.958202      0.906574
  C      -0.559930     -0.923228     -0.864469
  H      -1.087541     -1.361011     -0.028072
  H      -0.868452     -1.216113     -1.860713
  C       1.221818      0.550367     -1.808117
  H       2.255186      0.200835     -1.797364
  H       1.242543      1.637034     -1.708677
  H       0.780365      0.285563     -2.767741
  H       1.537168     -2.659686      0.908519
  O       4.228702     -1.047707     -0.947549
44
Coordinates from ORCA-job orca E -887.609439345731
  O       2.873133     -2.657480     -1.522465
  C       3.601052     -2.198714     -0.685198
  C       3.761818     -2.865852      0.690676
  C       4.952981     -2.305563      1.472006
  H       4.880768     -2.631615      2.512670
  H       5.882894     -2.727158      1.075548
  C       4.995230     -0.793494      1.363704
  H       5.818160     -0.384091      1.952084
  H       4.066042     -0.349165      1.735313
  C       5.194489     -0.404288     -0.084730
  H       6.180086     -0.756202     -0.416493
  C       5.066740      1.081828     -0.366940
  C       6.137403      1.926665      0.313827
  H       6.046068      1.838961      1.400319
  H       7.130804      1.542628      0.055239
  C       6.042661      3.396482     -0.075305
  H       6.811824      3.989605      0.422377
  H       5.069872      3.809485      0.200553
  H       6.164871      3.526912     -1.153036
  H       4.069852      1.404240     -0.053949
  H       5.124522      1.221568     -1.450565
  C       3.932037     -4.381009      0.467580
  H       4.020297     -4.884235      1.432232
  H       4.834525     -4.585129     -0.113807
  H       3.078877     -4.789379     -0.070144
  C       2.482803     -2.614204      1.425670
  H       2.483789     -2.609267      2.509130
  C       0.445508     -0.070241     -0.686377
  C       0.893875      0.302983      0.685702
  O       0.103016     -0.158873      1.661760
  C       0.531870      0.138068      2.986341
  H      -0.209593     -0.304844      3.646066
  H       1.515039     -0.297686      3.167485
  H       0.587748      1.215547      3.140583
  O       1.880548      0.962386      0.908872
  C      -0.559767     -0.920626     -0.860394
  H      -1.089625     -1.354975     -0.023645
  H      -0.869126     -1.213324     -1.856404
  C       1.226395      0.545454     -1.806086
  H       2.258957      0.193487     -1.794046
  H       1.249587      1.632410     -1.711220
  H       0.785177      0.277719     -2.765000
  H       1.538273     -2.651054      0.899555
  O       4.236674     -1.052167     -0.952209
44
Coordinates from ORCA-job orca E -887.609444590849
  O       2.880057     -2.660187     -1.528056
  C       3.604929     -2.200778     -0.688605
  C       3.761976     -2.866411      0.688472
  C       4.952715     -2.306697      1.470485
  H       4.880211     -2.633106      2.511023
  H       5.882648     -2.728414      1.074256
  C       4.995342     -0.794686      1.362989
  H       5.817795     -0.385416      1.952115
  H       4.066225     -0.350164      1.734532
  C       5.195770     -0.404707     -0.085039
  H       6.182694     -0.754103     -0.415406
  C       5.065651      1.081094     -0.366951
  C       6.134715      1.927302      0.314785
  H       6.042096      1.840170      1.401231
  H       7.128893      1.543765      0.058490
  C       6.039280      3.396496     -0.075570
  H       6.806059      3.991373      0.423677
  H       5.065199      3.808789      0.196773
  H       6.164279      3.526681     -1.153017
  H       4.068486      1.403150     -0.054684
  H       5.124902      1.221314     -1.450411
  C       3.929916     -4.382100      0.467463
  H       4.014092     -4.884952      1.432647
  H       4.833784     -4.588494     -0.110890
  H       3.077087     -4.788478     -0.072245
  C       2.482323     -2.611763      1.421155
  H       2.482018     -2.601750      2.504516
  C       0.447096     -0.070042     -0.684135
  C       0.895641      0.304354      0.687719
  O       0.104960     -0.158105      1.663603
  C       0.532406      0.139137      2.988348
  H      -0.208062     -0.306627      3.647244
  H       1.516789     -0.293764      3.169931
  H       0.585577      1.216594      3.143689
  O       1.880981      0.965500      0.911016
  C      -0.559334     -0.919033     -0.857520
  H      -1.089652     -1.351266     -0.020023
  H      -0.869372     -1.211364     -1.853384
  C       1.229124      0.542332     -1.804776
  H       2.261215      0.189063     -1.791662
  H       1.253980      1.629531     -1.713129
  H       0.788356      0.273097     -2.763442
  H       1.538138     -2.647220      0.894356
  O       4.241165     -1.054328     -0.954291
44
Coordinates from ORCA-job orca E -887.609453884865
  O       2.884568     -2.660702     -1.532498
  C       3.607451     -2.201588     -0.691119
  C       3.761612     -2.866628      0.686361
  C       4.951475     -2.307134      1.469638
  H       4.878209     -2.634098      2.509928
  H       5.881735     -2.728676      1.074031
  C       4.994413     -0.795132      1.362981
  H       5.816429     -0.385962      1.952774
  H       4.065448     -0.350332      1.734599
  C       5.196401     -0.404798     -0.084693
  H       6.184451     -0.752515     -0.413370
  C       5.065215      1.080635     -0.367337
  C       6.133168      1.927866      0.315200
  H       6.038864      1.841805      1.401595
  H       7.127895      1.544135      0.061386
  C       6.038050      3.396370     -0.077096
  H       6.801882      3.993034      0.424515
  H       5.062411      3.808207      0.190337
  H       6.167243      3.525762     -1.154150
  H       4.067980      1.403536     -0.056325
  H       5.126194      1.220281     -1.450745
  C       3.928892     -4.382526      0.466305
  H       4.010176     -4.885076      1.431879
  H       4.834068     -4.589832     -0.109548
  H       3.076464     -4.787947     -0.074679
  C       2.481150     -2.611248      1.417225
  H       2.479861     -2.596174      2.500442
  C       0.448443     -0.069877     -0.682067
  C       0.897030      0.305554      0.689782
  O       0.106753     -0.158457      1.665200
  C       0.532414      0.138960      2.990207
  H      -0.207302     -0.309710      3.648012
  H       1.517823     -0.290894      3.173834
  H       0.582179      1.216369      3.147009
  O       1.880690      0.968800      0.913483
  C      -0.558765     -0.917959     -0.854625
  H      -1.088579     -1.348440     -0.015969
  H      -0.869175     -1.210330     -1.850301
  C       1.231317      0.539586     -1.803469
  H       2.263020      0.185425     -1.789034
  H       1.257626      1.627020     -1.714634
  H       0.791287      0.269593     -2.762235
  H       1.537246     -2.645643      0.889959
  O       4.244436     -1.055470     -0.955505
44
Coordinates from ORCA-job orca E -887.609459820763
  O       2.887081     -2.659965     -1.535881
  C       3.608984     -2.201564     -0.693121
  C       3.760951     -2.866559      0.684275
  C       4.949906     -2.307252      1.469141
  H       4.875402     -2.634719      2.509178
  H       5.880642     -2.728611      1.074434
  C       4.993192     -0.795204      1.363025
  H       5.814970     -0.386254      1.953339
  H       4.064357     -0.350159      1.734679
  C       5.196933     -0.404872     -0.084386
  H       6.185778     -0.751939     -0.411350
  C       5.065677      1.080289     -0.368175
  C       6.132574      1.928243      0.315290
  H       6.036536      1.842936      1.401584
  H       7.127744      1.544556      0.063201
  C       6.037634      3.396340     -0.078467
  H       6.798778      3.994392      0.425560
  H       5.060512      3.807348      0.184863
  H       6.170642      3.525038     -1.155137
  H       4.068243      1.404006     -0.058659
  H       5.128160      1.218923     -1.451604
  C       3.928366     -4.382529      0.464686
  H       4.008373     -4.884458      1.430731
  H       4.834290     -4.590133     -0.109825
  H       3.076265     -4.788200     -0.076605
  C       2.479647     -2.611234      1.413652
  H       2.477583     -2.590865      2.496725
  C       0.449610     -0.070118     -0.680219
  C       0.897722      0.306489      0.691708
  O       0.108170     -0.159429      1.666781
  C       0.532122      0.138828      2.991949
  H      -0.206689     -0.312474      3.649086
  H       1.518582     -0.287608      3.178107
  H       0.577652      1.216291      3.149709
  O       1.879808      0.971831      0.915678
  C      -0.558188     -0.917662     -0.852036
  H      -1.087536     -1.346723     -0.012416
  H      -0.868276     -1.210972     -1.847527
  C       1.233394      0.537064     -1.801924
  H       2.264780      0.182252     -1.786031
  H       1.260727      1.624686     -1.715026
  H       0.794203      0.266773     -2.760963
  H       1.536071     -2.645086      0.885878
  O       4.246779     -1.055904     -0.956624
44
Coordinates from ORCA-job orca E -887.609465740799
  O       2.890221     -2.659525     -1.540349
  C       3.611121     -2.201727     -0.696203
  C       3.760252     -2.866561      0.681203
  C       4.948063     -2.307546      1.468277
  H       4.871502     -2.635388      2.508033
  H       5.879426     -2.728896      1.075026
  C       4.991877     -0.795381      1.362348
  H       5.813446     -0.386795      1.953271
  H       4.063111     -0.350008      1.733821
  C       5.198073     -0.405222     -0.084731
  H       6.187794     -0.752002     -0.409400
  C       5.067090      1.079773     -0.369758
  C       6.132156      1.928534      0.315624
  H       6.033492      1.843600      1.401694
  H       7.128013      1.545432      0.065408
  C       6.037076      3.396468     -0.079149
  H       6.795155      3.995751      0.428011
  H       5.058177      3.805953      0.179998
  H       6.174421      3.524649     -1.155326
  H       4.069050      1.403824     -0.062408
  H       5.131495      1.217315     -1.453191
  C       3.927895     -4.382667      0.462502
  H       4.007344     -4.883285      1.429322
  H       4.834226     -4.590745     -0.111193
  H       3.076195     -4.789477     -0.078578
  C       2.477762     -2.610818      1.408422
  H       2.474650     -2.582143      2.491265
  C       0.450723     -0.070926     -0.677563
  C       0.897596      0.307785      0.694360
  O       0.109407     -0.160562      1.669403
  C       0.531151      0.140207      2.994559
  H      -0.205855     -0.314497      3.651511
  H       1.519408     -0.280806      3.183668
  H       0.569977      1.217932      3.152523
  O       1.877718      0.976024      0.918256
  C      -0.557561     -0.918200     -0.848593
  H      -1.087014     -1.345553     -0.008189
  H      -0.866441     -1.213692     -1.843804
  C       1.235988      0.533701     -1.799276
  H       2.266931      0.177909     -1.781339
  H       1.264409      1.621473     -1.714195
  H       0.797895      0.262996     -2.758710
  H       1.534780     -2.644550      0.879725
  O       4.249956     -1.056566     -0.958996
44
Coordinates from ORCA-job orca E -887.609474607309
  O       2.893364     -2.659579     -1.545259
  C       3.613393     -2.202048     -0.700100
  C       3.759634     -2.866542      0.677562
  C       4.946183     -2.307811      1.467088
  H       4.867077     -2.635625      2.506666
  H       5.878235     -2.729386      1.075702
  C       4.990625     -0.795594      1.360795
  H       5.811998     -0.387449      1.952395
  H       4.061818     -0.349790      1.731708
  C       5.199657     -0.405864     -0.085970
  H       6.190122     -0.752922     -0.408120
  C       5.069335      1.079085     -0.372027
  C       6.131952      1.928521      0.316241
  H       6.030081      1.843326      1.401970
  H       7.128696      1.546439      0.067981
  C       6.036648      3.396662     -0.078646
  H       6.792131      3.996505      0.431710
  H       5.056198      3.804483      0.177240
  H       6.177843      3.524810     -1.154313
  H       4.070237      1.402736     -0.067428
  H       5.136088      1.215735     -1.455434
  C       3.927625     -4.382744      0.459738
  H       4.006946     -4.882119      1.427258
  H       4.834133     -4.591179     -0.113612
  H       3.076577     -4.791002     -0.081315
  C       2.475728     -2.609916      1.402035
  H       2.471360     -2.569996      2.484475
  C       0.451661     -0.072723     -0.674164
  C       0.896687      0.308944      0.697537
  O       0.110459     -0.161979      1.673023
  C       0.529242      0.143589      2.997892
  H      -0.205199     -0.314861      3.655267
  H       1.520054     -0.270009      3.189996
  H       0.559402      1.221810      3.154614
  O       1.874544      0.980808      0.920815
  C      -0.556790     -0.920180     -0.844491
  H      -1.087141     -1.345721     -0.003701
  H      -0.863882     -1.218771     -1.839361
  C       1.238837      0.529615     -1.795582
  H       2.269283      0.172626     -1.775137
  H       1.268169      1.617470     -1.711770
  H       0.802085      0.258257     -2.755471
  H       1.533586     -2.644448      0.871993
  O       4.253467     -1.057372     -0.962522
44
Coordinates from ORCA-job orca E -887.609482663889
  O       2.894445     -2.659539     -1.548409
  C       3.614412     -2.202060     -0.703195
  C       3.759336     -2.866644      0.674707
  C       4.944618     -2.307762      1.466194
  H       4.863232     -2.634975      2.505777
  H       5.877306     -2.729707      1.076742
  C       4.989543     -0.795569      1.358992
  H       5.810675     -0.387756      1.951207
  H       4.060610     -0.349248      1.728970
  C       5.200894     -0.406418     -0.087608
  H       6.191540     -0.754644     -0.407978
  C       5.071942      1.078709     -0.374223
  C       6.132442      1.928174      0.317042
  H       6.027537      1.842648      1.402432
  H       7.129874      1.546569      0.070819
  C       6.037790      3.396645     -0.077587
  H       6.792391      3.995933      0.434708
  H       5.056766      3.804035      0.176802
  H       6.181174      3.524823     -1.152947
  H       4.071709      1.401740     -0.072438
  H       5.141116      1.214885     -1.457553
  C       3.928548     -4.382686      0.456688
  H       4.008592     -4.881893      1.424229
  H       4.835018     -4.590368     -0.117087
  H       3.078294     -4.792227     -0.084690
  C       2.474165     -2.610081      1.396945
  H       2.468865     -2.559202      2.478867
  C       0.451697     -0.075196     -0.671077
  C       0.895012      0.309264      0.700254
  O       0.110801     -0.163606      1.676543
  C       0.526247      0.148255      3.000926
  H      -0.205852     -0.312822      3.659108
  H       1.519546     -0.258059      3.195513
  H       0.548613      1.227130      3.154778
  O       1.870865      0.984551      0.922499
  C      -0.556000     -0.923736     -0.841155
  H      -1.087496     -1.348385     -0.000592
  H      -0.861427     -1.225033     -1.835762
  C       1.240226      0.526568     -1.791903
  H       2.270377      0.168814     -1.769293
  H       1.269731      1.614341     -1.707756
  H       0.804686      0.254773     -2.752232
  H       1.532828     -2.646836      0.865658
  O       4.255462     -1.057616     -0.965633
44
Coordinates from ORCA-job orca E -887.609491216179
  O       2.895968     -2.660112     -1.551899
  C       3.615639     -2.202401     -0.706760
  C       3.759474     -2.867050      0.671674
  C       4.943414     -2.307856      1.464790
  H       4.860023     -2.634133      2.504502
  H       5.876677     -2.730313      1.077325
  C       4.988829     -0.795760      1.356604
  H       5.809444     -0.388210      1.949736
  H       4.059649     -0.348735      1.725152
  C       5.202248     -0.407082     -0.089829
  H       6.192949     -0.756350     -0.408882
  C       5.074385      1.078281     -0.376323
  C       6.132360      1.927603      0.318628
  H       6.023925      1.841806      1.403645
  H       7.130625      1.546115      0.075567
  C       6.039080      3.396310     -0.075755
  H       6.793561      3.994573      0.437897
  H       5.058009      3.804244      0.177483
  H       6.184194      3.524600     -1.150866
  H       4.072758      1.400204     -0.077774
  H       5.146714      1.214771     -1.459431
  C       3.929689     -4.382869      0.453167
  H       4.009739     -4.882804      1.420292
  H       4.836373     -4.589693     -0.120672
  H       3.080289     -4.792619     -0.089438
  C       2.472999     -2.610226      1.391375
  H       2.466592     -2.546300      2.472554
  C       0.451565     -0.078617     -0.667437
  C       0.893304      0.309108      0.703299
  O       0.111272     -0.165173      1.680681
  C       0.522586      0.155110      3.004300
  H      -0.206876     -0.308507      3.663559
  H       1.518844     -0.242652      3.201054
  H       0.536825      1.234806      3.153538
  O       1.866829      0.988372      0.924062
  C      -0.554910     -0.928604     -0.837432
  H      -1.087916     -1.352564      0.002597
  H      -0.859141     -1.231976     -1.831794
  C       1.241272      0.523095     -1.787717
  H       2.271167      0.164700     -1.762858
  H       1.270711      1.610713     -1.702617
  H       0.807011      0.250555     -2.748394
  H       1.532597     -2.650596      0.858706
  O       4.257407     -1.057971     -0.969029
44
Coordinates from ORCA-job orca E -887.609498319570
  O       2.897252     -2.660435     -1.554363
  C       3.616524     -2.202619     -0.709144
  C       3.759886     -2.867571      0.669627
  C       4.942812     -2.307960      1.463591
  H       4.858493     -2.633581      2.503438
  H       5.876470     -2.730646      1.077377
  C       4.988495     -0.795968      1.354991
  H       5.808441     -0.388517      1.949077
  H       4.059069     -0.348344      1.722193
  C       5.203038     -0.407387     -0.091320
  H       6.193691     -0.757090     -0.409969
  C       5.075690      1.078142     -0.377414
  C       6.131843      1.927241      0.320392
  H       6.020380      1.841974      1.405153
  H       7.130693      1.544997      0.080908
  C       6.040735      3.395756     -0.074786
  H       6.795437      3.993274      0.439415
  H       5.059956      3.805300      0.176874
  H       6.187433      3.523574     -1.149746
  H       4.073081      1.399403     -0.081461
  H       5.150894      1.215364     -1.460241
  C       3.930697     -4.383148      0.450241
  H       4.009854     -4.884416      1.416696
  H       4.837945     -4.589168     -0.123001
  H       3.081881     -4.792006     -0.093945
  C       2.472497     -2.610895      1.387611
  H       2.465246     -2.537202      2.468093
  C       0.451358     -0.081516     -0.664679
  C       0.892307      0.308466      0.705650
  O       0.111652     -0.166420      1.683775
  C       0.519625      0.160717      3.006796
  H      -0.208075     -0.304553      3.666714
  H       1.518073     -0.230642      3.205075
  H       0.528500      1.241056      3.151800
  O       1.863976      0.990785      0.925260
  C      -0.553986     -0.932614     -0.834732
  H      -1.087776     -1.356489      0.004860
  H      -0.858060     -1.236355     -1.829026
  C       1.241362      0.520604     -1.784805
  H       2.271241      0.162200     -1.758581
  H       1.270445      1.608078     -1.698676
  H       0.807930      0.247427     -2.745627
  H       1.532764     -2.655036      0.854071
  O       4.258377     -1.057989     -0.970885
44
Coordinates from ORCA-job orca E -887.609503264123
  O       2.898842     -2.660504     -1.556893
  C       3.617506     -2.202779     -0.711229
  C       3.760472     -2.868210      0.667653
  C       4.942358     -2.308058      1.462289
  H       4.857599     -2.633351      2.502217
  H       5.876408     -2.730672      1.076997
  C       4.988215     -0.796131      1.353742
  H       5.807323     -0.388728      1.948955
  H       4.058524     -0.347896      1.719480
  C       5.203563     -0.407506     -0.092437
  H       6.194193     -0.757206     -0.411051
  C       5.076476      1.078078     -0.378157
  C       6.130922      1.926888      0.322536
  H       6.015994      1.842736      1.407028
  H       7.130293      1.543233      0.087462
  C       6.042804      3.394935     -0.074244
  H       6.797281      3.992025      0.440807
  H       5.062197      3.806629      0.174514
  H       6.192144      3.521873     -1.148959
  H       4.073055      1.399137     -0.084869
  H       5.154893      1.216258     -1.460639
  C       3.931808     -4.383524      0.447282
  H       4.009348     -4.886227      1.413067
  H       4.839992     -4.588800     -0.124701
  H       3.083505     -4.791068     -0.098648
  C       2.472262     -2.612051      1.384244
  H       2.464245     -2.529270      2.463981
  C       0.451198     -0.084347     -0.662094
  C       0.891742      0.307601      0.707922
  O       0.112104     -0.167541      1.686594
  C       0.516995      0.166170      3.009058
  H      -0.209194     -0.300596      3.669441
  H       1.517400     -0.219216      3.208992
  H       0.521171      1.247099      3.149678
  O       1.861566      0.992821      0.926531
  C      -0.553220     -0.936292     -0.832063
  H      -1.087123     -1.360384      0.007355
  H      -0.857758     -1.239535     -1.826360
  C       1.240849      0.518252     -1.782424
  H       2.270908      0.160392     -1.755358
  H       1.269366      1.605623     -1.695367
  H       0.807930      0.244490     -2.743228
  H       1.533082     -2.660796      0.850161
  O       4.258911     -1.057762     -0.971987
44
Coordinates from ORCA-job orca E -887.609503406338
  O       2.900403     -2.660369     -1.559012
  C       3.618427     -2.202895     -0.712657
  C       3.760967     -2.868721      0.666099
  C       4.942275     -2.308346      1.461061
  H       4.857558     -2.633862      2.500916
  H       5.876572     -2.730666      1.076031
  C       4.988246     -0.796409      1.353080
  H       5.806677     -0.389129      1.949233
  H       4.058301     -0.347806      1.717705
  C       5.203880     -0.407465     -0.092980
  H       6.194523     -0.756776     -0.411905
  C       5.076667      1.078105     -0.378388
  C       6.129710      1.926871      0.324593
  H       6.011658      1.843947      1.408851
  H       7.129497      1.541952      0.093368
  C       6.044139      3.394380     -0.074031
  H       6.797553      3.991628      0.442392
  H       5.063241      3.807589      0.171062
  H       6.196835      3.520333     -1.148412
  H       4.072714      1.399138     -0.087039
  H       5.157536      1.217163     -1.460573
  C       3.932194     -4.383948      0.445436
  H       4.008123     -4.887214      1.411048
  H       4.841168     -4.589234     -0.125215
  H       3.084059     -4.790482     -0.101473
  C       2.472271     -2.612712      1.381875
  H       2.463665     -2.524126      2.461097
  C       0.451408     -0.086309     -0.660450
  C       0.891943      0.306877      0.709381
  O       0.112676     -0.168022      1.688345
  C       0.515866      0.169845      3.010465
  H      -0.209340     -0.297974      3.671116
  H       1.517466     -0.211721      3.211648
  H       0.517034      1.251136      3.148121
  O       1.860629      0.993837      0.927374
  C      -0.552865     -0.938361     -0.830006
  H      -1.086270     -1.362586      0.009643
  H      -0.858179     -1.240858     -1.824279
  C       1.240280      0.516410     -1.781346
  H       2.270653      0.159506     -1.754233
  H       1.268142      1.603785     -1.693995
  H       0.807390      0.242186     -2.741971
  H       1.533414     -2.665525      0.847615
  O       4.259045     -1.057380     -0.972313
44
Coordinates from ORCA-job orca E -887.609510545365
  O       2.905756     -2.661247     -1.564529
  C       3.621626     -2.203844     -0.716199
  C       3.761861     -2.869660      0.662609
  C       4.942231     -2.309355      1.458583
  H       4.857267     -2.635655      2.498180
  H       5.876971     -2.731064      1.073927
  C       4.988361     -0.797335      1.351838
  H       5.805630     -0.390401      1.949713
  H       4.057893     -0.348312      1.714647
  C       5.205066     -0.407606     -0.093861
  H       6.196116     -0.755790     -0.412710
  C       5.077105      1.077865     -0.378797
  C       6.127024      1.927219      0.328429
  H       6.002874      1.846534      1.412171
  H       7.127799      1.540773      0.104029
  C       6.045098      3.393779     -0.073735
  H       6.794994      3.992156      0.446512
  H       5.062756      3.808322      0.163253
  H       6.205429      3.517812     -1.147246
  H       4.072088      1.398438     -0.090676
  H       5.162064      1.218354     -1.460479
  C       3.931918     -4.385068      0.442889
  H       4.004466     -4.888010      1.408951
  H       4.842266     -4.591682     -0.124978
  H       3.084177     -4.790363     -0.105502
  C       2.472186     -2.612315      1.376229
  H       2.462095     -2.513787      2.454564
  C       0.452200     -0.089122     -0.657281
  C       0.892593      0.306418      0.712128
  O       0.113808     -0.167946      1.691611
  C       0.514729      0.175840      3.013191
  H      -0.208307     -0.294536      3.674362
  H       1.518415     -0.199195      3.216174
  H       0.509941      1.257573      3.147007
  O       1.859505      0.996082      0.929197
  C      -0.552647     -0.940702     -0.825570
  H      -1.085189     -1.364289      0.014915
  H      -0.859098     -1.242769     -1.819605
  C       1.239889      0.512730     -1.779453
  H       2.270806      0.157356     -1.752646
  H       1.266826      1.600238     -1.692830
  H       0.806707      0.237393     -2.739576
  H       1.534057     -2.671761      0.841491
  O       4.260800     -1.057279     -0.973644
44
Coordinates from ORCA-job orca E -887.609516554674
  O       2.908260     -2.661588     -1.567523
  C       3.622980     -2.204176     -0.718084
  C       3.762203     -2.870005      0.660548
  C       4.942113     -2.309707      1.457153
  H       4.857018     -2.636766      2.496515
  H       5.877167     -2.730814      1.072519
  C       4.988194     -0.797587      1.351202
  H       5.804838     -0.390853      1.950057
  H       4.057334     -0.348502      1.712791
  C       5.205435     -0.407489     -0.094340
  H       6.196547     -0.755410     -0.413281
  C       5.077593      1.077934     -0.379195
  C       6.125576      1.927365      0.331071
  H       5.996998      1.847877      1.414388
  H       7.126940      1.539948      0.110947
  C       6.046099      3.393509     -0.073004
  H       6.792587      3.992693      0.451208
  H       5.062248      3.808209      0.157477
  H       6.212917      3.516562     -1.145649
  H       4.071983      1.398579     -0.093224
  H       5.165122      1.219138     -1.460551
  C       3.931729     -4.385539      0.441678
  H       4.002808     -4.887673      1.408310
  H       4.842694     -4.593024     -0.124830
  H       3.084214     -4.790889     -0.107022
  C       2.472066     -2.612085      1.373259
  H       2.461383     -2.508836      2.451074
  C       0.452908     -0.090825     -0.655846
  C       0.893656      0.305952      0.713235
  O       0.114831     -0.167419      1.693218
  C       0.515089      0.179200      3.014460
  H      -0.206863     -0.292286      3.676060
  H       1.519663     -0.192737      3.218742
  H       0.507091      1.261136      3.146350
  O       1.860152      0.996382      0.929624
  C      -0.552635     -0.941935     -0.822734
  H      -1.083966     -1.365130      0.018661
  H      -0.859944     -1.244140     -1.816465
  C       1.238771      0.510671     -1.779409
  H       2.270401      0.157305     -1.754093
  H       1.264323      1.598356     -1.693812
  H       0.804650      0.234452     -2.738859
  H       1.534135     -2.677409      0.838812
  O       4.260843     -1.056648     -0.974161
44
Coordinates from ORCA-job orca E -887.609525885445
  O       2.914991     -2.663468     -1.574930
  C       3.626513     -2.205286     -0.723086
  C       3.762449     -2.870463      0.655817
  C       4.941320     -2.310581      1.454230
  H       4.855026     -2.638890      2.493102
  H       5.876957     -2.730943      1.070131
  C       4.987379     -0.798305      1.349387
  H       5.802941     -0.392037      1.950055
  H       4.055651     -0.349318      1.708746
  C       5.206487     -0.407486     -0.095723
  H       6.197924     -0.755174     -0.413936
  C       5.078936      1.077938     -0.380308
  C       6.122402      1.927816      0.336413
  H       5.984875      1.850112      1.418731
  H       7.125134      1.539428      0.124346
  C       6.046878      3.393432     -0.070761
  H       6.785934      3.994231      0.462067
  H       5.059694      3.807287      0.146803
  H       6.226835      3.514896     -1.141462
  H       4.071859      1.397953     -0.098678
  H       5.171427      1.220299     -1.461126
  C       3.930450     -4.386419      0.439551
  H       3.998996     -4.886385      1.407546
  H       4.842276     -4.596226     -0.124721
  H       3.083621     -4.792437     -0.109754
  C       2.471169     -2.609909      1.365673
  H       2.459042     -2.496192      2.442454
  C       0.454890     -0.094100     -0.652416
  C       0.896279      0.305758      0.715614
  O       0.117744     -0.165680      1.696947
  C       0.516634      0.186169      3.017353
  H      -0.202633     -0.287997      3.680068
  H       1.523167     -0.179116      3.223903
  H       0.501220      1.268370      3.146514
  O       1.862225      0.997454      0.930397
  C      -0.551963     -0.944605     -0.816068
  H      -1.081570     -1.366039      0.027256
  H      -0.860385     -1.248730     -1.808880
  C       1.237422      0.505895     -1.778872
  H       2.270353      0.156179     -1.756746
  H       1.260186      1.594006     -1.696645
  H       0.801312      0.227044     -2.736703
  H       1.533881     -2.686812      0.831676
  O       4.262222     -1.055880     -0.976684
44
Coordinates from ORCA-job orca E -887.609528414282
  O       2.920466     -2.665544     -1.580796
  C       3.629160     -2.206078     -0.727317
  C       3.762458     -2.870582      0.652189
  C       4.940023     -2.310680      1.452636
  H       4.851832     -2.639324      2.491235
  H       5.876364     -2.730721      1.069870
  C       4.985770     -0.798368      1.347842
  H       5.800436     -0.392101      1.949753
  H       4.053230     -0.349727      1.705425
  C       5.207119     -0.407551     -0.096903
  H       6.198739     -0.756078     -0.413723
  C       5.080836      1.077969     -0.381545
  C       6.120817      1.927828      0.340274
  H       5.976436      1.851232      1.421767
  H       7.124530      1.538747      0.134152
  C       6.048450      3.393223     -0.068887
  H       6.781933      3.994758      0.470737
  H       5.058865      3.806355      0.139048
  H       6.238368      3.513556     -1.137980
  H       4.072497      1.397483     -0.103621
  H       5.177316      1.220564     -1.461988
  C       3.930215     -4.386693      0.437527
  H       3.997759     -4.885455      1.406228
  H       4.842467     -4.597391     -0.125784
  H       3.084354     -4.793775     -0.112534
  C       2.469967     -2.608409      1.359258
  H       2.456690     -2.486425      2.435113
  C       0.455908     -0.096474     -0.649423
  C       0.897882      0.306059      0.717528
  O       0.119766     -0.163794      1.700167
  C       0.517332      0.191837      3.019783
  H      -0.199796     -0.284270      3.683512
  H       1.525365     -0.168312      3.227939
  H       0.496069      1.274154      3.147604
  O       1.863822      0.998275      0.930781
  C      -0.550789     -0.947878     -0.810426
  H      -1.079193     -1.367959      0.034309
  H      -0.859588     -1.254680     -1.802303
  C       1.235363      0.503012     -1.778156
  H       2.269355      0.156253     -1.759065
  H       1.255404      1.591425     -1.698790
  H       0.797502      0.221695     -2.734556
  H       1.533305     -2.695205      0.825663
  O       4.263348     -1.055163     -0.979263
44
Coordinates from ORCA-job orca E -887.609539220221
  O       2.926777     -2.668308     -1.586834
  C       3.632161     -2.206999     -0.731798
  C       3.762357     -2.870706      0.648804
  C       4.938104     -2.310573      1.451835
  H       4.847128     -2.638803      2.490322
  H       5.875300     -2.730761      1.071384
  C       4.983474     -0.798289      1.346396
  H       5.797115     -0.391620      1.949440
  H       4.050038     -0.350245      1.702379
  C       5.207755     -0.407805     -0.097924
  H       6.199658     -0.757621     -0.412529
  C       5.083114      1.077891     -0.382772
  C       6.119919      1.927757      0.343345
  H       5.970041      1.852000      1.424121
  H       7.124514      1.538292      0.142230
  C       6.050114      3.392993     -0.067381
  H       6.779554      3.994806      0.477346
  H       5.058878      3.805751      0.133309
  H       6.247499      3.512308     -1.135211
  H       4.073484      1.396616     -0.108487
  H       5.183310      1.220084     -1.462936
  C       3.930397     -4.386814      0.435286
  H       3.997339     -4.885226      1.404176
  H       4.842986     -4.597697     -0.127507
  H       3.085717     -4.794685     -0.116044
  C       2.468299     -2.607058      1.352321
  H       2.453589     -2.476868      2.427231
  C       0.456328     -0.098222     -0.646148
  C       0.898907      0.307124      0.719588
  O       0.121396     -0.161352      1.703537
  C       0.517389      0.197384      3.022356
  H      -0.197658     -0.280588      3.687050
  H       1.526907     -0.157939      3.231517
  H       0.490919      1.279704      3.149844
  O       1.865081      0.999538      0.931228
  C      -0.548708     -0.952120     -0.804764
  H      -1.076304     -1.371026      0.041117
  H      -0.857449     -1.262298     -1.795620
  C       1.232984      0.501191     -1.776834
  H       2.267806      0.156719     -1.760449
  H       1.250467      1.589829     -1.700230
  H       0.793692      0.217140     -2.731851
  H       1.532525     -2.702923      0.818728
  O       4.265248     -1.054792     -0.982290
44
Coordinates from ORCA-job orca E -887.609543693050
  O       2.934309     -2.671133     -1.594270
  C       3.635884     -2.208096     -0.737230
  C       3.762092     -2.871062      0.644643
  C       4.935548     -2.310677      1.450677
  H       4.841492     -2.638265      2.489091
  H       5.873696     -2.731153      1.073050
  C       4.980737     -0.798493      1.344780
  H       5.793027     -0.391354      1.949351
  H       4.046439     -0.350920      1.699086
  C       5.208551     -0.408225     -0.098957
  H       6.201063     -0.758782     -0.410795
  C       5.085151      1.077621     -0.383977
  C       6.118267      1.927788      0.346695
  H       5.962737      1.853246      1.426744
  H       7.123811      1.537736      0.151531
  C       6.051400      3.392618     -0.066054
  H       6.777765      3.994651      0.482506
  H       5.059121      3.805970      0.128104
  H       6.255225      3.510634     -1.132808
  H       4.073981      1.395243     -0.114093
  H       5.189934      1.219515     -1.463768
  C       3.930301     -4.387151      0.432028
  H       3.995661     -4.885811      1.400841
  H       4.843674     -4.598137     -0.129484
  H       3.086837     -4.794893     -0.121270
  C       2.465994     -2.605803      1.343625
  H       2.449261     -2.463846      2.417071
  C       0.457159     -0.100575     -0.641849
  C       0.900083      0.308412      0.722609
  O       0.123778     -0.159280      1.707870
  C       0.517209      0.204313      3.025691
  H      -0.195069     -0.276300      3.691450
  H       1.528895     -0.144037      3.236120
  H       0.484166      1.286681      3.151822
  O       1.865619      1.002234      0.932406
  C      -0.545415     -0.957697     -0.798136
  H      -1.072271     -1.375506      0.048786
  H      -0.854227     -1.271078     -1.787950
  C       1.231462      0.498527     -1.774377
  H       2.266837      0.155666     -1.759447
  H       1.246845      1.587318     -1.700315
  H       0.791387      0.211401     -2.728155
  H       1.531516     -2.710635      0.809484
  O       4.268219     -1.054871     -0.985848
44
Coordinates from ORCA-job orca E -887.609535471062
  O       2.938632     -2.672675     -1.598198
  C       3.637938     -2.208716     -0.739893
  C       3.761799     -2.871430      0.642659
  C       4.933785     -2.310779      1.450532
  H       4.837922     -2.637928      2.488921
  H       5.872571     -2.731420      1.074723
  C       4.978874     -0.798608      1.344442
  H       5.790272     -0.390999      1.949899
  H       4.044128     -0.351449      1.697977
  C       5.208650     -0.408383     -0.098952
  H       6.201689     -0.758952     -0.409084
  C       5.085632      1.077480     -0.384246
  C       6.117116      1.927918      0.348161
  H       5.959384      1.854246      1.427950
  H       7.123029      1.537370      0.155886
  C       6.051775      3.392373     -0.065868
  H       6.777821      3.994394      0.483128
  H       5.059583      3.806802      0.126370
  H       6.257253      3.509485     -1.132406
  H       4.073746      1.394598     -0.116700
  H       5.192729      1.218987     -1.463834
  C       3.930236     -4.387442      0.430153
  H       3.994113     -4.886698      1.398728
  H       4.844407     -4.598257     -0.130112
  H       3.087508     -4.794573     -0.124703
  C       2.464444     -2.605760      1.339096
  H       2.446439     -2.458091      2.411652
  C       0.457695     -0.101303     -0.639763
  C       0.901031      0.309446      0.724063
  O       0.125268     -0.157801      1.709925
  C       0.517739      0.207702      3.027323
  H      -0.193287     -0.274064      3.693556
  H       1.530416     -0.137641      3.237939
  H       0.482351      1.290075      3.152990
  O       1.866415      1.003737      0.932819
  C      -0.542819     -0.960862     -0.794793
  H      -1.068814     -1.378757      0.052658
  H      -0.851904     -1.275643     -1.784066
  C       1.230585      0.497893     -1.773309
  H       2.266147      0.155596     -1.758804
  H       1.245072      1.586713     -1.700300
  H       0.790196      0.209071     -2.726423
  H       1.530684     -2.714789      0.804518
  O       4.269901     -1.055077     -0.987336
44
Coordinates from ORCA-job orca E -887.609550424256
  O       2.946108     -2.675231     -1.604647
  C       3.641675     -2.210078     -0.743971
  C       3.761503     -2.872339      0.639453
  C       4.931290     -2.311432      1.450157
  H       4.832959     -2.638289      2.488416
  H       5.871038     -2.732093      1.076844
  C       4.976282     -0.799223      1.344247
  H       5.786266     -0.391027      1.951212
  H       4.040828     -0.352680      1.696658
  C       5.208906     -0.408750     -0.098585
  H       6.202936     -0.758630     -0.406240
  C       5.085726      1.077026     -0.384346
  C       6.114600      1.928267      0.350490
  H       5.953521      1.856140      1.429910
  H       7.121103      1.537045      0.162639
  C       6.051325      3.391982     -0.065814
  H       6.777123      3.994242      0.483243
  H       5.059375      3.808126      0.123871
  H       6.258863      3.507509     -1.132136
  H       4.072718      1.393283     -0.120206
  H       5.196223      1.218082     -1.463638
  C       3.929942     -4.388357      0.427636
  H       3.990661     -4.887987      1.396204
  H       4.845706     -4.599469     -0.129851
  H       3.088380     -4.794505     -0.129652
  C       2.462177     -2.605827      1.331885
  H       2.441750     -2.449718      2.403153
  C       0.458602     -0.101895     -0.636795
  C       0.902533      0.311522      0.726156
  O       0.127489     -0.154840      1.712881
  C       0.519403      0.213049      3.029679
  H      -0.189592     -0.270500      3.696720
  H       1.533519     -0.128253      3.239941
  H       0.480946      1.295427      3.154549
  O       1.867692      1.006517      0.933352
  C      -0.538839     -0.965165     -0.789861
  H      -1.062953     -1.383647      0.058491
  H      -0.848350     -1.281849     -1.778394
  C       1.229402      0.497351     -1.771833
  H       2.265140      0.155594     -1.757480
  H       1.242993      1.586190     -1.699915
  H       0.788596      0.206385     -2.724066
  H       1.529715     -2.720385      0.796215
  O       4.272868     -1.055776     -0.989291
44
Coordinates from ORCA-job orca E -887.609552353854
  O       2.947308     -2.675972     -1.605725
  C       3.642069     -2.210626     -0.744444
  C       3.761034     -2.872875      0.639019
  C       4.930141     -2.311694      1.450547
  H       4.831285     -2.638661      2.488732
  H       5.870261     -2.732077      1.077849
  C       4.974915     -0.799444      1.344881
  H       5.784461     -0.390978      1.952233
  H       4.039245     -0.353312      1.697150
  C       5.208187     -0.408837     -0.097813
  H       6.202640     -0.758172     -0.404758
  C       5.084723      1.076839     -0.383987
  C       6.113309      1.928368      0.350914
  H       5.952179      1.856435      1.430355
  H       7.119861      1.537079      0.163439
  C       6.050065      3.391967     -0.065543
  H       6.777010      3.994097      0.482184
  H       5.058664      3.808809      0.125452
  H       6.256231      3.507323     -1.132172
  H       4.071521      1.393056     -0.120756
  H       5.195837      1.217520     -1.463241
  C       3.929874     -4.388859      0.427240
  H       3.989442     -4.888548      1.395864
  H       4.846380     -4.599811     -0.129038
  H       3.088743     -4.794832     -0.130811
  C       2.461093     -2.606858      1.330599
  H       2.439834     -2.449761      2.401592
  C       0.459254     -0.101248     -0.636845
  C       0.903832      0.312546      0.725867
  O       0.128863     -0.153023      1.712942
  C       0.522231      0.214478      3.029555
  H      -0.186549     -0.268649      3.697103
  H       1.536365     -0.127469      3.238810
  H       0.484909      1.296907      3.154246
  O       1.869530      1.006945      0.932388
  C      -0.536706     -0.966271     -0.789103
  H      -1.059243     -1.386023      0.059597
  H      -0.846464     -1.283406     -1.777423
  C       1.228944      0.498456     -1.772474
  H       2.264689      0.156759     -1.757960
  H       1.242411      1.587260     -1.700254
  H       0.787875      0.207110     -2.724426
  H       1.528907     -2.722565      0.794610
  O       4.272987     -1.056193     -0.989116
44
Coordinates from ORCA-job orca E -887.609556908302
  O       2.950879     -2.678361     -1.609053
  C       3.643588     -2.212587     -0.746209
  C       3.759958     -2.874233      0.637502
  C       4.927976     -2.312913      1.450485
  H       4.828258     -2.640426      2.488410
  H       5.868645     -2.732781      1.078529
  C       4.972484     -0.800564      1.345485
  H       5.781263     -0.391948      1.953765
  H       4.036305     -0.355087      1.697326
  C       5.207195     -0.409498     -0.096889
  H       6.202565     -0.757430     -0.402464
  C       5.082580      1.075912     -0.383732
  C       6.109460      1.928617      0.352325
  H       5.947563      1.855944      1.431622
  H       7.116667      1.538697      0.165445
  C       6.044447      3.392357     -0.063214
  H       6.771653      3.994920      0.483747
  H       5.053010      3.808395      0.129313
  H       6.249330      3.508622     -1.130016
  H       4.068678      1.391452     -0.122419
  H       5.195242      1.216273     -1.462900
  C       3.928548     -4.390471      0.427192
  H       3.984998     -4.889178      1.396553
  H       4.846607     -4.602421     -0.126065
  H       3.088431     -4.796386     -0.132403
  C       2.458801     -2.607683      1.326760
  H       2.435288     -2.446890      2.397235
  C       0.461728     -0.100175     -0.636811
  C       0.907704      0.314941      0.725112
  O       0.133086     -0.148406      1.713356
  C       0.530102      0.218816      3.029238
  H      -0.177613     -0.263723      3.698320
  H       1.544471     -0.123957      3.236046
  H       0.494143      1.301348      3.153198
  O       1.874426      1.008404      0.929956
  C      -0.532522     -0.967616     -0.786781
  H      -1.051806     -1.388883      0.063138
  H      -0.842900     -1.286261     -1.774442
  C       1.229469      0.499414     -1.773857
  H       2.265220      0.157770     -1.758910
  H       1.242993      1.588221     -1.701612
  H       0.787731      0.207252     -2.725172
  H       1.527511     -2.725907      0.789731
  O       4.273988     -1.057782     -0.989560
44
Coordinates from ORCA-job orca E -887.609558351479
  O       2.949281     -2.678948     -1.608145
  C       3.642188     -2.213207     -0.745389
  C       3.759113     -2.874892      0.638083
  C       4.926818     -2.312993      1.451239
  H       4.827172     -2.640847      2.489068
  H       5.867737     -2.732274      1.079214
  C       4.970792     -0.800627      1.346302
  H       5.779488     -0.391976      1.954671
  H       4.034475     -0.355499      1.698005
  C       5.205560     -0.409597     -0.096136
  H       6.201015     -0.757464     -0.401567
  C       5.081045      1.075727     -0.383515
  C       6.107812      1.928496      0.352746
  H       5.945823      1.855315      1.431997
  H       7.115096      1.539068      0.165335
  C       6.042091      3.392427     -0.062168
  H       6.769276      3.994977      0.484843
  H       5.050520      3.807803      0.131087
  H       6.246532      3.509161     -1.129005
  H       4.067173      1.391679     -0.122639
  H       5.193938      1.215824     -1.462689
  C       3.929051     -4.391043      0.427770
  H       3.985519     -4.889355      1.397353
  H       4.847561     -4.602298     -0.125028
  H       3.089574     -4.798031     -0.132030
  C       2.457693     -2.609893      1.327515
  H       2.433583     -2.450537      2.398102
  C       0.462794     -0.098996     -0.638191
  C       0.909858      0.315790      0.723466
  O       0.135265     -0.146061      1.712452
  C       0.535506      0.219783      3.027971
  H      -0.172524     -0.260996      3.697992
  H       1.549242     -0.126021      3.232992
  H       0.502527      1.302404      3.151796
  O       1.877728      1.007979      0.927511
  C      -0.530858     -0.967356     -0.787302
  H      -1.048134     -1.389997      0.063150
  H      -0.841463     -1.286437     -1.774751
  C       1.229149      0.501491     -1.775733
  H       2.265066      0.160282     -1.761131
  H       1.242377      1.590265     -1.702689
  H       0.786826      0.209758     -2.726909
  H       1.526513     -2.728864      0.790411
  O       4.272350     -1.058230     -0.988775
44
Coordinates from ORCA-job orca E -887.609558968099
  O       2.949825     -2.680414     -1.609256
  C       3.642033     -2.214434     -0.746081
  C       3.758364     -2.875831      0.637504
  C       4.925289     -2.313355      1.451394
  H       4.825113     -2.641389      2.489112
  H       5.866577     -2.732209      1.079802
  C       4.968827     -0.800972      1.346309
  H       5.777139     -0.392403      1.955250
  H       4.032127     -0.355968      1.697253
  C       5.204494     -0.410066     -0.096074
  H       6.200155     -0.757961     -0.400849
  C       5.080012      1.075161     -0.383872
  C       6.105113      1.928422      0.354231
  H       5.940911      1.855038      1.433122
  H       7.112956      1.539764      0.168280
  C       6.039032      3.392413     -0.060812
  H       6.763818      3.995638      0.488617
  H       5.046290      3.806320      0.129646
  H       6.246471      3.509285     -1.127041
  H       4.065716      1.391006     -0.124361
  H       5.194508      1.215328     -1.462888
  C       3.929429     -4.391952      0.427751
  H       3.985620     -4.889646      1.397660
  H       4.848418     -4.602843     -0.124435
  H       3.090860     -4.800128     -0.132566
  C       2.456198     -2.611539      1.325697
  H       2.430585     -2.449729      2.396029
  C       0.464387     -0.098605     -0.638203
  C       0.912302      0.316884      0.722824
  O       0.138349     -0.143576      1.712977
  C       0.541064      0.222621      3.027732
  H      -0.166185     -0.257456      3.699098
  H       1.554871     -0.123939      3.231068
  H       0.508636      1.305317      3.150939
  O       1.880584      1.008947      0.925707
  C      -0.529241     -0.967367     -0.786132
  H      -1.045016     -1.390063      0.065191
  H      -0.840139     -1.287458     -1.773163
  C       1.229686      0.502052     -1.776281
  H       2.265834      0.161414     -1.762036
  H       1.242482      1.590841     -1.703152
  H       0.786932      0.210370     -2.727279
  H       1.525788     -2.732612      0.787803
  O       4.271938     -1.059118     -0.989240
44
Coordinates from ORCA-job orca E -887.609561457888
  O       2.950564     -2.682160     -1.610630
  C       3.641919     -2.215713     -0.747102
  C       3.757614     -2.876851      0.636718
  C       4.923081     -2.313180      1.451873
  H       4.821732     -2.640921      2.489564
  H       5.865048     -2.731602      1.081543
  C       4.965998     -0.800849      1.346086
  H       5.773610     -0.392175      1.955902
  H       4.028821     -0.355828      1.695659
  C       5.203313     -0.410544     -0.096237
  H       6.199172     -0.758973     -0.399774
  C       5.079496      1.074575     -0.384777
  C       6.102450      1.928287      0.355924
  H       5.934641      1.855482      1.434259
  H       7.110946      1.539863      0.173056
  C       6.037246      3.392091     -0.060382
  H       6.758142      3.996271      0.493049
  H       5.042862      3.804676      0.124342
  H       6.250411      3.508359     -1.125523
  H       4.064723      1.390577     -0.127233
  H       5.196495      1.214731     -1.463562
  C       3.930979     -4.392739      0.427054
  H       3.987640     -4.890272      1.397002
  H       4.850390     -4.602278     -0.124991
  H       3.093613     -4.802577     -0.133892
  C       2.454225     -2.614186      1.323042
  H       2.426622     -2.448554      2.392780
  C       0.465769     -0.098394     -0.637402
  C       0.914281      0.318036      0.722950
  O       0.141411     -0.141742      1.714348
  C       0.545944      0.225327      3.028294
  H      -0.160169     -0.254593      3.700999
  H       1.560117     -0.121116      3.230032
  H       0.513146      1.308050      3.151111
  O       1.882403      1.010797      0.924577
  C      -0.528046     -0.967206     -0.784305
  H      -1.042916     -1.389207      0.067909
  H      -0.839338     -1.288246     -1.770882
  C       1.230406      0.502300     -1.775866
  H       2.266864      0.162428     -1.762180
  H       1.242556      1.591125     -1.702990
  H       0.787414      0.210591     -2.726775
  H       1.524929     -2.737831      0.783862
  O       4.271627     -1.060037     -0.990148
44
Coordinates from ORCA-job orca E -887.609566774981
  O       2.951747     -2.684005     -1.611938
  C       3.642087     -2.216885     -0.748057
  C       3.757091     -2.877885      0.636061
  C       4.920505     -2.312473      1.452909
  H       4.817468     -2.639496      2.490650
  H       5.863442     -2.730471      1.084617
  C       4.962695     -0.800213      1.346030
  H       5.769265     -0.391042      1.956905
  H       4.024907     -0.355170      1.693818
  C       5.202084     -0.410853     -0.096214
  H       6.198231     -0.759877     -0.398106
  C       5.079085      1.074125     -0.385723
  C       6.100068      1.928215      0.357349
  H       5.928345      1.856957      1.435150
  H       7.109048      1.539159      0.178536
  C       6.037006      3.391480     -0.061396
  H       6.754015      3.996674      0.495927
  H       5.041239      3.803765      0.116452
  H       6.256670      3.506221     -1.125360
  H       4.063912      1.390504     -0.130197
  H       5.198692      1.214094     -1.464240
  C       3.933468     -4.393398      0.426073
  H       3.990891     -4.891263      1.395784
  H       4.853365     -4.600948     -0.125972
  H       3.097319     -4.804782     -0.135559
  C       2.452156     -2.617556      1.320203
  H       2.422211     -2.448546      2.389327
  C       0.466614     -0.097861     -0.636236
  C       0.915591      0.319262      0.723633
  O       0.143933     -0.140693      1.715964
  C       0.549870      0.226631      3.029338
  H      -0.155169     -0.253520      3.703012
  H       1.564403     -0.119712      3.229354
  H       0.516908      1.309294      3.152537
  O       1.883201      1.013065      0.924227
  C      -0.527490     -0.966431     -0.782493
  H      -1.042150     -1.387363      0.070398
  H      -0.839390     -1.287904     -1.768714
  C       1.230991      0.502733     -1.774908
  H       2.267769      0.163659     -1.761870
  H       1.242437      1.591600     -1.702545
  H       0.787964      0.210840     -2.725773
  H       1.524175     -2.743264      0.779284
  O       4.271482     -1.060874     -0.990953
44
Coordinates from ORCA-job orca E -887.609570502212
  O       2.956275     -2.686993     -1.615736
  C       3.644147     -2.218647     -0.750615
  C       3.756696     -2.879176      0.634178
  C       4.916751     -2.311530      1.454141
  H       4.810643     -2.637320      2.491963
  H       5.861237     -2.729154      1.089444
  C       4.958153     -0.799343      1.345776
  H       5.762814     -0.389173      1.958475
  H       4.019319     -0.354303      1.690768
  C       5.201142     -0.411249     -0.096171
  H       6.198067     -0.760499     -0.395177
  C       5.078712      1.073455     -0.387026
  C       6.096657      1.928396      0.359291
  H       5.919141      1.860110      1.436337
  H       7.106267      1.537902      0.187218
  C       6.037411      3.390536     -0.063804
  H       6.749466      3.997257      0.498161
  H       5.040175      3.803454      0.104156
  H       6.266142      3.502436     -1.126150
  H       4.062753      1.389833     -0.134618
  H       5.202139      1.213065     -1.465157
  C       3.936533     -4.394282      0.424387
  H       3.993446     -4.892475      1.393936
  H       4.857682     -4.599792     -0.126342
  H       3.102185     -4.807066     -0.138891
  C       2.449169     -2.620999      1.314022
  H       2.415342     -2.445617      2.382021
  C       0.467623     -0.097240     -0.633464
  C       0.916787      0.321324      0.725873
  O       0.147090     -0.139999      1.719099
  C       0.553951      0.227729      3.031945
  H      -0.148962     -0.254243      3.706517
  H       1.569557     -0.116684      3.229841
  H       0.519165      1.310215      3.156238
  O       1.882969      1.017383      0.925287
  C      -0.527015     -0.965258     -0.778842
  H      -1.042190     -1.384028      0.074823
  H      -0.839796     -1.287320     -1.764569
  C       1.232263      0.502187     -1.772534
  H       2.269340      0.163877     -1.759869
  H       1.243055      1.591154     -1.701715
  H       0.789491      0.209219     -2.723202
  H       1.523417     -2.749208      0.769930
  O       4.272942     -1.062143     -0.992663
44
Coordinates from ORCA-job orca E -887.609565923879
  O       2.957993     -2.688053     -1.616341
  C       3.645038     -2.219094     -0.750876
  C       3.756924     -2.879599      0.634083
  C       4.915200     -2.310539      1.455586
  H       4.807544     -2.635472      2.493519
  H       5.860581     -2.727901      1.092931
  C       4.956033     -0.798394      1.346258
  H       5.759631     -0.387248      1.959705
  H       4.016626     -0.353460      1.689767
  C       5.200597     -0.411133     -0.095601
  H       6.197874     -0.760443     -0.393324
  C       5.078479      1.073426     -0.387334
  C       6.096234      1.928491      0.359062
  H       5.917346      1.862140      1.436012
  H       7.105666      1.536478      0.189318
  C       6.039363      3.389958     -0.066406
  H       6.751247      3.996866      0.495576
  H       5.042458      3.804631      0.099192
  H       6.269891      3.499993     -1.128570
  H       4.062432      1.390095     -0.135769
  H       5.202660      1.212437     -1.465421
  C       3.938913     -4.394420      0.424063
  H       3.995545     -4.892989      1.393432
  H       4.860865     -4.598515     -0.125791
  H       3.105407     -4.807780     -0.140020
  C       2.448185     -2.623215      1.312327
  H       2.412544     -2.447820      2.380122
  C       0.467035     -0.096037     -0.632648
  C       0.916059      0.322299      0.726914
  O       0.147150     -0.140711      1.719915
  C       0.554599      0.225444      3.032998
  H      -0.147932     -0.257305      3.707395
  H       1.570347     -0.119321      3.229701
  H       0.520321      1.307767      3.158810
  O       1.881560      1.019210      0.926410
  C      -0.527961     -0.963447     -0.778358
  H      -1.044174     -1.381530      0.075019
  H      -0.841008     -1.285010     -1.764166
  C       1.232228      0.502952     -1.771604
  H       2.269377      0.164836     -1.758940
  H       1.242883      1.591956     -1.701250
  H       0.789741      0.209576     -2.722299
  H       1.523387     -2.750940      0.766480
  O       4.273260     -1.062384     -0.992600
44
Coordinates from ORCA-job orca E -887.609573005615
  O       2.963529     -2.690629     -1.620039
  C       3.647937     -2.220405     -0.753074
  C       3.757155     -2.880478      0.632389
  C       4.911780     -2.309138      1.457442
  H       4.800732     -2.632784      2.495420
  H       5.858969     -2.725937      1.098893
  C       4.951644     -0.797063      1.346751
  H       5.752883     -0.384129      1.962058
  H       4.010946     -0.352418      1.687052
  C       5.199912     -0.411041     -0.094740
  H       6.198108     -0.760119     -0.389642
  C       5.078188      1.073257     -0.388049
  C       6.094418      1.928844      0.359698
  H       5.911651      1.865900      1.436233
  H       7.103782      1.534282      0.195327
  C       6.042025      3.389094     -0.069934
  H       6.753700      3.996244      0.492110
  H       5.045782      3.807040      0.091396
  H       6.275964      3.495846     -1.131720
  H       4.061412      1.389809     -0.139406
  H       5.204858      1.211202     -1.465960
  C       3.942255     -4.395020      0.423197
  H       3.996319     -4.893456      1.392802
  H       4.866499     -4.597663     -0.123267
  H       3.110835     -4.809290     -0.143245
  C       2.445687     -2.626095      1.306241
  H       2.406164     -2.446993      2.373249
  C       0.466829     -0.094589     -0.630188
  C       0.915890      0.324377      0.729412
  O       0.148982     -0.141551      1.722402
  C       0.557279      0.223279      3.035566
  H      -0.143555     -0.261780      3.710042
  H       1.573945     -0.119867      3.230498
  H       0.521689      1.305347      3.163109
  O       1.879838      1.023405      0.928599
  C      -0.528744     -0.961273     -0.775557
  H      -1.046283     -1.378147      0.077607
  H      -0.842309     -1.282682     -1.761264
  C       1.232139      0.503043     -1.769798
  H       2.269513      0.165686     -1.756977
  H       1.242151      1.592169     -1.701051
  H       0.789891      0.207825     -2.720018
  H       1.523081     -2.755438      0.757007
  O       4.274679     -1.062870     -0.993293
44
Coordinates from ORCA-job orca E -887.609571955026
  O       2.965526     -2.691644     -1.620685
  C       3.649057     -2.220932     -0.753251
  C       3.757523     -2.880667      0.632357
  C       4.910912     -2.308445      1.458604
  H       4.798725     -2.631700      2.496586
  H       5.858762     -2.724923      1.101409
  C       4.950254     -0.796398      1.347287
  H       5.750650     -0.382584      1.963116
  H       4.009002     -0.351912      1.686262
  C       5.199727     -0.410944     -0.094146
  H       6.198190     -0.759987     -0.388192
  C       5.078165      1.073238     -0.388226
  C       6.094560      1.928954      0.359084
  H       5.911501      1.866919      1.435634
  H       7.103695      1.533613      0.195256
  C       6.043065      3.388894     -0.071512
  H       6.755952      3.995796      0.489282
  H       5.047442      3.808029      0.090548
  H       6.276144      3.494721     -1.133594
  H       4.061274      1.389847     -0.140157
  H       5.204850      1.210419     -1.466234
  C       3.943760     -4.395190      0.423874
  H       3.996434     -4.893152      1.393809
  H       4.869106     -4.597504     -0.120816
  H       3.113366     -4.810088     -0.143613
  C       2.445172     -2.626980      1.304849
  H       2.404201     -2.449085      2.371952
  C       0.466218     -0.093201     -0.629923
  C       0.915325      0.325225      0.729875
  O       0.149118     -0.142348      1.722632
  C       0.558199      0.220552      3.036143
  H      -0.142437     -0.265234      3.710304
  H       1.574855     -0.123173      3.230245
  H       0.523012      1.302474      3.165025
  O       1.878806      1.024817      0.929415
  C      -0.530225     -0.958864     -0.775474
  H      -1.048636     -1.375490      0.077288
  H      -0.843799     -1.279814     -1.761352
  C       1.231792      0.503755     -1.769707
  H       2.269201      0.166491     -1.756576
  H       1.241779      1.592926     -1.701554
  H       0.789625      0.207903     -2.719769
  H       1.523302     -2.755570      0.754259
  O       4.275002     -1.062952     -0.993037
44
Coordinates from ORCA-job orca E -887.609580673543
  O       2.969064     -2.693738     -1.622386
  C       3.650852     -2.222145     -0.754041
  C       3.757748     -2.881051      0.631938
  C       4.909114     -2.307429      1.460117
  H       4.795095     -2.630217      2.498053
  H       5.857980     -2.723324      1.104961
  C       4.947566     -0.795458      1.347834
  H       5.746579     -0.380427      1.964655
  H       4.005377     -0.351191      1.684447
  C       5.199301     -0.410935     -0.093478
  H       6.198176     -0.760131     -0.385946
  C       5.078218      1.073063     -0.388823
  C       6.094147      1.929118      0.358690
  H       5.909858      1.868008      1.435087
  H       7.103181      1.533119      0.195954
  C       6.043602      3.388781     -0.072949
  H       6.757747      3.995293      0.486683
  H       5.048576      3.809006      0.089889
  H       6.275936      3.493611     -1.135305
  H       4.060905      1.389636     -0.142364
  H       5.205692      1.209104     -1.466910
  C       3.945730     -4.395589      0.424976
  H       3.995847     -4.892528      1.395586
  H       4.872973     -4.597561     -0.116612
  H       3.117342     -4.811755     -0.144524
  C       2.443865     -2.628110      1.301817
  H       2.400522     -2.450553      2.368915
  C       0.465903     -0.091410     -0.629297
  C       0.915484      0.326427      0.730488
  O       0.150937     -0.143699      1.723346
  C       0.561246      0.217354      3.037058
  H      -0.138663     -0.269634      3.711108
  H       1.578125     -0.126470      3.230006
  H       0.525727      1.299102      3.167241
  O       1.877988      1.027364      0.930199
  C      -0.532319     -0.955183     -0.774646
  H      -1.051671     -1.371318      0.077767
  H      -0.846125     -1.275630     -1.760654
  C       1.231647      0.504244     -1.769684
  H       2.269143      0.167262     -1.755848
  H       1.241445      1.593507     -1.702821
  H       0.789549      0.207036     -2.719337
  H       1.523210     -2.756502      0.749186
  O       4.275533     -1.063263     -0.993095
44
Coordinates from ORCA-job orca E -887.609574805296
  O       2.973560     -2.696345     -1.624948
  C       3.653223     -2.223787     -0.755495
  C       3.758116     -2.881665      0.631101
  C       4.908008     -2.307148      1.460801
  H       4.792535     -2.629670      2.498662
  H       5.857559     -2.722717      1.107110
  C       4.945924     -0.795209      1.347812
  H       5.743858     -0.379433      1.965539
  H       4.002960     -0.351065      1.682490
  C       5.199554     -0.411335     -0.093366
  H       6.198791     -0.760695     -0.384475
  C       5.078721      1.072527     -0.389553
  C       6.093367      1.929199      0.358942
  H       5.907626      1.868175      1.435091
  H       7.102716      1.533616      0.197239
  C       6.042600      3.388815     -0.072996
  H       6.756508      3.995422      0.486832
  H       5.047389      3.808673      0.089589
  H       6.275341      3.493460     -1.135275
  H       4.060885      1.388813     -0.144714
  H       5.207469      1.207857     -1.467589
  C       3.946713     -4.396379      0.425923
  H       3.994539     -4.892280      1.397183
  H       4.875310     -4.598764     -0.113210
  H       3.119899     -4.813390     -0.145241
  C       2.443048     -2.628300      1.298503
  H       2.397825     -2.449811      2.365444
  C       0.465598     -0.090191     -0.628524
  C       0.915859      0.327645      0.730943
  O       0.152739     -0.143828      1.724332
  C       0.563870      0.216794      3.037911
  H      -0.135098     -0.271254      3.712191
  H       1.581125     -0.126430      3.229907
  H       0.527365      1.298441      3.168630
  O       1.877634      1.029738      0.930354
  C      -0.533865     -0.952750     -0.773340
  H      -1.053374     -1.368407      0.079195
  H      -0.848064     -1.273066     -1.759275
  C       1.231268      0.504428     -1.769490
  H       2.268819      0.167623     -1.755087
  H       1.240913      1.593766     -1.703727
  H       0.789181      0.206106     -2.718793
  H       1.523368     -2.757431      0.744452
  O       4.276768     -1.063959     -0.993796
