44
Coordinates from ORCA-job orca E -887.609574805296
  O           2.97356049420437     -2.69634482122904     -1.62494796856565
  C           3.65322285524522     -2.22378710641525     -0.75549539234030
  C           3.75811635417312     -2.88166452309714      0.63110123097938
  C           4.90800780657970     -2.30714760832321      1.46080107151228
  H           4.79253450127281     -2.62966956745703      2.49866189188000
  H           5.85755888410391     -2.72271711771042      1.10710972966890
  C           4.94592447255492     -0.79520889986587      1.34781195231287
  H           5.74385798518842     -0.37943321340379      1.96553896631362
  H           4.00296031021541     -0.35106461743250      1.68249046958485
  C           5.19955441464146     -0.41133482008841     -0.09336616053779
  H           6.19879124514958     -0.76069525880019     -0.38447544605524
  C           5.07872110852370      1.07252721368756     -0.38955272498853
  C           6.09336695072030      1.92919911250607      0.35894166072102
  H           5.90762563678163      1.86817491722702      1.43509121980488
  H           7.10271608710807      1.53361593237102      0.19723923109690
  C           6.04260024700494      3.38881474071122     -0.07299590291462
  H           6.75650786932744      3.99542151043150      0.48683212754457
  H           5.04738883495616      3.80867314982691      0.08958854361633
  H           6.27534067677957      3.49346039044060     -1.13527544222841
  H           4.06088532722216      1.38881301167152     -0.14471420425149
  H           5.20746926631154      1.20785676622986     -1.46758912054469
  C           3.94671301698787     -4.39637912427578      0.42592256501003
  H           3.99453868319201     -4.89228020128497      1.39718343667510
  H           4.87531004065409     -4.59876412482646     -0.11320974087677
  H           3.11989881836900     -4.81338987494163     -0.14524058955209
  C           2.44304842925038     -2.62830003368429      1.29850258107850
  H           2.39782465390238     -2.44981112854541      2.36544356281506
  C           0.46559801454781     -0.09019132665832     -0.62852406573997
  C           0.91585936728351      0.32764508557006      0.73094260066655
  O           0.15273856904314     -0.14382834790752      1.72433158405014
  C           0.56386971970658      0.21679447330671      3.03791090750484
  H          -0.13509849954482     -0.27125392358247      3.71219063887077
  H           1.58112450529595     -0.12642956778156      3.22990690493769
  H           0.52736525170368      1.29844095602779      3.16863039078171
  O           1.87763439060971      1.02973808734373      0.93035402517885
  C          -0.53386464926870     -0.95274978228527     -0.77333998016532
  H          -1.05337432476858     -1.36840731899700      0.07919539847878
  H          -0.84806398652044     -1.27306616447326     -1.75927547023999
  C           1.23126763931741      0.50442792711565     -1.76949046432890
  H           2.26881903776178      0.16762336914086     -1.75508693424564
  H           1.24091254437420      1.59376558125113     -1.70372715773462
  H           0.78918127575101      0.20610623649353     -2.71879253897838
  H           1.52336775887884     -2.75743070007080      0.74445242668886
  O           4.27676841540544     -1.06395928821480     -0.99379581348463
