64
Coordinates from ORCA-job orca E -1423.268030150589
  C       1.740630      0.738800     -1.057330
  H       1.847480      1.697020     -0.529720
  H       2.694580      0.492170     -1.541730
  C       1.315710     -0.352780     -0.074390
  C       2.357670     -0.552600      1.064190
  H       2.015620     -1.396320      1.683450
  H       2.307600      0.342150      1.701920
  C       3.849560     -0.802670      0.743890
  C       1.139180     -1.660910     -0.846030
  O       1.313350     -1.805550     -2.028060
  O       0.757170     -2.668640     -0.049310
  C       4.521380      0.432760      0.146230
  O       5.268080      0.432000     -0.797190
  O       4.228810      1.546900      0.832340
  C       4.079800     -1.992990     -0.189650
  H       5.152530     -2.215720     -0.271630
  H       3.568240     -2.882170      0.208690
  H       3.710770     -1.801270     -1.204840
  C       4.561810     -1.067160      2.088150
  H       4.178730     -1.996710      2.535910
  H       5.646180     -1.183590      1.940220
  H       4.395000     -0.244770      2.798310
  C       0.554310     -3.920450     -0.681060
  H       0.256650     -4.619500      0.108490
  H      -0.235060     -3.846950     -1.443410
  H       1.477640     -4.265480     -1.168490
  C       4.809900      2.747350      0.355060
  H       4.467250      2.963590     -0.667770
  H       4.484920      3.540060      1.038300
  H       5.906970      2.677710      0.346330
  H       1.010220      0.854460     -1.867100
  C      -0.000030     -0.000230      0.676350
  C      -1.315740      0.352670     -0.074290
  H       0.232960      0.849310      1.335610
  H      -0.233040     -0.850040      1.335250
  C      -2.357690      0.552220      1.064350
  C      -1.139080      1.661030     -0.845510
  C      -1.740740     -0.738550     -1.057590
  C      -3.849560      0.802530      0.744120
  H      -2.307700     -0.342750      1.701790
  H      -2.015560      1.395700      1.683880
  O      -1.313130      1.806040     -2.027510
  O      -0.756890      2.668440     -0.048470
  H      -1.010360     -0.853990     -1.867410
  H      -1.847650     -1.696950     -0.530300
  H      -2.694680     -0.491700     -1.541900
  C      -4.079670      1.993140     -0.189090
  C      -4.521520     -0.432660      0.146130
  C      -0.553790      3.920410     -0.679840
  H      -3.568010      2.882150      0.209490
  H      -3.710670      1.801640     -1.204330
  H      -5.152380      2.216010     -0.271000
  O      -5.268230     -0.431560     -0.797270
  O      -4.229140     -1.547010      0.831990
  H      -1.477060      4.265760     -1.167170
  H      -0.256010      4.619160      0.109920
  H       0.235560      3.847000     -1.442210
  C      -4.810410     -2.747250      0.354420
  H      -4.485570     -3.540170      1.037490
  H      -5.907470     -2.677440      0.345680
  H      -4.467770     -2.963310     -0.668450
  C      -4.561770      1.066730      2.088460
  H      -4.178580      1.996120      2.536480
  H      -5.646120      1.183320      1.940570
64
Coordinates from ORCA-job orca E -1423.276024942656
  C       1.750295      0.716285     -1.090504
  H       1.861606      1.670099     -0.571730
  H       2.696076      0.463253     -1.568609
  C       1.317072     -0.364783     -0.103677
  C       2.351298     -0.559275      1.041224
  H       2.012230     -1.399436      1.653110
  H       2.285594      0.327862      1.674536
  C       3.850412     -0.791749      0.746630
  C       1.131473     -1.676213     -0.866289
  O       1.302882     -1.828404     -2.046044
  O       0.731022     -2.673528     -0.064382
  C       4.526844      0.451649      0.174360
  O       5.296910      0.460844     -0.748304
  O       4.216321      1.558478      0.865552
  C       4.116222     -1.972756     -0.184250
  H       5.184848     -2.180355     -0.239960
  H       3.611015     -2.863567      0.196539
  H       3.773225     -1.783279     -1.199993
  C       4.533694     -1.059687      2.100916
  H       4.153517     -1.990932      2.526321
  H       5.614081     -1.161862      1.977235
  H       4.342057     -0.253340      2.810324
  C       0.506254     -3.924428     -0.697972
  H       0.197893     -4.610754      0.087107
  H      -0.275652     -3.837048     -1.454535
  H       1.416822     -4.283730     -1.179882
  C       4.810525      2.764058      0.408085
  H       4.492582      2.985962     -0.612495
  H       4.472306      3.544413      1.085837
  H       5.898762      2.693625      0.424346
  H       1.028016      0.832090     -1.896493
  C       0.004632      0.001334      0.643081
  C      -1.308382      0.364044     -0.104259
  H       0.243857      0.843379      1.296638
  H      -0.234904     -0.839080      1.298551
  C      -2.343257      0.559023      1.040126
  C      -1.126598      1.673925     -0.870540
  C      -1.738733     -0.720414     -1.088712
  C      -3.842262      0.794806      0.740016
  H      -2.280839     -0.325873      1.675703
  H      -2.005954      1.401175      1.649945
  O      -1.305878      1.824159     -2.049475
  O      -0.729673      2.675301     -0.071847
  H      -1.015168     -0.837207     -1.893382
  H      -1.849063     -1.672930     -0.567518
  H      -2.684220     -0.470381     -1.569090
  C      -4.107336      1.980556     -0.188387
  C      -4.528808     -0.444062      0.168670
  C      -0.513156      3.925905     -0.709088
  H      -3.599443      2.870314      0.190647
  H      -3.761834      1.784258     -1.202386
  H      -5.175387      2.190717     -0.248507
  O      -5.297891     -0.447154     -0.754924
  O      -4.224100     -1.550485      0.860559
  H      -1.426888      4.279484     -1.189321
  H      -0.206080      4.615738      0.073409
  H       0.266829      3.840789     -1.467762
  C      -4.824133     -2.753641      0.404690
  H      -4.490330     -3.534102      1.084328
  H      -5.911984     -2.677658      0.420226
  H      -4.506317     -2.979221     -0.615261
  C      -4.530379      1.084319      2.070491
  H      -4.134777      1.958415      2.593390
  H      -5.622568      1.085584      2.036396
64
Coordinates from ORCA-job orca E -1423.278542152602
  C       1.739817      0.720770     -1.056355
  H       1.847623      1.674511     -0.541186
  H       2.686348      0.469111     -1.529342
  C       1.307305     -0.356563     -0.067218
  C       2.346033     -0.545425      1.069484
  H       2.009925     -1.376398      1.691237
  H       2.299265      0.346288      1.693810
  C       3.830675     -0.802129      0.744419
  C       1.134151     -1.672586     -0.823547
  O       1.331795     -1.832658     -1.997127
  O       0.772101     -2.677340     -0.010840
  C       4.509943      0.424144      0.141370
  O       5.248599      0.412025     -0.805690
  O       4.214722      1.547727      0.813771
  C       4.045699     -1.995190     -0.182419
  H       5.105940     -2.219581     -0.273728
  H       3.542559     -2.872237      0.226034
  H       3.667649     -1.811954     -1.185315
  C       4.544250     -1.069581      2.082329
  H       4.162750     -1.991189      2.521073
  H       5.617173     -1.186931      1.931898
  H       4.381302     -0.258918      2.790175
  C       0.587525     -3.940658     -0.641430
  H       0.306919     -4.630362      0.147856
  H      -0.199126     -3.880690     -1.391884
  H       1.506318     -4.268734     -1.123470
  C       4.807800      2.740926      0.312397
  H       4.471618      2.936488     -0.704701
  H       4.484666      3.535876      0.976642
  H       5.892888      2.663749      0.312653
  H       1.020756      0.833429     -1.862955
  C      -0.005175      0.009018      0.678657
  C      -1.316040      0.373315     -0.070605
  H       0.233661      0.849086      1.330500
  H      -0.245965     -0.829593      1.331553
  C      -2.354068      0.569096      1.065125
  C      -1.139638      1.684659     -0.834179
  C      -1.753938     -0.708163     -1.053008
  C      -3.840832      0.810133      0.731412
  H      -2.306896     -0.314837      1.698729
  H      -2.025840      1.408808      1.678658
  O      -1.333325      1.838124     -2.009388
  O      -0.753874      2.688611     -0.031313
  H      -1.036618     -0.828469     -1.859791
  H      -1.864886     -1.658214     -0.531867
  H      -2.700425     -0.456009     -1.526266
  C      -4.072586      2.007304     -0.198737
  C      -4.516070     -0.421072      0.130861
  C      -0.550222      3.943569     -0.672847
  H      -3.576366      2.890570      0.202454
  H      -3.691437      1.813222     -1.199750
  H      -5.134264      2.219673     -0.295384
  O      -5.256611     -0.411495     -0.814521
  O      -4.203921     -1.538460      0.800314
  H      -1.466220      4.285613     -1.150588
  H      -0.250562      4.633709      0.109013
  H       0.229110      3.863178     -1.428826
  C      -4.783833     -2.739512      0.302252
  H      -4.448270     -3.528942      0.966693
  H      -5.869772     -2.675985      0.306721
  H      -4.448432     -2.932378     -0.715750
  C      -4.557258      1.099054      2.023228
  H      -4.151787      1.892862      2.641498
  H      -5.637449      1.002112      2.040620
64
Coordinates from ORCA-job orca E -1423.279304686105
  C       1.734274      0.719631     -1.083778
  H       1.848465      1.673413     -0.568492
  H       2.674815      0.469261     -1.570288
  C       1.315089     -0.358555     -0.089833
  C       2.358932     -0.542296      1.045960
  H       2.036524     -1.385367      1.659619
  H       2.292311      0.342191      1.679784
  C       3.853185     -0.766742      0.732244
  C       1.132661     -1.675043     -0.843797
  O       1.277942     -1.825303     -2.025914
  O       0.697874     -2.659591     -0.040349
  C       4.521232      0.480340      0.160342
  O       5.290527      0.491483     -0.761783
  O       4.237465      1.579383      0.878161
  C       4.108765     -1.942710     -0.206392
  H       5.176077     -2.142336     -0.282585
  H       3.619851     -2.836307      0.184700
  H       3.743191     -1.755990     -1.213385
  C       4.553244     -1.040218      2.076610
  H       4.185181     -1.978334      2.493384
  H       5.631323     -1.131313      1.939922
  H       4.361266     -0.245273      2.796289
  C       0.440719     -3.905359     -0.687842
  H       0.103026     -4.579885      0.093307
  H      -0.328789     -3.784788     -1.449044
  H       1.345575     -4.287358     -1.157359
  C       4.863230      2.781526      0.431044
  H       4.544056      3.021728     -0.582266
  H       4.544306      3.554166      1.124352
  H       5.946627      2.679403      0.445168
  H       1.003167      0.834262     -1.880881
  C       0.005363      0.003812      0.659734
  C      -1.301612      0.361638     -0.096482
  H       0.241928      0.846559      1.310055
  H      -0.234402     -0.835762      1.313008
  C      -2.348185      0.551203      1.035671
  C      -1.121145      1.674604     -0.856415
  C      -1.714684     -0.722332     -1.086861
  C      -3.839306      0.778787      0.705369
  H      -2.294548     -0.327968      1.676510
  H      -2.030581      1.398100      1.645696
  O      -1.281844      1.823177     -2.036770
  O      -0.714217      2.670999     -0.052925
  H      -0.980445     -0.838325     -1.880733
  H      -1.827855     -1.673993     -0.567630
  H      -2.653846     -0.477022     -1.578624
  C      -4.080356      1.960513     -0.253324
  C      -4.521228     -0.465343      0.136091
  C      -0.479816      3.920031     -0.702950
  H      -3.583964      2.852558      0.128241
  H      -3.704413      1.745204     -1.253283
  H      -5.143622      2.166965     -0.346227
  O      -5.293541     -0.466640     -0.782918
  O      -4.258398     -1.554750      0.868886
  H      -1.389491      4.281233     -1.179543
  H      -0.161620      4.604181      0.077997
  H       0.296732      3.813431     -1.459028
  C      -4.902851     -2.753840      0.439543
  H      -4.599625     -3.519017      1.147830
  H      -5.984344     -2.633067      0.447985
  H      -4.583411     -3.016975     -0.568040
  C      -4.539087      1.091644      1.982727
  H      -4.096208      1.812573      2.653135
  H      -5.596307      0.898313      2.079784
64
Coordinates from ORCA-job orca E -1423.280060444946
  C       1.740646      0.683737     -1.115516
  H       1.867059      1.641519     -0.607601
  H       2.679923      0.415753     -1.597628
  C       1.303034     -0.380180     -0.112973
  C       2.339262     -0.564714      1.032641
  H       2.006967     -1.404905      1.647913
  H       2.266359      0.323479      1.663260
  C       3.841110     -0.790361      0.744187
  C       1.104318     -1.701896     -0.855517
  O       1.271700     -1.872022     -2.032533
  O       0.727065     -2.692552     -0.031051
  C       4.519874      0.453877      0.177734
  O       5.301123      0.462093     -0.734851
  O       4.190484      1.563870      0.857971
  C       4.121432     -1.973001     -0.179940
  H       5.192251     -2.170361     -0.228870
  H       3.625149     -2.866388      0.206244
  H       3.781073     -1.794335     -1.197871
  C       4.517942     -1.053059      2.103123
  H       4.145075     -1.991118      2.519636
  H       5.600140     -1.141295      1.986582
  H       4.310022     -0.253015      2.814764
  C       0.516556     -3.958187     -0.655278
  H       0.219668     -4.635173      0.142047
  H      -0.268625     -3.883380     -1.408212
  H       1.432667     -4.307054     -1.132260
  C       4.804929      2.767640      0.401187
  H       4.515668      2.974275     -0.629829
  H       4.444960      3.551301      1.063448
  H       5.890573      2.689411      0.455303
  H       1.013465      0.801854     -1.916796
  C      -0.003906      0.008305      0.632111
  C      -1.309764      0.389439     -0.118590
  H       0.248770      0.849117      1.281403
  H      -0.257924     -0.825697      1.289517
  C      -2.344832      0.587147      1.026489
  C      -1.110672      1.703125     -0.874501
  C      -1.746697     -0.684528     -1.110619
  C      -3.847231      0.815039      0.730916
  H      -2.281263     -0.292259      1.669307
  H      -2.013850      1.434644      1.631353
  O      -1.279695      1.861502     -2.052870
  O      -0.724689      2.699936     -0.061651
  H      -1.017572     -0.811726     -1.908613
  H      -1.875583     -1.636657     -0.593038
  H      -2.683764     -0.420385     -1.599038
  C      -4.116716      2.001794     -0.215512
  C      -4.534413     -0.429032      0.164990
  C      -0.506248      3.956928     -0.700608
  H      -3.614907      2.894217      0.162396
  H      -3.766404      1.797300     -1.227054
  H      -5.184934      2.203064     -0.276997
  O      -5.315502     -0.431295     -0.747130
  O      -4.194637     -1.536504      0.837130
  H      -1.421218      4.308346     -1.177896
  H      -0.200452      4.640142      0.087959
  H       0.275094      3.866991     -1.455898
  C      -4.804022     -2.743510      0.380939
  H      -4.436486     -3.525416      1.040934
  H      -5.889782     -2.671463      0.440356
  H      -4.517531     -2.946930     -0.651506
  C      -4.522149      1.106143      2.034473
  H      -4.051542      1.794177      2.724836
  H      -5.576169      0.896745      2.160511
64
Coordinates from ORCA-job orca E -1423.280369842021
  C       1.747700      0.704995     -1.085988
  H       1.857466      1.664693     -0.577826
  H       2.696486      0.446628     -1.555162
  C       1.309603     -0.362641     -0.087620
  C       2.344478     -0.542382      1.057078
  H       2.008089     -1.373820      1.681787
  H       2.286202      0.353079      1.678576
  C       3.836916     -0.790626      0.750971
  C       1.132622     -1.686227     -0.831656
  O       1.319682     -1.856187     -2.006007
  O       0.732844     -2.674657     -0.015832
  C       4.518242      0.436850      0.151750
  O       5.280400      0.422515     -0.776974
  O       4.207517      1.562002      0.815045
  C       4.079502     -1.989517     -0.162815
  H       5.146010     -2.200822     -0.237414
  H       3.582363     -2.871036      0.248694
  H       3.712842     -1.820972     -1.174058
  C       4.534749     -1.042863      2.101704
  H       4.157451     -1.969322      2.539392
  H       5.613323     -1.147382      1.967177
  H       4.350858     -0.229386      2.804456
  C       0.528905     -3.939270     -0.641690
  H       0.210732     -4.613444      0.149545
  H      -0.238821     -3.861974     -1.412240
  H       1.453313     -4.294149     -1.097830
  C       4.817468      2.753449      0.324649
  H       4.510237      2.941968     -0.704722
  H       4.473395      3.551464      0.977884
  H       5.903649      2.671809      0.359979
  H       1.029901      0.814161     -1.896382
  C      -0.004042      0.012787      0.653937
  C      -1.313853      0.382470     -0.097404
  H       0.238772      0.855211      1.304885
  H      -0.250339     -0.823960      1.310817
  C      -2.352540      0.573415      1.043023
  C      -1.130212      1.698510     -0.853052
  C      -1.745941     -0.694243     -1.088454
  C      -3.849077      0.810167      0.730353
  H      -2.297092     -0.311724      1.678494
  H      -2.022877      1.415046      1.656808
  O      -1.309258      1.857144     -2.030193
  O      -0.733416      2.694061     -0.044516
  H      -1.022370     -0.811069     -1.892594
  H      -1.859514     -1.648904     -0.572045
  H      -2.691202     -0.440288     -1.567181
  C      -4.091695      2.007907     -0.206142
  C      -4.523398     -0.425466      0.130633
  C      -0.518927      3.950940     -0.682509
  H      -3.598991      2.894034      0.198266
  H      -3.714422      1.817723     -1.210591
  H      -5.158120      2.210877     -0.291929
  O      -5.291450     -0.413365     -0.792715
  O      -4.207364     -1.542138      0.799691
  H      -1.438365      4.305623     -1.148768
  H      -0.202602      4.632036      0.103497
  H       0.253490      3.861182     -1.447035
  C      -4.813086     -2.740259      0.319416
  H      -4.466354     -3.530803      0.980087
  H      -5.899482     -2.661692      0.354183
  H      -4.504558     -2.936551     -0.708132
  C      -4.547137      1.079520      2.034468
  H      -4.075217      1.735991      2.756997
  H      -5.608311      0.883395      2.136646
64
Coordinates from ORCA-job orca E -1423.280472617627
  C       1.730052      0.704371     -1.089784
  H       1.844708      1.663443     -0.582061
  H       2.673693      0.446651     -1.569100
  C       1.302530     -0.364273     -0.088127
  C       2.344081     -0.543518      1.051148
  H       2.014036     -1.378532      1.674208
  H       2.284321      0.349123      1.676137
  C       3.836740     -0.783490      0.739504
  C       1.119920     -1.686703     -0.832256
  O       1.295761     -1.854513     -2.008615
  O       0.734875     -2.678033     -0.013104
  C       4.513130      0.451554      0.150500
  O       5.280535      0.446620     -0.773966
  O       4.218642      1.565494      0.839341
  C       4.082425     -1.973558     -0.184823
  H       5.149388     -2.180767     -0.261717
  H       3.588297     -2.860104      0.219089
  H       3.715133     -1.797241     -1.194333
  C       4.537251     -1.045089      2.087046
  H       4.163988     -1.976492      2.517143
  H       5.615827     -1.144501      1.950202
  H       4.351485     -0.238403      2.796900
  C       0.529644     -3.942913     -0.637852
  H       0.222672     -4.619027      0.155932
  H      -0.246211     -3.868197     -1.400220
  H       1.450590     -4.293540     -1.103806
  C       4.836481      2.761013      0.369370
  H       4.523369      2.974060     -0.653272
  H       4.505311      3.548349      1.041700
  H       5.921879      2.668212      0.394587
  H       1.003377      0.814108     -1.892414
  C      -0.007566      0.008794      0.658169
  C      -1.315941      0.375142     -0.094955
  H       0.235047      0.852445      1.307233
  H      -0.251519     -0.827808      1.315699
  C      -2.356318      0.573316      1.042202
  C      -1.128122      1.686802     -0.856767
  C      -1.744261     -0.706252     -1.082333
  C      -3.850596      0.814826      0.724576
  H      -2.305163     -0.308848      1.681820
  H      -2.025200      1.416820      1.652420
  O      -1.302710      1.839179     -2.035393
  O      -0.735040      2.686539     -0.051801
  H      -1.016763     -0.827119     -1.882603
  H      -1.860025     -1.658246     -0.561982
  H      -2.687184     -0.454392     -1.566533
  C      -4.083719      2.005085     -0.222847
  C      -4.531115     -0.422607      0.135623
  C      -0.516061      3.939823     -0.695182
  H      -3.588272      2.891834      0.176427
  H      -3.703712      1.804626     -1.224189
  H      -5.148670      2.212373     -0.313405
  O      -5.294556     -0.415485     -0.791536
  O      -4.217195     -1.535951      0.811236
  H      -1.432766      4.293078     -1.167461
  H      -0.202806      4.624539      0.088686
  H       0.259783      3.845322     -1.455417
  C      -4.823511     -2.736003      0.336842
  H      -4.477755     -3.523328      1.001595
  H      -5.909691     -2.656366      0.370831
  H      -4.514965     -2.937814     -0.689463
  C      -4.546658      1.097372      2.024396
  H      -4.058834      1.726227      2.758770
  H      -5.606886      0.906483      2.131393
64
Coordinates from ORCA-job orca E -1423.280520226896
  C       1.743346      0.711254     -1.087610
  H       1.863998      1.666304     -0.573897
  H       2.685360      0.450552     -1.568300
  C       1.308979     -0.361023     -0.092892
  C       2.346107     -0.551752      1.049020
  H       2.011500     -1.390703      1.664103
  H       2.284176      0.336032      1.680600
  C       3.841084     -0.790128      0.745489
  C       1.118987     -1.677582     -0.845325
  O       1.288821     -1.837588     -2.023629
  O       0.723760     -2.670651     -0.033514
  C       4.523668      0.449106      0.172913
  O       5.292821      0.452697     -0.750106
  O       4.203479      1.561941      0.851720
  C       4.095283     -1.972653     -0.186145
  H       5.162789     -2.180032     -0.253211
  H       3.596200     -2.862088      0.204852
  H       3.739835     -1.787492     -1.198011
  C       4.531138     -1.063255      2.095936
  H       4.155165     -1.998635      2.514545
  H       5.610738     -1.160704      1.966727
  H       4.339209     -0.263060      2.811340
  C       0.507760     -3.929408     -0.666733
  H       0.189766     -4.606984      0.121367
  H      -0.263269     -3.841889     -1.432436
  H       1.427026     -4.287311     -1.130345
  C       4.813263      2.763477      0.386891
  H       4.517315      2.966649     -0.642692
  H       4.458351      3.549780      1.048128
  H       5.899097      2.686225      0.433480
  H       1.017436      0.830732     -1.889680
  C      -0.000945      0.013451      0.651743
  C      -1.306761      0.378767     -0.105073
  H       0.240926      0.857106      1.300866
  H      -0.246329     -0.822678      1.309162
  C      -2.348640      0.579196      1.030483
  C      -1.115582      1.688403     -0.869576
  C      -1.730130     -0.705458     -1.091443
  C      -3.844851      0.814462      0.715648
  H      -2.293092     -0.298682      1.675470
  H      -2.019712      1.427759      1.634745
  O      -1.284648      1.837359     -2.049451
  O      -0.736107      2.692719     -0.064192
  H      -0.998461     -0.827691     -1.887921
  H      -1.847253     -1.656216     -0.569421
  H      -2.670724     -0.455553     -1.580887
  C      -4.086277      1.993525     -0.242578
  C      -4.527067     -0.430921      0.145475
  C      -0.524758      3.946989     -0.708007
  H      -3.592015      2.885509      0.145968
  H      -3.711234      1.784339     -1.243772
  H      -5.152266      2.196546     -0.328326
  O      -5.299136     -0.434938     -0.774451
  O      -4.217697     -1.533831      0.840058
  H      -1.442895      4.293087     -1.182617
  H      -0.218531      4.634748      0.075891
  H       0.253285      3.857795     -1.466421
  C      -4.834233     -2.738071      0.390531
  H      -4.488899     -3.515942      1.066455
  H      -5.919600     -2.651264      0.430362
  H      -4.534268     -2.959600     -0.634128
  C      -4.531367      1.105741      2.015005
  H      -4.019756      1.689513      2.767684
  H      -5.588977      0.916529      2.133543
64
Coordinates from ORCA-job orca E -1423.280618581613
  C       1.744867      0.711171     -1.093346
  H       1.859107      1.667869     -0.581042
  H       2.691668      0.451416     -1.565303
  C       1.304902     -0.359835     -0.099570
  C       2.337515     -0.548012      1.046463
  H       2.000310     -1.385478      1.662231
  H       2.273586      0.341436      1.675710
  C       3.833275     -0.787740      0.747997
  C       1.121369     -1.678499     -0.850215
  O       1.300962     -1.841646     -2.026713
  O       0.722609     -2.670242     -0.038819
  C       4.517896      0.449660      0.173804
  O       5.292362      0.449644     -0.744812
  O       4.205242      1.562679      0.855515
  C       4.089440     -1.972759     -0.179971
  H       5.157088     -2.181017     -0.243382
  H       3.588465     -2.860950      0.211550
  H       3.737342     -1.789728     -1.193440
  C       4.519606     -1.057164      2.101113
  H       4.142368     -1.991224      2.521731
  H       5.599629     -1.155208      1.975151
  H       4.326028     -0.254560      2.813533
  C       0.514288     -3.931153     -0.669522
  H       0.189423     -4.606787      0.117558
  H      -0.249167     -3.847586     -1.443358
  H       1.438500     -4.289709     -1.123011
  C       4.824805      2.760953      0.396320
  H       4.534252      2.969277     -0.633863
  H       4.473287      3.548239      1.058336
  H       5.910062      2.676272      0.446375
  H       1.025754      0.826789     -1.901867
  C      -0.007302      0.015770      0.642292
  C      -1.315265      0.383351     -0.111596
  H       0.235196      0.858968      1.292068
  H      -0.253181     -0.820010      1.300198
  C      -2.351163      0.586602      1.028764
  C      -1.124724      1.691718     -0.878755
  C      -1.748418     -0.701088     -1.093635
  C      -3.850351      0.817691      0.722968
  H      -2.289848     -0.289587      1.675741
  H      -2.019793      1.437579      1.628338
  O      -1.294009      1.838393     -2.058969
  O      -0.723257      2.692115     -0.079586
  H      -1.023766     -0.825433     -1.895881
  H      -1.863468     -1.651169     -0.569672
  H      -2.692636     -0.449816     -1.575526
  C      -4.104161      1.997862     -0.229641
  C      -4.528718     -0.429735      0.152201
  C      -0.501555      3.942144     -0.727367
  H      -3.613660      2.891611      0.159740
  H      -3.733813      1.794843     -1.233690
  H      -5.172016      2.194663     -0.307965
  O      -5.306970     -0.435061     -0.762543
  O      -4.203356     -1.534665      0.836406
  H      -1.420484      4.301375     -1.190886
  H      -0.175348      4.626509      0.051534
  H       0.265295      3.841091     -1.495738
  C      -4.813552     -2.741052      0.385285
  H      -4.453119     -3.520899      1.051116
  H      -5.899311     -2.665168      0.438426
  H      -4.524125     -2.952512     -0.644610
  C      -4.531196      1.097442      2.028576
  H      -4.002758      1.636614      2.802838
  H      -5.590822      0.918256      2.147829
64
Coordinates from ORCA-job orca E -1423.280677489403
  C       1.747760      0.698757     -1.094430
  H       1.856607      1.658772     -0.587146
  H       2.697546      0.439486     -1.560823
  C       1.307676     -0.368476     -0.096481
  C       2.341009     -0.549066      1.049743
  H       2.006855     -1.384894      1.669485
  H       2.275828      0.343210      1.675022
  C       3.836245     -0.785623      0.747814
  C       1.129414     -1.691216     -0.841253
  O       1.311570     -1.859442     -2.016762
  O       0.730372     -2.679772     -0.026461
  C       4.512313      0.450696      0.161126
  O       5.286092      0.446639     -0.758150
  O       4.208287      1.564919      0.844349
  C       4.091964     -1.975940     -0.173552
  H       5.160039     -2.181207     -0.240873
  H       3.595570     -2.863225      0.225868
  H       3.734388     -1.800461     -1.186598
  C       4.529844     -1.041961      2.099850
  H       4.158512     -1.974102      2.530118
  H       5.609761     -1.136696      1.969682
  H       4.336592     -0.234184      2.806640
  C       0.521812     -3.942863     -0.651004
  H       0.193967     -4.614844      0.138058
  H      -0.239433     -3.862731     -1.427628
  H       1.446539     -4.305474     -1.100676
  C       4.824621      2.761686      0.379316
  H       4.525854      2.970195     -0.648694
  H       4.480021      3.550390      1.043395
  H       5.910445      2.676653      0.419797
  H       1.031820      0.806756     -1.906612
  C      -0.005445      0.008171      0.644594
  C      -1.315575      0.376368     -0.106717
  H       0.237684      0.851588      1.294124
  H      -0.251030     -0.827386      1.303140
  C      -2.349602      0.582106      1.034441
  C      -1.128179      1.684538     -0.874821
  C      -1.754273     -0.707245     -1.087423
  C      -3.845627      0.827299      0.725812
  H      -2.295474     -0.297650      1.677333
  H      -2.011740      1.428178      1.637537
  O      -1.310866      1.833073     -2.052947
  O      -0.742639      2.689615     -0.074211
  H      -1.034172     -0.830617     -1.893752
  H      -1.866852     -1.657793     -0.563690
  H      -2.701166     -0.455199     -1.563765
  C      -4.084977      2.015240     -0.218910
  C      -4.528328     -0.411692      0.140532
  C      -0.534882      3.942658     -0.719148
  H      -3.592453      2.903290      0.181340
  H      -3.708166      1.818199     -1.221851
  H      -5.151184      2.219462     -0.303469
  O      -5.302661     -0.404955     -0.777646
  O      -4.208127     -1.525690      0.812827
  H      -1.456955      4.291574     -1.184748
  H      -0.219208      4.630524      0.061099
  H       0.235123      3.853040     -1.486073
  C      -4.818821     -2.724976      0.346457
  H      -4.460705     -3.514039      1.002740
  H      -5.904821     -2.649023      0.398848
  H      -4.529045     -2.924930     -0.685835
  C      -4.533976      1.097330      2.033319
  H      -3.985806      1.548404      2.850687
  H      -5.604760      0.969065      2.130470
64
Coordinates from ORCA-job orca E -1423.280780838193
  C       1.739252      0.717983     -1.086573
  H       1.849293      1.676342     -0.576505
  H       2.687081      0.461050     -1.557953
  C       1.304042     -0.353229     -0.090712
  C       2.339786     -0.538072      1.053035
  H       2.001791     -1.371378      1.674057
  H       2.282748      0.354813      1.678152
  C       3.831777     -0.787325      0.746246
  C       1.125678     -1.673036     -0.840321
  O       1.307629     -1.836643     -2.016531
  O       0.745037     -2.669024     -0.025879
  C       4.519367      0.444334      0.162932
  O       5.287447      0.436730     -0.761129
  O       4.221463      1.560547      0.845447
  C       4.071693     -1.976435     -0.180902
  H       5.137185     -2.193154     -0.252628
  H       3.566732     -2.859940      0.216116
  H       3.712650     -1.792625     -1.192066
  C       4.526595     -1.057052      2.094972
  H       4.146893     -1.987099      2.522385
  H       5.605040     -1.162513      1.961153
  H       4.344012     -0.250440      2.805803
  C       0.543868     -3.931645     -0.652802
  H       0.228838     -4.609878      0.136090
  H      -0.224096     -3.856877     -1.423346
  H       1.468275     -4.284152     -1.111150
  C       4.843767      2.753597      0.380247
  H       4.548547      2.962610     -0.648700
  H       4.501760      3.545078      1.042312
  H       5.929201      2.664233      0.422810
  H       1.019615      0.827804     -1.895383
  C      -0.009321      0.018598      0.651370
  C      -1.319900      0.379349     -0.101753
  H       0.230227      0.863996      1.299639
  H      -0.251280     -0.817425      1.310637
  C      -2.358196      0.583304      1.036078
  C      -1.136513      1.686387     -0.872480
  C      -1.748548     -0.708171     -1.082644
  C      -3.853088      0.824565      0.721425
  H      -2.303672     -0.295291      1.680454
  H      -2.024681      1.431669      1.638317
  O      -1.309903      1.829282     -2.052745
  O      -0.740237      2.690883     -0.076618
  H      -1.023696     -0.828510     -1.885345
  H      -1.858542     -1.658466     -0.558132
  H      -2.694186     -0.461509     -1.564094
  C      -4.090857      2.005196     -0.231578
  C      -4.533053     -0.419461      0.142030
  C      -0.522484      3.939508     -0.725876
  H      -3.601853      2.897043      0.164449
  H      -3.709821      1.802254     -1.231813
  H      -5.157039      2.207286     -0.321810
  O      -5.305086     -0.419563     -0.778125
  O      -4.213194     -1.529081      0.821999
  H      -1.442800      4.296848     -1.188628
  H      -0.196414      4.626787      0.050560
  H       0.243023      3.840463     -1.496122
  C      -4.820019     -2.731795      0.361208
  H      -4.461374     -3.516972      1.021822
  H      -5.906371     -2.658745      0.411395
  H      -4.528784     -2.937123     -0.669673
  C      -4.549482      1.100085      2.025056
  H      -3.993502      1.479089      2.873541
  H      -5.627141      1.019425      2.101694
64
Coordinates from ORCA-job orca E -1423.281015944186
  C       1.741398      0.734130     -1.080502
  H       1.852762      1.688322     -0.563091
  H       2.688711      0.479392     -1.553942
  C       1.304522     -0.344220     -0.093086
  C       2.337808     -0.538587      1.051657
  H       1.996073     -1.374736      1.666574
  H       2.281091      0.350374      1.682224
  C       3.830463     -0.789664      0.748493
  C       1.124678     -1.657885     -0.853020
  O       1.302682     -1.811267     -2.031135
  O       0.739094     -2.659161     -0.047384
  C       4.525318      0.444301      0.178820
  O       5.295923      0.441858     -0.743130
  O       4.220589      1.557798      0.862715
  C       4.071775     -1.971835     -0.187088
  H       5.136850     -2.191640     -0.254320
  H       3.561536     -2.856805      0.199369
  H       3.719536     -1.778275     -1.198740
  C       4.518580     -1.072664      2.097749
  H       4.134910     -2.005351      2.515520
  H       5.597255     -1.179555      1.967759
  H       4.334761     -0.271888      2.814688
  C       0.536086     -3.915984     -0.684689
  H       0.210554     -4.598372      0.096235
  H      -0.224378     -3.832182     -1.461506
  H       1.462075     -4.271060     -1.137745
  C       4.849407      2.751886      0.410068
  H       4.571793      2.963371     -0.623119
  H       4.496652      3.542242      1.067734
  H       5.934079      2.663579      0.470029
  H       1.021709      0.850866     -1.888466
  C      -0.009560      0.024105      0.648564
  C      -1.319696      0.381188     -0.105902
  H       0.227790      0.870017      1.296802
  H      -0.250231     -0.812495      1.307538
  C      -2.356930      0.593345      1.031363
  C      -1.134554      1.682569     -0.885912
  C      -1.748233     -0.713315     -1.079164
  C      -3.852123      0.826978      0.717680
  H      -2.298558     -0.278837      1.684074
  H      -2.025105      1.449199      1.623732
  O      -1.300876      1.815364     -2.068331
  O      -0.734236      2.691451     -0.097830
  H      -1.022997     -0.838715     -1.880787
  H      -1.858470     -1.659875     -0.548130
  H      -2.693553     -0.469776     -1.562761
  C      -4.100618      1.992873     -0.249563
  C      -4.534129     -0.427037      0.159503
  C      -0.513786      3.934627     -0.756005
  H      -3.612885      2.892249      0.130044
  H      -3.726310      1.777126     -1.249603
  H      -5.167863      2.190600     -0.335518
  O      -5.315288     -0.440266     -0.752659
  O      -4.201843     -1.528095      0.847706
  H      -1.434795      4.294593     -1.215222
  H      -0.179147      4.625324      0.013643
  H       0.245880      3.827425     -1.530720
  C      -4.813270     -2.736566      0.410088
  H      -4.438957     -3.515029      1.069906
  H      -5.898672     -2.667418      0.481650
  H      -4.543329     -2.950994     -0.624605
  C      -4.548932      1.113614      2.016832
  H      -3.987353      1.338816      2.913496
  H      -5.630480      1.124479      2.064829
64
Coordinates from ORCA-job orca E -1423.281348220902
  C       1.752691      0.756819     -1.073387
  H       1.869510      1.701828     -0.540811
  H       2.698501      0.503660     -1.550524
  C       1.308118     -0.334291     -0.103608
  C       2.334933     -0.549629      1.043691
  H       1.987649     -1.394567      1.642912
  H       2.274070      0.328986      1.687939
  C       3.831154     -0.796101      0.751086
  C       1.120361     -1.634940     -0.883776
  O       1.290524     -1.768963     -2.065150
  O       0.718307     -2.644094     -0.095583
  C       4.534251      0.447014      0.212456
  O       5.313673      0.460417     -0.701789
  O       4.210348      1.551655      0.902315
  C       4.086276     -1.961517     -0.201599
  H       5.152076     -2.180398     -0.256630
  H       3.570675     -2.852940      0.161361
  H       3.749532     -1.749882     -1.214644
  C       4.503559     -1.102963      2.102679
  H       4.116266     -2.043475      2.498551
  H       5.583607     -1.206370      1.983368
  H       4.310131     -0.316218      2.832259
  C       0.505945     -3.888288     -0.754424
  H       0.157291     -4.577044      0.010623
  H      -0.239858     -3.782226     -1.542213
  H       1.432985     -4.252144     -1.197903
  C       4.849382      2.751250      0.479510
  H       4.607098      2.970338     -0.560582
  H       4.472510      3.535750      1.130611
  H       5.931685      2.666839      0.575077
  H       1.033889      0.890227     -1.879873
  C      -0.006189      0.031464      0.637178
  C      -1.313875      0.387545     -0.119537
  H       0.230134      0.876391      1.286663
  H      -0.248237     -0.806230      1.294171
  C      -2.348163      0.613459      1.017527
  C      -1.122018      1.680365     -0.912653
  C      -1.745441     -0.716200     -1.081131
  C      -3.844256      0.826332      0.707233
  H      -2.279660     -0.245768      1.686357
  H      -2.022493      1.484568      1.590459
  O      -1.277708      1.799459     -2.097756
  O      -0.722563      2.696620     -0.133393
  H      -1.020426     -0.850858     -1.881488
  H      -1.858323     -1.656707     -0.540273
  H      -2.689947     -0.474955     -1.567478
  C      -4.118706      1.960970     -0.289079
  C      -4.528469     -0.449922      0.197322
  C      -0.502546      3.933471     -0.803675
  H      -3.631845      2.875291      0.052509
  H      -3.762352      1.716751     -1.289026
  H      -5.188106      2.150175     -0.363052
  O      -5.333480     -0.492176     -0.692466
  O      -4.174732     -1.528292      0.910771
  H      -1.425158      4.293635     -1.259085
  H      -0.159819      4.629786     -0.042842
  H       0.250321      3.817965     -1.583347
  C      -4.800105     -2.748727      0.530639
  H      -4.399257     -3.508902      1.196083
  H      -5.881951     -2.679589      0.642937
  H      -4.571816     -2.992494     -0.507271
  C      -4.541342      1.138672      1.994258
  H      -4.029215      1.129788      2.943754
  H      -5.604215      1.333891      1.987163
64
Coordinates from ORCA-job orca E -1423.281360954098
  C       1.744446      0.776259     -1.063687
  H       1.857263      1.721088     -0.529986
  H       2.690536      0.528642     -1.542792
  C       1.307324     -0.319087     -0.095046
  C       2.336548     -0.533523      1.050798
  H       1.985646     -1.373986      1.654045
  H       2.283130      0.347833      1.691907
  C       3.829441     -0.793649      0.753958
  C       1.126822     -1.618924     -0.878100
  O       1.290597     -1.747264     -2.061109
  O       0.729562     -2.631855     -0.092874
  C       4.544743      0.441756      0.213315
  O       5.318259      0.447244     -0.706128
  O       4.226596      1.551976      0.896258
  C       4.068276     -1.961802     -0.199608
  H       5.131296     -2.192845     -0.258277
  H       3.543440     -2.847306      0.164499
  H       3.730648     -1.746051     -1.211566
  C       4.503214     -1.107838      2.103102
  H       4.108216     -2.044451      2.500432
  H       5.581767     -1.221809      1.980177
  H       4.320284     -0.319157      2.833190
  C       0.521315     -3.874883     -0.753399
  H       0.169004     -4.565275      0.008447
  H      -0.219744     -3.769592     -1.545702
  H       1.450720     -4.238437     -1.192408
  C       4.871315      2.745536      0.468115
  H       4.635496      2.958670     -0.574748
  H       4.494994      3.536797      1.111258
  H       5.953041      2.658643      0.568961
  H       1.023554      0.906793     -1.868829
  C      -0.008678      0.038331      0.646595
  C      -1.319842      0.382171     -0.109674
  H       0.221903      0.887040      1.293279
  H      -0.243130     -0.799349      1.306381
  C      -2.353215      0.616523      1.027131
  C      -1.133771      1.667372     -0.916214
  C      -1.747726     -0.732599     -1.060495
  C      -3.848784      0.837383      0.717358
  H      -2.287441     -0.240616      1.698801
  H      -2.022147      1.488039      1.596245
  O      -1.283082      1.770964     -2.103739
  O      -0.720549      2.688482     -0.151437
  H      -1.023060     -0.870658     -1.860633
  H      -1.855342     -1.668718     -0.511076
  H      -2.693758     -0.500176     -1.547815
  C      -4.122866      1.971243     -0.277181
  C      -4.539921     -0.434890      0.204538
  C      -0.493572      3.915685     -0.835209
  H      -3.638468      2.885935      0.067096
  H      -3.764902      1.729915     -1.277115
  H      -5.192506      2.159437     -0.351377
  O      -5.340528     -0.472304     -0.689521
  O      -4.172890     -1.521975      0.898296
  H      -1.416955      4.283060     -1.283511
  H      -0.133948      4.615611     -0.085623
  H       0.248407      3.785080     -1.622882
  C      -4.793157     -2.739828      0.505704
  H      -4.377391     -3.509087      1.151248
  H      -5.874014     -2.682447      0.634218
  H      -4.578983     -2.964135     -0.539609
  C      -4.547029      1.141453      2.007398
  H      -4.110549      0.907118      2.966042
  H      -5.594675      1.406943      1.981991
64
Coordinates from ORCA-job orca E -1423.281439067103
  C       1.749962      0.747133     -1.082265
  H       1.859673      1.699853     -0.561973
  H       2.698037      0.494634     -1.554975
  C       1.312479     -0.334695     -0.098438
  C       2.341482     -0.530109      1.051066
  H       1.993784     -1.364210      1.665170
  H       2.283406      0.359446      1.680526
  C       3.836083     -0.787803      0.759649
  C       1.136684     -1.647078     -0.861726
  O       1.300570     -1.792892     -2.042677
  O       0.736533     -2.647696     -0.061767
  C       4.545261      0.441255      0.196956
  O       5.320196      0.433868     -0.721257
  O       4.229004      1.560656      0.866270
  C       4.081104     -1.971927     -0.172443
  H       5.145616     -2.197094     -0.228570
  H       3.562715     -2.853912      0.209698
  H       3.739821     -1.777769     -1.187523
  C       4.510543     -1.073944      2.114919
  H       4.119343     -2.005029      2.528890
  H       5.589776     -1.185214      1.994580
  H       4.323398     -0.272932      2.830530
  C       0.527690     -3.900709     -0.705121
  H       0.181774     -4.580625      0.069102
  H      -0.219037     -3.806896     -1.493543
  H       1.456004     -4.266679     -1.144383
  C       4.864767      2.750261      0.411020
  H       4.608059      2.948175     -0.629962
  H       4.497915      3.548424      1.051225
  H       5.948121      2.664899      0.493649
  H       1.031996      0.865035     -1.891546
  C      -0.004078      0.030586      0.641059
  C      -1.317886      0.378838     -0.111178
  H       0.230384      0.879975      1.285594
  H      -0.240746     -0.804310      1.303562
  C      -2.348770      0.601847      1.031861
  C      -1.137059      1.672005     -0.906095
  C      -1.749488     -0.727700     -1.070204
  C      -3.846128      0.835987      0.728907
  H      -2.286977     -0.266711      1.689014
  H      -2.011475      1.459380      1.618099
  O      -1.299331      1.789117     -2.090599
  O      -0.735252      2.690128     -0.130528
  H      -1.030090     -0.858794     -1.875912
  H      -1.853393     -1.668785     -0.528411
  H      -2.698661     -0.492450     -1.549859
  C      -4.116227      2.002432     -0.228995
  C      -4.544575     -0.415486      0.178421
  C      -0.521062      3.926574     -0.803724
  H      -3.628814      2.904058      0.145354
  H      -3.756742      1.793856     -1.235375
  H      -5.185582      2.194201     -0.299513
  O      -5.334334     -0.422205     -0.725987
  O      -4.197789     -1.522682      0.850088
  H      -1.446994      4.283535     -1.255193
  H      -0.176483      4.624516     -0.045162
  H       0.228605      3.811292     -1.586578
  C      -4.821001     -2.725456      0.413033
  H      -4.430468     -3.512998      1.052380
  H      -5.904148     -2.657372      0.513430
  H      -4.578320     -2.926425     -0.630752
  C      -4.537029      1.105439      2.029197
  H      -4.035810      0.962493      2.976203
  H      -5.601854      1.293195      2.036194
64
Coordinates from ORCA-job orca E -1423.281242498742
  C       1.772030      0.744244     -1.088879
  H       1.894860      1.688935     -0.556981
  H       2.717856      0.482994     -1.562069
  C       1.315956     -0.341668     -0.118604
  C       2.336161     -0.555801      1.035363
  H       1.984592     -1.397780      1.636179
  H       2.269020      0.325618      1.675062
  C       3.837535     -0.798423      0.760809
  C       1.118600     -1.643508     -0.895270
  O       1.288344     -1.782291     -2.075892
  O       0.715351     -2.649511     -0.102513
  C       4.540480      0.442786      0.218532
  O       5.332746      0.450481     -0.684518
  O       4.203517      1.552825      0.894309
  C       4.115109     -1.971496     -0.176033
  H       5.183296     -2.181735     -0.214332
  H       3.602733     -2.863257      0.190191
  H       3.790098     -1.773725     -1.195383
  C       4.494345     -1.086800      2.124150
  H       4.108290     -2.026145      2.523687
  H       5.576441     -1.183612      2.019779
  H       4.285314     -0.294966      2.843773
  C       0.501973     -3.896300     -0.758808
  H       0.155707     -4.582329      0.009722
  H      -0.246313     -3.791963     -1.544142
  H       1.428246     -4.260129     -1.203372
  C       4.843070      2.750677      0.462731
  H       4.606603      2.956446     -0.581093
  H       4.458437      3.540423      1.102752
  H       5.924549      2.669685      0.567096
  H       1.058119      0.882680     -1.898763
  C       0.002138      0.034171      0.618410
  C      -1.304411      0.395979     -0.137112
  H       0.243262      0.878208      1.266838
  H      -0.245603     -0.800944      1.276426
  C      -2.334795      0.614504      1.006236
  C      -1.111850      1.692059     -0.925203
  C      -1.741393     -0.704357     -1.100079
  C      -3.834414      0.822179      0.707145
  H      -2.261520     -0.250258      1.667729
  H      -2.010084      1.480616      1.586716
  O      -1.272291      1.817282     -2.108809
  O      -0.725536      2.708892     -0.139036
  H      -1.020532     -0.839287     -1.903713
  H      -1.855351     -1.645701     -0.560841
  H      -2.687080     -0.459433     -1.582662
  C      -4.131416      1.973486     -0.261505
  C      -4.519774     -0.450803      0.188577
  C      -0.522154      3.952700     -0.804434
  H      -3.651183      2.886388      0.092635
  H      -3.782329      1.755098     -1.269370
  H      -5.203308      2.150981     -0.324032
  O      -5.332127     -0.482974     -0.694539
  O      -4.193036     -1.526635      0.918591
  H      -1.449606      4.301961     -1.257970
  H      -0.189000      4.649108     -0.039498
  H       0.232369      3.850013     -1.583885
  C      -4.836045     -2.740580      0.540576
  H      -4.461976     -3.499944      1.222280
  H      -5.917948     -2.648718      0.631038
  H      -4.590625     -2.999212     -0.489474
  C      -4.519498      1.103966      2.001285
  H      -4.020022      0.981765      2.949549
  H      -5.570745      1.347649      2.004054
64
Coordinates from ORCA-job orca E -1423.281585226359
  C       1.754708      0.757905     -1.072728
  H       1.871367      1.703253     -0.540573
  H       2.701035      0.504706     -1.549216
  C       1.310841     -0.332705     -0.102123
  C       2.337393     -0.543527      1.046237
  H       1.988484     -1.383955      1.650822
  H       2.278094      0.339388      1.684776
  C       3.833578     -0.794176      0.756103
  C       1.124788     -1.634624     -0.880822
  O       1.293686     -1.769326     -2.062265
  O       0.723790     -2.643566     -0.091533
  C       4.538634      0.443757      0.208540
  O       5.317782      0.449098     -0.706039
  O       4.218031      1.553868      0.891403
  C       4.088406     -1.966608     -0.187978
  H       5.154230     -2.185359     -0.242559
  H       3.573653     -2.855385      0.182490
  H       3.750004     -1.762743     -1.202116
  C       4.504340     -1.091995      2.110714
  H       4.115933     -2.029515      2.512518
  H       5.584443     -1.196851      1.993243
  H       4.310405     -0.300266      2.834712
  C       0.516409     -3.889637     -0.749099
  H       0.169856     -4.578165      0.017094
  H      -0.229411     -3.787272     -1.537285
  H       1.445279     -4.250241     -1.191309
  C       4.858220      2.749259      0.457014
  H       4.610313      2.961034     -0.583227
  H       4.486336      3.539018      1.104565
  H       5.940681      2.662350      0.547342
  H       1.036526      0.890984     -1.879844
  C      -0.004493      0.031672      0.637734
  C      -1.313391      0.383776     -0.118725
  H       0.230322      0.878109      1.285734
  H      -0.244530     -0.805397      1.296273
  C      -2.346589      0.609837      1.019742
  C      -1.124843      1.674711     -0.915298
  C      -1.746108     -0.723150     -1.075903
  C      -3.842406      0.832039      0.711575
  H      -2.283016     -0.254580      1.682768
  H      -2.016723      1.474508      1.599809
  O      -1.283503      1.790671     -2.100308
  O      -0.727366      2.694075     -0.138883
  H      -1.022087     -0.861818     -1.876355
  H      -1.859913     -1.661515     -0.531302
  H      -2.690561     -0.482505     -1.562887
  C      -4.116827      1.977794     -0.268916
  C      -4.532936     -0.436649      0.190361
  C      -0.515675      3.930985     -0.812508
  H      -3.631952      2.888474      0.085197
  H      -3.757781      1.748929     -1.271424
  H      -5.186530      2.165128     -0.343725
  O      -5.330329     -0.468494     -0.706687
  O      -4.189183     -1.521402      0.899380
  H      -1.441824      4.285443     -1.265134
  H      -0.173688      4.629995     -0.053839
  H       0.234997      3.817229     -1.594455
  C      -4.816905     -2.736802      0.504573
  H      -4.427358     -3.502986      1.169775
  H      -5.899500     -2.662367      0.604314
  H      -4.576424     -2.974314     -0.531969
  C      -4.535769      1.128050      2.005449
  H      -4.049610      0.979060      2.958248
  H      -5.590150      1.367304      2.001937
64
Coordinates from ORCA-job orca E -1423.281643555289
  C       1.757567      0.758769     -1.077541
  H       1.871977      1.705171     -0.546957
  H       2.704828      0.505888     -1.551910
  C       1.313301     -0.330864     -0.105717
  C       2.338270     -0.540170      1.044394
  H       1.988393     -1.380598      1.648457
  H       2.278193      0.342756      1.682872
  C       3.834385     -0.792956      0.756051
  C       1.132220     -1.634538     -0.882338
  O       1.299207     -1.769766     -2.064012
  O       0.726281     -2.641347     -0.092822
  C       4.544671      0.444663      0.214092
  O       5.323102      0.451193     -0.701083
  O       4.224922      1.553930      0.898764
  C       4.086043     -1.963222     -0.191547
  H       5.151121     -2.185746     -0.245632
  H       3.567397     -2.851363      0.175351
  H       3.749462     -1.754678     -1.205347
  C       4.502272     -1.097895      2.110406
  H       4.110315     -2.035621      2.508269
  H       5.582203     -1.205809      1.994014
  H       4.309958     -0.308168      2.837002
  C       0.516742     -3.887687     -0.749208
  H       0.166307     -4.574153      0.017088
  H      -0.226872     -3.784361     -1.539294
  H       1.445608     -4.251686     -1.188697
  C       4.866634      2.749368      0.466884
  H       4.619407      2.963453     -0.573073
  H       4.495411      3.538328      1.115819
  H       5.948997      2.660988      0.557522
  H       1.041008      0.889212     -1.886316
  C      -0.003485      0.033289      0.632990
  C      -1.313914      0.385329     -0.121960
  H       0.230999      0.880111      1.280723
  H      -0.243142     -0.803544      1.291955
  C      -2.345679      0.612218      1.018256
  C      -1.127034      1.676595     -0.918212
  C      -1.748873     -0.721090     -1.079200
  C      -3.842891      0.831440      0.711610
  H      -2.279168     -0.250334      1.683067
  H      -2.016231      1.478513      1.596001
  O      -1.285353      1.792450     -2.103278
  O      -0.729926      2.695897     -0.141560
  H      -1.027483     -0.858948     -1.882069
  H      -1.861078     -1.659837     -0.535082
  H      -2.694682     -0.480289     -1.563071
  C      -4.121373      1.971730     -0.273300
  C      -4.536639     -0.439251      0.198141
  C      -0.517041      3.932710     -0.814953
  H      -3.635646      2.884566      0.074329
  H      -3.766008      1.738368     -1.275929
  H      -5.191482      2.158264     -0.345372
  O      -5.331916     -0.474978     -0.700524
  O      -4.190366     -1.522360      0.908563
  H      -1.442627      4.287544     -1.268535
  H      -0.175624      4.631594     -0.055894
  H       0.234451      3.818794     -1.596103
  C      -4.818366     -2.738647      0.517184
  H      -4.427150     -3.503558      1.182934
  H      -5.900825     -2.664362      0.619135
  H      -4.580027     -2.977822     -0.519461
  C      -4.534928      1.131273      2.004281
  H      -4.070425      0.929546      2.958283
  H      -5.580217      1.406207      1.994966
64
Coordinates from ORCA-job orca E -1423.281800901689
  C       1.753793      0.762770     -1.072654
  H       1.865784      1.709512     -0.542144
  H       2.701694      0.511982     -1.546544
  C       1.312037     -0.327794     -0.100504
  C       2.339148     -0.535805      1.047167
  H       1.991455     -1.376679      1.652112
  H       2.281906      0.347265      1.685948
  C       3.832844     -0.790581      0.750572
  C       1.136393     -1.632089     -0.876723
  O       1.306132     -1.767783     -2.058106
  O       0.742041     -2.641767     -0.085286
  C       4.541889      0.447478      0.207603
  O       5.314235      0.455832     -0.712742
  O       4.236012      1.553055      0.904340
  C       4.073314     -1.958814     -0.202510
  H       5.137305     -2.184266     -0.266028
  H       3.554670     -2.846664      0.165892
  H       3.729205     -1.745808     -1.212891
  C       4.508659     -1.101363      2.099743
  H       4.116432     -2.039067      2.497651
  H       5.587592     -1.212233      1.976007
  H       4.323746     -0.312773      2.829595
  C       0.537802     -3.889808     -0.740401
  H       0.204061     -4.580237      0.029826
  H      -0.216958     -3.793075     -1.520910
  H       1.465373     -4.242893     -1.191548
  C       4.879326      2.748962      0.475478
  H       4.617405      2.975158     -0.558487
  H       4.522476      3.532923      1.138441
  H       5.962289      2.651962      0.549310
  H       1.037462      0.891670     -1.881576
  C      -0.005571      0.033203      0.639565
  C      -1.318629      0.381086     -0.114185
  H       0.227239      0.881894      1.285858
  H      -0.241619     -0.803301      1.300278
  C      -2.350083      0.613211      1.024660
  C      -1.135614      1.669305     -0.915423
  C      -1.757181     -0.728740     -1.066094
  C      -3.846406      0.837432      0.711372
  H      -2.287863     -0.248609      1.690614
  H      -2.019310      1.478888      1.602515
  O      -1.298650      1.781123     -2.100309
  O      -0.735190      2.690926     -0.143742
  H      -1.037853     -0.872730     -1.869845
  H      -1.870481     -1.664653     -0.517257
  H      -2.703420     -0.488108     -1.548711
  C      -4.114037      1.974866     -0.278037
  C      -4.538778     -0.431765      0.192583
  C      -0.519719      3.924432     -0.822559
  H      -3.628317      2.887196      0.071807
  H      -3.751011      1.739590     -1.277508
  H      -5.183486      2.163202     -0.358955
  O      -5.325484     -0.466890     -0.713589
  O      -4.199607     -1.515878      0.905000
  H      -1.444303      4.277104     -1.280077
  H      -0.179813      4.626299     -0.065529
  H       0.234050      3.805586     -1.601021
  C      -4.825437     -2.731699      0.507494
  H      -4.445392     -3.495319      1.181177
  H      -5.908983     -2.653186      0.593989
  H      -4.572002     -2.973266     -0.525193
  C      -4.542616      1.138845      2.004264
  H      -4.088642      0.893483      2.954060
  H      -5.586131      1.421913      1.995578
64
Coordinates from ORCA-job orca E -1423.282090666880
  C       1.764687      0.765433     -1.065459
  H       1.875154      1.708952     -0.528780
  H       2.714784      0.516129     -1.535827
  C       1.316662     -0.329967     -0.101393
  C       2.340901     -0.545042      1.046974
  H       1.995254     -1.392288      1.644267
  H       2.279374      0.332648      1.692987
  C       3.836039     -0.791366      0.750271
  C       1.140982     -1.629440     -0.885068
  O       1.313634     -1.759356     -2.066728
  O       0.746924     -2.643451     -0.098976
  C       4.536147      0.452275      0.208333
  O       5.311673      0.466684     -0.709229
  O       4.229581      1.552897      0.912750
  C       4.083570     -1.957173     -0.204241
  H       5.149106     -2.175684     -0.268134
  H       3.570734     -2.848781      0.163531
  H       3.738285     -1.745225     -1.214373
  C       4.514793     -1.097922      2.099026
  H       4.128698     -2.038026      2.497664
  H       5.594401     -1.202250      1.974320
  H       4.326012     -0.310091      2.828901
  C       0.540999     -3.887612     -0.762012
  H       0.216329     -4.584259      0.006572
  H      -0.221659     -3.786505     -1.534449
  H       1.466037     -4.233331     -1.223963
  C       4.873304      2.752475      0.492717
  H       4.608314      2.987344     -0.538570
  H       4.518009      3.529947      1.164181
  H       5.956253      2.652835      0.563549
  H       1.052994      0.899879     -1.877337
  C      -0.001899      0.029587      0.639014
  C      -1.319108      0.371975     -0.111313
  H       0.230097      0.880596      1.282940
  H      -0.234446     -0.805797      1.302567
  C      -2.346152      0.612004      1.029551
  C      -1.143978      1.655410     -0.921585
  C      -1.763206     -0.744545     -1.053102
  C      -3.841117      0.845265      0.713849
  H      -2.288788     -0.249852      1.696148
  H      -2.010771      1.475174      1.608099
  O      -1.316027      1.759964     -2.105856
  O      -0.747135      2.684182     -0.157414
  H      -1.048563     -0.896235     -1.859681
  H      -1.874548     -1.676019     -0.496105
  H      -2.711959     -0.506827     -1.531948
  C      -4.096883      1.980096     -0.279260
  C      -4.540863     -0.422763      0.198163
  C      -0.540140      3.914600     -0.845453
  H      -3.603166      2.889603      0.067684
  H      -3.734514      1.739726     -1.277535
  H      -5.164830      2.176896     -0.363575
  O      -5.326719     -0.456681     -0.708683
  O      -4.204674     -1.507396      0.911865
  H      -1.467358      4.256331     -1.305989
  H      -0.206014      4.623769     -0.092603
  H       0.215436      3.794624     -1.622130
  C      -4.838727     -2.721404      0.518619
  H      -4.466025     -3.483155      1.198565
  H      -5.921756     -2.632791      0.601459
  H      -4.582390     -2.969435     -0.511857
  C      -4.537621      1.150244      2.007229
  H      -4.143346      0.783286      2.946157
  H      -5.545607      1.544350      1.994087
64
Coordinates from ORCA-job orca E -1423.282185550396
  C       1.766318      0.764032     -1.068496
  H       1.872986      1.707880     -0.531751
  H       2.718475      0.516393     -1.536212
  C       1.317325     -0.331683     -0.105375
  C       2.339258     -0.545996      1.044973
  H       1.994416     -1.394923      1.640306
  H       2.275796      0.330594      1.692432
  C       3.834333     -0.790592      0.748347
  C       1.144499     -1.631110     -0.889245
  O       1.324878     -1.762234     -2.069619
  O       0.757149     -2.647208     -0.102434
  C       4.534256      0.455301      0.211439
  O       5.312996      0.472767     -0.703355
  O       4.236864      1.550542      0.928088
  C       4.081016     -1.952370     -0.211269
  H       5.146649     -2.170287     -0.277329
  H       3.568978     -2.845502      0.153669
  H       3.734288     -1.736546     -1.220427
  C       4.513209     -1.102507      2.095969
  H       4.126070     -2.043253      2.492411
  H       5.592645     -1.208158      1.970266
  H       4.326345     -0.316351      2.828264
  C       0.556655     -3.892554     -0.765796
  H       0.243936     -4.592446      0.004870
  H      -0.213557     -3.795943     -1.531513
  H       1.481053     -4.229131     -1.235536
  C       4.887913      2.750390      0.518596
  H       4.619113      2.998769     -0.508537
  H       4.541473      3.521972      1.201442
  H       5.970300      2.640826      0.583241
  H       1.056247      0.896137     -1.882576
  C      -0.002306      0.028826      0.632160
  C      -1.318323      0.373054     -0.119064
  H       0.230156      0.879820      1.276061
  H      -0.237547     -0.806592      1.295066
  C      -2.342691      0.619592      1.023098
  C      -1.136175      1.651849     -0.935271
  C      -1.767726     -0.745372     -1.055716
  C      -3.839560      0.850479      0.711484
  H      -2.283182     -0.239891      1.693327
  H      -2.006686      1.484577      1.598410
  O      -1.307428      1.751889     -2.120070
  O      -0.761348      2.688876     -0.171027
  H      -1.055564     -0.901157     -1.863632
  H      -1.879510     -1.674503     -0.494918
  H      -2.717764     -0.507326     -1.532614
  C      -4.101804      1.985011     -0.277889
  C      -4.535609     -0.422484      0.199207
  C      -0.558602      3.918246     -0.863039
  H      -3.607570      2.894991      0.067410
  H      -3.745591      1.747720     -1.278710
  H      -5.170753      2.179750     -0.356108
  O      -5.334735     -0.458014     -0.695914
  O      -4.200379     -1.502393      0.921062
  H      -1.482485      4.244950     -1.340842
  H      -0.246194      4.635295     -0.108290
  H       0.211670      3.802870     -1.625952
  C      -4.842791     -2.717566      0.542549
  H      -4.474863     -3.472528      1.232611
  H      -5.925067     -2.619713      0.624225
  H      -4.586854     -2.979364     -0.484563
  C      -4.532309      1.142415      2.010475
  H      -4.230877      0.630769      2.916512
  H      -5.476233      1.673625      2.008528
64
Coordinates from ORCA-job orca E -1423.282247418172
  C       1.769933      0.752951     -1.075775
  H       1.877456      1.697931     -0.541108
  H       2.722552      0.502668     -1.541556
  C       1.317443     -0.339593     -0.110959
  C       2.338540     -0.553543      1.040518
  H       1.995048     -1.403929      1.634595
  H       2.270386      0.322191      1.688579
  C       3.836199     -0.790067      0.748928
  C       1.138329     -1.639767     -0.892725
  O       1.317474     -1.773558     -2.072935
  O       0.747872     -2.653353     -0.104139
  C       4.530573      0.459517      0.213868
  O       5.315078      0.480267     -0.695942
  O       4.220095      1.554455      0.925358
  C       4.096187     -1.950674     -0.208466
  H       5.163606     -2.161459     -0.268000
  H       3.588270     -2.847011      0.154040
  H       3.754251     -1.737981     -1.219833
  C       4.511426     -1.096392      2.099655
  H       4.128537     -2.039114      2.495440
  H       5.591988     -1.195440      1.978567
  H       4.316394     -0.310833      2.830472
  C       0.543575     -3.899055     -0.765534
  H       0.226984     -4.596546      0.005721
  H      -0.224964     -3.800798     -1.532696
  H       1.467212     -4.240229     -1.233395
  C       4.865922      2.757488      0.517249
  H       4.605607      2.999793     -0.513428
  H       4.507331      3.529424      1.193375
  H       5.948430      2.656629      0.592763
  H       1.061087      0.883932     -1.891117
  C      -0.000485      0.025635      0.626832
  C      -1.316724      0.373157     -0.122650
  H       0.235046      0.875440      1.271021
  H      -0.237809     -0.809302      1.289590
  C      -2.340121      0.611371      1.021264
  C      -1.138628      1.657487     -0.931293
  C      -1.763530     -0.739473     -1.066799
  C      -3.835842      0.845517      0.710718
  H      -2.280696     -0.251758      1.686876
  H      -2.003399      1.473728      1.600299
  O      -1.316629      1.765362     -2.114411
  O      -0.755227      2.688536     -0.163186
  H      -1.051386     -0.884803     -1.876695
  H      -1.870482     -1.673548     -0.513591
  H      -2.715349     -0.501486     -1.540971
  C      -4.090770      1.980175     -0.281122
  C      -4.535597     -0.425984      0.201300
  C      -0.556892      3.922274     -0.848573
  H      -3.593260      2.888340      0.063797
  H      -3.733025      1.738176     -1.280660
  H      -5.158567      2.179411     -0.362109
  O      -5.334338     -0.460154     -0.694312
  O      -4.203760     -1.505398      0.925076
  H      -1.484675      4.254339     -1.314883
  H      -0.235321      4.633535     -0.092193
  H       0.205210      3.810890     -1.620159
  C      -4.848018     -2.719710      0.547521
  H      -4.481785     -3.475013      1.238086
  H      -5.930200     -2.620427      0.628592
  H      -4.592472     -2.983237     -0.479218
  C      -4.526664      1.145577      2.008631
  H      -4.203702      0.671065      2.926467
  H      -5.458546      1.696883      2.008648
64
Coordinates from ORCA-job orca E -1423.282260177429
  C       1.768298      0.756533     -1.072535
  H       1.875699      1.701920     -0.538544
  H       2.720823      0.506528     -1.538392
  C       1.316357     -0.335722     -0.107041
  C       2.337781     -0.549932      1.044182
  H       1.992200     -1.398086      1.640240
  H       2.272800      0.327262      1.690476
  C       3.834119     -0.792122      0.751326
  C       1.137968     -1.636301     -0.888571
  O       1.316877     -1.769958     -2.068839
  O       0.747526     -2.649999     -0.100220
  C       4.531278      0.453240      0.210060
  O       5.315517      0.467623     -0.700139
  O       4.222273      1.552770      0.914964
  C       4.088811     -1.957523     -0.201729
  H       5.155400     -2.171999     -0.262342
  H       3.578683     -2.850822      0.165355
  H       3.745569     -1.748216     -1.213292
  C       4.510621     -1.094708      2.102272
  H       4.125876     -2.034742      2.502502
  H       5.590721     -1.197034      1.980016
  H       4.318623     -0.305667      2.830135
  C       0.545641     -3.896122     -0.761075
  H       0.224654     -4.592793      0.009081
  H      -0.218529     -3.798555     -1.532577
  H       1.471356     -4.238811     -1.223820
  C       4.867818      2.752822      0.498692
  H       4.607930      2.988128     -0.533725
  H       4.509316      3.529756      1.169125
  H       5.950404      2.653031      0.574997
  H       1.059123      0.886824     -1.887642
  C      -0.001875      0.028953      0.630387
  C      -1.317472      0.375871     -0.120545
  H       0.232738      0.878760      1.274769
  H      -0.239072     -0.805991      1.293038
  C      -2.342431      0.613137      1.022576
  C      -1.138311      1.660849     -0.928260
  C      -1.761086     -0.737114     -1.066021
  C      -3.839429      0.843860      0.712755
  H      -2.280888     -0.248804      1.689157
  H      -2.006794      1.476905      1.600253
  O      -1.313831      1.769185     -2.111722
  O      -0.753197      2.690831     -0.159702
  H      -1.047469     -0.879719     -1.875160
  H      -1.866396     -1.672121     -0.513999
  H      -2.712769     -0.501202     -1.541185
  C      -4.098826      1.981302     -0.275257
  C      -4.535226     -0.427099      0.197966
  C      -0.551942      3.924375     -0.844094
  H      -3.605061      2.890015      0.073636
  H      -3.740052      1.743872     -1.275294
  H      -5.167435      2.176650     -0.354773
  O      -5.332953     -0.459548     -0.698681
  O      -4.200033     -1.509221      0.915742
  H      -1.479087      4.259689     -1.309432
  H      -0.227724      4.634419     -0.087701
  H       0.209081      3.811799     -1.616569
  C      -4.839777     -2.723226      0.531116
  H      -4.468765     -3.482451      1.214819
  H      -5.922275     -2.629761      0.615521
  H      -4.586327     -2.978441     -0.498241
  C      -4.529934      1.137971      2.011463
  H      -4.189785      0.682492      2.932419
  H      -5.471951      1.670944      2.011489
64
Coordinates from ORCA-job orca E -1423.282270174205
  C       1.765829      0.757481     -1.073664
  H       1.873192      1.702790     -0.539546
  H       2.718053      0.508211     -1.540460
  C       1.315182     -0.335385     -0.108239
  C       2.337039     -0.550449      1.042588
  H       1.991687     -1.399566      1.637408
  H       2.271677      0.325754      1.690188
  C       3.833445     -0.791652      0.749463
  C       1.137001     -1.635708     -0.890414
  O       1.316512     -1.768841     -2.070674
  O       0.745449     -2.649554     -0.102903
  C       4.531827      0.455851      0.214739
  O       5.315968      0.474197     -0.695501
  O       4.222036      1.552409      0.923816
  C       4.088270     -1.952844     -0.208638
  H       5.154772     -2.167722     -0.269227
  H       3.577232     -2.847507      0.153869
  H       3.746122     -1.738828     -1.219592
  C       4.508938     -1.101088      2.099373
  H       4.123519     -2.042919      2.494693
  H       5.589078     -1.203197      1.977391
  H       4.316638     -0.315540      2.830918
  C       0.543018     -3.895148     -0.764330
  H       0.218306     -4.591322      0.004714
  H      -0.218413     -3.796189     -1.538377
  H       1.469477     -4.239865     -1.224172
  C       4.866054      2.754653      0.512095
  H       4.606644      2.993167     -0.519746
  H       4.506128      3.528982      1.184791
  H       5.948769      2.656349      0.588809
  H       1.055813      0.887699     -1.888068
  C      -0.002833      0.028429      0.629800
  C      -1.318222      0.376066     -0.121292
  H       0.231739      0.877715      1.274897
  H      -0.239855     -0.807002      1.291881
  C      -2.342781      0.616335      1.021503
  C      -1.137504      1.660139     -0.930152
  C      -1.763414     -0.737305     -1.065565
  C      -3.840256      0.844671      0.711476
  H      -2.280217     -0.243053      1.691261
  H      -2.007277      1.482707      1.595385
  O      -1.313281      1.767736     -2.113659
  O      -0.748885      2.689712     -0.162913
  H      -1.050479     -0.880502     -1.875178
  H      -1.868624     -1.672039     -0.513046
  H      -2.715383     -0.501390     -1.540113
  C      -4.100637      1.977170     -0.282123
  C      -4.533859     -0.429252      0.201700
  C      -0.544549      3.922083     -0.848230
  H      -3.608871      2.888157      0.063701
  H      -3.740307      1.735437     -1.280529
  H      -5.169559      2.170204     -0.362961
  O      -5.330255     -0.466694     -0.696010
  O      -4.198120     -1.507756      0.924456
  H      -1.471309      4.260490     -1.312146
  H      -0.216573      4.631545     -0.092907
  H       0.214741      3.806611     -1.622019
  C      -4.834691     -2.724421      0.543786
  H      -4.462068     -3.480684      1.229905
  H      -5.917481     -2.633565      0.627666
  H      -4.580738     -2.982609     -0.484744
  C      -4.529491      1.144004      2.009282
  H      -4.183897      0.697198      2.932268
  H      -5.475147      1.670156      2.006727
64
Coordinates from ORCA-job orca E -1423.282264897701
  C       1.766689      0.757060     -1.072566
  H       1.873411      1.702413     -0.538400
  H       2.719449      0.507932     -1.538425
  C       1.315320     -0.335770     -0.107494
  C       2.336889     -0.551002      1.043473
  H       1.991538     -1.400218      1.638156
  H       2.271463      0.325158      1.691146
  C       3.833190     -0.792025      0.750046
  C       1.137318     -1.636001     -0.889883
  O       1.317035     -1.768939     -2.070138
  O       0.746112     -2.650079     -0.102503
  C       4.530654      0.455101      0.213254
  O       5.314708      0.472459     -0.697076
  O       4.221252      1.552364      0.921387
  C       4.087947     -1.954289     -0.206738
  H       5.154515     -2.168797     -0.267682
  H       3.577525     -2.848701      0.157242
  H       3.745052     -1.741778     -1.217775
  C       4.509566     -1.099306      2.100046
  H       4.124692     -2.040700      2.496968
  H       5.589675     -1.201196      1.977586
  H       4.317406     -0.312740      2.830547
  C       0.543054     -3.895399     -0.764303
  H       0.217958     -4.591587      0.004574
  H      -0.218281     -3.795800     -1.538368
  H       1.469396     -4.240471     -1.224125
  C       4.864855      2.754237      0.507865
  H       4.604812      2.991397     -0.524125
  H       4.505127      3.529292      1.179833
  H       5.947629      2.656213      0.584155
  H       1.057405      0.887144     -1.887650
  C      -0.002886      0.028162      0.630179
  C      -1.317962      0.376175     -0.121256
  H       0.231592      0.877218      1.275647
  H      -0.240313     -0.807451      1.291908
  C      -2.342879      0.615988      1.021434
  C      -1.137234      1.660688     -0.929388
  C      -1.762337     -0.736751     -1.066385
  C      -3.840459      0.844837      0.711554
  H      -2.280597     -0.243769      1.690821
  H      -2.007243      1.481896      1.595887
  O      -1.312211      1.768719     -2.112977
  O      -0.750129      2.690216     -0.161349
  H      -1.048780     -0.879265     -1.875593
  H      -1.867573     -1.671839     -0.514494
  H      -2.714001     -0.500915     -1.541524
  C      -4.100426      1.977922     -0.281495
  C      -4.533975     -0.428899      0.200994
  C      -0.545772      3.922930     -0.846071
  H      -3.608753      2.888603      0.065287
  H      -3.739715      1.736866     -1.279891
  H      -5.169354      2.170975     -0.362407
  O      -5.329677     -0.466037     -0.697362
  O      -4.198824     -1.507617      0.923678
  H      -1.472295      4.261043     -1.310665
  H      -0.218820      4.632265     -0.090176
  H       0.214292      3.808055     -1.619191
  C      -4.834770     -2.724290      0.541882
  H      -4.462442     -3.480796      1.227897
  H      -5.917646     -2.633742      0.625009
  H      -4.579948     -2.981827     -0.486601
  C      -4.529254      1.143547      2.009719
  H      -4.184213      0.693471      2.931336
  H      -5.473574      1.672161      2.007978
64
Coordinates from ORCA-job orca E -1423.282265456235
  C       1.766243      0.754553     -1.073384
  H       1.872574      1.700494     -0.540169
  H       2.719092      0.505424     -1.539046
  C       1.315370     -0.337489     -0.107179
  C       2.337322     -0.551502      1.043742
  H       1.992657     -1.400697      1.638849
  H       2.271245      0.324894      1.691035
  C       3.833809     -0.791384      0.750304
  C       1.137282     -1.638498     -0.888296
  O       1.315995     -1.772369     -2.068593
  O       0.747230     -2.652051     -0.099662
  C       4.529927      0.455825      0.211947
  O       5.313969      0.472858     -0.698396
  O       4.219455      1.553645      0.918747
  C       4.089609     -1.954537     -0.205102
  H       5.156386     -2.168097     -0.265891
  H       3.580106     -2.849005      0.160059
  H       3.746364     -1.743673     -1.216372
  C       4.510808     -1.096308      2.100556
  H       4.126834     -2.037494      2.498865
  H       5.590983     -1.197427      1.977938
  H       4.318157     -0.308910      2.830026
  C       0.542996     -3.897769     -0.760441
  H       0.217652     -4.593079      0.009140
  H      -0.218500     -3.798178     -1.534329
  H       1.468964     -4.243912     -1.220215
  C       4.861533      2.755729      0.503366
  H       4.601195      2.990881     -0.529007
  H       4.500725      3.531331      1.174132
  H       5.944427      2.659235      0.579903
  H       1.056875      0.883524     -1.888572
  C      -0.002584      0.026975      0.630706
  C      -1.317825      0.375133     -0.120305
  H       0.232282      0.876141      1.275916
  H      -0.240071     -0.808450      1.292682
  C      -2.342321      0.615211      1.022797
  C      -1.137488      1.659587     -0.928616
  C      -1.762502     -0.737829     -1.065192
  C      -3.839809      0.845973      0.713437
  H      -2.280957     -0.245277      1.691356
  H      -2.005575      1.480038      1.598188
  O      -1.312870      1.767437     -2.112162
  O      -0.750736      2.689401     -0.160779
  H      -1.049176     -0.880339     -1.874633
  H      -1.867406     -1.672914     -0.513208
  H      -2.714331     -0.502210     -1.540081
  C      -4.098769      1.982237     -0.276233
  C      -4.533689     -0.425989      0.198618
  C      -0.546479      3.921926     -0.845931
  H      -3.607103      2.891614      0.073979
  H      -3.737373      1.744369     -1.275108
  H      -5.167625      2.175791     -0.357158
  O      -5.329148     -0.460008     -0.700072
  O      -4.199446     -1.507017      0.918239
  H      -1.473102      4.259929     -1.310390
  H      -0.219345      4.631447     -0.090278
  H       0.213444      3.806736     -1.619142
  C      -4.835517     -2.722327      0.532169
  H      -4.463319     -3.481236      1.215603
  H      -5.918389     -2.631906      0.615568
  H      -4.580649     -2.976279     -0.497186
  C      -4.528567      1.141145      2.012482
  H      -4.185545      0.684400      2.931627
  H      -5.470113      1.674790      2.012559
64
Coordinates from ORCA-job orca E -1423.282263832205
  C       1.766300      0.755320     -1.073018
  H       1.872723      1.701074     -0.539474
  H       2.719126      0.506261     -1.538732
  C       1.315245     -0.337002     -0.107207
  C       2.337071     -0.551581      1.043747
  H       1.992189     -1.400906      1.638539
  H       2.271162      0.324602      1.691333
  C       3.833481     -0.791699      0.750213
  C       1.137103     -1.637725     -0.888806
  O       1.316154     -1.771263     -2.069086
  O       0.746409     -2.651405     -0.100650
  C       4.529779      0.455653      0.212436
  O       5.313770      0.473026     -0.697946
  O       4.219441      1.553162      0.919783
  C       4.088921     -1.954460     -0.205781
  H       5.155638     -2.168237     -0.266845
  H       3.579264     -2.848979      0.159040
  H       3.745535     -1.743078     -1.216890
  C       4.510451     -1.097447      2.100300
  H       4.126160     -2.038661      2.498230
  H       5.590580     -1.198903      1.977566
  H       4.318122     -0.310293      2.830116
  C       0.541933     -3.896804     -0.761935
  H       0.215026     -4.592009      0.007078
  H      -0.218477     -3.796410     -1.536784
  H       1.468193     -4.243678     -1.220575
  C       4.861153      2.755513      0.504636
  H       4.600468      2.990991     -0.527580
  H       4.500389      3.530816      1.175773
  H       5.944091      2.659240      0.580826
  H       1.056989      0.884662     -1.888182
  C      -0.002801      0.027272      0.630571
  C      -1.317798      0.375771     -0.120639
  H       0.231969      0.876179      1.276139
  H      -0.240506     -0.808371      1.292189
  C      -2.342511      0.615736      1.022292
  C      -1.137014      1.660371     -0.928637
  C      -1.762341     -0.736928     -1.065879
  C      -3.840094      0.845485      0.712674
  H      -2.280762     -0.244413      1.691244
  H      -2.006304      1.481059      1.597267
  O      -1.312610      1.768647     -2.112114
  O      -0.749731      2.689802     -0.160548
  H      -1.048699     -0.879433     -1.875036
  H      -1.867649     -1.672102     -0.514111
  H      -2.713913     -0.501030     -1.541172
  C      -4.099506      1.980211     -0.278620
  C      -4.533413     -0.427514      0.199619
  C      -0.544618      3.922356     -0.845381
  H      -3.608455      2.890357      0.070449
  H      -3.737729      1.741114     -1.277081
  H      -5.168453      2.173041     -0.360058
  O      -5.328364     -0.463285     -0.699444
  O      -4.198872     -1.507300      0.920965
  H      -1.471017      4.261177     -1.309690
  H      -0.216931      4.631448     -0.089563
  H       0.215192      3.806835     -1.618657
  C      -4.833903     -2.723588      0.536322
  H      -4.461075     -3.481382      1.220648
  H      -5.916855     -2.634011      0.619631
  H      -4.578859     -2.978565     -0.492737
  C      -4.529019      1.142386      2.011287
  H      -4.187038      0.685585      2.930789
  H      -5.469529      1.677819      2.010565
