64
Coordinates from ORCA-job orca E -1423.282263832205
  C           1.76630029155612      0.75531982489561     -1.07301792037519
  H           1.87272262012924      1.70107395415239     -0.53947393797405
  H           2.71912582163847      0.50626134290553     -1.53873171914999
  C           1.31524502828962     -0.33700247673058     -0.10720716928529
  C           2.33707088757481     -0.55158094375187      1.04374737887872
  H           1.99218880541705     -1.40090593443936      1.63853904809700
  H           2.27116240234696      0.32460247700653      1.69133305535309
  C           3.83348135496986     -0.79169860821913      0.75021321185804
  C           1.13710298501858     -1.63772480195637     -0.88880561691441
  O           1.31615426155146     -1.77126310244511     -2.06908618514475
  O           0.74640937314790     -2.65140519851365     -0.10064965001240
  C           4.52977895363121      0.45565306959734      0.21243568155738
  O           5.31376986863857      0.47302590493528     -0.69794643325876
  O           4.21944097958848      1.55316239426273      0.91978329145108
  C           4.08892093023860     -1.95446000733456     -0.20578119153243
  H           5.15563798110239     -2.16823704400877     -0.26684523350027
  H           3.57926431634783     -2.84897939571232      0.15903970247776
  H           3.74553467549359     -1.74307783435027     -1.21689026094065
  C           4.51045097119306     -1.09744739912904      2.10029968626890
  H           4.12615958260316     -2.03866072985306      2.49822975444357
  H           5.59058048366022     -1.19890276110427      1.97756580921005
  H           4.31812166880167     -0.31029316224115      2.83011626721086
  C           0.54193259823568     -3.89680405186463     -0.76193510863268
  H           0.21502639373249     -4.59200911745026      0.00707807312906
  H          -0.21847664734988     -3.79640978603133     -1.53678403858413
  H           1.46819300859909     -4.24367776462338     -1.22057515502971
  C           4.86115252004970      2.75551294440564      0.50463554846906
  H           4.60046751531996      2.99099119685597     -0.52757990316136
  H           4.50038910792448      3.53081556595376      1.17577309311939
  H           5.94409145920920      2.65923980113942      0.58082629260761
  H           1.05698913384323      0.88466165066696     -1.88818215422307
  C          -0.00280086704053      0.02727208650541      0.63057143624708
  C          -1.31779760847052      0.37577071580456     -0.12063907699837
  H           0.23196851450430      0.87617941170264      1.27613919686567
  H          -0.24050565442910     -0.80837081132132      1.29218941617324
  C          -2.34251083759862      0.61573589002356      1.02229214538309
  C          -1.13701422900513      1.66037113414034     -0.92863691524764
  C          -1.76234107563870     -0.73692825075729     -1.06587883145275
  C          -3.84009409726513      0.84548480659406      0.71267398187988
  H          -2.28076240561673     -0.24441273334923      1.69124356446954
  H          -2.00630424154811      1.48105925703710      1.59726698362454
  O          -1.31260954625128      1.76864739660029     -2.11211417543831
  O          -0.74973074607461      2.68980185763559     -0.16054798608156
  H          -1.04869948850501     -0.87943288888017     -1.87503638358569
  H          -1.86764916695411     -1.67210198753875     -0.51411115707997
  H          -2.71391342544151     -0.50102950099512     -1.54117220600561
  C          -4.09950593127348      1.98021089427006     -0.27861968500367
  C          -4.53341316850132     -0.42751353300679      0.19961890763463
  C          -0.54461828691337      3.92235615536536     -0.84538074513442
  H          -3.60845548425879      2.89035670984300      0.07044908646468
  H          -3.73772927737511      1.74111436475896     -1.27708106462432
  H          -5.16845309437443      2.17304059335843     -0.36005794824009
  O          -5.32836354303564     -0.46328491654524     -0.69944372740561
  O          -4.19887172406096     -1.50730044595978      0.92096493175101
  H          -1.47101728869642      4.26117709084411     -1.30968954739128
  H          -0.21693113115108      4.63144821930863     -0.08956273274562
  H           0.21519236279726      3.80683462866266     -1.61865709553239
  C          -4.83390320247923     -2.72358809741013      0.53632215829360
  H          -4.46107504724450     -3.48138194825056      1.22064770000418
  H          -5.91685531256588     -2.63401095258745      0.61963110131905
  H          -4.57885909992078     -2.97856522003454     -0.49273665378702
  C          -4.52901850833471      1.14238583594106      2.01128715544916
  H          -4.18703760341136      0.68558539995950      2.93078889948458
  H          -5.46952911636816      1.67781883126298      2.01056505029797
