26
Coordinates from ORCA-job orca E -651.544253632460
  O      -5.292550      2.002330     -0.784300
  C      -5.077510      1.808920      0.383940
  O      -4.511000      2.733930      1.171120
  C      -4.163470      3.956760      0.545650
  H      -3.725390      4.588650      1.326310
  H      -5.052120      4.441380      0.115970
  H      -3.435520      3.786780     -0.261120
  C      -5.399490      0.523550      1.146800
  C      -6.338360      0.846690      2.345160
  H      -6.383880     -0.059420      2.967010
  C      -7.599390      1.252930      2.144220
  C      -8.047620      1.692150      3.328180
  H      -8.010390      0.895470      4.041490
  H      -7.433100      2.500970      3.664450
  H      -9.057280      2.030730      3.224000
  C      -8.522840      0.452710      1.226780
  O      -8.783270     -0.768550      1.715020
  C      -9.636080     -1.586710      0.934100
  H      -9.754240     -2.525250      1.487270
  H     -10.613730     -1.106840      0.784370
  H      -9.189610     -1.781050     -0.052430
  O      -9.013580      0.858890      0.206100
  C      -6.030510     -0.474300      0.175010
  H      -6.246190     -1.418290      0.694960
  H      -6.963550     -0.082780     -0.251200
  H      -5.369480     -0.676380     -0.676340
26
Coordinates from ORCA-job orca E -651.588570039222
  O      -5.217093      1.960750     -0.829317
  C      -5.043193      1.786070      0.348337
  O      -4.551155      2.733848      1.158895
  C      -4.228166      3.971035      0.543854
  H      -3.853190      4.618067      1.338438
  H      -5.112875      4.415851      0.076579
  H      -3.461990      3.831543     -0.226222
  C      -5.346186      0.504032      1.096642
  C      -6.289581      0.801831      2.274592
  H      -6.281657     -0.087869      2.922188
  C      -7.603233      1.238695      2.134577
  C      -8.099031      1.691582      3.387358
  H      -8.084502      0.880868      4.109374
  H      -7.487916      2.498657      3.761814
  H      -9.120394      2.043476      3.292817
  C      -8.568834      0.493992      1.231701
  O      -8.832720     -0.722843      1.721753
  C      -9.735426     -1.514398      0.964130
  H      -9.850824     -2.451438      1.510820
  H     -10.702695     -1.013132      0.859115
  H      -9.332970     -1.706161     -0.036412
  O      -9.086413      0.926922      0.237302
  C      -5.844953     -0.551578      0.121339
  H      -6.023353     -1.496804      0.645759
  H      -6.770464     -0.233310     -0.363517
  H      -5.121336     -0.726416     -0.679397
26
Coordinates from ORCA-job orca E -651.611514897460
  O      -5.274595      1.903331     -0.846219
  C      -5.086174      1.752757      0.333061
  O      -4.607045      2.719105      1.129737
  C      -4.319985      3.957411      0.493711
  H      -3.951656      4.619618      1.274309
  H      -5.217870      4.374744      0.034378
  H      -3.562230      3.825582     -0.281208
  C      -5.358429      0.486796      1.093020
  C      -6.225958      0.759079      2.274453
  H      -6.166858     -0.104877      2.953825
  C      -7.554987      1.233832      2.174450
  C      -8.112945      1.676222      3.462715
  H      -8.144184      0.842646      4.172163
  H      -7.501284      2.464263      3.892272
  H      -9.131312      2.051514      3.353407
  C      -8.516743      0.564374      1.230285
  O      -8.796740     -0.664959      1.676991
  C      -9.705920     -1.418120      0.880868
  H      -9.834824     -2.369500      1.391873
  H     -10.662540     -0.901782      0.789203
  H      -9.297877     -1.576589     -0.119070
  O      -9.009076      1.040957      0.244998
  C      -5.812929     -0.625577      0.177007
  H      -5.939839     -1.557061      0.735137
  H      -6.763534     -0.360261     -0.293691
  H      -5.094620     -0.800236     -0.625154
26
Coordinates from ORCA-job orca E -651.635570671755
  O      -5.297241      1.764448     -0.874725
  C      -5.138241      1.686057      0.317198
  O      -4.751656      2.718908      1.080182
  C      -4.541890      3.945220      0.388240
  H      -4.242389      4.667321      1.142976
  H      -5.456862      4.270651     -0.106753
  H      -3.759173      3.832842     -0.362370
  C      -5.345106      0.448402      1.121907
  C      -6.160997      0.683141      2.299326
  H      -6.034655     -0.131935      3.026006
  C      -7.481149      1.204362      2.255911
  C      -8.080652      1.604305      3.577184
  H      -8.173944      0.733051      4.239488
  H      -7.450368      2.339110      4.076114
  H      -9.081386      2.027105      3.463940
  C      -8.455745      0.681768      1.246241
  O      -8.805969     -0.561897      1.598706
  C      -9.753802     -1.198502      0.741221
  H      -9.937040     -2.176478      1.177002
  H     -10.677035     -0.622502      0.690962
  H      -9.347333     -1.299832     -0.265008
  O      -8.910980      1.258747      0.298427
  C      -5.631120     -0.765412      0.281679
  H      -5.670958     -1.667752      0.895360
  H      -6.593092     -0.635538     -0.220982
  H      -4.871367     -0.912318     -0.485715
26
Coordinates from ORCA-job orca E -651.665544335872
  O      -5.349933      1.511320     -0.899885
  C      -5.242927      1.556905      0.301409
  O      -5.008201      2.689596      0.980373
  C      -4.927169      3.868590      0.183401
  H      -4.738676      4.682453      0.877173
  H      -5.860057      4.034226     -0.353520
  H      -4.115181      3.786664     -0.538060
  C      -5.329655      0.378388      1.195690
  C      -6.085143      0.570987      2.376924
  H      -5.872029     -0.178773      3.147948
  C      -7.369867      1.143553      2.407646
  C      -8.028286      1.455171      3.756884
  H      -8.219823      0.531812      4.322700
  H      -7.377463      2.088102      4.361589
  H      -8.992874      1.956116      3.641266
  C      -8.336689      0.870345      1.303200
  O      -8.793913     -0.381213      1.460636
  C      -9.766295     -0.799988      0.497172
  H     -10.036753     -1.813149      0.777440
  H     -10.637131     -0.147626      0.523716
  H      -9.338708     -0.780686     -0.503939
  O      -8.704740      1.608810      0.433631
  C      -5.362211     -0.933881      0.477805
  H      -5.269063     -1.771964      1.170457
  H      -6.322053     -1.013222     -0.039305
  H      -4.565309     -1.019267     -0.259831
26
Coordinates from ORCA-job orca E -651.691548049740
  O      -5.372259      1.223111     -0.908701
  C      -5.342449      1.393181      0.287151
  O      -5.316721      2.606081      0.858346
  C      -5.391765      3.701206     -0.051926
  H      -5.361046      4.596019      0.562682
  H      -6.319113      3.659422     -0.621158
  H      -4.549564      3.681837     -0.742421
  C      -5.311073      0.294599      1.277012
  C      -6.032379      0.447926      2.470623
  H      -5.743317     -0.243139      3.267294
  C      -7.270241      1.052927      2.564430
  C      -7.984500      1.266403      3.917362
  H      -8.278381      0.306885      4.363749
  H      -7.323016      1.774319      4.621121
  H      -8.899793      1.852372      3.808383
  C      -8.196906      1.063669      1.394885
  O      -8.767286     -0.150028      1.312617
  C      -9.727234     -0.299101      0.258629
  H     -10.095028     -1.316806      0.343741
  H     -10.539135      0.415778      0.378218
  H      -9.252038     -0.141255     -0.707721
  O      -8.458073      1.970791      0.655760
  C      -5.061896     -1.054147      0.688459
  H      -4.844834     -1.797368      1.457628
  H      -5.974770     -1.356299      0.168850
  H      -4.237333     -1.055111     -0.022491
26
Coordinates from ORCA-job orca E -651.704434530872
  O      -5.364372      1.029948     -0.919843
  C      -5.410848      1.274579      0.263352
  O      -5.532282      2.513945      0.755282
  C      -5.710336      3.537693     -0.220380
  H      -5.792667      4.465069      0.339565
  H      -6.618682      3.355917     -0.793404
  H      -4.857199      3.572924     -0.897864
  C      -5.309126      0.240705      1.315301
  C      -6.026145      0.370253      2.525618
  H      -5.678365     -0.261449      3.344319
  C      -7.236929      0.974460      2.659932
  C      -7.960180      1.113599      4.005309
  H      -8.306336      0.138576      4.364207
  H      -7.290273      1.532946      4.756322
  H      -8.840463      1.751217      3.919716
  C      -8.128423      1.183072      1.476410
  O      -8.756967      0.027243      1.208039
  C      -9.681698      0.078917      0.115194
  H     -10.107081     -0.918174      0.046943
  H     -10.458557      0.817065      0.309941
  H      -9.161320      0.339827     -0.805212
  O      -8.317436      2.195633      0.860113
  C      -4.848681     -1.097280      0.837755
  H      -4.563698     -1.745608      1.668889
  H      -5.686232     -1.568288      0.314897
  H      -4.005855     -1.029519      0.152119
26
Coordinates from ORCA-job orca E -651.709765121186
  O      -5.295064      0.969805     -0.960532
  C      -5.413582      1.260508      0.208011
  O      -5.527469      2.517284      0.646631
  C      -5.652387      3.512296     -0.364614
  H      -5.735737      4.458211      0.163996
  H      -6.546810      3.330096     -0.959054
  H      -4.775749      3.510191     -1.013641
  C      -5.336709      0.268444      1.300800
  C      -6.074297      0.378359      2.516776
  H      -5.671040     -0.190561      3.353597
  C      -7.295264      0.921042      2.691647
  C      -7.974505      0.965727      4.042182
  H      -8.287156     -0.034596      4.348883
  H      -7.295149      1.359065      4.796791
  H      -8.864859      1.590834      4.008061
  C      -8.223144      1.203584      1.543304
  O      -8.820681      0.061117      1.174056
  C      -9.771617      0.185942      0.112603
  H     -10.166707     -0.814246     -0.045093
  H     -10.568066      0.874518      0.395023
  H      -9.281646      0.553142     -0.789079
  O      -8.477594      2.265686      1.043753
  C      -4.747277     -1.051694      0.923190
  H      -4.467634     -1.630005      1.806572
  H      -5.506019     -1.622682      0.377969
  H      -3.873990     -0.948795      0.280689
26
Coordinates from ORCA-job orca E -651.714729730922
  O      -5.325699      0.783924     -0.975695
  C      -5.438549      1.135280      0.177617
  O      -5.690658      2.389655      0.552154
  C      -5.938578      3.320146     -0.496254
  H      -6.123145      4.271683     -0.005263
  H      -6.815848      3.016399     -1.066576
  H      -5.074983      3.388728     -1.158673
  C      -5.336180      0.211375      1.315475
  C      -6.078049      0.328930      2.526460
  H      -5.636144     -0.176489      3.383681
  C      -7.291284      0.865623      2.738865
  C      -7.947974      0.821029      4.081445
  H      -8.301683     -0.188062      4.299084
  H      -7.247338      1.117024      4.860699
  H      -8.804779      1.491677      4.112227
  C      -8.203454      1.319960      1.631096
  O      -8.763403      0.251941      1.048352
  C      -9.677261      0.536777     -0.012208
  H     -10.043860     -0.428719     -0.350942
  H     -10.499486      1.154971      0.348624
  H      -9.164555      1.057612     -0.821071
  O      -8.466683      2.449546      1.319961
  C      -4.579179     -1.052902      1.074091
  H      -4.286808     -1.518449      2.017007
  H      -5.221762     -1.762635      0.541474
  H      -3.692810     -0.891754      0.460889
26
Coordinates from ORCA-job orca E -651.719677114725
  O      -5.388305      0.544999     -0.987823
  C      -5.617144      0.933761      0.136078
  O      -5.959833      2.185812      0.436540
  C      -6.258837      3.046384     -0.658008
  H      -6.516173      4.003720     -0.215423
  H      -7.107195      2.660026     -1.222799
  H      -5.395580      3.142365     -1.315545
  C      -5.383225      0.124696      1.328716
  C      -6.096364      0.254386      2.538433
  H      -5.612762     -0.210168      3.397514
  C      -7.307396      0.802981      2.803221
  C      -7.947412      0.678328      4.147390
  H      -8.369130     -0.322523      4.275598
  H      -7.221407      0.849312      4.943740
  H      -8.753313      1.403550      4.265663
  C      -8.184084      1.433931      1.762992
  O      -8.607679      0.504050      0.898055
  C      -9.464489      0.966640     -0.146158
  H      -9.721431      0.086200     -0.727775
  H     -10.360285      1.427571      0.268563
  H      -8.943535      1.693352     -0.768818
  O      -8.534961      2.580748      1.730030
  C      -4.406323     -0.996178      1.206399
  H      -4.045706     -1.300700      2.188899
  H      -4.886405     -1.867410      0.747114
  H      -3.561176     -0.732562      0.569922
26
Coordinates from ORCA-job orca E -651.721495550126
  O      -5.339977      0.411940     -0.999277
  C      -5.636337      0.818583      0.100917
  O      -6.142484      2.032845      0.330485
  C      -6.400593      2.848132     -0.809143
  H      -6.830162      3.766947     -0.421531
  H      -7.110851      2.362056     -1.477283
  H      -5.477648      3.046968     -1.351857
  C      -5.391036      0.072935      1.337943
  C      -6.119579      0.202720      2.529560
  H      -5.649020     -0.285787      3.382509
  C      -7.331349      0.769761      2.824915
  C      -7.946231      0.595771      4.173562
  H      -8.419218     -0.388307      4.249316
  H      -7.197170      0.673413      4.964509
  H      -8.705997      1.354687      4.363928
  C      -8.196126      1.500288      1.848528
  O      -8.481080      0.721431      0.795510
  C      -9.388769      1.260947     -0.164686
  H      -9.508869      0.492201     -0.922306
  H     -10.345768      1.494767      0.300402
  H      -8.979794      2.165738     -0.610654
  O      -8.692392      2.574916      2.040411
  C      -4.296936     -0.941934      1.294038
  H      -3.942984     -1.167996      2.299297
  H      -4.655906     -1.877919      0.851263
  H      -3.463875     -0.611833      0.672164
26
Coordinates from ORCA-job orca E -651.721447914822
  O      -5.198501      0.468043     -1.019496
  C      -5.527802      0.870744      0.069180
  O      -6.034854      2.098590      0.262243
  C      -6.053072      2.956462     -0.876040
  H      -6.550360      3.867474     -0.551719
  H      -6.600741      2.501839     -1.700731
  H      -5.037142      3.162927     -1.210617
  C      -5.382982      0.090049      1.320304
  C      -6.152821      0.205288      2.481564
  H      -5.723858     -0.337930      3.322753
  C      -7.379592      0.774276      2.775008
  C      -7.947348      0.637394      4.154039
  H      -8.425065     -0.340383      4.271131
  H      -7.170697      0.721090      4.917319
  H      -8.692853      1.404541      4.358575
  C      -8.285553      1.466729      1.818332
  O      -8.636568      0.664772      0.798119
  C      -9.720493      1.110635     -0.016075
  H      -9.855435      0.345054     -0.775550
  H     -10.625292      1.223402      0.581037
  H      -9.489002      2.063947     -0.483997
  O      -8.808905      2.519640      2.055988
  C      -4.293553     -0.935902      1.279603
  H      -3.979858     -1.209993      2.286640
  H      -4.644568     -1.845305      0.779621
  H      -3.433237     -0.590113      0.705288
26
Coordinates from ORCA-job orca E -651.723172299562
  O      -5.334913      0.516860     -1.004433
  C      -5.624410      0.895574      0.103066
  O      -6.072122      2.137616      0.349975
  C      -6.117485      3.011420     -0.773576
  H      -6.561623      3.935288     -0.409904
  H      -6.720808      2.585185     -1.574951
  H      -5.111340      3.188263     -1.155205
  C      -5.444997      0.079015      1.326918
  C      -6.169338      0.196282      2.515159
  H      -5.716382     -0.337294      3.348594
  C      -7.381041      0.772946      2.820932
  C      -7.892809      0.738367      4.231634
  H      -8.355389     -0.229713      4.443739
  H      -7.086079      0.885239      4.950604
  H      -8.639404      1.511502      4.400070
  C      -8.338356      1.371607      1.846279
  O      -8.583520      0.553657      0.810056
  C      -9.551819      1.017352     -0.128393
  H      -9.619198      0.244709     -0.890296
  H     -10.515865      1.159338      0.361362
  H      -9.241990      1.961916     -0.573600
  O      -8.782635      2.483898      1.939655
  C      -4.393948     -0.981535      1.198909
  H      -4.048691     -1.310594      2.179379
  H      -4.803096     -1.852627      0.677597
  H      -3.542893     -0.641000      0.608951
26
Coordinates from ORCA-job orca E -651.725378335593
  O      -5.385096      0.537891     -0.979981
  C      -5.665178      0.887488      0.140069
  O      -6.098982      2.120658      0.438590
  C      -6.244043      3.005531     -0.666204
  H      -6.658767      3.921486     -0.253588
  H      -6.911825      2.581519     -1.416780
  H      -5.273927      3.196164     -1.127454
  C      -5.452281      0.048391      1.332088
  C      -6.154220      0.166073      2.525180
  H      -5.704333     -0.360936      3.364428
  C      -7.341294      0.781108      2.810720
  C      -7.873111      0.814433      4.216186
  H      -8.377260     -0.126765      4.454907
  H      -7.070316      0.955256      4.939682
  H      -8.593827      1.620717      4.339685
  C      -8.255864      1.376060      1.792302
  O      -8.511970      0.524629      0.790905
  C      -9.432134      1.001244     -0.187406
  H      -9.520955      0.205209     -0.921946
  H     -10.398955      1.208296      0.272626
  H      -9.060583      1.914723     -0.654665
  O      -8.767153      2.460441      1.885800
  C      -4.417728     -1.020594      1.165659
  H      -4.068211     -1.380605      2.133750
  H      -4.846608     -1.870761      0.626479
  H      -3.565528     -0.674387      0.581489
26
Coordinates from ORCA-job orca E -651.726095743956
  O      -5.346011      0.507694     -0.988161
  C      -5.654721      0.859398      0.123392
  O      -6.137161      2.081068      0.396626
  C      -6.273038      2.956787     -0.717871
  H      -6.746506      3.854288     -0.328537
  H      -6.885140      2.502952     -1.497765
  H      -5.293552      3.189643     -1.136874
  C      -5.457224      0.029832      1.328190
  C      -6.172404      0.143600      2.518744
  H      -5.727102     -0.392186      3.355834
  C      -7.359879      0.767063      2.819826
  C      -7.859797      0.803004      4.232840
  H      -8.386500     -0.125645      4.474560
  H      -7.039095      0.913733      4.941891
  H      -8.553511      1.629606      4.376311
  C      -8.282848      1.379277      1.824436
  O      -8.487424      0.587657      0.762958
  C      -9.420466      1.080973     -0.195062
  H      -9.447227      0.341596     -0.990979
  H     -10.405783      1.192479      0.257901
  H      -9.101087      2.048539     -0.582183
  O      -8.856108      2.422860      1.994565
  C      -4.390008     -1.010099      1.192070
  H      -4.065922     -1.367241      2.169835
  H      -4.773484     -1.867772      0.630521
  H      -3.528149     -0.635839      0.639454
26
Coordinates from ORCA-job orca E -651.726550133516
  O      -5.371027      0.534781     -0.988726
  C      -5.652685      0.880531      0.131714
  O      -6.107709      2.109550      0.422711
  C      -6.261561      2.993162     -0.683951
  H      -6.718162      3.892714     -0.279039
  H      -6.894240      2.548485     -1.452528
  H      -5.290487      3.221014     -1.124562
  C      -5.473122      0.023318      1.324461
  C      -6.184560      0.133406      2.519310
  H      -5.737793     -0.405766      3.353405
  C      -7.367312      0.769751      2.825550
  C      -7.834894      0.856247      4.247173
  H      -8.376240     -0.052710      4.528635
  H      -6.996559      0.969764      4.934577
  H      -8.509242      1.700614      4.377046
  C      -8.307637      1.344464      1.827208
  O      -8.479620      0.548026      0.762758
  C      -9.395715      1.026138     -0.219616
  H      -9.385308      0.289187     -1.018211
  H     -10.395590      1.117830      0.204886
  H      -9.083967      2.000708     -0.594061
  O      -8.917567      2.368241      1.995589
  C      -4.424492     -1.031938      1.166278
  H      -4.129608     -1.439142      2.133719
  H      -4.812634     -1.854180      0.557278
  H      -3.542418     -0.650926      0.650916
26
Coordinates from ORCA-job orca E -651.727040323018
  O      -5.405105      0.554521     -0.989475
  C      -5.686554      0.881935      0.136128
  O      -6.098185      2.120522      0.451872
  C      -6.235727      3.026778     -0.638888
  H      -6.681091      3.925081     -0.219148
  H      -6.870635      2.604424     -1.417609
  H      -5.260887      3.250522     -1.073111
  C      -5.513803     -0.000565      1.313740
  C      -6.212556      0.105675      2.509097
  H      -5.756461     -0.430587      3.339644
  C      -7.384686      0.766604      2.829739
  C      -7.789272      0.937852      4.262672
  H      -8.367266      0.074145      4.608600
  H      -6.919422      1.036938      4.911736
  H      -8.415598      1.821307      4.371910
  C      -8.355195      1.288669      1.836366
  O      -8.453591      0.516779      0.744891
  C      -9.368666      0.968706     -0.250479
  H      -9.270111      0.273383     -1.079645
  H     -10.387840      0.964600      0.136135
  H      -9.120103      1.980753     -0.567588
  O      -9.035313      2.266337      2.019786
  C      -4.464368     -1.051111      1.135888
  H      -4.216523     -1.523305      2.086440
  H      -4.824527     -1.825776      0.452927
  H      -3.556667     -0.640917      0.690893
26
Coordinates from ORCA-job orca E -651.727224776989
  O      -5.443162      0.545620     -0.992357
  C      -5.699898      0.876052      0.138299
  O      -6.082295      2.119471      0.466197
  C      -6.233773      3.027723     -0.620471
  H      -6.661126      3.929955     -0.191329
  H      -6.890851      2.612283     -1.384273
  H      -5.266315      3.242271     -1.075582
  C      -5.526369     -0.013630      1.309561
  C      -6.223953      0.089913      2.500198
  H      -5.770293     -0.450594      3.329674
  C      -7.389750      0.768358      2.827379
  C      -7.768504      0.971910      4.262633
  H      -8.379712      0.139273      4.628069
  H      -6.886759      1.042734      4.899016
  H      -8.357058      1.882332      4.364886
  C      -8.373453      1.271047      1.838313
  O      -8.435413      0.519410      0.731040
  C      -9.356833      0.959859     -0.262497
  H      -9.209972      0.299520     -1.112821
  H     -10.380269      0.891259      0.106408
  H      -9.154279      1.994287     -0.540037
  O      -9.095482      2.216964      2.032965
  C      -4.467872     -1.054756      1.132006
  H      -4.262573     -1.569571      2.070073
  H      -4.792994     -1.795098      0.396176
  H      -3.541192     -0.623321      0.748993
26
Coordinates from ORCA-job orca E -651.727343754358
  O      -5.483908      0.523170     -0.998026
  C      -5.711235      0.865785      0.135340
  O      -6.066309      2.115116      0.465814
  C      -6.230986      3.019352     -0.622130
  H      -6.630775      3.931899     -0.188291
  H      -6.918373      2.611879     -1.363157
  H      -5.272580      3.213014     -1.104741
  C      -5.525292     -0.017864      1.309283
  C      -6.225411      0.084565      2.495222
  H      -5.778264     -0.461253      3.324987
  C      -7.389147      0.772150      2.824487
  C      -7.768994      0.971966      4.259725
  H      -8.410078      0.157034      4.613805
  H      -6.888538      1.008772      4.900757
  H      -8.329709      1.899616      4.368544
  C      -8.373846      1.277417      1.838608
  O      -8.428155      0.533840      0.725269
  C      -9.359986      0.966896     -0.261311
  H      -9.196754      0.323235     -1.121514
  H     -10.381106      0.866201      0.106672
  H      -9.183696      2.010419     -0.523034
  O      -9.106757      2.214296      2.037531
  C      -4.452628     -1.045876      1.139117
  H      -4.268047     -1.577777      2.071564
  H      -4.750129     -1.771877      0.378302
  H      -3.519446     -0.598705      0.789698
26
Coordinates from ORCA-job orca E -651.727441412440
  O      -5.533853      0.495512     -1.003753
  C      -5.722775      0.855723      0.130908
  O      -6.045283      2.113315      0.458595
  C      -6.220916      3.010081     -0.634148
  H      -6.583722      3.937796     -0.199701
  H      -6.944373      2.613901     -1.346509
  H      -5.273521      3.171952     -1.148818
  C      -5.522151     -0.018341      1.312071
  C      -6.224658      0.083431      2.494183
  H      -5.781349     -0.461674      3.326248
  C      -7.388525      0.774505      2.823895
  C      -7.776087      0.962126      4.258038
  H      -8.455503      0.169288      4.589456
  H      -6.902086      0.952382      4.908633
  H      -8.301599      1.908963      4.379510
  C      -8.373461      1.284955      1.842212
  O      -8.423192      0.549891      0.721760
  C      -9.367810      0.975387     -0.255758
  H      -9.191213      0.349105     -1.126264
  H     -10.384660      0.841859      0.113999
  H      -9.219765      2.026934     -0.502054
  O      -9.111558      2.216673      2.046139
  C      -4.434235     -1.031284      1.147604
  H      -4.267391     -1.581041      2.072738
  H      -4.703491     -1.741332      0.361990
  H      -3.496974     -0.566839      0.831546
26
Coordinates from ORCA-job orca E -651.727512317307
  O      -5.564373      0.474162     -1.006972
  C      -5.732438      0.846255      0.126629
  O      -6.038657      2.108900      0.449005
  C      -6.218276      2.999470     -0.648662
  H      -6.563146      3.935504     -0.217297
  H      -6.958015      2.607859     -1.346797
  H      -5.276244      3.143754     -1.177889
  C      -5.520442     -0.018406      1.315251
  C      -6.224061      0.083243      2.496714
  H      -5.780306     -0.456785      3.331623
  C      -7.388874      0.773210      2.826239
  C      -7.781020      0.952193      4.259116
  H      -8.497405      0.184344      4.570382
  H      -6.914408      0.896170      4.916928
  H      -8.269429      1.917169      4.393094
  C      -8.374685      1.287602      1.848404
  O      -8.420927      0.561110      0.721157
  C      -9.369668      0.987097     -0.252124
  H      -9.184036      0.374582     -1.130578
  H     -10.384787      0.833849      0.115095
  H      -9.236915      2.043659     -0.484555
  O      -9.115935      2.215215      2.058946
  C      -4.420717     -1.018797      1.153680
  H      -4.266061     -1.583989      2.071523
  H      -4.667676     -1.714647      0.348363
  H      -3.481647     -0.539453      0.865246
26
Coordinates from ORCA-job orca E -651.727618105496
  O      -5.595703      0.451716     -1.009658
  C      -5.743006      0.836746      0.121785
  O      -6.034825      2.105054      0.436379
  C      -6.217408      2.988022     -0.667578
  H      -6.546827      3.931788     -0.240961
  H      -6.969835      2.599107     -1.353586
  H      -5.279931      3.115862     -1.208838
  C      -5.517819     -0.015359      1.319761
  C      -6.220741      0.087126      2.502845
  H      -5.772130     -0.442549      3.341432
  C      -7.388141      0.770230      2.830844
  C      -7.787418      0.939703      4.261631
  H      -8.562076      0.218269      4.542120
  H      -6.937312      0.808385      4.929585
  H      -8.212341      1.931750      4.415216
  C      -8.375586      1.287475      1.856519
  O      -8.420422      0.567748      0.723955
  C      -9.369605      0.997555     -0.247276
  H      -9.176101      0.397676     -1.132780
  H     -10.384321      0.829343      0.114887
  H      -9.247299      2.058144     -0.465891
  O      -9.118738      2.211515      2.074420
  C      -4.407762     -1.003925      1.158431
  H      -4.268342     -1.591827      2.064416
  H      -4.630519     -1.677797      0.327957
  H      -3.465941     -0.508488      0.906908
26
Coordinates from ORCA-job orca E -651.727759904471
  O      -5.610249      0.435238     -1.011663
  C      -5.748558      0.830222      0.116869
  O      -6.039005      2.102297      0.421783
  C      -6.224088      2.976339     -0.689264
  H      -6.549947      3.924144     -0.269056
  H      -6.978592      2.583055     -1.370477
  H      -5.288106      3.097360     -1.234733
  C      -5.511690     -0.007398      1.324036
  C      -6.212786      0.096892      2.511144
  H      -5.756286     -0.421715      3.352037
  C      -7.384827      0.766106      2.836618
  C      -7.796039      0.923323      4.264457
  H      -8.645577      0.274641      4.501414
  H      -6.978998      0.686674      4.943907
  H      -8.128952      1.945592      4.448203
  C      -8.372660      1.287598      1.864070
  O      -8.423800      0.568054      0.731619
  C      -9.368716      1.006207     -0.240205
  H      -9.174767      0.410770     -1.128601
  H     -10.385155      0.838484      0.117558
  H      -9.243431      2.067736     -0.451822
  O      -9.110764      2.213849      2.087210
  C      -4.395865     -0.989331      1.162839
  H      -4.270890     -1.598504      2.056932
  H      -4.599616     -1.641691      0.310956
  H      -3.450786     -0.482669      0.946689
26
Coordinates from ORCA-job orca E -651.727905730355
  O      -5.596294      0.437721     -1.012910
  C      -5.745450      0.831254      0.114554
  O      -6.052994      2.102089      0.415016
  C      -6.237111      2.972841     -0.698752
  H      -6.580494      3.916035     -0.282203
  H      -6.975512      2.568198     -1.390799
  H      -5.296289      3.107173     -1.233034
  C      -5.505603      0.000472      1.325068
  C      -6.204439      0.106239      2.516960
  H      -5.739473     -0.405183      3.357361
  C      -7.381125      0.760041      2.839650
  C      -7.798755      0.918494      4.264956
  H      -8.729818      0.378384      4.462779
  H      -7.033090      0.557927      4.949377
  H      -8.005808      1.968064      4.481570
  C      -8.369771      1.281593      1.866191
  O      -8.430339      0.556253      0.738957
  C      -9.369375      1.001047     -0.235821
  H      -9.177706      0.403951     -1.123578
  H     -10.388475      0.841901      0.118267
  H      -9.234877      2.061588     -0.446431
  O      -9.101169      2.212168      2.091514
  C      -4.391004     -0.983301      1.163607
  H      -4.282251     -1.611655      2.046597
  H      -4.582791     -1.615733      0.294607
  H      -3.440136     -0.474293      0.979019
26
Coordinates from ORCA-job orca E -651.728037404290
  O      -5.545643      0.470782     -1.009714
  C      -5.729568      0.845520      0.119710
  O      -6.071540      2.106900      0.426855
  C      -6.250776      2.985755     -0.680550
  H      -6.630340      3.913722     -0.261229
  H      -6.957348      2.568806     -1.398031
  H      -5.300543      3.154124     -1.188295
  C      -5.503141      0.003253      1.321123
  C      -6.200340      0.109326      2.515827
  H      -5.733404     -0.407160      3.352262
  C      -7.378663      0.757195      2.836494
  C      -7.793130      0.932034      4.261821
  H      -8.741231      0.423634      4.459954
  H      -7.039973      0.547389      4.947528
  H      -7.963481      1.988998      4.476158
  C      -8.364744      1.274942      1.856700
  O      -8.435432      0.535182      0.741171
  C      -9.368960      0.980263     -0.239038
  H      -9.190897      0.364423     -1.116665
  H     -10.390233      0.848482      0.119631
  H      -9.212935      2.034128     -0.468095
  O      -9.085909      2.215702      2.072580
  C      -4.403882     -0.997683      1.156815
  H      -4.290525     -1.614631      2.047333
  H      -4.618462     -1.642149      0.302070
  H      -3.449049     -0.505667      0.950106
26
Coordinates from ORCA-job orca E -651.728129527543
  O      -5.498556      0.508262     -1.003465
  C      -5.712929      0.862556      0.128265
  O      -6.080664      2.113806      0.445907
  C      -6.259883      3.003205     -0.652052
  H      -6.663097      3.918276     -0.226488
  H      -6.947381      2.581981     -1.385382
  H      -5.305744      3.197544     -1.143157
  C      -5.501267      0.003191      1.315693
  C      -6.197884      0.107745      2.511154
  H      -5.732848     -0.417717      3.343285
  C      -7.377068      0.755277      2.830065
  C      -7.787232      0.951870      4.254792
  H      -8.751886      0.478205      4.457137
  H      -7.045977      0.546216      4.941841
  H      -7.917850      2.016345      4.461347
  C      -8.358630      1.268946      1.842766
  O      -8.437648      0.513502      0.739684
  C      -9.372148      0.950858     -0.243305
  H      -9.207579      0.315415     -1.109393
  H     -10.392527      0.840978      0.124705
  H      -9.202101      1.997556     -0.494781
  O      -9.070772      2.219915      2.044809
  C      -4.416849     -1.013226      1.148235
  H      -4.295736     -1.614535      2.048186
  H      -4.655687     -1.673231      0.311702
  H      -3.460208     -0.539668      0.910969
26
Coordinates from ORCA-job orca E -651.728163705798
  O      -5.480788      0.519599     -1.000345
  C      -5.706497      0.866961      0.131802
  O      -6.085073      2.113290      0.452853
  C      -6.266197      3.005860     -0.641940
  H      -6.676132      3.916972     -0.214255
  H      -6.950283      2.583520     -1.377874
  H      -5.312025      3.207818     -1.129714
  C      -5.499930      0.000686      1.314157
  C      -6.197789      0.103766      2.508630
  H      -5.735002     -0.424270      3.340416
  C      -7.377397      0.752434      2.826703
  C      -7.786545      0.956535      4.250582
  H      -8.762506      0.506659      4.451764
  H      -7.054960      0.533853      4.937854
  H      -7.890366      2.024207      4.456860
  C      -8.355309      1.268607      1.837294
  O      -8.436899      0.510403      0.736163
  C      -9.374099      0.945408     -0.245309
  H      -9.215771      0.303935     -1.108109
  H     -10.392918      0.841598      0.128658
  H      -9.201126      1.989763     -0.504558
  O      -9.063452      2.223500      2.035376
  C      -4.416419     -1.016467      1.147646
  H      -4.286389     -1.605728      2.054223
  H      -4.663215     -1.688606      0.322836
  H      -3.463062     -0.547033      0.890806
26
Coordinates from ORCA-job orca E -651.728183555762
  O      -5.475906      0.523611     -0.998582
  C      -5.704590      0.868943      0.133776
  O      -6.084293      2.113469      0.456847
  C      -6.264790      3.008317     -0.636342
  H      -6.671241      3.920153     -0.206834
  H      -6.953415      2.589423     -1.370033
  H      -5.311285      3.207551     -1.126171
  C      -5.500125     -0.001873      1.313824
  C      -6.199540      0.099437      2.507042
  H      -5.739074     -0.428946      3.339946
  C      -7.379663      0.749667      2.824615
  C      -7.788017      0.957583      4.248048
  H      -8.771131      0.523866      4.448790
  H      -7.062442      0.523919      4.934944
  H      -7.873777      2.026955      4.454835
  C      -8.355173      1.267981      1.834689
  O      -8.435666      0.510255      0.732375
  C      -9.376865      0.942203     -0.246549
  H      -9.222626      0.297306     -1.107542
  H     -10.393702      0.839673      0.133095
  H      -9.205241      1.985404     -0.511146
  O      -9.062599      2.223704      2.031266
  C      -4.413960     -1.015637      1.147379
  H      -4.268708     -1.589796      2.061293
  H      -4.668853     -1.702838      0.337162
  H      -3.467467     -0.547061      0.865792
26
Coordinates from ORCA-job orca E -651.728190456286
  O      -5.474590      0.523887     -0.997555
  C      -5.704109      0.869659      0.134437
  O      -6.083917      2.113666      0.457456
  C      -6.262645      3.009180     -0.635783
  H      -6.663795      3.923088     -0.205703
  H      -6.956092      2.593606     -1.366842
  H      -5.309468      3.202988     -1.128179
  C      -5.499690     -0.002085      1.314683
  C      -6.200525      0.097705      2.507074
  H      -5.741276     -0.429426      3.341409
  C      -7.381682      0.747103      2.823893
  C      -7.790738      0.954048      4.247143
  H      -8.778555      0.530418      4.445428
  H      -7.069908      0.511757      4.933548
  H      -7.865239      2.023730      4.457415
  C      -8.356159      1.267237      1.834273
  O      -8.435983      0.510622      0.730476
  C      -9.378267      0.942887     -0.247213
  H      -9.229336      0.294178     -1.106273
  H     -10.394222      0.845583      0.136189
  H      -9.203746      1.984364     -0.516583
  O      -9.063280      2.222974      2.031071
  C      -4.410974     -1.012672      1.147991
  H      -4.246608     -1.568944      2.069758
  H      -4.676387     -1.717133      0.355816
  H      -3.472958     -0.545151      0.838592
26
Coordinates from ORCA-job orca E -651.728196875477
  O      -5.478075      0.522573     -0.997410
  C      -5.705504      0.870013      0.134290
  O      -6.082976      2.114922      0.456670
  C      -6.258764      3.010420     -0.637342
  H      -6.654243      3.926877     -0.207454
  H      -6.955884      2.597964     -1.366674
  H      -5.305381      3.198039     -1.131656
  C      -5.499757     -0.000597      1.315844
  C      -6.201130      0.098180      2.507856
  H      -5.741964     -0.427609      3.343050
  C      -7.383087      0.746332      2.824360
  C      -7.792244      0.951163      4.247881
  H      -8.780973      0.529190      4.444977
  H      -7.072416      0.506420      4.933723
  H      -7.865057      2.020474      4.460764
  C      -8.358721      1.265447      1.835564
  O      -8.435404      0.511019      0.729727
  C      -9.377751      0.943414     -0.247796
  H      -9.229924      0.293979     -1.106493
  H     -10.393703      0.847473      0.135980
  H      -9.202518      1.984541     -0.518047
  O      -9.069083      2.218288      2.034199
  C      -4.410412     -1.010279      1.147868
  H      -4.231408     -1.553780      2.074609
  H      -4.685220     -1.726691      0.369537
  H      -3.478549     -0.544501      0.818493
26
Coordinates from ORCA-job orca E -651.728202948121
  O      -5.479741      0.522714     -0.997361
  C      -5.706332      0.870923      0.134096
  O      -6.083166      2.116497      0.455967
  C      -6.256994      3.011793     -0.638642
  H      -6.649635      3.929566     -0.209016
  H      -6.955228      2.600806     -1.367751
  H      -5.303233      3.196186     -1.133516
  C      -5.499373      0.001919      1.316726
  C      -6.200970      0.099890      2.508753
  H      -5.741222     -0.425115      3.344079
  C      -7.383541      0.746502      2.825147
  C      -7.792243      0.949898      4.248929
  H      -8.781883      0.529476      4.444778
  H      -7.073719      0.502472      4.934350
  H      -7.863749      2.018819      4.464132
  C      -8.361303      1.262912      1.837075
  O      -8.434155      0.510766      0.729496
  C      -9.375516      0.943410     -0.248817
  H      -9.226563      0.294609     -1.107795
  H     -10.392113      0.847498      0.133234
  H      -9.199873      1.984776     -0.518043
  O      -9.076310      2.211771      2.037993
  C      -4.411708     -1.009541      1.147417
  H      -4.222611     -1.543957      2.077531
  H      -4.695503     -1.734189      0.379919
  H      -3.483467     -0.547129      0.803840
26
Coordinates from ORCA-job orca E -651.728205560056
  O      -5.479846      0.523683     -0.997368
  C      -5.706201      0.871825      0.134138
  O      -6.082930      2.117674      0.456022
  C      -6.256429      3.012807     -0.638674
  H      -6.649142      3.930630     -0.209227
  H      -6.954099      2.601713     -1.368262
  H      -5.302490      3.197240     -1.133276
  C      -5.499105      0.003350      1.316807
  C      -6.200783      0.100885      2.508717
  H      -5.740608     -0.424492      3.343582
  C      -7.383382      0.747236      2.825413
  C      -7.791115      0.950926      4.249374
  H      -8.780578      0.530196      4.445561
  H      -7.072413      0.503422      4.934542
  H      -7.863146      2.019772      4.464649
  C      -8.362713      1.261320      1.837709
  O      -8.432739      0.510895      0.728997
  C      -9.374277      0.942656     -0.249491
  H      -9.222429      0.295993     -1.109574
  H     -10.391153      0.843414      0.130944
  H      -9.200972      1.985054     -0.516350
  O      -9.081302      2.207228      2.040187
  C      -4.413449     -1.010346      1.147103
  H      -4.223359     -1.543306      2.077876
  H      -4.700539     -1.736178      0.381967
  H      -3.484950     -0.550325      0.801155
26
Coordinates from ORCA-job orca E -651.728203568039
  O      -5.479994      0.524576     -0.997191
  C      -5.705912      0.872551      0.134502
  O      -6.082231      2.118486      0.456688
  C      -6.256783      3.013438     -0.637865
  H      -6.649363      3.931235     -0.208239
  H      -6.954890      2.602117     -1.366928
  H      -5.303311      3.198212     -1.133277
  C      -5.498876      0.003871      1.316739
  C      -6.200685      0.101087      2.508569
  H      -5.740351     -0.424728      3.343092
  C      -7.383169      0.747672      2.825442
  C      -7.790449      0.952085      4.249395
  H      -8.779688      0.531062      4.446075
  H      -7.071427      0.505058      4.934549
  H      -7.862828      2.021012      4.464090
  C      -8.362929      1.260657      1.837661
  O      -8.431206      0.511242      0.728290
  C      -9.373204      0.942026     -0.250169
  H      -9.219177      0.296903     -1.111024
  H     -10.390078      0.839855      0.129476
  H      -9.202126      1.985200     -0.515499
  O      -9.083342      2.205146      2.040679
  C      -4.414556     -1.011289      1.146877
  H      -4.224544     -1.543636      2.078017
  H      -4.703386     -1.737550      0.382802
  H      -3.485643     -0.553019      0.799771
