26
Coordinates from ORCA-job orca E -651.728203568039
  O          -5.47999352008238      0.52457553842601     -0.99719080446008
  C          -5.70591215862493      0.87255132916728      0.13450151258119
  O          -6.08223128261859      2.11848571199458      0.45668835565141
  C          -6.25678348665914      3.01343832375942     -0.63786474210397
  H          -6.64936330775335      3.93123530663627     -0.20823863922881
  H          -6.95489008943415      2.60211748934196     -1.36692792158911
  H          -5.30331117337068      3.19821175746762     -1.13327670617112
  C          -5.49887582321819      0.00387118932645      1.31673855275500
  C          -6.20068535926824      0.10108748145574      2.50856855445334
  H          -5.74035107391789     -0.42472772788394      3.34309163756420
  C          -7.38316949770311      0.74767183983136      2.82544183706840
  C          -7.79044897420850      0.95208543036163      4.24939543068498
  H          -8.77968779181407      0.53106186910502      4.44607487638729
  H          -7.07142681027706      0.50505841878590      4.93454899349871
  H          -7.86282785924904      2.02101164468827      4.46408976049883
  C          -8.36292860804569      1.26065683438740      1.83766069006792
  O          -8.43120628418676      0.51124183172460      0.72829014857894
  C          -9.37320437665936      0.94202573345253     -0.25016908606504
  H          -9.21917718994099      0.29690331445623     -1.11102399751565
  H         -10.39007810239261      0.83985501000560      0.12947568949952
  H          -9.20212644173055      1.98520012901999     -0.51549927248958
  O          -9.08334203380021      2.20514607296841      2.04067875982110
  C          -4.41455597566365     -1.01128856034529      1.14687696857515
  H          -4.22454402655289     -1.54363646422713      2.07801680287636
  H          -4.70338557498855     -1.73755032368816      0.38280208345666
  H          -3.48564317783917     -0.55301918021781      0.79977051560430
