26

O         -5.29255        2.00233       -0.78430
C         -5.07751        1.80892        0.38394
O         -4.51100        2.73393        1.17112
C         -4.16347        3.95676        0.54565
H         -3.72539        4.58865        1.32631
H         -5.05212        4.44138        0.11597
H         -3.43552        3.78678       -0.26112
C         -5.39949        0.52355        1.14680
C         -6.33836        0.84669        2.34516
H         -6.38388       -0.05942        2.96701
C         -7.59939        1.25293        2.14422
C         -8.04762        1.69215        3.32818
H         -8.01039        0.89547        4.04149
H         -7.43310        2.50097        3.66445
H         -9.05728        2.03073        3.22400
C         -8.52284        0.45271        1.22678
O         -8.78327       -0.76855        1.71502
C         -9.63608       -1.58671        0.93410
H         -9.75424       -2.52525        1.48727
H        -10.61373       -1.10684        0.78437
H         -9.18961       -1.78105       -0.05243
O         -9.01358        0.85889        0.20610
C         -6.03051       -0.47430        0.17501
H         -6.24619       -1.41829        0.69496
H         -6.96355       -0.08278       -0.25120
H         -5.36948       -0.67638       -0.67634
