41
Coordinates from ORCA-job orca E -847.149218306713
  O           3.28061144863654     -2.69720106823872     -1.96794341089309
  C           3.89829787851810     -2.26277561634901     -1.01198558666941
  C           4.23854849336313     -3.07267688574973      0.15465092963191
  C           4.82744157911825     -2.45847071897279      1.38407999802525
  H           4.33854906051309     -2.88112453208619      2.28126142492472
  H           5.89077648873315     -2.76953165981255      1.46392231853083
  C           4.72808478241045     -0.93360707246572      1.36873549695960
  H           5.37671426130898     -0.49778398353863      2.14333926415098
  H           3.69508697969709     -0.62123281105261      1.58662247226354
  C           5.12826485341882     -0.40580490329029     -0.00278191205934
  H           6.15918028811160     -0.74625250573437     -0.22850264394020
  C           5.05611260376081      1.10745742783878     -0.16849344620193
  C           6.00993883479664      1.89427883876545      0.73238109809855
  H           5.76097626966237      1.71576474698450      1.79369560045965
  H           7.04270275798357      1.52201512056012      0.59727472951229
  C           5.96393974850238      3.39731164399741      0.45518448533204
  H           6.64665331170568      3.95316311763314      1.11773654676817
  H           4.94697169583385      3.79592261353888      0.60625078553688
  H           6.25201683458772      3.61934265506068     -0.58591617252696
  H           4.01724708948877      1.43527732306553      0.00030343257607
  H           5.27861563946278      1.33039905711834     -1.22596106858530
  C           3.93220899720878     -4.52844024858421      0.12553205208626
  H           3.11293288896268     -4.76771257220711      0.83179490234523
  H           4.80344397418675     -5.12387404081766      0.45498496619426
  H           3.62434425074991     -4.84821029317372     -0.87817520684101
  C           0.79458012054559     -1.77140990736644      0.18609862459435
  H           0.75740603440371     -1.99538989899823      1.25361764585893
  C           1.08089472017590     -0.53706923607313     -0.25835381289633
  C           1.36751510711774      0.57088970261249      0.69959197161625
  O           1.38542096418966      0.18198734659258      1.99529101857591
  C           1.64666486561362      1.20667399664574      2.95014742596162
  H           1.56817184075049      0.73363113984230      3.93732071117160
  H           2.65548522051197      1.62632103824203      2.80953609871838
  H           0.91679971674097      2.02533081646873      2.85819484277868
  O           1.59050287934355      1.71471334230132      0.36757797997431
  C           1.14542997816888     -0.15555457682722     -1.70883789800692
  H           2.14720145272312      0.22655991405896     -1.95516974782205
  H           0.42410092055806      0.64720547857787     -1.93308176375469
  H           0.94647645393092     -1.02336236768383     -2.35057334750758
  H           0.60449738902614     -2.58532506292989     -0.51805515594681
  O           4.25825132547526     -0.95188535795251     -1.01370564899497
