41
Coordinates from ORCA-job orca E -847.168137139756
  O       3.519408     -2.467482     -2.199551
  C       3.880984     -1.942381     -1.182221
  C       3.361156     -2.413918      0.181500
  C       4.038010     -1.715597      1.368287
  H       3.383808     -1.777328      2.239569
  H       4.952246     -2.261537      1.623003
  C       4.412586     -0.276416      1.066379
  H       4.931286      0.165693      1.918816
  H       3.531224      0.342353      0.873839
  C       5.321657     -0.238710     -0.140963
  H       6.243423     -0.789807      0.086217
  C       5.678484      1.154855     -0.625117
  C       6.510351      1.958196      0.368386
  H       5.938721      2.126688      1.285451
  H       7.392331      1.376425      0.658096
  C       6.950314      3.300993     -0.200076
  H       7.542019      3.864613      0.522838
  H       6.087261      3.912773     -0.472470
  H       7.557686      3.168290     -1.098142
  H       4.752484      1.690197     -0.860689
  H       6.226216      1.052039     -1.565872
  C       3.603335     -3.924370      0.266129
  H       3.224761     -4.305818      1.217069
  H       4.669852     -4.151479      0.210801
  H       3.103177     -4.444607     -0.549269
  C       1.816701     -2.194243      0.182272
  H       1.436330     -2.646308      1.098505
  C       1.332316     -0.787767      0.072509
  C       0.927387     -0.020040      1.238532
  O       0.992037     -0.722257      2.392655
  C       0.618538     -0.005182      3.563062
  H       0.714809     -0.709701      4.385612
  H       1.276483      0.850817      3.716832
  H      -0.408404      0.352456      3.487019
  O       0.574204      1.140256      1.209944
  C       1.265736     -0.113867     -1.250278
  H       2.255395      0.238137     -1.567503
  H       0.609135      0.752984     -1.213462
  H       0.933624     -0.810987     -2.021711
  H       1.424446     -2.759427     -0.667022
  O       4.717542     -0.898982     -1.271389
41
Coordinates from ORCA-job orca E -847.170175999916
  O       3.520088     -2.505502     -2.204857
  C       3.881869     -1.977761     -1.183355
  C       3.345583     -2.441968      0.182379
  C       4.012020     -1.734769      1.378918
  H       3.345457     -1.797433      2.251822
  H       4.934039     -2.279552      1.645636
  C       4.382880     -0.288426      1.077424
  H       4.898675      0.160294      1.939998
  H       3.492852      0.330519      0.880945
  C       5.299865     -0.240888     -0.131429
  H       6.233835     -0.785349      0.105177
  C       5.650692      1.159032     -0.620632
  C       6.480467      1.980288      0.369258
  H       5.904319      2.149292      1.295009
  H       7.374909      1.402166      0.664993
  C       6.911428      3.329814     -0.206061
  H       7.504263      3.907225      0.520734
  H       6.036107      3.939670     -0.484166
  H       7.525346      3.198200     -1.112187
  H       4.713490      1.690308     -0.862961
  H       6.202426      1.053417     -1.569454
  C       3.576122     -3.960330      0.276074
  H       3.175777     -4.340783      1.229245
  H       4.650864     -4.198315      0.238372
  H       3.082208     -4.483339     -0.553799
  C       1.804237     -2.202294      0.162177
  H       1.400855     -2.653316      1.079160
  C       1.350542     -0.782421      0.053337
  C       0.967700     -0.007082      1.228098
  O       1.025238     -0.719209      2.384307
  C       0.678890     -0.005932      3.568522
  H       0.767973     -0.724477      4.393454
  H       1.360531      0.844074      3.726069
  H      -0.349871      0.380083      3.506712
  O       0.652020      1.169989      1.208844
  C       1.334919     -0.089315     -1.266696
  H       2.350830      0.238847     -1.559349
  H       0.699624      0.805755     -1.233887
  H       0.999760     -0.771549     -2.063528
  H       1.412438     -2.762007     -0.702131
  O       4.707792     -0.917404     -1.264581
41
Coordinates from ORCA-job orca E -847.170098273546
  O       3.526006     -2.495455     -2.201704
  C       3.869771     -1.946684     -1.184624
  C       3.348696     -2.415621      0.187448
  C       4.023651     -1.706286      1.381060
  H       3.360255     -1.760733      2.257732
  H       4.942800     -2.259393      1.645800
  C       4.414904     -0.264550      1.075954
  H       4.944884      0.176103      1.935690
  H       3.534767      0.370765      0.887157
  C       5.324608     -0.230229     -0.140347
  H       6.253749     -0.787708      0.090929
  C       5.692260      1.164059     -0.635100
  C       6.544793      1.975282      0.344586
  H       5.981668      2.150912      1.278734
  H       7.435749      1.384630      0.630774
  C       6.986653      3.320290     -0.235093
  H       7.595641      3.890448      0.485783
  H       6.115608      3.942617     -0.503804
  H       7.589276      3.181970     -1.149335
  H       4.759950      1.709757     -0.870100
  H       6.232514      1.047311     -1.590623
  C       3.598157     -3.932140      0.277457
  H       3.205276     -4.321107      1.231598
  H       4.676662     -4.157480      0.235363
  H       3.107731     -4.459014     -0.553472
  C       1.803593     -2.200808      0.176924
  H       1.412718     -2.659919      1.096513
  C       1.316144     -0.790541      0.070213
  C       0.913702     -0.027365      1.247354
  O       0.965645     -0.748811      2.400336
  C       0.575213     -0.056064      3.582256
  H       0.666565     -0.778056      4.405273
  H       1.228522      0.813470      3.761499
  H      -0.463359      0.303484      3.502403
  O       0.553523      1.137975      1.230542
  C       1.275433     -0.094921     -1.248856
  H       2.281071      0.263857     -1.544815
  H       0.614476      0.782681     -1.210934
  H       0.957626     -0.783943     -2.048457
  H       1.417754     -2.769990     -0.685280
  O       4.714404     -0.899246     -1.269244
41
Coordinates from ORCA-job orca E -847.170270542529
  O       3.520537     -2.497911     -2.202969
  C       3.878934     -1.965328     -1.182931
  C       3.346300     -2.429015      0.186366
  C       4.017169     -1.720596      1.382025
  H       3.351922     -1.777888      2.256293
  H       4.936818     -2.270874      1.648025
  C       4.401912     -0.276931      1.080035
  H       4.928046      0.164434      1.940926
  H       3.519021      0.354268      0.891493
  C       5.313189     -0.235253     -0.134549
  H       6.245561     -0.785633      0.097584
  C       5.671107      1.161662     -0.627511
  C       6.516644      1.977384      0.353662
  H       5.952212      2.146761      1.287378
  H       7.411291      1.393385      0.639215
  C       6.948375      3.326279     -0.223284
  H       7.552116      3.899402      0.498403
  H       6.073481      3.942076     -0.491392
  H       7.552184      3.194399     -1.136776
  H       4.735787      1.700695     -0.862917
  H       6.212637      1.049406     -1.582050
  C       3.586033     -3.946569      0.280565
  H       3.184745     -4.331312      1.232072
  H       4.662673     -4.178371      0.246001
  H       3.098216     -4.471416     -0.552178
  C       1.803027     -2.201993      0.167168
  H       1.402545     -2.657593      1.083572
  C       1.331097     -0.786871      0.059500
  C       0.936984     -0.019040      1.235916
  O       0.994565     -0.736605      2.390980
  C       0.625461     -0.034634      3.573574
  H       0.718558     -0.753056      4.398403
  H       1.289072      0.828420      3.741360
  H      -0.409353      0.335583      3.504315
  O       0.601934      1.153389      1.220864
  C       1.305328     -0.089018     -1.258293
  H       2.316078      0.258441     -1.548075
  H       0.654991      0.795588     -1.222301
  H       0.984320     -0.772355     -2.060456
  H       1.417259     -2.766306     -0.697464
  O       4.710283     -0.907453     -1.264958
41
Coordinates from ORCA-job orca E -847.170242744006
  O       3.531084     -2.510818     -2.202967
  C       3.879753     -1.972599     -1.182841
  C       3.343692     -2.435560      0.185486
  C       4.011463     -1.726223      1.381779
  H       3.344825     -1.784781      2.254709
  H       4.932049     -2.273870      1.648987
  C       4.391435     -0.281589      1.080132
  H       4.914150      0.161480      1.942029
  H       3.506868      0.347029      0.889616
  C       5.306162     -0.237852     -0.131658
  H       6.239546     -0.784662      0.103928
  C       5.660839      1.159600     -0.624977
  C       6.501671      1.978443      0.357225
  H       5.935747      2.144666      1.290400
  H       7.398176      1.398143      0.643710
  C       6.928360      3.329199     -0.218405
  H       7.528679      3.904414      0.504142
  H       6.051548      3.941479     -0.487433
  H       7.533745      3.200575     -1.131068
  H       4.724667      1.695591     -0.863066
  H       6.204442      1.047672     -1.578142
  C       3.580092     -3.953638      0.281584
  H       3.174605     -4.337259      1.231506
  H       4.656144     -4.187702      0.251037
  H       3.094208     -4.477691     -0.552595
  C       1.801380     -2.202454      0.162334
  H       1.395792     -2.655927      1.077316
  C       1.340014     -0.784089      0.055202
  C       0.957115     -0.012659      1.232617
  O       1.010624     -0.731420      2.387546
  C       0.650232     -0.026690      3.570564
  H       0.738908     -0.745333      4.395444
  H       1.320633      0.831097      3.737243
  H      -0.381329      0.352631      3.504065
  O       0.631963      1.162364      1.219183
  C       1.322278     -0.084113     -1.261301
  H       2.336352      0.255846     -1.548091
  H       0.679253      0.805554     -1.225033
  H       0.998202     -0.763052     -2.065657
  H       1.415095     -2.763680     -0.703824
  O       4.708597     -0.912571     -1.263134
41
Coordinates from ORCA-job orca E -847.170284012449
  O       3.527677     -2.506861     -2.202735
  C       3.878943     -1.970629     -1.182541
  C       3.344317     -2.434092      0.186367
  C       4.014266     -1.725845      1.382333
  H       3.348917     -1.784496      2.256243
  H       4.934737     -2.274774      1.647504
  C       4.396360     -0.281357      1.082063
  H       4.922590      0.158844      1.943417
  H       3.513074      0.350054      0.895630
  C       5.307912     -0.236943     -0.132166
  H       6.241461     -0.784890      0.100375
  C       5.662748      1.160822     -0.624678
  C       6.507897      1.977259      0.355749
  H       5.946056      2.141128      1.291907
  H       7.405462      1.395997      0.637229
  C       6.932483      3.329305     -0.218298
  H       7.536022      3.902681      0.503141
  H       6.054752      3.942606     -0.482279
  H       7.534031      3.202959     -1.133913
  H       4.726472      1.698410     -0.859071
  H       6.202854      1.049175     -1.579950
  C       3.581488     -3.952076      0.281278
  H       3.176319     -4.336874      1.230928
  H       4.657698     -4.185616      0.250271
  H       3.095609     -4.475548     -0.553370
  C       1.801703     -2.202901      0.164194
  H       1.396915     -2.655886      1.079847
  C       1.337152     -0.785603      0.055337
  C       0.951933     -0.013783      1.231709
  O       1.006021     -0.731544      2.387650
  C       0.643198     -0.026649      3.569481
  H       0.733171     -0.743842      4.395590
  H       1.310769      0.833546      3.735882
  H      -0.389350      0.350240      3.502303
  O       0.625051      1.160745      1.217456
  C       1.316192     -0.087201     -1.261924
  H       2.328810      0.257167     -1.548928
  H       0.669288      0.799785     -1.226475
  H       0.995380     -0.768091     -2.066016
  H       1.415983     -2.766143     -0.700975
  O       4.706700     -0.909528     -1.262975
41
Coordinates from ORCA-job orca E -847.170281922923
  O       3.529873     -2.508700     -2.202285
  C       3.879456     -1.971504     -1.182119
  C       3.344129     -2.434270      0.186861
  C       4.014341     -1.726138      1.382701
  H       3.349109     -1.784767      2.256712
  H       4.934772     -2.275395      1.647327
  C       4.397294     -0.281698      1.083178
  H       4.925144      0.156861      1.944443
  H       3.514898      0.351374      0.898732
  C       5.307744     -0.236940     -0.131869
  H       6.241432     -0.785061      0.099766
  C       5.662421      1.161020     -0.624094
  C       6.509540      1.976433      0.355341
  H       5.950461      2.137396      1.293684
  H       7.408565      1.395546      0.633030
  C       6.930904      3.330112     -0.216962
  H       7.536120      3.902581      0.503823
  H       6.051811      3.943197     -0.476977
  H       7.529717      3.206601     -1.134786
  H       4.726041      1.699237     -0.856695
  H       6.200676      1.049349     -1.580435
  C       3.580569     -3.952272      0.282363
  H       3.173949     -4.336971      1.231444
  H       4.656714     -4.186290      0.252737
  H       3.095446     -4.475507     -0.552898
  C       1.801548     -2.202964      0.163586
  H       1.395686     -2.655444      1.079048
  C       1.336822     -0.785743      0.053962
  C       0.952050     -0.013439      1.230042
  O       1.006423     -0.731124      2.386418
  C       0.644857     -0.025948      3.568042
  H       0.735682     -0.742404      4.394744
  H       1.311925      0.834868      3.733697
  H      -0.387807      0.351108      3.502230
  O       0.626342      1.161345      1.216103
  C       1.314488     -0.087695     -1.263389
  H       2.326214      0.260377     -1.549240
  H       0.664672      0.797228     -1.228537
  H       0.997088     -0.769396     -2.068114
  H       1.416642     -2.766687     -0.701625
  O       4.705299     -0.908727     -1.262396
41
Coordinates from ORCA-job orca E -847.170279098600
  O       3.530669     -2.510378     -2.202031
  C       3.879442     -1.972784     -1.181848
  C       3.344384     -2.435581      0.187248
  C       4.015718     -1.728249      1.382802
  H       3.351428     -1.787811      2.257458
  H       4.936588     -2.277582      1.645688
  C       4.398297     -0.283452      1.084564
  H       4.928068      0.153355      1.945562
  H       3.516081      0.350600      0.902975
  C       5.306599     -0.237117     -0.132028
  H       6.240812     -0.785248      0.097431
  C       5.660137      1.161545     -0.623206
  C       6.509786      1.975517      0.355135
  H       5.954227      2.132787      1.296184
  H       7.410722      1.395171      0.627725
  C       6.926987      3.331341     -0.214929
  H       7.534470      3.902548      0.504949
  H       6.046090      3.944094     -0.469580
  H       7.522120      3.211388     -1.135618
  H       4.723232      1.700187     -0.852685
  H       6.195801      1.050928     -1.581122
  C       3.579308     -3.953785      0.282521
  H       3.171925     -4.338415      1.231296
  H       4.655216     -4.188879      0.253190
  H       3.093870     -4.476273     -0.553010
  C       1.801999     -2.202965      0.164034
  H       1.395536     -2.654131      1.079884
  C       1.338506     -0.785478      0.053106
  C       0.955567     -0.011396      1.228527
  O       1.006990     -0.728925      2.385397
  C       0.645892     -0.022705      3.566212
  H       0.735131     -0.738580      4.393603
  H       1.313740      0.837519      3.732024
  H      -0.386179      0.356042      3.500024
  O       0.630907      1.163589      1.213781
  C       1.316222     -0.088493     -1.264736
  H       2.327478      0.262616     -1.548728
  H       0.663941      0.794711     -1.231599
  H       1.002511     -0.771405     -2.069811
  H       1.416647     -2.767228     -0.700601
  O       4.702194     -0.907530     -1.262199
41
Coordinates from ORCA-job orca E -847.166846668055
  O       3.564984     -2.513776     -2.203293
  C       3.915860     -1.976494     -1.183666
  C       3.385841     -2.441586      0.186624
  C       4.059495     -1.734127      1.380801
  H       3.397983     -1.795761      2.257425
  H       4.982196     -2.281984      1.640360
  C       4.438458     -0.288332      1.082762
  H       4.970035      0.148654      1.942559
  H       3.554501      0.344239      0.904462
  C       5.342965     -0.239145     -0.136555
  H       6.278904     -0.785743      0.089538
  C       5.692385      1.160644     -0.627488
  C       6.543492      1.975283      0.349032
  H       5.990506      2.130622      1.291924
  H       7.446346      1.396367      0.618327
  C       6.956415      3.332427     -0.221022
  H       7.565022      3.904092      0.497545
  H       6.073594      3.943770     -0.472408
  H       7.548967      3.214459     -1.143638
  H       4.753772      1.697748     -0.853602
  H       6.225337      1.051936     -1.587142
  C       3.623900     -3.959441      0.279746
  H       3.220130     -4.345731      1.229399
  H       4.700159     -4.192491      0.246912
  H       3.136894     -4.482049     -0.554800
  C       1.738071     -2.196022      0.166753
  H       1.335245     -2.648814      1.083415
  C       1.271584     -0.779297      0.058578
  C       0.890778     -0.007044      1.235898
  O       0.947071     -0.725571      2.391932
  C       0.588250     -0.021144      3.574516
  H       0.681352     -0.737634      4.400958
  H       1.254992      0.840175      3.739106
  H      -0.444732      0.355733      3.511832
  O       0.563872      1.167346      1.223253
  C       1.243977     -0.081108     -1.258537
  H       2.253710      0.272164     -1.545280
  H       0.590143      0.800843     -1.222578
  H       0.929092     -0.763847     -2.063302
  H       1.351140     -2.760189     -0.697241
  O       4.736371     -0.909622     -1.265517
41
Coordinates from ORCA-job orca E -847.167442216850
  O       3.579156     -2.564720     -2.202823
  C       3.909633     -2.020409     -1.179831
  C       3.376116     -2.489617      0.182220
  C       4.018794     -1.780005      1.385715
  H       3.345112     -1.856209      2.252613
  H       4.947786     -2.311918      1.656471
  C       4.364960     -0.325366      1.093471
  H       4.873424      0.125143      1.960222
  H       3.464825      0.282367      0.903376
  C       5.283281     -0.252346     -0.114875
  H       6.229327     -0.776490      0.122419
  C       5.605217      1.156084     -0.599737
  C       6.425266      1.989181      0.387833
  H       5.857619      2.130316      1.324211
  H       7.338225      1.431275      0.667175
  C       6.813097      3.356380     -0.175871
  H       7.399713      3.941103      0.550429
  H       5.919256      3.947266     -0.436970
  H       7.419061      3.253417     -1.091526
  H       4.656839      1.671022     -0.836384
  H       6.151974      1.061573     -1.553082
  C       3.565831     -4.010493      0.277706
  H       3.136734     -4.386730      1.220308
  H       4.635943     -4.272325      0.261537
  H       3.078473     -4.518621     -0.565613
  C       1.735839     -2.200911      0.137653
  H       1.317265     -2.640173      1.052685
  C       1.348816     -0.767953      0.023744
  C       1.034979      0.033069      1.201823
  O       1.079963     -0.678819      2.362254
  C       0.791611      0.053606      3.547124
  H       0.865174     -0.660914      4.377217
  H       1.509962      0.876895      3.687368
  H      -0.219784      0.487801      3.506901
  O       0.779314      1.224871      1.186310
  C       1.377244     -0.073310     -1.295039
  H       2.411433      0.210020     -1.573998
  H       0.784030      0.850753     -1.266833
  H       1.023983     -0.736139     -2.100694
  H       1.356393     -2.753610     -0.735688
  O       4.707176     -0.935515     -1.252234
41
Coordinates from ORCA-job orca E -847.167726706123
  O       3.559067     -2.532178     -2.198881
  C       3.893493     -1.983025     -1.179631
  C       3.389669     -2.460656      0.187449
  C       4.039020     -1.753871      1.387408
  H       3.370444     -1.824881      2.258292
  H       4.963954     -2.296255      1.652851
  C       4.406963     -0.303852      1.095160
  H       4.935090      0.134646      1.956224
  H       3.517161      0.320081      0.920206
  C       5.307741     -0.239740     -0.126664
  H       6.248797     -0.780254      0.093074
  C       5.644343      1.166127     -0.608969
  C       6.493070      1.980664      0.369783
  H       5.942915      2.124877      1.316035
  H       7.401855      1.407306      0.630846
  C       6.892287      3.345200     -0.192495
  H       7.499651      3.916653      0.527278
  H       6.003296      3.951022     -0.435242
  H       7.481367      3.238502     -1.118687
  H       4.700650      1.697402     -0.827430
  H       6.174327      1.068522     -1.571451
  C       3.582667     -3.978431      0.274454
  H       3.162775     -4.361058      1.218497
  H       4.653931     -4.235891      0.248422
  H       3.091215     -4.484029     -0.567840
  C       1.743994     -2.202382      0.157571
  H       1.352854     -2.652045      1.079039
  C       1.319185     -0.783374      0.039765
  C       0.972373      0.009696      1.214313
  O       1.022307     -0.700489      2.375369
  C       0.688848      0.021169      3.555083
  H       0.773550     -0.690591      4.386473
  H       1.375629      0.869011      3.706967
  H      -0.336286      0.419631      3.497891
  O       0.667158      1.189675      1.193212
  C       1.306456     -0.097371     -1.283977
  H       2.325545      0.222568     -1.576858
  H       0.679219      0.803972     -1.254792
  H       0.967818     -0.778027     -2.080926
  H       1.381592     -2.771542     -0.711464
  O       4.703069     -0.907234     -1.258763
41
Coordinates from ORCA-job orca E -847.167735538904
  O       3.543880     -2.521922     -2.197654
  C       3.906309     -1.994888     -1.176272
  C       3.393535     -2.462932      0.189572
  C       4.042188     -1.757984      1.390163
  H       3.373104     -1.827969      2.260330
  H       4.965471     -2.303428      1.656473
  C       4.414909     -0.308451      1.100308
  H       4.948422      0.125548      1.960254
  H       3.526978      0.319364      0.931599
  C       5.309013     -0.241036     -0.126136
  H       6.252161     -0.780556      0.086891
  C       5.640268      1.166760     -0.606449
  C       6.492940      1.980467      0.369578
  H       5.948189      2.120463      1.319581
  H       7.404809      1.408719      0.623297
  C       6.885001      3.347783     -0.191039
  H       7.495372      3.918669      0.526638
  H       5.992859      3.951931     -0.426285
  H       7.468498      3.245445     -1.121242
  H       4.694291      1.696798     -0.817962
  H       6.164936      1.072849     -1.572201
  C       3.573785     -3.981128      0.283556
  H       3.142965     -4.357414      1.225024
  H       4.643506     -4.247254      0.268209
  H       3.086848     -4.486088     -0.561394
  C       1.749030     -2.198446      0.150913
  H       1.358847     -2.651745      1.070840
  C       1.322515     -0.780689      0.033581
  C       0.964997      0.008556      1.207614
  O       1.025137     -0.699947      2.369213
  C       0.695896      0.021793      3.550115
  H       0.789273     -0.688441      4.381894
  H       1.379674      0.873013      3.696447
  H      -0.331443      0.415288      3.498878
  O       0.667344      1.190506      1.188678
  C       1.305422     -0.092845     -1.289431
  H       2.321679      0.236172     -1.581138
  H       0.670746      0.803276     -1.259167
  H       0.972193     -0.774704     -2.087453
  H       1.397601     -2.768822     -0.721496
  O       4.699913     -0.907160     -1.256736
41
Coordinates from ORCA-job orca E -847.167818069162
  O       3.567143     -2.543147     -2.197992
  C       3.905830     -1.998987     -1.177390
  C       3.390108     -2.466680      0.187952
  C       4.035735     -1.759187      1.388477
  H       3.365001     -1.829201      2.257418
  H       4.960067     -2.301521      1.657611
  C       4.403496     -0.309198      1.096323
  H       4.931382      0.129155      1.957523
  H       3.513334      0.314864      0.921150
  C       5.304186     -0.243184     -0.125323
  H       6.247094     -0.780618      0.094104
  C       5.635424      1.163936     -0.607501
  C       6.481365      1.981772      0.370944
  H       5.931440      2.122950      1.317795
  H       7.393106      1.412571      0.630742
  C       6.873421      3.348551     -0.190994
  H       7.478941      3.922446      0.528388
  H       5.981221      3.950247     -0.432235
  H       7.461856      3.245189     -1.117962
  H       4.689573      1.691652     -0.825358
  H       6.165387      1.068553     -1.570204
  C       3.571109     -3.985439      0.285392
  H       3.137102     -4.360426      1.225884
  H       4.640905     -4.251697      0.274595
  H       3.087567     -4.492310     -0.560395
  C       1.746545     -2.196809      0.146524
  H       1.354279     -2.650372      1.065504
  C       1.327788     -0.776480      0.032707
  C       0.982455      0.013680      1.209719
  O       1.034637     -0.699341      2.369041
  C       0.709917      0.021196      3.551921
  H       0.795920     -0.692639      4.381419
  H       1.400819      0.865946      3.702077
  H      -0.313918      0.423740      3.500558
  O       0.688716      1.196657      1.193648
  C       1.317448     -0.084022     -1.287978
  H       2.336675      0.238043     -1.577417
  H       0.689763      0.816920     -1.255271
  H       0.980023     -0.760648     -2.088645
  H       1.394626     -2.763985     -0.727831
  O       4.701570     -0.912624     -1.257327
41
Coordinates from ORCA-job orca E -847.167832082882
  O       3.569154     -2.546705     -2.197795
  C       3.904283     -2.000254     -1.177252
  C       3.389599     -2.468987      0.188077
  C       4.038029     -1.763389      1.388387
  H       3.369601     -1.835509      2.258979
  H       4.963300     -2.305659      1.654232
  C       4.404285     -0.312583      1.098519
  H       4.934789      0.123776      1.959152
  H       3.513511      0.311767      0.927556
  C       5.301291     -0.243335     -0.125666
  H       6.245175     -0.780734      0.089587
  C       5.630099      1.165153     -0.605572
  C       6.478360      1.981517      0.372108
  H       5.931383      2.119846      1.321082
  H       7.391561      1.412687      0.627532
  C       6.867074      3.350083     -0.187836
  H       7.474406      3.922884      0.530891
  H       5.973409      3.951386     -0.424590
  H       7.452488      3.249598     -1.117032
  H       4.683171      1.692630     -0.819278
  H       6.157198      1.072448     -1.570109
  C       3.568910     -3.988084      0.284425
  H       3.134134     -4.363351      1.224462
  H       4.638269     -4.255844      0.274032
  H       3.085222     -4.493975     -0.561959
  C       1.746408     -2.196780      0.147173
  H       1.355670     -2.649183      1.067353
  C       1.329388     -0.776622      0.031422
  C       0.986902      0.016370      1.207422
  O       1.035941     -0.695353      2.367704
  C       0.713720      0.028013      3.549558
  H       0.796965     -0.684996      4.380042
  H       1.407722      0.870402      3.698615
  H      -0.308629      0.434229      3.497468
  O       0.697466      1.200355      1.189757
  C       1.322802     -0.085367     -1.289902
  H       2.343296      0.234700     -1.577478
  H       0.696547      0.816630     -1.259213
  H       0.985727     -0.762204     -2.090592
  H       1.394961     -2.765651     -0.726292
  O       4.695473     -0.910359     -1.257380
41
Coordinates from ORCA-job orca E -847.167836950969
  O       3.579705     -2.555405     -2.197438
  C       3.906178     -2.004076     -1.176765
  C       3.388786     -2.472316      0.187717
  C       4.039046     -1.768842      1.388443
  H       3.372377     -1.843843      2.260327
  H       4.965184     -2.310957      1.651334
  C       4.403804     -0.316946      1.102235
  H       4.937106      0.116391      1.962705
  H       3.512703      0.308070      0.936085
  C       5.297049     -0.243325     -0.124500
  H       6.241927     -0.780925      0.085832
  C       5.623197      1.167039     -0.600730
  C       6.473957      1.981084      0.376710
  H       5.930485      2.114999      1.328314
  H       7.389102      1.412841      0.626394
  C       6.858129      3.352404     -0.179665
  H       7.467528      3.923480      0.538686
  H       5.962476      3.953097     -0.410372
  H       7.439816      3.256416     -1.111676
  H       4.675052      1.694377     -0.809311
  H       6.147094      1.078167     -1.567377
  C       3.564489     -3.991772      0.284820
  H       3.125956     -4.365958      1.223577
  H       4.633064     -4.262374      0.278072
  H       3.082426     -4.497064     -0.562920
  C       1.746271     -2.196361      0.144864
  H       1.356870     -2.647150      1.066402
  C       1.330693     -0.776664      0.026225
  C       0.994392      0.020501      1.201226
  O       1.045780     -0.688213      2.363252
  C       0.730081      0.039251      3.544366
  H       0.815134     -0.671604      4.376508
  H       1.426590      0.880487      3.688133
  H      -0.291584      0.447572      3.495308
  O       0.707950      1.205137      1.181274
  C       1.320500     -0.088937     -1.296951
  H       2.340115      0.231281     -1.587375
  H       0.693442      0.812537     -1.267139
  H       0.981960     -0.768183     -2.094997
  H       1.396628     -2.767991     -0.727561
  O       4.687602     -0.906674     -1.256440
41
Coordinates from ORCA-job orca E -847.167837574133
  O       3.583975     -2.559683     -2.196749
  C       3.907325     -2.006048     -1.176389
  C       3.389458     -2.473787      0.188119
  C       4.041622     -1.771400      1.388492
  H       3.376671     -1.848098      2.261540
  H       4.968470     -2.313574      1.648759
  C       4.405524     -0.318890      1.104080
  H       4.941412      0.112575      1.963902
  H       3.514247      0.306634      0.941617
  C       5.295054     -0.242776     -0.125231
  H       6.240504     -0.780994      0.080929
  C       5.619741      1.168535     -0.599528
  C       6.473888      1.980495      0.376687
  H       5.933952      2.111965      1.330640
  H       7.390153      1.411964      0.621580
  C       6.855520      3.353252     -0.177883
  H       7.467579      3.922770      0.539444
  H       5.958799      3.954237     -0.403634
  H       7.433574      3.259670     -1.112391
  H       4.670894      1.696370     -0.803665
  H       6.140305      1.081745     -1.568162
  C       3.562840     -3.993403      0.285374
  H       3.123470     -4.366807      1.224071
  H       4.630971     -4.265635      0.278915
  H       3.080201     -4.498153     -0.562330
  C       1.747321     -2.195590      0.145264
  H       1.357540     -2.645339      1.067215
  C       1.332577     -0.775787      0.025328
  C       0.996556      0.022455      1.199692
  O       1.046092     -0.685853      2.362011
  C       0.730183      0.042367      3.542599
  H       0.814175     -0.668192      4.375102
  H       1.427207      0.883169      3.686462
  H      -0.291157      0.451399      3.492728
  O       0.710605      1.207180      1.178830
  C       1.322311     -0.089341     -1.298495
  H       2.341812      0.231729     -1.588348
  H       0.694186      0.811448     -1.269928
  H       0.984887     -0.769736     -2.096029
  H       1.396933     -2.767817     -0.726465
  O       4.681683     -0.903504     -1.256564
41
Coordinates from ORCA-job orca E -847.167841028912
  O       3.591795     -2.565170     -2.196019
  C       3.908244     -2.007101     -1.175999
  C       3.389653     -2.474983      0.188239
  C       4.041762     -1.772987      1.388844
  H       3.377619     -1.851806      2.262319
  H       4.969305     -2.314873      1.647362
  C       4.404872     -0.319768      1.106662
  H       4.942873      0.109634      1.966209
  H       3.513549      0.306276      0.947419
  C       5.291147     -0.241059     -0.124869
  H       6.236586     -0.780935      0.077029
  C       5.615815      1.171140     -0.596286
  C       6.474247      1.979412      0.379218
  H       5.938091      2.108207      1.335666
  H       7.391070      1.409505      0.618784
  C       6.854694      3.353642     -0.172496
  H       7.470105      3.920394      0.544154
  H       5.957531      3.956025     -0.392693
  H       7.428884      3.262621     -1.109633
  H       4.666838      1.700612     -0.795574
  H       6.132908      1.086530     -1.566969
  C       3.561795     -3.994528      0.285848
  H       3.121564     -4.367398      1.224355
  H       4.629761     -4.267376      0.279886
  H       3.079207     -4.499108     -0.561915
  C       1.747611     -2.196369      0.144450
  H       1.356697     -2.644533      1.066753
  C       1.331776     -0.776880      0.021982
  C       0.995263      0.022893      1.195167
  O       1.051152     -0.682347      2.358999
  C       0.739513      0.048304      3.539190
  H       0.829118     -0.659878      4.373134
  H       1.435401      0.890990      3.677461
  H      -0.282943      0.455015      3.493310
  O       0.710106      1.207766      1.172747
  C       1.318549     -0.093446     -1.303336
  H       2.336899      0.230517     -1.593849
  H       0.687200      0.805177     -1.276677
  H       0.983167     -0.776848     -2.099136
  H       1.396380     -2.769870     -0.726125
  O       4.673257     -0.897843     -1.256022
41
Coordinates from ORCA-job orca E -847.167843865161
  O       3.590658     -2.564047     -2.196288
  C       3.908341     -2.006698     -1.176266
  C       3.390592     -2.474868      0.188169
  C       4.042090     -1.772493      1.388775
  H       3.377756     -1.851430      2.262073
  H       4.969759     -2.314150      1.647442
  C       4.404829     -0.319232      1.106426
  H       4.942699      0.110403      1.965924
  H       3.513240      0.306516      0.947093
  C       5.290898     -0.240509     -0.125252
  H       6.236131     -0.780885      0.076314
  C       5.616156      1.171626     -0.596383
  C       6.475619      1.978964      0.378986
  H       5.940044      2.107698      1.335771
  H       7.392185      1.408357      0.617857
  C       6.856709      3.353172     -0.172332
  H       7.472863      3.919202      0.544249
  H       5.959857      3.956267     -0.391842
  H       7.430382      3.262165     -1.109792
  H       4.667431      1.701785     -0.795028
  H       6.132700      1.086979     -1.567355
  C       3.562935     -3.994348      0.285724
  H       3.123381     -4.367251      1.224507
  H       4.631002     -4.266902      0.278925
  H       3.079860     -4.498907     -0.561753
  C       1.748474     -2.196584      0.145124
  H       1.357350     -2.644221      1.067568
  C       1.332443     -0.776931      0.022482
  C       0.996662      0.023151      1.195637
  O       1.051707     -0.682096      2.359509
  C       0.737463      0.048090      3.539277
  H       0.826773     -0.660007      4.373328
  H       1.432089      0.891646      3.678577
  H      -0.285432      0.453538      3.491983
  O       0.707363      1.207020      1.172580
  C       1.316968     -0.094321     -1.303226
  H       2.334717      0.230000     -1.595336
  H       0.685178      0.803993     -1.276306
  H       0.980900     -0.778409     -2.098138
  H       1.395956     -2.769951     -0.725055
  O       4.672330     -0.896780     -1.256356
41
Coordinates from ORCA-job orca E -847.167843590793
  O       3.588741     -2.562590     -2.196437
  C       3.907586     -2.005805     -1.176458
  C       3.390739     -2.474227      0.188190
  C       4.041682     -1.771265      1.388745
  H       3.376919     -1.849629      2.261735
  H       4.969252     -2.312740      1.648188
  C       4.404418     -0.318194      1.105567
  H       4.941635      0.112198      1.965085
  H       3.512741      0.307244      0.945184
  C       5.291230     -0.240327     -0.125605
  H       6.236179     -0.780886      0.076800
  C       5.617255      1.171452     -0.597260
  C       6.476704      1.978770      0.378136
  H       5.940774      2.108176      1.334632
  H       7.392856      1.407773      0.617652
  C       6.858770      3.352547     -0.173565
  H       7.474879      3.918550      0.543078
  H       5.962348      3.956034     -0.393766
  H       7.432848      3.260846     -1.110709
  H       4.668866      1.701967     -0.796559
  H       6.134166      1.086113     -1.567975
  C       3.564118     -3.993636      0.285753
  H       3.125028     -4.366843      1.224620
  H       4.632387     -4.265457      0.278714
  H       3.081268     -4.498473     -0.561696
  C       1.748461     -2.196833      0.145480
  H       1.357568     -2.644893      1.067823
  C       1.331848     -0.777234      0.023380
  C       0.994992      0.022156      1.196683
  O       1.049975     -0.683435      2.360378
  C       0.734659      0.046184      3.540214
  H       0.823951     -0.662114      4.374098
  H       1.428706      0.890109      3.680144
  H      -0.288448      0.451045      3.492493
  O       0.705245      1.205929      1.173987
  C       1.317245     -0.093822     -1.301919
  H       2.335171      0.230734     -1.593210
  H       0.685406      0.804449     -1.274876
  H       0.981808     -0.777443     -2.097497
  H       1.395990     -2.769880     -0.724913
  O       4.673096     -0.897000     -1.256723
41
Coordinates from ORCA-job orca E -847.160188348327
  O       3.623100     -2.566516     -2.197544
  C       3.944018     -2.010088     -1.178018
  C       3.432315     -2.480833      0.187781
  C       4.085604     -1.777754      1.386995
  H       3.423700     -1.858257      2.261970
  H       5.015037     -2.317665      1.643043
  C       4.444621     -0.323700      1.104090
  H       4.983660      0.106915      1.962357
  H       3.551224      0.300147      0.947072
  C       5.327465     -0.242915     -0.129755
  H       6.274098     -0.781821      0.069202
  C       5.649268      1.169954     -0.601062
  C       6.510161      1.978015      0.372447
  H       5.976942      2.105453      1.330728
  H       7.428172      1.408579      0.608574
  C       6.887831      3.353070     -0.179117
  H       7.505054      3.919588      0.536162
  H       5.989547      3.955015     -0.395960
  H       7.459185      3.263392     -1.118128
  H       4.699224      1.698806     -0.796912
  H       6.163338      1.086560     -1.573461
  C       3.608968     -3.999997      0.283346
  H       3.173517     -4.374966      1.223214
  H       4.677746     -4.269723      0.272734
  H       3.124479     -4.504964     -0.563093
  C       1.684803     -2.188950      0.147708
  H       1.297644     -2.638661      1.070832
  C       1.265035     -0.770048      0.028264
  C       0.930252      0.027555      1.203380
  O       0.990221     -0.679047      2.366226
  C       0.677134      0.048821      3.547740
  H       0.770395     -0.660105      4.380667
  H       1.369964      0.893968      3.686332
  H      -0.346912      0.451727      3.503580
  O       0.638119      1.210784      1.182721
  C       1.244989     -0.085389     -1.296332
  H       2.261378      0.241438     -1.590466
  H       0.611477      0.811620     -1.266467
  H       0.908424     -0.768901     -2.091528
  H       1.330755     -2.761848     -0.722144
  O       4.707110     -0.899710     -1.259589
41
Coordinates from ORCA-job orca E -847.160682071100
  O       3.638216     -2.620414     -2.194712
  C       3.938735     -2.056853     -1.172602
  C       3.421832     -2.529413      0.185739
  C       4.044146     -1.822670      1.393385
  H       3.370003     -1.916671      2.258266
  H       4.979841     -2.345906      1.661927
  C       4.369008     -0.360392      1.114276
  H       4.884464      0.085372      1.979274
  H       3.458902      0.237523      0.944571
  C       5.265471     -0.256950     -0.108633
  H       6.222862     -0.771649      0.102955
  C       5.557944      1.163576     -0.575904
  C       6.386468      1.992456      0.408212
  H       5.838386      2.106597      1.359767
  H       7.315153      1.445694      0.655889
  C       6.737268      3.376446     -0.138700
  H       7.331467      3.957729      0.584189
  H       5.827340      3.956304     -0.366838
  H       7.322347      3.300947     -1.070467
  H       4.597558      1.668635     -0.783762
  H       6.085981      1.093119     -1.541804
  C       3.547825     -4.050024      0.284962
  H       3.086033     -4.411747      1.217467
  H       4.608661     -4.350324      0.292210
  H       3.063500     -4.540872     -0.569946
  C       1.684259     -2.187657      0.117596
  H       1.279121     -2.624073      1.038552
  C       1.349503     -0.754049     -0.005419
  C       1.085035      0.067943      1.171267
  O       1.126217     -0.636066      2.336407
  C       0.882014      0.114325      3.520011
  H       0.949348     -0.595466      4.354687
  H       1.627331      0.916576      3.640073
  H      -0.116527      0.578332      3.494490
  O       0.866997      1.266863      1.149481
  C       1.388991     -0.071042     -1.330338
  H       2.429364      0.182006     -1.614900
  H       0.820813      0.868848     -1.306834
  H       1.012350     -0.729958     -2.128482
  H       1.337937     -2.748487     -0.762243
  O       4.676896     -0.929061     -1.246476
41
Coordinates from ORCA-job orca E -847.161055491942
  O       3.619986     -2.585533     -2.190760
  C       3.921868     -2.014355     -1.173110
  C       3.435719     -2.493723      0.191131
  C       4.061663     -1.785230      1.394528
  H       3.389819     -1.870037      2.261904
  H       4.992008     -2.319015      1.662449
  C       4.412042     -0.329060      1.111124
  H       4.945889      0.106665      1.970014
  H       3.514134      0.286405      0.952215
  C       5.294375     -0.240894     -0.122872
  H       6.244058     -0.775108      0.074635
  C       5.608741      1.174821     -0.590495
  C       6.467619      1.983864      0.383997
  H       5.935269      2.106472      1.343366
  H       7.388311      1.417566      0.617264
  C       6.838951      3.361909     -0.164318
  H       7.454933      3.928928      0.551635
  H       5.937973      3.960835     -0.378223
  H       7.409314      3.277081     -1.104384
  H       4.656008      1.699853     -0.783364
  H       6.121671      1.096532     -1.563931
  C       3.569643     -4.010961      0.285722
  H       3.117597     -4.378188      1.220727
  H       4.632830     -4.303953      0.284026
  H       3.082741     -4.502515     -0.567211
  C       1.690187     -2.192578      0.136094
  H       1.312960     -2.644545      1.060851
  C       1.308800     -0.774149      0.013840
  C       1.000822      0.034375      1.189724
  O       1.052882     -0.671199      2.353348
  C       0.758602      0.064229      3.534953
  H       0.842344     -0.644992      4.368616
  H       1.467553      0.896672      3.669363
  H      -0.257974      0.486020      3.494738
  O       0.727863      1.221930      1.167339
  C       1.308892     -0.092401     -1.312533
  H       2.334717      0.205177     -1.605094
  H       0.700393      0.821856     -1.285971
  H       0.954194     -0.767846     -2.106868
  H       1.366768     -2.767419     -0.742603
  O       4.676895     -0.897942     -1.254274
41
Coordinates from ORCA-job orca E -847.161052296170
  O       3.594835     -2.569060     -2.189521
  C       3.934118     -2.024171     -1.169186
  C       3.441520     -2.495531      0.194069
  C       4.068452     -1.789578      1.397699
  H       3.396978     -1.873652      2.265013
  H       4.997201     -2.326979      1.665188
  C       4.423670     -0.333710      1.117367
  H       4.965246      0.096312      1.974207
  H       3.527449      0.286183      0.967973
  C       5.296065     -0.241144     -0.123289
  H       6.248011     -0.774848      0.064397
  C       5.604762      1.176710     -0.588169
  C       6.471319      1.983058      0.381739
  H       5.947350      2.101384      1.346248
  H       7.394714      1.416999      0.604664
  C       6.836067      3.363651     -0.164584
  H       7.457701      3.928711      0.548022
  H       5.932489      3.962264     -0.368181
  H       7.398147      3.283123     -1.110001
  H       4.649817      1.701436     -0.770633
  H       6.109186      1.102644     -1.566362
  C       3.563239     -4.012779      0.293528
  H       3.102507     -4.374271      1.226323
  H       4.624457     -4.313996      0.300046
  H       3.079352     -4.503129     -0.561467
  C       1.697226     -2.188675      0.131784
  H       1.322700     -2.644035      1.055679
  C       1.312728     -0.772204      0.009419
  C       0.993385      0.033526      1.184377
  O       1.050940     -0.670787      2.348568
  C       0.754695      0.064144      3.529997
  H       0.843569     -0.643837      4.364196
  H       1.459360      0.900505      3.662559
  H      -0.264171      0.480438      3.491021
  O       0.723443      1.221770      1.162693
  C       1.307060     -0.089480     -1.316774
  H       2.329963      0.216859     -1.609642
  H       0.691088      0.819765     -1.289073
  H       0.956705     -0.766749     -2.111328
  H       1.384818     -2.765713     -0.749059
  O       4.670896     -0.895604     -1.251915
41
Coordinates from ORCA-job orca E -847.161158139786
  O       3.618608     -2.588490     -2.190118
  C       3.931324     -2.026527     -1.170468
  C       3.437470     -2.499385      0.192130
  C       4.060259     -1.791234      1.396279
  H       3.386697     -1.876046      2.261924
  H       4.990056     -2.325312      1.666935
  C       4.410066     -0.334693      1.114408
  H       4.945611      0.099406      1.972969
  H       3.511358      0.281269      0.958657
  C       5.289570     -0.242883     -0.121271
  H       6.241255     -0.774794      0.072932
  C       5.598670      1.174549     -0.587037
  C       6.458442      1.984066      0.386269
  H       5.928936      2.103135      1.347669
  H       7.381564      1.420014      0.615278
  C       6.823758      3.364374     -0.160398
  H       7.440437      3.931754      0.554664
  H       5.920266      3.961037     -0.370030
  H       7.391204      3.283237     -1.102548
  H       4.643922      1.697414     -0.775840
  H       6.108725      1.099484     -1.562223
  C       3.561048     -4.017025      0.293736
  H       3.097580     -4.378325      1.225218
  H       4.622527     -4.317390      0.304503
  H       3.080934     -4.509058     -0.562438
  C       1.694002     -2.188383      0.127348
  H       1.318763     -2.643280      1.051180
  C       1.316789     -0.769944      0.006640
  C       1.011666      0.038428      1.183537
  O       1.065827     -0.667559      2.346974
  C       0.778114      0.068604      3.529728
  H       0.862857     -0.640906      4.363070
  H       1.489930      0.898972      3.661595
  H      -0.237366      0.493349      3.493289
  O       0.747109      1.227901      1.163203
  C       1.314623     -0.085378     -1.318657
  H       2.339623      0.213040     -1.612610
  H       0.706024      0.828751     -1.288785
  H       0.957858     -0.758822     -2.113555
  H       1.381698     -2.764041     -0.754393
  O       4.671254     -0.899756     -1.252179
41
Coordinates from ORCA-job orca E -847.161165336919
  O       3.621942     -2.592806     -2.189546
  C       3.930640     -2.028178     -1.170141
  C       3.437147     -2.500990      0.192444
  C       4.061560     -1.793606      1.396325
  H       3.389274     -1.879420      2.262885
  H       4.991917     -2.327425      1.665432
  C       4.410091     -0.336588      1.115458
  H       4.947483      0.096516      1.973403
  H       3.510914      0.279384      0.962497
  C       5.286962     -0.242947     -0.121947
  H       6.239270     -0.774731      0.069518
  C       5.594478      1.175247     -0.586484
  C       6.456189      1.983857      0.385869
  H       5.929004      2.101232      1.348756
  H       7.380205      1.420022      0.611768
  C       6.819291      3.365187     -0.159704
  H       7.437413      3.931921      0.554628
  H       5.914909      3.961595     -0.366210
  H       7.384416      3.285776     -1.103394
  H       4.639081      1.697992     -0.772324
  H       6.102289      1.101709     -1.562961
  C       3.559239     -4.018789      0.294364
  H       3.094123     -4.379628      1.225217
  H       4.620283     -4.320446      0.306932
  H       3.080050     -4.510662     -0.562510
  C       1.694129     -2.187612      0.127012
  H       1.320174     -2.642615      1.051302
  C       1.318466     -0.769262      0.005976
  C       1.015393      0.040172      1.182729
  O       1.065264     -0.666274      2.346122
  C       0.779043      0.070817      3.528657
  H       0.859919     -0.639165      4.361979
  H       1.493985      0.898329      3.661550
  H      -0.234699      0.499597      3.491031
  O       0.755347      1.230604      1.162371
  C       1.320360     -0.084032     -1.319002
  H       2.346669      0.212455     -1.610626
  H       0.713466      0.831230     -1.289819
  H       0.963749     -0.756387     -2.114937
  H       1.383350     -2.764115     -0.754681
  O       4.666273     -0.898415     -1.252350
41
Coordinates from ORCA-job orca E -847.161168398999
  O       3.631878     -2.599724     -2.188889
  C       3.932328     -2.030756     -1.169460
  C       3.436308     -2.502844      0.192349
  C       4.060893     -1.796136      1.396761
  H       3.388949     -1.883481      2.263591
  H       4.991584     -2.329555      1.665214
  C       4.408316     -0.338419      1.118042
  H       4.947638      0.092804      1.975771
  H       3.508938      0.277948      0.968317
  C       5.282725     -0.242193     -0.120936
  H       6.235408     -0.774445      0.067350
  C       5.589305      1.177062     -0.582877
  C       6.453487      1.983380      0.389179
  H       5.928942      2.098141      1.353822
  H       7.378270      1.419221      0.611067
  C       6.814656      3.366217     -0.153837
  H       7.434561      3.931328      0.560238
  H       5.909521      3.962854     -0.356336
  H       7.377207      3.289430     -1.099284
  H       4.633503      1.700360     -0.765004
  H       6.094666      1.105804     -1.560798
  C       3.556586     -4.020685      0.295810
  H       3.087456     -4.380423      1.225108
  H       4.617068     -4.323792      0.313139
  H       3.080456     -4.513039     -0.562566
  C       1.693761     -2.187472      0.124023
  H       1.321514     -2.642219      1.049101
  C       1.318129     -0.769863      0.001403
  C       1.020079      0.042083      1.177758
  O       1.072497     -0.662613      2.342134
  C       0.792686      0.077124      3.524533
  H       0.874991     -0.631684      4.358710
  H       1.510159      0.903095      3.653334
  H      -0.220147      0.508334      3.490094
  O       0.763768      1.233262      1.156456
  C       1.316537     -0.086482     -1.324588
  H       2.342116      0.209484     -1.619139
  H       0.709595      0.828716     -1.294959
  H       0.957529     -0.759947     -2.118549
  H       1.385942     -2.766407     -0.757110
  O       4.659255     -0.894919     -1.251382
41
Coordinates from ORCA-job orca E -847.161172567159
  O       3.635444     -2.602742     -2.188224
  C       3.933487     -2.031932     -1.169176
  C       3.437462     -2.503475      0.192830
  C       4.064097     -1.797466      1.396723
  H       3.393756     -1.885905      2.264703
  H       4.995334     -2.330994      1.662955
  C       4.410874     -0.339302      1.119172
  H       4.953055      0.090299      1.975930
  H       3.511373      0.277641      0.973211
  C       5.281372     -0.241258     -0.122428
  H       6.234394     -0.774356      0.061762
  C       5.587111      1.178652     -0.582861
  C       6.455253      1.982726      0.387528
  H       5.934394      2.095813      1.354364
  H       7.380636      1.417764      0.604839
  C       6.814962      3.366466     -0.154145
  H       7.437792      3.929932      0.558684
  H       5.909325      3.963872     -0.352086
  H       7.373917      3.291299     -1.101855
  H       4.630947      1.702829     -0.760539
  H       6.088920      1.108917     -1.562724
  C       3.556046     -4.021353      0.296654
  H       3.086206     -4.380305      1.225916
  H       4.616127     -4.325718      0.314478
  H       3.079587     -4.513530     -0.561635
  C       1.695199     -2.186451      0.124906
  H       1.323375     -2.640884      1.050342
  C       1.319878     -0.768925      0.001820
  C       1.022383      0.043510      1.178012
  O       1.069515     -0.662077      2.342062
  C       0.786584      0.077213      3.523989
  H       0.864900     -0.632316      4.357940
  H       1.504769      0.902075      3.655962
  H      -0.225505      0.509893      3.486290
  O       0.764912      1.234415      1.156264
  C       1.317879     -0.086083     -1.324438
  H       2.343472      0.209626     -1.619150
  H       0.710906      0.829101     -1.295011
  H       0.958462     -0.759883     -2.117962
  H       1.386900     -2.765980     -0.755675
  O       4.653559     -0.891558     -1.251836
41
Coordinates from ORCA-job orca E -847.161168332143
  O       3.638715     -2.604621     -2.187638
  C       3.933712     -2.031789     -1.168901
  C       3.437599     -2.503327      0.193136
  C       4.064124     -1.797048      1.396978
  H       3.394066     -1.886083      2.265095
  H       4.995597     -2.330458      1.662657
  C       4.410786     -0.338688      1.119985
  H       4.954123      0.090120      1.976408
  H       3.511364      0.278599      0.975460
  C       5.279619     -0.239967     -0.122725
  H       6.232411     -0.774194      0.059449
  C       5.585962      1.180110     -0.582141
  C       6.456670      1.982209      0.387591
  H       5.937745      2.094616      1.355547
  H       7.381927      1.416112      0.602481
  C       6.816714      3.366241     -0.153102
  H       7.441463      3.928236      0.559210
  H       5.911295      3.964782     -0.348613
  H       7.373787      3.291665     -1.101965
  H       4.630013      1.705468     -0.757534
  H       6.085981      1.110938     -1.562959
  C       3.556220     -4.021092      0.297192
  H       3.086412     -4.379844      1.226551
  H       4.616339     -4.325328      0.314935
  H       3.079597     -4.513452     -0.560860
  C       1.695220     -2.187031      0.124761
  H       1.322613     -2.641234      1.050037
  C       1.318779     -0.769727      0.000989
  C       1.019203      0.042543      1.176794
  O       1.069062     -0.662179      2.341219
  C       0.787644      0.077657      3.523158
  H       0.868198     -0.631225      4.357448
  H       1.505277      0.903305      3.653257
  H      -0.224927      0.509339      3.487062
  O       0.763077      1.233731      1.154869
  C       1.316915     -0.087514     -1.325551
  H       2.342505      0.208908     -1.619550
  H       0.709021      0.827095     -1.297008
  H       0.958546     -0.762071     -2.118918
  H       1.386491     -2.766833     -0.755505
  O       4.649192     -0.888419     -1.251711
41
Coordinates from ORCA-job orca E -847.161179265723
  O       3.640354     -2.604690     -2.187766
  C       3.934008     -2.031268     -1.169005
  C       3.437889     -2.503187      0.192917
  C       4.062855     -1.796326      1.397121
  H       3.392084     -1.885624      2.264648
  H       4.994356     -2.329418      1.663488
  C       4.409353     -0.337909      1.120279
  H       4.952165      0.090987      1.976987
  H       3.509829      0.279169      0.975238
  C       5.278592     -0.239154     -0.122151
  H       6.230981     -0.774105      0.060011
  C       5.585977      1.180849     -0.580977
  C       6.457390      1.981785      0.389079
  H       5.938673      2.094025      1.357167
  H       7.382256      1.414888      0.603537
  C       6.818408      3.365839     -0.150893
  H       7.443726      3.926941      0.561622
  H       5.913424      3.965198     -0.345909
  H       7.375255      3.291364     -1.099900
  H       4.630445      1.707052     -0.756099
  H       6.085895      1.111697     -1.561844
  C       3.557113     -4.020846      0.297062
  H       3.087730     -4.379710      1.226576
  H       4.617431     -4.324497      0.314333
  H       3.080373     -4.513376     -0.560792
  C       1.695328     -2.187951      0.124303
  H       1.322093     -2.641563      1.049610
  C       1.318040     -0.770674     -0.000139
  C       1.019063      0.042145      1.175414
  O       1.072730     -0.661244      2.340452
  C       0.792058      0.079218      3.522176
  H       0.875817     -0.628603      4.357048
  H       1.508158      0.906549      3.649978
  H      -0.221515      0.508679      3.487660
  O       0.760254      1.232753      1.152720
  C       1.312610     -0.089986     -1.327437
  H       2.337298      0.206695     -1.624122
  H       0.704183      0.824271     -1.298621
  H       0.952820     -0.765708     -2.119160
  H       1.385785     -2.767926     -0.755609
  O       4.647776     -0.886790     -1.251413
41
Coordinates from ORCA-job orca E -847.152122187594
  O       3.674603     -2.608908     -2.188618
  C       3.970357     -2.035896     -1.170230
  C       3.479532     -2.510151      0.192811
  C       4.106923     -1.803217      1.395716
  H       3.439099     -1.894716      2.265295
  H       5.040345     -2.334701      1.658586
  C       4.449607     -0.343832      1.119200
  H       4.994291      0.085312      1.974598
  H       3.548380      0.271581      0.977638
  C       5.314682     -0.242110     -0.125907
  H       6.268727     -0.775327      0.052690
  C       5.617750      1.178961     -0.584319
  C       6.490650      1.980694      0.383744
  H       5.974797      2.090941      1.353598
  H       7.417340      1.415445      0.594693
  C       6.847164      3.366004     -0.156020
  H       7.473629      3.927662      0.555050
  H       5.940353      3.963737     -0.347559
  H       7.401132      3.293581     -1.106878
  H       4.660602      1.703416     -0.755873
  H       6.114676      1.111777     -1.566848
  C       3.602138     -4.027672      0.295085
  H       3.136443     -4.388394      1.225744
  H       4.663122     -4.329211      0.308673
  H       3.123649     -4.520318     -0.561732
  C       1.631817     -2.179479      0.125962
  H       1.262447     -2.634751      1.052014
  C       1.251285     -0.762839      0.004117
  C       0.954428      0.048225      1.181423
  O       1.013226     -0.656201      2.345598
  C       0.734838      0.082536      3.528946
  H       0.822684     -0.625938      4.362855
  H       1.449684      0.911180      3.655276
  H      -0.279708      0.509995      3.498087
  O       0.693154      1.238335      1.160725
  C       1.240251     -0.080857     -1.322495
  H       2.263396      0.218175     -1.622158
  H       0.630080      0.832150     -1.290838
  H       0.879292     -0.756523     -2.113733
  H       1.320632     -2.759212     -0.753532
  O       4.681563     -0.889904     -1.253791
41
Coordinates from ORCA-job orca E -847.152575884621
  O       3.690051     -2.664897     -2.183650
  C       3.964815     -2.084112     -1.163418
  C       3.468258     -2.558926      0.192822
  C       4.063928     -1.846828      1.403398
  H       3.383458     -1.950959      2.262323
  H       5.003257     -2.361127      1.680330
  C       4.372026     -0.379815      1.129044
  H       4.892858      0.065577      1.990973
  H       3.453980      0.209153      0.973926
  C       5.250534     -0.256827     -0.105337
  H       6.215619     -0.765082      0.086693
  C       5.523407      1.171102     -0.561208
  C       6.363458      1.995264      0.417110
  H       5.832697      2.093209      1.380228
  H       7.301256      1.453603      0.640464
  C       6.692118      3.388693     -0.119394
  H       7.295221      3.966294      0.599066
  H       5.773205      3.963467     -0.323100
  H       7.259839      3.329493     -1.063013
  H       4.555537      1.670947     -0.745622
  H       6.034336      1.115736     -1.537244
  C       3.538968     -4.076349      0.299573
  H       3.046574     -4.421274      1.222522
  H       4.590390     -4.409369      0.331882
  H       3.061182     -4.555507     -0.565361
  C       1.632748     -2.172775      0.094575
  H       1.243988     -2.615348      1.018344
  C       1.341136     -0.743504     -0.029060
  C       1.116072      0.087929      1.150770
  O       1.151355     -0.616377      2.315791
  C       0.940915      0.140692      3.501538
  H       0.998952     -0.570267      4.335930
  H       1.708455      0.923076      3.612791
  H      -0.045222      0.630974      3.487319
  O       0.930622      1.291954      1.130312
  C       1.392532     -0.061811     -1.354971
  H       2.438441      0.161618     -1.643314
  H       0.850543      0.893356     -1.328678
  H       0.991822     -0.709102     -2.150890
  H       1.330151     -2.740814     -0.794932
  O       4.649573     -0.921517     -1.240941
41
Coordinates from ORCA-job orca E -847.153027807400
  O       3.673349     -2.630019     -2.179925
  C       3.948705     -2.040758     -1.164451
  C       3.483372     -2.520899      0.197986
  C       4.082270     -1.805607      1.403784
  H       3.403263     -1.898862      2.264953
  H       5.015771     -2.330830      1.681507
  C       4.417757     -0.345237      1.123494
  H       4.956859      0.090666      1.978975
  H       3.512683      0.262069      0.977757
  C       5.283095     -0.239970     -0.121352
  H       6.239551     -0.768918      0.057573
  C       5.580173      1.182572     -0.578937
  C       6.450846      1.986834      0.389050
  H       5.935254      2.094675      1.359296
  H       7.379637      1.424683      0.599082
  C       6.802307      3.373671     -0.150010
  H       7.427313      3.936973      0.561050
  H       5.893389      3.968460     -0.340605
  H       7.355944      3.303727     -1.101245
  H       4.620902      1.703421     -0.749384
  H       6.076602      1.117895     -1.561888
  C       3.561632     -4.035289      0.302248
  H       3.079107     -4.384522      1.228693
  H       4.615687     -4.361722      0.325464
  H       3.080441     -4.515875     -0.559934
  C       1.638401     -2.179405      0.112366
  H       1.277903     -2.639960      1.038348
  C       1.297023     -0.765297     -0.007540
  C       1.021999      0.050579      1.173265
  O       1.068164     -0.657657      2.335345
  C       0.803854      0.082943      3.520718
  H       0.878604     -0.629328      4.352642
  H       1.534112      0.897735      3.649312
  H      -0.202510      0.529401      3.491413
  O       0.778616      1.244181      1.154796
  C       1.310232     -0.080077     -1.332873
  H       2.342638      0.192783     -1.625492
  H       0.723812      0.848372     -1.302328
  H       0.935476     -0.743747     -2.127904
  H       1.362043     -2.758201     -0.778082
  O       4.652784     -0.889912     -1.249575
41
Coordinates from ORCA-job orca E -847.153033635448
  O       3.646137     -2.613684     -2.177966
  C       3.961429     -2.049724     -1.159620
  C       3.489852     -2.521751      0.201667
  C       4.088519     -1.807957      1.407638
  H       3.408841     -1.899520      2.268065
  H       5.019896     -2.336917      1.686579
  C       4.429692     -0.348154      1.129585
  H       4.976647      0.082288      1.982745
  H       3.526610      0.263907      0.993000
  C       5.285053     -0.239641     -0.121847
  H       6.243297     -0.768514      0.047436
  C       5.577461      1.184503     -0.577502
  C       6.456612      1.986071      0.385032
  H       5.949812      2.090730      1.360247
  H       7.387465      1.423619      0.584867
  C       6.802649      3.374709     -0.152893
  H       7.433897      3.936044      0.554197
  H       5.891821      3.969741     -0.333370
  H       7.347637      3.307929     -1.109336
  H       4.616530      1.705547     -0.737620
  H       6.064996      1.123067     -1.565099
  C       3.555121     -4.035569      0.311075
  H       3.064041     -4.378239      1.235267
  H       4.606584     -4.370646      0.342607
  H       3.076852     -4.515173     -0.552943
  C       1.646268     -2.175209      0.106960
  H       1.289246     -2.640557      1.031438
  C       1.300226     -0.763859     -0.011726
  C       1.011319      0.047848      1.168979
  O       1.063874     -0.660225      2.330922
  C       0.796250      0.078426      3.516797
  H       0.877043     -0.633412      4.348538
  H       1.521102      0.898169      3.644504
  H      -0.213157      0.517989      3.488955
  O       0.770211      1.241897      1.152271
  C       1.308424     -0.075589     -1.335954
  H       2.338021      0.208425     -1.626925
  H       0.712591      0.846841     -1.303823
  H       0.940288     -0.740755     -2.132677
  H       1.383447     -2.755668     -0.785985
  O       4.646455     -0.887435     -1.246494
41
Coordinates from ORCA-job orca E -847.153143921508
  O       3.668110     -2.630102     -2.178630
  C       3.957289     -2.050689     -1.161082
  C       3.486248     -2.524865      0.199822
  C       4.080594     -1.808921      1.406221
  H       3.398886     -1.901365      2.264948
  H       5.012945     -2.334572      1.688361
  C       4.416406     -0.348481      1.126690
  H       4.957803      0.085742      1.981459
  H       3.510818      0.259880      0.984322
  C       5.278434     -0.240792     -0.120250
  H       6.236280     -0.768527      0.054955
  C       5.571939      1.182922     -0.576424
  C       6.445255      1.986679      0.389593
  H       5.933283      2.092131      1.362030
  H       7.375613      1.425447      0.595020
  C       6.792641      3.374957     -0.148396
  H       7.419622      3.937893      0.561208
  H       5.882152      3.968809     -0.334422
  H       7.342666      3.307466     -1.101898
  H       4.611378      1.702855     -0.742362
  H       6.064741      1.120506     -1.561335
  C       3.553678     -4.038982      0.310909
  H       3.060631     -4.381794      1.233961
  H       4.605434     -4.372981      0.345917
  H       3.078754     -4.520226     -0.554047
  C       1.643339     -2.175186      0.103509
  H       1.287333     -2.640056      1.028539
  C       1.303826     -0.762491     -0.014137
  C       1.030131      0.052231      1.168163
  O       1.078602     -0.657046      2.329627
  C       0.817862      0.082813      3.516277
  H       0.894175     -0.630156      4.347484
  H       1.549019      0.896967      3.643673
  H      -0.188234      0.530015      3.489836
  O       0.792372      1.246940      1.152039
  C       1.313713     -0.073309     -1.337962
  H       2.344708      0.203369     -1.631251
  H       0.724617      0.853371     -1.303697
  H       0.938989     -0.735316     -2.134182
  H       1.381243     -2.755445     -0.789651
  O       4.645763     -0.890143     -1.247247
41
Coordinates from ORCA-job orca E -847.153148657786
  O       3.672988     -2.634761     -2.177867
  C       3.956456     -2.051934     -1.160641
  C       3.485277     -2.525766      0.200120
  C       4.079527     -1.809437      1.406449
  H       3.397872     -1.902182      2.265215
  H       5.012117     -2.334410      1.688941
  C       4.414112     -0.348708      1.127033
  H       4.956256      0.085342      1.981455
  H       3.508132      0.259406      0.985812
  C       5.275084     -0.240431     -0.120586
  H       6.233022     -0.768382      0.053481
  C       5.568451      1.183517     -0.576165
  C       6.443071      1.986486      0.389333
  H       5.932313      2.091357      1.362477
  H       7.373593      1.424973      0.593236
  C       6.789994      3.375089     -0.148124
  H       7.417917      3.937457      0.561100
  H       5.879364      3.969196     -0.332644
  H       7.338851      3.308183     -1.102341
  H       4.607834      1.703800     -0.740678
  H       6.060124      1.121603     -1.561677
  C       3.552423     -4.039892      0.312443
  H       3.057475     -4.382094      1.234722
  H       4.603892     -4.374364      0.350181
  H       3.079470     -4.521950     -0.553237
  C       1.642719     -2.174810      0.101760
  H       1.288187     -2.640693      1.026817
  C       1.303773     -0.762439     -0.015418
  C       1.031397      0.052352      1.167243
  O       1.078512     -0.657502      2.328443
  C       0.821554      0.082865      3.515608
  H       0.896152     -0.630653      4.346500
  H       1.555676      0.894407      3.642577
  H      -0.183000      0.533592      3.490264
  O       0.800247      1.248321      1.152039
  C       1.318259     -0.071470     -1.338323
  H       2.350477      0.204766     -1.627999
  H       0.729704      0.855547     -1.304501
  H       0.945335     -0.732145     -2.136515
  H       1.383427     -2.755810     -0.791669
  O       4.641027     -0.888877     -1.247275
41
Coordinates from ORCA-job orca E -847.153154994354
  O       3.678681     -2.639615     -2.177080
  C       3.957365     -2.053838     -1.160229
  C       3.486152     -2.526756      0.200549
  C       4.082161     -1.810636      1.406389
  H       3.401694     -1.904211      2.266089
  H       5.015271     -2.335093      1.687803
  C       4.415056     -0.349329      1.127788
  H       4.960252      0.083378      1.981004
  H       3.508589      0.259011      0.990711
  C       5.271945     -0.239420     -0.122527
  H       6.230116     -0.768315      0.047373
  C       5.564880      1.185135     -0.576539
  C       6.444029      1.985549      0.386961
  H       5.937374      2.088806      1.362419
  H       7.374991      1.422989      0.585884
  C       6.789656      3.375014     -0.149109
  H       7.420874      3.935544      0.558645
  H       5.878671      3.970092     -0.328691
  H       7.334526      3.309686     -1.105719
  H       4.604121      1.706639     -0.736285
  H       6.052637      1.124616     -1.564089
  C       3.551850     -4.040872      0.314572
  H       3.054568     -4.381800      1.236112
  H       4.602650     -4.376815      0.355549
  H       3.080732     -4.523822     -0.551728
  C       1.644162     -2.173105      0.101218
  H       1.292993     -2.640104      1.026943
  C       1.305796     -0.761259     -0.015350
  C       1.037749      0.054249      1.167957
  O       1.075066     -0.657807      2.328201
  C       0.815150      0.081759      3.515235
  H       0.881699     -0.633536      4.345277
  H       1.552428      0.889555      3.647660
  H      -0.187092      0.537329      3.485110
  O       0.807551      1.250340      1.153111
  C       1.320799     -0.069041     -1.337695
  H       2.353214      0.207557     -1.626383
  H       0.731936      0.857729     -1.303164
  H       0.948129     -0.729072     -2.136576
  H       1.387544     -2.755728     -0.791871
  O       4.633097     -0.885255     -1.247935
41
Coordinates from ORCA-job orca E -847.153163304794
  O       3.682180     -2.639654     -2.177056
  C       3.958390     -2.053148     -1.159992
  C       3.485381     -2.526100      0.200271
  C       4.079617     -1.809567      1.406840
  H       3.397999     -1.903287      2.265687
  H       5.012381     -2.333926      1.689461
  C       4.413071     -0.348229      1.128774
  H       4.957703      0.084133      1.982524
  H       3.506966      0.260410      0.991071
  C       5.270983     -0.238419     -0.120857
  H       6.228611     -0.768137      0.049560
  C       5.565373      1.186052     -0.574137
  C       6.444605      1.985330      0.390217
  H       5.937498      2.088520      1.365448
  H       7.375024      1.421960      0.589377
  C       6.791601      3.374765     -0.145024
  H       7.422882      3.934479      0.563320
  H       5.881177      3.970638     -0.324822
  H       7.336926      3.309452     -1.101376
  H       4.605159      1.708453     -0.734246
  H       6.053687      1.125502     -1.561407
  C       3.552174     -4.040066      0.314617
  H       3.054211     -4.381191      1.235735
  H       4.603213     -4.375101      0.356721
  H       3.082230     -4.523582     -0.551967
  C       1.643042     -2.174698      0.099441
  H       1.291663     -2.641353      1.025271
  C       1.302495     -0.763388     -0.018312
  C       1.034654      0.052901      1.164505
  O       1.080572     -0.656765      2.325877
  C       0.825894      0.084507      3.512978
  H       0.899095     -0.628993      4.344000
  H       1.561967      0.894354      3.639474
  H      -0.177622      0.537574      3.487891
  O       0.804773      1.249044      1.148850
  C       1.311972     -0.073240     -1.341781
  H       2.342789      0.205595     -1.633672
  H       0.720701      0.852006     -1.307120
  H       0.938816     -0.735545     -2.138540
  H       1.386915     -2.758396     -0.793131
  O       4.632293     -0.883338     -1.246880
41
Coordinates from ORCA-job orca E -847.153159409435
  O       3.682014     -2.639479     -2.176805
  C       3.957976     -2.052500     -1.160002
  C       3.485831     -2.525759      0.200548
  C       4.080733     -1.809272      1.406866
  H       3.399739     -1.903342      2.266134
  H       5.013734     -2.333741      1.688510
  C       4.414244     -0.347837      1.129069
  H       4.960049      0.083947      1.982360
  H       3.508217      0.261120      0.992742
  C       5.270438     -0.237610     -0.121702
  H       6.227944     -0.768121      0.046967
  C       5.565093      1.186937     -0.574470
  C       6.446419      1.984901      0.389061
  H       5.940984      2.087660      1.365207
  H       7.376801      1.420771      0.586258
  C       6.793466      3.374507     -0.145685
  H       7.426322      3.933248      0.562023
  H       5.883149      3.971136     -0.323499
  H       7.337133      3.309556     -1.103006
  H       4.604994      1.710135     -0.732694
  H       6.051812      1.126715     -1.562546
  C       3.552929     -4.039669      0.314425
  H       3.055943     -4.381049      1.235974
  H       4.604118     -4.374413      0.355272
  H       3.082028     -4.523027     -0.551686
  C       1.643312     -2.175047      0.100612
  H       1.291222     -2.641397      1.026372
  C       1.302420     -0.763695     -0.017506
  C       1.032409      0.052327      1.164983
  O       1.077281     -0.657344      2.326351
  C       0.821604      0.083908      3.513245
  H       0.893922     -0.629648      4.344300
  H       1.557684      0.893637      3.640485
  H      -0.181817      0.537126      3.487247
  O       0.803005      1.248568      1.149123
  C       1.313224     -0.073830     -1.341058
  H       2.344330      0.205700     -1.631337
  H       0.721215      0.851000     -1.307526
  H       0.941758     -0.736620     -2.138200
  H       1.385851     -2.758626     -0.791676
  O       4.629530     -0.881321     -1.247144
41
Coordinates from ORCA-job orca E -847.145021824631
  O       3.716021     -2.643883     -2.177343
  C       3.994161     -2.057368     -1.160863
  C       3.527513     -2.532974      0.200778
  C       4.124957     -1.816489      1.405843
  H       3.447014     -1.912827      2.267281
  H       5.059971     -2.339330      1.683852
  C       4.454546     -0.354088      1.128417
  H       5.002304      0.077951      1.980330
  H       3.546817      0.253148      0.995721
  C       5.306354     -0.240837     -0.125089
  H       6.265509     -0.769555      0.039857
  C       5.596580      1.184773     -0.577394
  C       6.479474      1.983568      0.384013
  H       5.977076      2.084302      1.361945
  H       7.411669      1.421147      0.577544
  C       6.821892      3.374428     -0.150479
  H       7.455956      3.933750      0.555690
  H       5.909760      3.969370     -0.324661
  H       7.362507      3.311562     -1.109674
  H       4.634882      1.706161     -0.731895
  H       6.080136      1.126551     -1.567151
  C       3.598095     -4.046862      0.312898
  H       3.104874     -4.390195      1.235754
  H       4.650106     -4.379491      0.349909
  H       3.125305     -4.530308     -0.552137
  C       1.579887     -2.166135      0.101683
  H       1.231833     -2.634145      1.028141
  C       1.235707     -0.755362     -0.013872
  C       0.967956      0.058908      1.170342
  O       1.018147     -0.651848      2.330841
  C       0.764897      0.087677      3.519338
  H       0.841443     -0.626572      4.349428
  H       1.499738      0.898787      3.644950
  H      -0.239540      0.538863      3.497136
  O       0.736045      1.254694      1.156457
  C       1.240693     -0.064134     -1.336761
  H       2.270261      0.217805     -1.630186
  H       0.646899      0.859447     -1.300323
  H       0.867936     -0.726878     -2.133338
  H       1.320655     -2.749338     -0.790340
  O       4.663023     -0.884724     -1.249052
41
Coordinates from ORCA-job orca E -847.145499783894
  O       3.731640     -2.700951     -2.170783
  C       3.988256     -2.106269     -1.152923
  C       3.515239     -2.581670      0.202382
  C       4.079613     -1.858649      1.414607
  H       3.387956     -1.966808      2.264369
  H       5.019705     -2.364021      1.708744
  C       4.374981     -0.389151      1.138088
  H       4.898526      0.059816      1.996464
  H       3.450709      0.191552      0.990884
  C       5.240520     -0.256039     -0.104671
  H       6.210692     -0.759606      0.074502
  C       5.500445      1.175782     -0.555557
  C       6.349888      1.998218      0.416078
  H       5.832185      2.087519      1.387133
  H       7.293415      1.459972      0.622943
  C       6.664025      3.396583     -0.116179
  H       7.274287      3.972766      0.597368
  H       5.739527      3.967986     -0.303458
  H       7.218746      3.346131     -1.068013
  H       4.527879      1.672144     -0.723935
  H       5.998460      1.128345     -1.538667
  C       3.532967     -4.093950      0.319228
  H       3.012686     -4.419548      1.233750
  H       4.573776     -4.458637      0.375984
  H       3.061508     -4.564341     -0.553815
  C       1.582003     -2.154593      0.068813
  H       1.214241     -2.610393      0.993446
  C       1.330130     -0.733986     -0.047333
  C       1.135099      0.097479      1.140459
  O       1.158800     -0.614244      2.300868
  C       0.973005      0.140532      3.492201
  H       1.017352     -0.576789      4.321971
  H       1.760228      0.902975      3.604583
  H      -0.000734      0.655120      3.485907
  O       0.979937      1.305267      1.127770
  C       1.398540     -0.042936     -1.368895
  H       2.449493      0.163424     -1.650391
  H       0.873591      0.921540     -1.336875
  H       0.987240     -0.675653     -2.170905
  H       1.332980     -2.727694     -0.832306
  O       4.629523     -0.917674     -1.236245
41
Coordinates from ORCA-job orca E -847.146027820940
  O       3.715527     -2.665383     -2.167532
  C       3.972042     -2.062046     -1.154357
  C       3.531288     -2.542549      0.206931
  C       4.098613     -1.816015      1.414367
  H       3.407746     -1.912632      2.266082
  H       5.032542     -2.332727      1.710053
  C       4.422823     -0.353319      1.131862
  H       4.965074      0.085746      1.983682
  H       3.512063      0.246589      0.993990
  C       5.275224     -0.238681     -0.121308
  H       6.236300     -0.763791      0.044650
  C       5.560391      1.187784     -0.573974
  C       6.440649      1.989889      0.387105
  H       5.938104      2.089005      1.365120
  H       7.374861      1.430786      0.580564
  C       6.778107      3.381859     -0.147574
  H       7.410344      3.943468      0.558427
  H       5.863893      3.973593     -0.321660
  H       7.318771      3.320789     -1.106860
  H       4.596839      1.705696     -0.728397
  H       6.043985      1.130894     -1.563782
  C       3.555294     -4.052177      0.321979
  H       3.045222     -4.381701      1.240808
  H       4.598808     -4.411579      0.368813
  H       3.078982     -4.523552     -0.547855
  C       1.587219     -2.163440      0.086482
  H       1.249822     -2.637705      1.012975
  C       1.284358     -0.758392     -0.025184
  C       1.036501      0.058098      1.164268
  O       1.072264     -0.657791      2.321514
  C       0.831249      0.081384      3.512762
  H       0.893400     -0.637663      4.339871
  H       1.581021      0.878025      3.642803
  H      -0.164533      0.551351      3.491394
  O       0.820599      1.256363      1.153906
  C       1.312721     -0.061726     -1.345762
  H       2.350224      0.198287     -1.630464
  H       0.739497      0.874731     -1.309207
  H       0.929552     -0.711989     -2.147572
  H       1.367561     -2.744959     -0.816317
  O       4.634115     -0.884972     -1.245013
41
Coordinates from ORCA-job orca E -847.146049820369
  O       3.685402     -2.648907     -2.164735
  C       3.984405     -2.069899     -1.148779
  C       3.538818     -2.542532      0.211330
  C       4.105215     -1.816798      1.418695
  H       3.412959     -1.910829      2.269179
  H       5.036469     -2.337554      1.716870
  C       4.436098     -0.354921      1.137840
  H       4.987082      0.078473      1.986835
  H       3.527723      0.250435      1.009573
  C       5.277540     -0.237904     -0.122504
  H       6.240003     -0.763652      0.033033
  C       5.558788      1.189837     -0.573715
  C       6.448816      1.988930      0.380843
  H       5.956045      2.085448      1.364074
  H       7.384728      1.429016      0.563418
  C       6.781352      3.382314     -0.153236
  H       7.420763      3.941757      0.548005
  H       5.865620      3.974788     -0.316529
  H       7.312405      3.323817     -1.118036
  H       4.593988      1.708550     -0.717120
  H       6.032558      1.135597     -1.568409
  C       3.548258     -4.050964      0.331266
  H       3.030451     -4.373336      1.248104
  H       4.588379     -4.420016      0.385496
  H       3.073744     -4.520954     -0.539976
  C       1.596283     -2.158872      0.080955
  H       1.264698     -2.639040      1.005903
  C       1.287217     -0.757723     -0.028630
  C       1.021445      0.053467      1.161255
  O       1.063844     -0.663106      2.317818
  C       0.817768      0.072975      3.510008
  H       0.886409     -0.646334      4.336389
  H       1.561151      0.875543      3.640280
  H      -0.181793      0.534811      3.489810
  O       0.808154      1.252125      1.153414
  C       1.312434     -0.055765     -1.347075
  H       2.347168      0.219888     -1.626063
  H       0.725941      0.872462     -1.309581
  H       0.940987     -0.707857     -2.152733
  H       1.393222     -2.741879     -0.824110
  O       4.626527     -0.881842     -1.241573
41
Coordinates from ORCA-job orca E -847.146172414275
  O       3.705909     -2.662900     -2.165802
  C       3.979575     -2.069990     -1.150539
  C       3.535831     -2.545040      0.209370
  C       4.097642     -1.817132      1.417053
  H       3.403252     -1.912068      2.265674
  H       5.029721     -2.334519      1.718746
  C       4.423133     -0.354668      1.134658
  H       4.968883      0.082349      1.985150
  H       3.512188      0.247139      1.000940
  C       5.270999     -0.238655     -0.121515
  H       6.232891     -0.763861      0.039532
  C       5.554068      1.188611     -0.573012
  C       6.439046      1.989130      0.385042
  H       5.941386      2.086561      1.365731
  H       7.374249      1.429792      0.572863
  C       6.773658      3.382044     -0.148966
  H       7.409378      3.942536      0.554785
  H       5.858512      3.973979     -0.317468
  H       7.309492      3.322672     -1.111063
  H       4.589832      1.706860     -0.721893
  H       6.032844      1.133315     -1.565240
  C       3.547562     -4.053744      0.330820
  H       3.028662     -4.376453      1.246874
  H       4.587997     -4.421708      0.387634
  H       3.075742     -4.525388     -0.540978
  C       1.593821     -2.158888      0.078538
  H       1.265385     -2.638593      1.004694
  C       1.290545     -0.756934     -0.030395
  C       1.040944      0.057468      1.160979
  O       1.077696     -0.660151      2.317130
  C       0.836276      0.076871      3.509703
  H       0.899442     -0.643442      4.335657
  H       1.585243      0.874081      3.640784
  H      -0.160000      0.545767      3.489354
  O       0.828730      1.256275      1.153136
  C       1.316024     -0.054326     -1.348635
  H       2.351518      0.216085     -1.630068
  H       0.734375      0.876880     -1.309123
  H       0.939318     -0.704156     -2.153595
  H       1.392190     -2.742790     -0.826057
  O       4.625107     -0.883454     -1.242911
41
Coordinates from ORCA-job orca E -847.146181093331
  O       3.712544     -2.667768     -2.165166
  C       3.978051     -2.070594     -1.150184
  C       3.533905     -2.545557      0.209365
  C       4.093779     -1.816451      1.417345
  H       3.398181     -1.911371      2.265036
  H       5.025766     -2.332606      1.721273
  C       4.417794     -0.353759      1.134562
  H       4.962976      0.083805      1.985172
  H       3.506400      0.247415      1.000293
  C       5.266450     -0.238017     -0.121116
  H       6.227941     -0.763809      0.040432
  C       5.550807      1.189128     -0.572204
  C       6.436144      1.988768      0.386254
  H       5.938376      2.086250      1.366888
  H       7.370930      1.428743      0.574077
  C       6.771790      3.381614     -0.147288
  H       7.407763      3.941481      0.556734
  H       5.857079      3.974218     -0.315798
  H       7.307752      3.322158     -1.109306
  H       4.587033      1.708188     -0.721282
  H       6.029836      1.133658     -1.564303
  C       3.546842     -4.054262      0.332364
  H       3.026290     -4.376771      1.247575
  H       4.587240     -4.421722      0.392202
  H       3.077696     -4.527469     -0.540141
  C       1.592097     -2.159363      0.075683
  H       1.266168     -2.640156      1.002097
  C       1.288335     -0.757992     -0.032958
  C       1.040302      0.056572      1.158839
  O       1.080220     -0.660761      2.315074
  C       0.846394      0.077334      3.508520
  H       0.911205     -0.642913      4.334404
  H       1.598242      0.872410      3.635949
  H      -0.148621      0.549076      3.492479
  O       0.837096      1.256873      1.151980
  C       1.318276     -0.053364     -1.350114
  H       2.354521      0.219931     -1.626242
  H       0.734165      0.876339     -1.311806
  H       0.946764     -0.702977     -2.157645
  H       1.394211     -2.744700     -0.828718
  O       4.620319     -0.882026     -1.242736
41
Coordinates from ORCA-job orca E -847.146188242992
  O       3.715021     -2.670141     -2.164946
  C       3.978270     -2.071507     -1.150211
  C       3.535040     -2.546001      0.209459
  C       4.096177     -1.816735      1.416998
  H       3.401252     -1.912000      2.265262
  H       5.028498     -2.332223      1.720764
  C       4.418486     -0.353582      1.134375
  H       4.966066      0.083280      1.983855
  H       3.506600      0.247568      1.003230
  C       5.263852     -0.237042     -0.123490
  H       6.225245     -0.764011      0.034823
  C       5.548702      1.190345     -0.573548
  C       6.438187      1.987555      0.383082
  H       5.943858      2.084195      1.365542
  H       7.372944      1.426170      0.566929
  C       6.773657      3.380785     -0.149572
  H       7.412666      3.938904      0.553091
  H       5.859075      3.974695     -0.314141
  H       7.306282      3.322102     -1.113488
  H       4.585171      1.710926     -0.718871
  H       6.024478      1.135554     -1.567256
  C       3.547877     -4.054674      0.333719
  H       3.026687     -4.376638      1.248807
  H       4.587902     -4.422726      0.395121
  H       3.079744     -4.528946     -0.538872
  C       1.593578     -2.157951      0.076132
  H       1.272039     -2.639843      1.003441
  C       1.289625     -0.757145     -0.031717
  C       1.045122      0.057721      1.160838
  O       1.074431     -0.661879      2.315985
  C       0.836415      0.075052      3.509355
  H       0.892600     -0.647052      4.334244
  H       1.591075      0.866413      3.643081
  H      -0.156318      0.551367      3.487816
  O       0.842056      1.257967      1.154376
  C       1.320934     -0.050535     -1.347884
  H       2.356987      0.227756     -1.619850
  H       0.732531      0.876481     -1.310142
  H       0.954934     -0.700721     -2.157450
  H       1.397865     -2.745083     -0.827509
  O       4.613449     -0.878849     -1.243789
41
Coordinates from ORCA-job orca E -847.146193486186
  O       3.716377     -2.668532     -2.165187
  C       3.979092     -2.070280     -1.150141
  C       3.534767     -2.545214      0.209159
  C       4.094962     -1.816033      1.417333
  H       3.399426     -1.911668      2.265120
  H       5.027058     -2.331574      1.721539
  C       4.417763     -0.352752      1.135535
  H       4.965317      0.083469      1.985366
  H       3.506198      0.248773      1.004528
  C       5.263365     -0.235934     -0.122172
  H       6.224266     -0.763878      0.035911
  C       5.549577      1.191482     -0.571251
  C       6.439906      1.987124      0.385888
  H       5.945770      2.083498      1.368470
  H       7.374140      1.424700      0.569218
  C       6.776673      3.380422     -0.145756
  H       7.416298      3.937396      0.557256
  H       5.862650      3.975341     -0.309789
  H       7.309145      3.321940     -1.109772
  H       4.586570      1.713158     -0.716158
  H       6.025255      1.136900     -1.565019
  C       3.548888     -4.053791      0.333051
  H       3.027560     -4.376367      1.247867
  H       4.589252     -4.420808      0.394824
  H       3.081482     -4.528335     -0.539744
  C       1.592828     -2.159661      0.075521
  H       1.271507     -2.640801      1.003324
  C       1.286798     -0.759335     -0.033848
  C       1.043092      0.056836      1.157952
  O       1.078560     -0.660493      2.314298
  C       0.843673      0.078202      3.507193
  H       0.904692     -0.642207      4.333212
  H       1.597134      0.871454      3.636432
  H      -0.150177      0.552310      3.488675
  O       0.838207      1.256766      1.149975
  C       1.311377     -0.055338     -1.351522
  H       2.345378      0.227068     -1.626669
  H       0.718918      0.869140     -1.314168
  H       0.946215     -0.708849     -2.158747
  H       1.396716     -2.748122     -0.827232
  O       4.612384     -0.876455     -1.242884
41
Coordinates from ORCA-job orca E -847.146193129760
  O       3.716811     -2.667782     -2.165020
  C       3.978436     -2.068895     -1.150145
  C       3.534894     -2.544497      0.209315
  C       4.095506     -1.815360      1.417485
  H       3.400410     -1.911516      2.265579
  H       5.027819     -2.330901      1.720909
  C       4.418352     -0.351854      1.136285
  H       4.967356      0.083493      1.985640
  H       3.506950      0.250123      1.007063
  C       5.261904     -0.234480     -0.122748
  H       6.222371     -0.763905      0.033093
  C       5.549181      1.192995     -0.570809
  C       6.442657      1.986266      0.385362
  H       5.950859      2.081980      1.369184
  H       7.376587      1.422420      0.565867
  C       6.780012      3.379826     -0.145211
  H       7.421939      3.935061      0.557078
  H       5.866383      3.976129     -0.306412
  H       7.310235      3.321926     -1.110502
  H       4.586625      1.716237     -0.713124
  H       6.022709      1.138820     -1.565627
  C       3.550281     -4.052997      0.332634
  H       3.029628     -4.376253      1.247608
  H       4.591026     -4.419028      0.393787
  H       3.082766     -4.527729     -0.539965
  C       1.592525     -2.160832      0.076497
  H       1.271057     -2.641578      1.004521
  C       1.285450     -0.760753     -0.033752
  C       1.040280      0.055768      1.157486
  O       1.075681     -0.660869      2.314202
  C       0.841524      0.078662      3.506721
  H       0.902223     -0.641327      4.333128
  H       1.595545      0.871483      3.635383
  H      -0.152014      0.553415      3.488124
  O       0.836566      1.255891      1.148755
  C       1.309729     -0.057682     -1.351864
  H       2.342973      0.230457     -1.623914
  H       0.712057      0.863577     -1.317006
  H       0.950731     -0.713899     -2.159590
  H       1.395241     -2.749978     -0.825590
  O       4.607797     -0.872865     -1.242834
41
Coordinates from ORCA-job orca E -847.146209125113
  O       3.718868     -2.667370     -2.165130
  C       3.977413     -2.067177     -1.150308
  C       3.535020     -2.544013      0.209152
  C       4.094953     -1.814681      1.417608
  H       3.399840     -1.911741      2.265587
  H       5.027548     -2.329825      1.720809
  C       4.417241     -0.350806      1.137322
  H       4.967496      0.083623      1.986343
  H       3.505733      0.251382      1.009897
  C       5.258813     -0.232558     -0.122957
  H       6.218581     -0.764038      0.030289
  C       5.547879      1.195066     -0.569203
  C       6.445254      1.984827      0.386224
  H       5.956213      2.079404      1.371533
  H       7.378643      1.418955      0.563137
  C       6.783726      3.378860     -0.142377
  H       7.428520      3.931492      0.559338
  H       5.870756      3.977141     -0.299947
  H       7.311285      3.321985     -1.109186
  H       4.586069      1.720547     -0.708332
  H       6.018944      1.141613     -1.565229
  C       3.552239     -4.052471      0.331992
  H       3.031961     -4.376629      1.246864
  H       4.593466     -4.417159      0.393086
  H       3.085313     -4.527654     -0.540658
  C       1.592134     -2.162701      0.077115
  H       1.271639     -2.642664      1.005907
  C       1.283618     -0.763078     -0.034739
  C       1.039623      0.054997      1.155649
  O       1.076456     -0.659878      2.313350
  C       0.843915      0.081477      3.505056
  H       0.905466     -0.637302      4.332451
  H       1.598277      0.874316      3.631635
  H      -0.149538      0.556421      3.486964
  O       0.835660      1.255066      1.145193
  C       1.305046     -0.061819     -1.353839
  H       2.336430      0.235402     -1.623099
  H       0.699212      0.854272     -1.322072
  H       0.954329     -0.722477     -2.161465
  H       1.394078     -2.753384     -0.823812
  O       4.600942     -0.867871     -1.242561
41
Coordinates from ORCA-job orca E -847.146194205572
  O       3.719705     -2.664617     -2.166026
  C       3.974022     -2.063271     -1.150905
  C       3.535671     -2.543782      0.208577
  C       4.094937     -1.814942      1.417680
  H       3.400560     -1.914549      2.265937
  H       5.028510     -2.329286      1.719267
  C       4.415368     -0.350149      1.139889
  H       4.968182      0.082291      1.988265
  H       3.503238      0.252059      1.016653
  C       5.252406     -0.229043     -0.123119
  H       6.211207     -0.764004      0.024153
  C       5.543921      1.199327     -0.565023
  C       6.450061      1.981467      0.388400
  H       5.967864      2.072611      1.377402
  H       7.382724      1.411676      0.556313
  C       6.789702      3.377032     -0.135350
  H       7.441278      3.923786      0.564709
  H       5.877762      3.979278     -0.283519
  H       7.310353      3.323348     -1.106085
  H       4.583268      1.728999     -0.696146
  H       6.008808      1.148348     -1.564067
  C       3.556556     -4.052334      0.329261
  H       3.037802     -4.379025      1.244079
  H       4.598761     -4.414493      0.388951
  H       3.090072     -4.527526     -0.543611
  C       1.591747     -2.166702      0.079704
  H       1.274099     -2.644159      1.010800
  C       1.280214     -0.768062     -0.036549
  C       1.038656      0.054400      1.151227
  O       1.079167     -0.655486      2.311803
  C       0.849086      0.090778      3.500916
  H       0.913183     -0.624416      4.331216
  H       1.603247      0.884637      3.622256
  H      -0.144704      0.565013      3.483277
  O       0.832904      1.254137      1.136001
  C       1.296904     -0.071386     -1.358117
  H       2.324392      0.244111     -1.621438
  H       0.674724      0.834034     -1.333627
  H       0.963652     -0.741307     -2.165286
  H       1.391841     -2.760960     -0.818466
  O       4.587209     -0.858280     -1.241814
41
Coordinates from ORCA-job orca E -847.146201721915
  O       3.718211     -2.665390     -2.165944
  C       3.974878     -2.064919     -1.150837
  C       3.535564     -2.544352      0.208668
  C       4.095187     -1.815567      1.417535
  H       3.400691     -1.914336      2.265784
  H       5.028504     -2.330226      1.719459
  C       4.416070     -0.351108      1.138844
  H       4.967622      0.082264      1.987560
  H       3.503994      0.250818      1.013800
  C       5.254964     -0.230853     -0.123011
  H       6.214293     -0.764189      0.026561
  C       5.545049      1.197350     -0.566522
  C       6.447555      1.982685      0.387730
  H       5.962730      2.074854      1.375356
  H       7.380734      1.414745      0.559005
  C       6.786162      3.377856     -0.137745
  H       7.434962      3.927035      0.562987
  H       5.873580      3.978253     -0.289408
  H       7.309443      3.323260     -1.107011
  H       4.583767      1.725094     -0.700721
  H       6.012360      1.145612     -1.564400
  C       3.554743     -4.052945      0.329843
  H       3.035481     -4.378767      1.244679
  H       4.596522     -4.416292      0.389740
  H       3.087857     -4.527737     -0.543042
  C       1.592120     -2.165000      0.079222
  H       1.273410     -2.642934      1.009694
  C       1.282145     -0.765857     -0.035691
  C       1.039840      0.055265      1.152839
  O       1.079088     -0.656223      2.312537
  C       0.847556      0.088341      3.502429
  H       0.910873     -0.627997      4.331810
  H       1.601431      0.882170      3.625702
  H      -0.146301      0.562429      3.484366
  O       0.834164      1.255031      1.139111
  C       1.301197     -0.067570     -1.356385
  H       2.330061      0.242461     -1.620836
  H       0.684027      0.841186     -1.329909
  H       0.963148     -0.734534     -2.164060
  H       1.392502     -2.757778     -0.819973
  O       4.592880     -0.862583     -1.242176
41
Coordinates from ORCA-job orca E -847.146202031903
  O       3.716197     -2.665125     -2.166243
  C       3.974842     -2.065623     -1.151018
  C       3.535560     -2.544896      0.208512
  C       4.095592     -1.816398      1.417298
  H       3.401240     -1.914887      2.265694
  H       5.028872     -2.331235      1.719095
  C       4.416551     -0.352068      1.138283
  H       4.967353      0.081823      1.987216
  H       3.504410      0.249566      1.012277
  C       5.256346     -0.232031     -0.122980
  H       6.215992     -0.764485      0.027606
  C       5.545535      1.196197     -0.567099
  C       6.446040      1.983134      0.387742
  H       5.959864      2.075499      1.374689
  H       7.379581      1.416275      0.560590
  C       6.783860      3.378285     -0.138299
  H       7.431122      3.928671      0.562911
  H       5.870847      3.977598     -0.291645
  H       7.308526      3.323544     -1.106805
  H       4.583873      1.722854     -0.702811
  H       6.014139      1.144293     -1.564364
  C       3.553856     -4.053552      0.329562
  H       3.034434     -4.379144      1.244380
  H       4.595419     -4.417537      0.389312
  H       3.086659     -4.527849     -0.543435
  C       1.592337     -2.164249      0.079554
  H       1.273455     -2.641902      1.010092
  C       1.283108     -0.764883     -0.035186
  C       1.040608      0.056060      1.153408
  O       1.079787     -0.655688      2.313009
  C       0.847395      0.088454      3.502986
  H       0.910758     -0.628052      4.332221
  H       1.600805      0.882646      3.626768
  H      -0.146698      0.562047      3.484653
  O       0.834527      1.255753      1.139941
  C       1.303339     -0.066134     -1.355618
  H       2.332378      0.244144     -1.619145
  H       0.686161      0.842635     -1.329303
  H       0.966075     -0.732767     -2.163879
  H       1.392498     -2.756488     -0.819942
  O       4.595817     -0.864935     -1.242439
41
Coordinates from ORCA-job orca E -847.139764117524
  O       3.750042     -2.669617     -2.166516
  C       4.010912     -2.070625     -1.151557
  C       3.577274     -2.552212      0.208981
  C       4.139925     -1.823798      1.416603
  H       3.448678     -1.924603      2.267271
  H       5.075306     -2.337008      1.714679
  C       4.456890     -0.358514      1.138001
  H       5.009693      0.075646      1.985498
  H       3.543069      0.241357      1.015734
  C       5.292123     -0.235432     -0.126010
  H       6.253390     -0.766048      0.020747
  C       5.576828      1.193855     -0.569644
  C       6.478964      1.981677      0.382930
  H       5.995970      2.072015      1.371634
  H       7.414273      1.416578      0.552001
  C       6.812088      3.378072     -0.142828
  H       7.460604      3.929079      0.556737
  H       5.897306      3.975647     -0.292434
  H       7.333557      3.325419     -1.113185
  H       4.613608      1.718654     -0.701525
  H       6.042131      1.143952     -1.568566
  C       3.599116     -4.060955      0.328412
  H       3.083499     -4.388569      1.244670
  H       4.641639     -4.422839      0.384226
  H       3.129920     -4.535322     -0.543477
  C       1.528947     -2.155120      0.080165
  H       1.214238     -2.634396      1.011301
  C       1.216420     -0.756278     -0.032074
  C       0.976278      0.062935      1.158195
  O       1.020900     -0.649927      2.316928
  C       0.791031      0.092505      3.508467
  H       0.858717     -0.624724      4.336746
  H       1.543214      0.888134      3.630492
  H      -0.204108      0.564053      3.494021
  O       0.767660      1.262214      1.146670
  C       1.230685     -0.056125     -1.351856
  H       2.258179      0.256562     -1.618580
  H       0.611710      0.851335     -1.322493
  H       0.892042     -0.722626     -2.159650
  H       1.327262     -2.746847     -0.819258
  O       4.629082     -0.868553     -1.243863
41
Coordinates from ORCA-job orca E -847.140328762354
  O       3.759574     -2.723309     -2.159192
  C       4.002027     -2.117925     -1.142873
  C       3.563735     -2.600018      0.211693
  C       4.093201     -1.865226      1.425844
  H       3.387952     -1.977563      2.264316
  H       5.032701     -2.361113      1.741016
  C       4.376685     -0.393287      1.147926
  H       4.905592      0.057688      2.001898
  H       3.446740      0.180433      1.011253
  C       5.225352     -0.251046     -0.105710
  H       6.197843     -0.756725      0.055063
  C       5.479730      1.184278     -0.548131
  C       6.348834      1.996348      0.414805
  H       5.850623      2.076025      1.396864
  H       7.295834      1.455459      0.597411
  C       6.653490      3.399890     -0.109170
  H       7.278471      3.968283      0.597872
  H       5.725968      3.973870     -0.272094
  H       7.188998      3.358905     -1.072406
  H       4.505288      1.684090     -0.694002
  H       5.959391      1.144543     -1.540663
  C       3.533164     -4.105646      0.334524
  H       2.991320     -4.415157      1.242120
  H       4.563163     -4.499547      0.409670
  H       3.065399     -4.566807     -0.545356
  C       1.531051     -2.140363      0.047891
  H       1.199611     -2.607633      0.978745
  C       1.312300     -0.735257     -0.065586
  C       1.143409      0.099485      1.128067
  O       1.162257     -0.613352      2.286992
  C       1.001191      0.143446      3.480784
  H       1.037122     -0.575894      4.309193
  H       1.804852      0.889272      3.588246
  H       0.038220      0.677862      3.482652
  O       1.014427      1.309367      1.117195
  C       1.391305     -0.036289     -1.384260
  H       2.441909      0.203177     -1.637546
  H       0.838147      0.912816     -1.360709
  H       1.016294     -0.676190     -2.197415
  H       1.342019     -2.725266     -0.858075
  O       4.593871     -0.902076     -1.231263
41
Coordinates from ORCA-job orca E -847.140955521027
  O       3.739539     -2.683882     -2.156750
  C       3.983516     -2.071066     -1.144641
  C       3.580868     -2.559185      0.215126
  C       4.112700     -1.821210      1.424620
  H       3.407576     -1.921676      2.264776
  H       5.045764     -2.328636      1.742121
  C       4.426082     -0.356116      1.140937
  H       4.973798      0.084630      1.988336
  H       3.510050      0.237408      1.013404
  C       5.261833     -0.232724     -0.122840
  H       6.224586     -0.760618      0.024753
  C       5.542537      1.197193     -0.566995
  C       6.442677      1.988017      0.384964
  H       5.959749      2.077347      1.373779
  H       7.379705      1.425739      0.553994
  C       6.771527      3.385181     -0.141355
  H       7.418583      3.938386      0.557844
  H       5.854951      3.979967     -0.290945
  H       7.292887      3.333731     -1.111836
  H       4.577777      1.719112     -0.698706
  H       6.007627      1.148142     -1.566047
  C       3.554572     -4.062273      0.335869
  H       3.023400     -4.375724      1.248463
  H       4.587054     -4.452709      0.399858
  H       3.080228     -4.523229     -0.540621
  C       1.535866     -2.151914      0.066750
  H       1.240136     -2.636796      0.999960
  C       1.266537     -0.763789     -0.042260
  C       1.043787      0.057585      1.153631
  O       1.072309     -0.659176      2.309457
  C       0.853279      0.083567      3.502905
  H       0.905222     -0.637601      4.328841
  H       1.620210      0.864230      3.629570
  H      -0.132675      0.573936      3.487636
  O       0.850430      1.258534      1.144608
  C       1.303925     -0.058005     -1.359891
  H       2.338531      0.239003     -1.615183
  H       0.699770      0.859420     -1.332055
  H       0.960415     -0.714550     -2.173536
  H       1.381688     -2.743172     -0.840910
  O       4.600046     -0.867525     -1.240045
41
Coordinates from ORCA-job orca E -847.141008733090
  O       3.703899     -2.665073     -2.153628
  C       3.995619     -2.077192     -1.138905
  C       3.589571     -2.558183      0.219438
  C       4.119507     -1.820569      1.428892
  H       3.411902     -1.917326      2.267037
  H       5.049059     -2.332341      1.750822
  C       4.440750     -0.356541      1.146338
  H       4.997149      0.078647      1.990812
  H       3.527551      0.243036      1.027748
  C       5.265866     -0.231859     -0.124314
  H       6.229552     -0.760744      0.013355
  C       5.543515      1.198975     -0.567669
  C       6.453343      1.986989      0.377366
  H       5.980001      2.074480      1.370973
  H       7.391548      1.423686      0.536127
  C       6.778090      3.385097     -0.148997
  H       7.432218      3.936328      0.545157
  H       5.860522      3.980824     -0.288460
  H       7.290051      3.335450     -1.124563
  H       4.577977      1.721943     -0.688942
  H       5.998983      1.151850     -1.571234
  C       3.547153     -4.059583      0.344509
  H       3.008830     -4.365627      1.255250
  H       4.575411     -4.460755      0.415211
  H       3.073788     -4.518602     -0.533205
  C       1.545961     -2.147447      0.061729
  H       1.260522     -2.638625      0.994208
  C       1.268161     -0.764578     -0.044975
  C       1.023254      0.050986      1.151753
  O       1.059883     -0.666588      2.306678
  C       0.835006      0.072602      3.501357
  H       0.894718     -0.649079      4.326334
  H       1.594611      0.860361      3.628213
  H      -0.155575      0.553474      3.487637
  O       0.832878      1.252248      1.145434
  C       1.302339     -0.051713     -1.359723
  H       2.332109      0.268289     -1.605044
  H       0.678702      0.852705     -1.332615
  H       0.978226     -0.711026     -2.178822
  H       1.412287     -2.740370     -0.847406
  O       4.594121     -0.864601     -1.236288
41
Coordinates from ORCA-job orca E -847.141133061862
  O       3.722725     -2.677159     -2.155879
  C       3.990739     -2.077303     -1.141346
  C       3.587221     -2.560720      0.216872
  C       4.112386     -1.820919      1.426589
  H       3.402443     -1.918476      2.262619
  H       5.042571     -2.329077      1.752638
  C       4.427817     -0.356308      1.142184
  H       4.978548      0.082891      1.988256
  H       3.511767      0.239481      1.017607
  C       5.260019     -0.232987     -0.124064
  H       6.223135     -0.761355      0.019730
  C       5.539806      1.197279     -0.567867
  C       6.444032      1.986939      0.381161
  H       5.965079      2.075688      1.371980
  H       7.381501      1.424183      0.545994
  C       6.771261      3.384405     -0.145381
  H       7.421284      3.936867      0.551637
  H       5.854290      3.979626     -0.290885
  H       7.288716      3.333529     -1.117978
  H       4.574821      1.719814     -0.695425
  H       6.000987      1.148816     -1.568748
  C       3.547188     -4.062530      0.343433
  H       3.008549     -4.369057      1.253759
  H       4.575783     -4.462643      0.415974
  H       3.075913     -4.523295     -0.534450
  C       1.544079     -2.147082      0.060689
  H       1.263999     -2.637583      0.994994
  C       1.271751     -0.763485     -0.045542
  C       1.044213      0.055418      1.152693
  O       1.072892     -0.663336      2.307109
  C       0.850140      0.076326      3.501933
  H       0.902783     -0.646503      4.326398
  H       1.614847      0.858703      3.631348
  H      -0.137069      0.564025      3.486170
  O       0.852825      1.256451      1.145957
  C       1.305581     -0.049582     -1.359949
  H       2.335571      0.269127     -1.606095
  H       0.683237      0.855721     -1.331471
  H       0.979823     -0.707969     -2.179019
  H       1.411933     -2.741656     -0.847382
  O       4.593877     -0.866715     -1.238654
41
Coordinates from ORCA-job orca E -847.141144429043
  O       3.731042     -2.682327     -2.155903
  C       3.988047     -2.077339     -1.141458
  C       3.584027     -2.561246      0.216201
  C       4.105556     -1.819752      1.426626
  H       3.393206     -1.916985      2.260722
  H       5.035223     -2.326067      1.756798
  C       4.419133     -0.354957      1.141328
  H       4.967329      0.085786      1.988278
  H       3.502481      0.239568      1.013826
  C       5.254869     -0.232750     -0.122755
  H       6.217273     -0.761573      0.024135
  C       5.536993      1.197073     -0.566579
  C       6.439353      1.986624      0.384312
  H       5.957970      2.076246      1.373879
  H       7.376012      1.423315      0.551813
  C       6.768873      3.383587     -0.142163
  H       7.417511      3.935997      0.556188
  H       5.852683      3.979359     -0.290328
  H       7.288746      3.331826     -1.113420
  H       4.572759      1.720301     -0.697018
  H       6.000748      1.147682     -1.566231
  C       3.546795     -4.063219      0.344108
  H       3.006751     -4.370290      1.253441
  H       4.575713     -4.461757      0.419830
  H       3.078845     -4.526052     -0.534590
  C       1.540949     -2.148323      0.057309
  H       1.264567     -2.639462      0.992300
  C       1.267332     -0.765283     -0.049029
  C       1.041442      0.054126      1.149508
  O       1.078401     -0.663281      2.304488
  C       0.867924      0.078300      3.500392
  H       0.925958     -0.643735      4.325183
  H       1.635611      0.858955      3.622250
  H      -0.118231      0.568337      3.492543
  O       0.862364      1.256957      1.143473
  C       1.306262     -0.049128     -1.362149
  H       2.335652      0.278678     -1.599050
  H       0.676101      0.850877     -1.337468
  H       0.992965     -0.709166     -2.184683
  H       1.412842     -2.744953     -0.849917
  O       4.590982     -0.866397     -1.238600
41
Coordinates from ORCA-job orca E -847.141175501489
  O       3.728186     -2.681798     -2.156556
  C       3.988397     -2.078200     -1.142058
  C       3.585964     -2.562110      0.215772
  C       4.109497     -1.821038      1.425831
  H       3.398049     -1.918381      2.260725
  H       5.039410     -2.327078      1.755497
  C       4.421739     -0.355852      1.140687
  H       4.972063      0.084346      1.986575
  H       3.504686      0.238585      1.016023
  C       5.254386     -0.232783     -0.125419
  H       6.216946     -0.762073      0.018756
  C       5.536206      1.197304     -0.568669
  C       6.441744      1.985461      0.380345
  H       5.963342      2.074341      1.371421
  H       7.378616      1.421526      0.544515
  C       6.770396      3.382794     -0.145712
  H       7.421395      3.934194      0.551241
  H       5.854064      3.979168     -0.290552
  H       7.287329      3.331747     -1.118575
  H       4.571946      1.721270     -0.695958
  H       5.997092      1.148550     -1.569686
  C       3.548392     -4.064093      0.343847
  H       3.008856     -4.371105      1.253540
  H       4.576999     -4.463316      0.419362
  H       3.080083     -4.527173     -0.534630
  C       1.543236     -2.146445      0.059559
  H       1.271056     -2.638053      0.995478
  C       1.269692     -0.763641     -0.046099
  C       1.045924      0.055947      1.152960
  O       1.070820     -0.663497      2.306958
  C       0.853160      0.076759      3.502441
  H       0.901727     -0.646945      4.326372
  H       1.622629      0.854401      3.632005
  H      -0.131142      0.570342      3.487251
  O       0.864606      1.258366      1.146796
  C       1.310342     -0.045563     -1.358158
  H       2.338160      0.292230     -1.587879
  H       0.671745      0.848589     -1.336374
  H       1.008462     -0.707590     -2.183303
  H       1.415555     -2.744474     -0.846775
  O       4.587307     -0.865162     -1.239968
41
Coordinates from ORCA-job orca E -847.141170362189
  O       3.727394     -2.679131     -2.157266
  C       3.988617     -2.076777     -1.142327
  C       3.586043     -2.561611      0.215164
  C       4.109220     -1.820996      1.425896
  H       3.397344     -1.918791      2.260490
  H       5.038892     -2.327005      1.756018
  C       4.421517     -0.355500      1.141832
  H       4.972562      0.083758      1.987753
  H       3.504653      0.239288      1.018379
  C       5.253372     -0.231705     -0.124763
  H       6.215459     -0.762193      0.018260
  C       5.536620      1.198547     -0.566568
  C       6.444243      1.984340      0.382385
  H       5.967145      2.072530      1.374153
  H       7.380611      1.419027      0.544694
  C       6.774001      3.381936     -0.142262
  H       7.426553      3.931627      0.554590
  H       5.858235      3.979639     -0.285194
  H       7.289656      3.331502     -1.115839
  H       4.572962      1.724034     -0.692210
  H       5.996341      1.150371     -1.568148
  C       3.550025     -4.063542      0.342471
  H       3.010372     -4.371579      1.251800
  H       4.578973     -4.461740      0.418460
  H       3.082693     -4.526870     -0.536408
  C       1.542841     -2.147917      0.059917
  H       1.273007     -2.638620      0.997008
  C       1.267199     -0.765895     -0.047473
  C       1.045515      0.055686      1.150664
  O       1.073301     -0.661530      2.305917
  C       0.857450      0.080792      3.500465
  H       0.908261     -0.641346      4.325626
  H       1.626533      0.859313      3.627027
  H      -0.127311      0.573495      3.486295
  O       0.861788      1.257691      1.142203
  C       1.301228     -0.050053     -1.360888
  H       2.324604      0.302338     -1.587975
  H       0.649828      0.835013     -1.342877
  H       1.011561     -0.718130     -2.185417
  H       1.415105     -2.748316     -0.844874
  O       4.584647     -0.862130     -1.239386
41
Coordinates from ORCA-job orca E -847.141197750257
  O       3.721109     -2.670249     -2.159809
  C       3.984325     -2.070500     -1.143976
  C       3.586427     -2.560473      0.213226
  C       4.111333     -1.822097      1.425354
  H       3.400260     -1.922174      2.260608
  H       5.041243     -2.327957      1.754221
  C       4.422608     -0.355216      1.145217
  H       4.978890      0.080154      1.989775
  H       3.505899      0.240736      1.029409
  C       5.247269     -0.227671     -0.125783
  H       6.207911     -0.762966      0.009230
  C       5.534559      1.203447     -0.561904
  C       6.453732      1.979185      0.384131
  H       5.985383      2.063641      1.380395
  H       7.388695      1.408448      0.535198
  C       6.785873      3.378322     -0.134839
  H       7.447068      3.920606      0.559668
  H       5.871860      3.981315     -0.266302
  H       7.292897      3.331297     -1.113116
  H       4.572842      1.734924     -0.677313
  H       5.986169      1.158268     -1.567307
  C       3.556444     -4.062401      0.336404
  H       3.018316     -4.375064      1.245213
  H       4.586863     -4.456778      0.411626
  H       3.090863     -4.525931     -0.543348
  C       1.541489     -2.152790      0.065095
  H       1.279819     -2.640318      1.006263
  C       1.260679     -0.773235     -0.048111
  C       1.041592      0.054650      1.146317
  O       1.070110     -0.655852      2.305429
  C       0.858031      0.093736      3.496185
  H       0.908822     -0.623864      4.325273
  H       1.628960      0.871364      3.616922
  H      -0.125791      0.588265      3.480852
  O       0.857086      1.256319      1.129963
  C       1.285792     -0.062622     -1.364307
  H       2.290485      0.354000     -1.563616
  H       0.580506      0.780838     -1.369687
  H       1.062598     -0.751301     -2.191966
  H       1.411723     -2.761022     -0.834200
  O       4.568318     -0.849486     -1.238803
41
Coordinates from ORCA-job orca E -847.141216190854
  O       3.716918     -2.663259     -2.162275
  C       3.978442     -2.064265     -1.145630
  C       3.586119     -2.560058      0.211320
  C       4.111286     -1.823609      1.424826
  H       3.400753     -1.926296      2.260360
  H       5.041708     -2.329222      1.752301
  C       4.421296     -0.355492      1.148417
  H       4.981533      0.076673      1.992027
  H       3.504319      0.241083      1.038791
  C       5.240014     -0.224328     -0.126092
  H       6.199214     -0.764062      0.001712
  C       5.530954      1.207548     -0.556924
  C       6.460598      1.974067      0.386343
  H       6.000288      2.054991      1.386657
  H       7.394179      1.398460      0.527079
  C       6.794923      3.374587     -0.127436
  H       7.463958      3.910085      0.564824
  H       5.882608      3.982338     -0.248419
  H       7.294054      3.330759     -1.109916
  H       4.571108      1.744407     -0.662983
  H       5.975197      1.165154     -1.565726
  C       3.561641     -4.062143      0.330174
  H       3.024455     -4.379349      1.238035
  H       4.593531     -4.452796      0.404867
  H       3.097969     -4.525315     -0.550744
  C       1.539535     -2.158264      0.069984
  H       1.283165     -2.642324      1.014509
  C       1.256069     -0.780396     -0.048823
  C       1.039081      0.053608      1.141652
  O       1.070918     -0.649537      2.304919
  C       0.864059      0.107841      3.491710
  H       0.916946     -0.604591      4.325102
  H       1.636420      0.885221      3.604759
  H      -0.119208      0.603465      3.476725
  O       0.854900      1.255126      1.117282
  C       1.275133     -0.074151     -1.367274
  H       2.252266      0.415873     -1.532283
  H       0.512088      0.717486     -1.401569
  H       1.131389     -0.779319     -2.198043
  H       1.407282     -2.772469     -0.824868
  O       4.551951     -0.837978     -1.237782
41
Coordinates from ORCA-job orca E -847.141241480149
  O       3.718546     -2.666550     -2.161810
  C       3.977675     -2.065773     -1.145532
  C       3.585762     -2.561323      0.211704
  C       4.110397     -1.824545      1.424808
  H       3.400112     -1.927157      2.260409
  H       5.041096     -2.330463      1.751499
  C       4.420708     -0.356728      1.147880
  H       4.980211      0.076014      1.991659
  H       3.503529      0.239600      1.037200
  C       5.239949     -0.225802     -0.126256
  H       6.199551     -0.764675      0.002079
  C       5.529459      1.206075     -0.557943
  C       6.457494      1.974428      0.385447
  H       5.996303      2.055583      1.385345
  H       7.391629      1.400020      0.527372
  C       6.790580      3.374929     -0.129185
  H       7.458409      3.911770      0.563200
  H       5.877659      3.981522     -0.251446
  H       7.290607      3.330885     -1.111198
  H       4.569048      1.741672     -0.665127
  H       5.974559      1.163381     -1.566349
  C       3.559519     -4.063544      0.330810
  H       3.021520     -4.379905      1.238402
  H       4.591133     -4.455037      0.405694
  H       3.095482     -4.525966     -0.550240
  C       1.539559     -2.157827      0.069701
  H       1.278608     -2.641911      1.012975
  C       1.260163     -0.778671     -0.047987
  C       1.041108      0.054100      1.142670
  O       1.072905     -0.649591      2.305653
  C       0.865466      0.107297      3.492617
  H       0.918496     -0.605329      4.325844
  H       1.637536      0.884914      3.606050
  H      -0.117926      0.602661      3.477677
  O       0.858603      1.255966      1.119069
  C       1.283423     -0.070468     -1.365363
  H       2.256018      0.431144     -1.521129
  H       0.512532      0.713599     -1.404896
  H       1.152678     -0.775161     -2.198642
  H       1.406045     -2.768914     -0.827079
  O       4.552912     -0.840670     -1.237992
41
Coordinates from ORCA-job orca E -847.141245484410
  O       3.718804     -2.671242     -2.161333
  C       3.976598     -2.068691     -1.145548
  C       3.585423     -2.563249      0.212166
  C       4.109802     -1.825875      1.424392
  H       3.400163     -1.927909      2.260402
  H       5.040822     -2.332451      1.749855
  C       4.420819     -0.358722      1.146203
  H       4.979303      0.075011      1.990109
  H       3.503455      0.237441      1.033780
  C       5.240954     -0.228749     -0.127368
  H       6.201285     -0.766029      0.001914
  C       5.528081      1.203062     -0.560866
  C       6.453147      1.974897      0.382631
  H       5.990262      2.056745      1.381693
  H       7.388230      1.402643      0.526936
  C       6.784118      3.375205     -0.133888
  H       7.449704      3.914630      0.558647
  H       5.870150      3.979695     -0.258711
  H       7.285859      3.330496     -1.114996
  H       4.566684      1.736383     -0.670155
  H       5.974715      1.159705     -1.568557
  C       3.555736     -4.065679      0.332397
  H       3.016714     -4.380142      1.239916
  H       4.586614     -4.459231      0.407377
  H       3.090647     -4.526963     -0.548639
  C       1.539958     -2.156295      0.069413
  H       1.273517     -2.640886      1.010820
  C       1.266175     -0.775390     -0.045688
  C       1.044437      0.055063      1.145730
  O       1.074264     -0.650433      2.307820
  C       0.863133      0.104509      3.495325
  H       0.915261     -0.609107      4.327778
  H       1.633968      0.882940      3.611532
  H      -0.120769      0.598812      3.478989
  O       0.863141      1.257232      1.123947
  C       1.298443     -0.062409     -1.360361
  H       2.260734      0.463764     -1.496563
  H       0.510887      0.704764     -1.411226
  H       1.196188     -0.765717     -2.198561
  H       1.405920     -2.762163     -0.830760
  O       4.555714     -0.846114     -1.238963
41
Coordinates from ORCA-job orca E -847.141252437134
  O       3.717515     -2.672084     -2.161431
  C       3.976578     -2.069767     -1.145716
  C       3.585428     -2.563858      0.212118
  C       4.110190     -1.826474      1.424051
  H       3.400937     -1.928223      2.260382
  H       5.041278     -2.333350      1.748999
  C       4.421490     -0.359564      1.145423
  H       4.979594      0.074484      1.989409
  H       3.504146      0.236595      1.032362
  C       5.242124     -0.230060     -0.127875
  H       6.202754     -0.766651      0.001962
  C       5.528538      1.201692     -0.562137
  C       6.452419      1.974814      0.381485
  H       5.988703      2.057109      1.380119
  H       7.387736      1.403238      0.526941
  C       6.782935      3.374934     -0.135838
  H       7.447589      3.915312      0.556847
  H       5.868698      3.978756     -0.261919
  H       7.285548      3.329785     -1.116475
  H       4.566829      1.734234     -0.672350
  H       5.975829      1.158030     -1.569521
  C       3.554356     -4.066328      0.332730
  H       3.015250     -4.380083      1.240413
  H       4.584879     -4.460860      0.407415
  H       3.088567     -4.527088     -0.548216
  C       1.540244     -2.155450      0.069493
  H       1.272706     -2.640258      1.010443
  C       1.267927     -0.774150     -0.044528
  C       1.045189      0.055577      1.147135
  O       1.074373     -0.650496      2.308983
  C       0.861103      0.103628      3.496602
  H       0.913126     -0.610297      4.328801
  H       1.630915      0.882888      3.614027
  H      -0.123321      0.596883      3.479452
  O       0.863481      1.257678      1.125782
  C       1.302050     -0.059323     -1.358140
  H       2.255029      0.485955     -1.483150
  H       0.500937      0.693442     -1.416926
  H       1.220956     -0.763000     -2.198194
  H       1.406556     -2.759587     -0.831867
  O       4.557877     -0.848532     -1.239502
41
Coordinates from ORCA-job orca E -847.141262443647
  O       3.712974     -2.672187     -2.161916
  C       3.976484     -2.071467     -1.146169
  C       3.585392     -2.565069      0.211787
  C       4.111846     -1.828267      1.423298
  H       3.403623     -1.929650      2.260560
  H       5.043054     -2.335775      1.746973
  C       4.423583     -0.361632      1.144223
  H       4.981394      0.072662      1.988263
  H       3.506355      0.234604      1.030722
  C       5.244693     -0.232584     -0.128831
  H       6.205992     -0.767728      0.001816
  C       5.529748      1.199142     -0.564275
  C       6.452159      1.974189      0.379230
  H       5.987497      2.057257      1.377344
  H       7.387813      1.403545      0.526168
  C       6.782024      3.373952     -0.139476
  H       7.445552      3.915712      0.553210
  H       5.867424      3.976881     -0.267197
  H       7.285628      3.328027     -1.119560
  H       4.567499      1.730480     -0.675496
  H       5.977588      1.155145     -1.571395
  C       3.551764     -4.067531      0.332460
  H       3.013189     -4.380346      1.240762
  H       4.581585     -4.464098      0.405729
  H       3.084038     -4.526971     -0.548173
  C       1.540756     -2.153562      0.070214
  H       1.272366     -2.638635      1.010725
  C       1.270941     -0.771895     -0.041977
  C       1.046000      0.056923      1.149840
  O       1.073627     -0.649842      2.311474
  C       0.856295      0.103172      3.499020
  H       0.907933     -0.611056      4.330983
  H       1.624186      0.884002      3.618576
  H      -0.129096      0.594465      3.479999
  O       0.863141      1.258753      1.128539
  C       1.307162     -0.053944     -1.353794
  H       2.232401      0.541740     -1.451518
  H       0.470696      0.658048     -1.434903
  H       1.283223     -0.758593     -2.196239
  H       1.408163     -2.755272     -0.832865
  O       4.562371     -0.853045     -1.240539
41
Coordinates from ORCA-job orca E -847.141263173742
  O       3.709128     -2.671662     -2.162412
  C       3.975967     -2.072305     -1.146609
  C       3.585348     -2.566173      0.211400
  C       4.113727     -1.830317      1.422700
  H       3.406424     -1.931768      2.260811
  H       5.045071     -2.338226      1.745236
  C       4.425509     -0.363617      1.143853
  H       4.984012      0.070362      1.987610
  H       3.508311      0.232743      1.031388
  C       5.245796     -0.234119     -0.129685
  H       6.207632     -0.768410      0.000651
  C       5.529801      1.197819     -0.565194
  C       6.451990      1.973305      0.378149
  H       5.987386      2.056220      1.376306
  H       7.387895      1.403039      0.525015
  C       6.781236      3.373189     -0.140614
  H       7.444585      3.915242      0.552015
  H       5.866379      3.975736     -0.268272
  H       7.284784      3.327449     -1.120737
  H       4.567210      1.728599     -0.676102
  H       5.977322      1.154198     -1.572467
  C       3.550350     -4.068586      0.331341
  H       3.012718     -4.381342      1.240245
  H       4.579806     -4.466374      0.402990
  H       3.080979     -4.527054     -0.548943
  C       1.541125     -2.152095      0.071361
  H       1.272775     -2.637077      1.011922
  C       1.273365     -0.770292     -0.040272
  C       1.046775      0.058549      1.151218
  O       1.072751     -0.648090      2.313003
  C       0.853596      0.105041      3.500129
  H       0.904446     -0.609002      4.332296
  H       1.620949      0.886269      3.620552
  H      -0.132014      0.595877      3.479740
  O       0.863721      1.260257      1.129131
  C       1.309925     -0.051527     -1.351657
  H       2.212175      0.580624     -1.430776
  H       0.448462      0.628309     -1.450859
  H       1.328998     -0.756588     -2.193685
  H       1.408781     -2.753457     -0.831954
  O       4.563862     -0.855197     -1.241234
41
Coordinates from ORCA-job orca E -847.141256665411
  O       3.709372     -2.671678     -2.162275
  C       3.976159     -2.072440     -1.146435
  C       3.585259     -2.566403      0.211496
  C       4.114067     -1.830884      1.422872
  H       3.406774     -1.932465      2.261016
  H       5.045373     -2.338799      1.745408
  C       4.425781     -0.364049      1.144349
  H       4.984730      0.069655      1.987956
  H       3.508579      0.232346      1.032591
  C       5.245571     -0.234020     -0.129449
  H       6.207578     -0.768087      0.000643
  C       5.529103      1.198097     -0.564632
  C       6.451192      1.973559      0.378811
  H       5.986665      2.056105      1.377038
  H       7.387267      1.403506      0.525435
  C       6.779997      3.373680     -0.139591
  H       7.443281      3.915713      0.553117
  H       5.864954      3.976010     -0.266943
  H       7.283435      3.328365     -1.119794
  H       4.566347      1.728628     -0.675303
  H       5.976520      1.154862     -1.571970
  C       3.550257     -4.068760      0.331105
  H       3.012915     -4.381703      1.240141
  H       4.579722     -4.466587      0.402426
  H       3.080660     -4.527263     -0.549037
  C       1.541175     -2.151708      0.071267
  H       1.272925     -2.636623      1.011916
  C       1.273783     -0.769888     -0.040802
  C       1.047483      0.059209      1.150611
  O       1.073081     -0.647400      2.312360
  C       0.854913      0.105977      3.499529
  H       0.905408     -0.608095      4.331691
  H       1.622967      0.886557      3.619681
  H      -0.130306      0.597597      3.479408
  O       0.865048      1.261015      1.128475
  C       1.309597     -0.052411     -1.352967
  H       2.217732      0.570545     -1.437710
  H       0.453861      0.635045     -1.448160
  H       1.317771     -0.758668     -2.194310
  H       1.408508     -2.754016     -0.831394
  O       4.563553     -0.854973     -1.240980
41
Coordinates from ORCA-job orca E -847.141260081044
  O       3.709350     -2.671768     -2.162383
  C       3.975949     -2.072553     -1.146483
  C       3.584988     -2.566783      0.211382
  C       4.114193     -1.831708      1.422853
  H       3.406953     -1.933413      2.261053
  H       5.045437     -2.339794      1.745258
  C       4.426039     -0.364802      1.144744
  H       4.985528      0.068476      1.988211
  H       3.508860      0.231756      1.033795
  C       5.245281     -0.234233     -0.129348
  H       6.207465     -0.768076      0.000379
  C       5.528324      1.198095     -0.564137
  C       6.450439      1.973508      0.379314
  H       5.986109      2.055701      1.377660
  H       7.386677      1.403633      0.525596
  C       6.778805      3.373847     -0.138763
  H       7.442115      3.915839      0.553952
  H       5.863586      3.975993     -0.265726
  H       7.282027      3.328925     -1.119095
  H       4.565408      1.728408     -0.674433
  H       5.975508      1.155282     -1.571594
  C       3.549818     -4.069111      0.330593
  H       3.012805     -4.382221      1.239782
  H       4.579262     -4.467090      0.401446
  H       3.079852     -4.527500     -0.549409
  C       1.541015     -2.151455      0.071412
  H       1.272798     -2.636244      1.012154
  C       1.274286     -0.769588     -0.041037
  C       1.048272      0.059879      1.150135
  O       1.073903     -0.646352      2.312060
  C       0.856583      0.107543      3.499069
  H       0.907265     -0.606250      4.331459
  H       1.624964      0.887904      3.618530
  H      -0.128493      0.599454      3.479271
  O       0.866192      1.261731      1.127530
  C       1.310041     -0.052801     -1.353625
  H       2.216481      0.572675     -1.437386
  H       0.452312      0.631932     -1.450779
  H       1.321511     -0.759802     -2.194280
  H       1.408013     -2.754509     -0.830703
  O       4.563139     -0.854976     -1.240868
41
Coordinates from ORCA-job orca E -847.141259811631
  O       3.709307     -2.671933     -2.162497
  C       3.975739     -2.072708     -1.146550
  C       3.584908     -2.567167      0.211279
  C       4.114459     -1.832492      1.422810
  H       3.407379     -1.934339      2.261118
  H       5.045702     -2.340803      1.744898
  C       4.426418     -0.365550      1.145074
  H       4.986425      0.067327      1.988401
  H       3.509233      0.231158      1.034881
  C       5.245079     -0.234493     -0.129344
  H       6.207441     -0.768140     -0.000120
  C       5.527599      1.198044     -0.563801
  C       6.449966      1.973391      0.379456
  H       5.986056      2.055216      1.378030
  H       7.386386      1.403676      0.525175
  C       6.777803      3.373950     -0.138367
  H       7.441298      3.915888      0.554215
  H       5.862394      3.975930     -0.264748
  H       7.280607      3.329431     -1.118933
  H       4.564511      1.728164     -0.673501
  H       5.974327      1.155634     -1.571480
  C       3.549395     -4.069498      0.330172
  H       3.012618     -4.382659      1.239478
  H       4.578774     -4.467736      0.400594
  H       3.079033     -4.527680     -0.549717
  C       1.541023     -2.151290      0.071638
  H       1.272662     -2.636025      1.012380
  C       1.274870     -0.769343     -0.041041
  C       1.048827      0.060378      1.149899
  O       1.074340     -0.645487      2.312021
  C       0.857280      0.108871      3.498792
  H       0.908134     -0.604599      4.331446
  H       1.625709      0.889259      3.617761
  H      -0.127796      0.600780      3.479026
  O       0.867006      1.262269      1.126872
  C       1.310979     -0.052806     -1.353787
  H       2.214864      0.576565     -1.435415
  H       0.450512      0.628191     -1.453449
  H       1.327387     -0.760106     -2.194077
  H       1.407712     -2.754675     -0.830210
  O       4.562694     -0.855041     -1.240791
41
Coordinates from ORCA-job orca E -847.137095725398
  O       3.743327     -2.711044     -2.133040
  C       4.017358     -2.100715     -1.127093
  C       3.627479     -2.578654      0.224598
  C       4.134121     -1.841903      1.435967
  H       3.405622     -1.938888      2.261221
  H       5.060113     -2.345257      1.781058
  C       4.430956     -0.376772      1.147800
  H       4.970918      0.073043      1.995743
  H       3.495029      0.203780      1.017654
  C       5.269249     -0.250730     -0.116340
  H       6.235938     -0.771733      0.032876
  C       5.543789      1.178524     -0.566810
  C       6.447248      1.975320      0.377305
  H       5.970213      2.066420      1.369022
  H       7.387177      1.416323      0.542376
  C       6.768434      3.371884     -0.155536
  H       7.418302      3.929442      0.537879
  H       5.848976      3.963606     -0.301448
  H       7.283792      3.318698     -1.129270
  H       4.577115      1.698169     -0.695653
  H       6.003387      1.126556     -1.568381
  C       3.571921     -4.068668      0.341710
  H       3.012585     -4.354610      1.247844
  H       4.591570     -4.490144      0.422942
  H       3.094440     -4.505894     -0.546041
  C       1.488322     -2.109427      0.055659
  H       1.267990     -2.603080      0.989141
  C       1.229775     -0.730441     -0.060417
  C       1.021780      0.080552      1.142476
  O       1.064471     -0.653294      2.288717
  C       0.869683      0.073949      3.496797
  H       0.932160     -0.659200      4.311879
  H       1.642616      0.849073      3.621209
  H      -0.114139      0.569495      3.505030
  O       0.846835      1.283979      1.145243
  C       1.265499     -0.004360     -1.367964
  H       2.173667      0.618965     -1.448787
  H       0.409617      0.683717     -1.458826
  H       1.273075     -0.705502     -2.213610
  H       1.417451     -2.728115     -0.827229
  O       4.601200     -0.883514     -1.228111
41
Coordinates from ORCA-job orca E -847.138290435170
  O       3.732395     -2.695039     -2.153522
  C       3.994740     -2.087431     -1.140177
  C       3.628317     -2.586255      0.216389
  C       4.131748     -1.843891      1.429123
  H       3.408418     -1.943657      2.254981
  H       5.059251     -2.345436      1.773297
  C       4.431922     -0.375653      1.145071
  H       4.981387      0.069397      1.989107
  H       3.506457      0.205940      1.027231
  C       5.253502     -0.241595     -0.127757
  H       6.219886     -0.766497      0.006945
  C       5.527166      1.191812     -0.565842
  C       6.440441      1.977398      0.377927
  H       5.972827      2.058293      1.374877
  H       7.381036      1.415742      0.528180
  C       6.758391      3.379212     -0.142820
  H       7.415315      3.928541      0.550223
  H       5.838474      3.973326     -0.273629
  H       7.264424      3.336031     -1.121790
  H       4.560494      1.714168     -0.680496
  H       5.977438      1.149142     -1.571883
  C       3.555577     -4.083245      0.335557
  H       3.004873     -4.375652      1.244304
  H       4.573040     -4.509910      0.410050
  H       3.074210     -4.523919     -0.547392
  C       1.486678     -2.124663      0.058203
  H       1.265188     -2.622252      1.002458
  C       1.251319     -0.753635     -0.051412
  C       1.046386      0.071127      1.150244
  O       1.067258     -0.644585      2.307067
  C       0.866116      0.104431      3.500336
  H       0.910293     -0.615581      4.327694
  H       1.646295      0.872748      3.621518
  H      -0.111840      0.610628      3.488421
  O       0.878454      1.274197      1.139283
  C       1.308567     -0.030538     -1.359522
  H       2.227133      0.578530     -1.432921
  H       0.463874      0.669696     -1.458849
  H       1.312405     -0.733639     -2.203612
  H       1.413213     -2.740512     -0.840800
  O       4.575996     -0.867222     -1.238475
41
Coordinates from ORCA-job orca E -847.138433912129
  O       3.713568     -2.681145     -2.158736
  C       3.992875     -2.087256     -1.140983
  C       3.632371     -2.591575      0.214037
  C       4.131137     -1.849181      1.429023
  H       3.409167     -1.952115      2.254853
  H       5.058977     -2.350450      1.773503
  C       4.432923     -0.379505      1.150478
  H       4.989257      0.059623      1.992833
  H       3.509718      0.205842      1.042021
  C       5.244393     -0.238281     -0.127457
  H       6.211761     -0.764354     -0.003858
  C       5.513869      1.198243     -0.557735
  C       6.434904      1.977707      0.383359
  H       5.975837      2.051809      1.384764
  H       7.376876      1.415407      0.521778
  C       6.748071      3.382972     -0.130804
  H       7.410745      3.927904      0.560185
  H       5.826932      3.977623     -0.249835
  H       7.245753      3.346456     -1.114296
  H       4.546082      1.721022     -0.660548
  H       5.955492      1.162668     -1.567887
  C       3.544737     -4.088754      0.333152
  H       2.994148     -4.383937      1.240457
  H       4.560238     -4.520997      0.408647
  H       3.064841     -4.530242     -0.550130
  C       1.490226     -2.131961      0.056955
  H       1.267952     -2.625883      1.004982
  C       1.263714     -0.766068     -0.054074
  C       1.054270      0.068167      1.143077
  O       1.078649     -0.635454      2.305719
  C       0.884486      0.125263      3.492604
  H       0.930711     -0.587173      4.326324
  H       1.666914      0.892805      3.603138
  H      -0.092351      0.633356      3.480217
  O       0.899323      1.272387      1.121365
  C       1.319498     -0.045494     -1.364964
  H       2.236370      0.564885     -1.439841
  H       0.472938      0.652116     -1.466911
  H       1.324922     -0.751090     -2.206722
  H       1.415814     -2.745860     -0.844620
  O       4.560949     -0.859932     -1.236482
41
Coordinates from ORCA-job orca E -847.138474901608
  O       3.712605     -2.676503     -2.159102
  C       3.988831     -2.080452     -1.141494
  C       3.638064     -2.586967      0.212897
  C       4.133428     -1.843219      1.427661
  H       3.411573     -1.946452      2.253691
  H       5.061531     -2.343547      1.773585
  C       4.436521     -0.374195      1.148675
  H       4.995560      0.063257      1.990029
  H       3.514041      0.214289      1.041582
  C       5.246645     -0.235153     -0.130287
  H       6.212244     -0.765447     -0.009705
  C       5.520090      1.200920     -0.559167
  C       6.446752      1.975518      0.380326
  H       5.990838      2.050123      1.383149
  H       7.386934      1.409402      0.515329
  C       6.763902      3.380175     -0.132977
  H       7.430594      3.921697      0.556851
  H       5.844724      3.978521     -0.248775
  H       7.258771      3.342974     -1.117873
  H       4.553935      1.727507     -0.658351
  H       5.958686      1.165245     -1.570674
  C       3.546917     -4.082985      0.332723
  H       2.998537     -4.380939      1.240201
  H       4.562838     -4.515629      0.407607
  H       3.067921     -4.526559     -0.550102
  C       1.493786     -2.135812      0.060456
  H       1.276556     -2.628218      1.009830
  C       1.265038     -0.772498     -0.049765
  C       1.057669      0.064294      1.146957
  O       1.073177     -0.638911      2.308982
  C       0.864580      0.120139      3.494540
  H       0.905184     -0.592959      4.328016
  H       1.643175      0.890301      3.613255
  H      -0.113931      0.624659      3.472995
  O       0.885338      1.265986      1.120884
  C       1.305772     -0.050156     -1.361398
  H       2.215572      0.569300     -1.441444
  H       0.451154      0.638293     -1.458394
  H       1.313509     -0.755595     -2.203154
  H       1.421447     -2.747513     -0.841836
  O       4.558551     -0.853340     -1.238131
41
Coordinates from ORCA-job orca E -847.138492920467
  O       3.714721     -2.677556     -2.157391
  C       3.986361     -2.078627     -1.140281
  C       3.638230     -2.585237      0.213319
  C       4.130807     -1.841325      1.428407
  H       3.407902     -1.945423      2.253646
  H       5.058890     -2.340658      1.776002
  C       4.433220     -0.372477      1.149245
  H       4.991594      0.065073      1.991083
  H       3.510389      0.216286      1.040989
  C       5.245214     -0.234577     -0.128918
  H       6.210071     -0.766006     -0.007447
  C       5.520638      1.201025     -0.557942
  C       6.447675      1.974647      0.382046
  H       5.991093      2.050323      1.384508
  H       7.386939      1.407210      0.518026
  C       6.767293      3.378647     -0.131540
  H       7.434175      3.919491      0.558660
  H       5.849084      3.978293     -0.248432
  H       7.263000      3.340316     -1.115981
  H       4.555192      1.728778     -0.657944
  H       5.959966      1.164633     -1.569115
  C       3.548182     -4.080263      0.333007
  H       2.998676     -4.378970      1.239673
  H       4.564414     -4.512355      0.409750
  H       3.071404     -4.524514     -0.550685
  C       1.493250     -2.137960      0.059336
  H       1.278229     -2.629345      1.008863
  C       1.260480     -0.774498     -0.052170
  C       1.049466      0.062411      1.143868
  O       1.073148     -0.639855      2.306067
  C       0.872096      0.119462      3.492900
  H       0.918745     -0.593334      4.326330
  H       1.651027      0.890133      3.606069
  H      -0.106892      0.623357      3.477642
  O       0.884777      1.265229      1.117764
  C       1.299327     -0.051110     -1.363550
  H       2.203881      0.576531     -1.440390
  H       0.438713      0.629422     -1.462841
  H       1.315953     -0.756311     -2.205494
  H       1.425048     -2.749769     -0.842382
  O       4.556683     -0.851547     -1.237106
41
Coordinates from ORCA-job orca E -847.138506904825
  O       3.711216     -2.676823     -2.156241
  C       3.987733     -2.079889     -1.139311
  C       3.639362     -2.585153      0.214145
  C       4.130647     -1.840948      1.429319
  H       3.406305     -1.944595      2.253523
  H       5.057950     -2.340374      1.778788
  C       4.433684     -0.372169      1.149993
  H       4.993131      0.064853      1.991483
  H       3.511384      0.217307      1.042701
  C       5.244423     -0.234481     -0.129198
  H       6.209197     -0.766191     -0.008804
  C       5.520004      1.200942     -0.558739
  C       6.448630      1.974229      0.380040
  H       5.993286      2.050411      1.383037
  H       7.387707      1.406240      0.515068
  C       6.768532      3.377945     -0.134182
  H       7.436506      3.918542      0.555163
  H       5.850566      3.978131     -0.250224
  H       7.263139      3.339087     -1.119157
  H       4.554689      1.729095     -0.657712
  H       5.958154      1.164250     -1.570408
  C       3.548631     -4.079522      0.334418
  H       2.997203     -4.377107      1.240424
  H       4.564269     -4.512681      0.413314
  H       3.073080     -4.523738     -0.549911
  C       1.494622     -2.137191      0.058821
  H       1.280781     -2.628216      1.008456
  C       1.260387     -0.773094     -0.052708
  C       1.049116      0.062561      1.144079
  O       1.070830     -0.641737      2.305098
  C       0.868994      0.115526      3.493223
  H       0.914033     -0.598813      4.325407
  H       1.648477      0.885323      3.608651
  H      -0.109572      0.620261      3.477614
  O       0.884320      1.265424      1.119527
  C       1.300966     -0.048087     -1.363035
  H       2.201848      0.585639     -1.434802
  H       0.436276      0.626800     -1.465294
  H       1.325784     -0.752338     -2.205701
  H       1.428861     -2.749019     -0.842797
  O       4.553910     -0.850852     -1.236477
41
Coordinates from ORCA-job orca E -847.138512277696
  O       3.709102     -2.675307     -2.156027
  C       3.986688     -2.078555     -1.139204
  C       3.640616     -2.584054      0.214518
  C       4.130219     -1.838817      1.429665
  H       3.404439     -1.941944      2.252653
  H       5.056827     -2.337919      1.781387
  C       4.433782     -0.370119      1.149771
  H       4.994379      0.066569      1.990671
  H       3.512048      0.220160      1.043211
  C       5.243325     -0.233315     -0.130369
  H       6.207401     -0.766523     -0.011115
  C       5.520780      1.201749     -0.559912
  C       6.451519      1.973395      0.378140
  H       5.997170      2.050280      1.381535
  H       7.389725      1.403781      0.512334
  C       6.773403      3.376607     -0.136236
  H       7.442847      3.916038      0.552594
  H       5.856376      3.978363     -0.251530
  H       7.267151      3.336958     -1.121609
  H       4.556218      1.731424     -0.657988
  H       5.958004      1.164542     -1.571955
  C       3.549790     -4.078248      0.335518
  H       2.996960     -4.375289      1.240862
  H       4.565064     -4.511889      0.416402
  H       3.075550     -4.522942     -0.549279
  C       1.495635     -2.137416      0.058709
  H       1.283572     -2.628498      1.008715
  C       1.259574     -0.773766     -0.052327
  C       1.047608      0.060863      1.145245
  O       1.067481     -0.644536      2.305613
  C       0.864104      0.111632      3.494224
  H       0.907739     -0.603494      4.325784
  H       1.643646      0.881094      3.611424
  H      -0.114316      0.616595      3.477557
  O       0.881958      1.263577      1.121648
  C       1.300038     -0.047527     -1.361854
  H       2.194705      0.595318     -1.428173
  H       0.428959      0.618672     -1.467965
  H       1.335868     -0.750893     -2.204842
  H       1.433013     -2.748889     -0.843417
  O       4.550092     -0.848128     -1.236788
41
Coordinates from ORCA-job orca E -847.138517617191
  O       3.707121     -2.673137     -2.155874
  C       3.984740     -2.075924     -1.139244
  C       3.641987     -2.582329      0.215029
  C       4.129395     -1.835438      1.430147
  H       3.401367     -1.937582      2.251246
  H       5.054923     -2.334104      1.785119
  C       4.433600     -0.366850      1.149320
  H       4.995574      0.069591      1.989407
  H       3.512409      0.224336      1.043563
  C       5.241706     -0.231467     -0.131967
  H       6.204540     -0.767257     -0.014093
  C       5.522554      1.202944     -0.561497
  C       6.456038      1.972078      0.375881
  H       6.002634      2.050149      1.379610
  H       7.392801      1.399938      0.509387
  C       6.781332      3.374445     -0.138663
  H       7.452662      3.912080      0.549726
  H       5.865839      3.978643     -0.253352
  H       7.274313      3.333507     -1.124373
  H       4.559283      1.735096     -0.658850
  H       5.958892      1.164722     -1.573889
  C       3.552111     -4.076642      0.336898
  H       2.997017     -4.373011      1.241090
  H       4.567105     -4.510157      0.420861
  H       3.079964     -4.521998     -0.548710
  C       1.496646     -2.137739      0.058311
  H       1.286630     -2.629529      1.008524
  C       1.257976     -0.774965     -0.051723
  C       1.044554      0.057985      1.146913
  O       1.063312     -0.648556      2.306715
  C       0.858149      0.106590      3.495687
  H       0.901034     -0.609193      4.326712
  H       1.637255      0.876252      3.614404
  H      -0.120454      0.611132      3.478098
  O       0.877710      1.260500      1.124589
  C       1.296958     -0.047426     -1.360410
  H       2.180302      0.611303     -1.418522
  H       0.415018      0.603588     -1.473236
  H       1.351086     -0.749442     -2.203448
  H       1.438320     -2.748735     -0.844544
  O       4.544654     -0.843846     -1.237253
41
Coordinates from ORCA-job orca E -847.138521425322
  O       3.706993     -2.672792     -2.155673
  C       3.983961     -2.074882     -1.139250
  C       3.642168     -2.581566      0.215345
  C       4.128734     -1.833744      1.430376
  H       3.399557     -1.935024      2.250569
  H       5.053670     -2.332363      1.786831
  C       4.433380     -0.365294      1.148943
  H       4.995825      0.071176      1.988676
  H       3.512346      0.226220      1.043388
  C       5.240976     -0.230736     -0.132712
  H       6.203188     -0.767769     -0.015232
  C       5.523472      1.203251     -0.562488
  C       6.457933      1.971519      0.374587
  H       6.004705      2.050401      1.378328
  H       7.394034      1.398310      0.508162
  C       6.784846      3.373346     -0.140390
  H       7.456879      3.910385      0.547779
  H       5.870053      3.978594     -0.255156
  H       7.277671      3.331548     -1.126137
  H       4.560796      1.736484     -0.659917
  H       5.959598      1.164277     -1.574943
  C       3.553305     -4.076036      0.337678
  H       2.996979     -4.372104      1.241212
  H       4.568416     -4.508831      0.423280
  H       3.082319     -4.521761     -0.548375
  C       1.496746     -2.137651      0.057824
  H       1.286696     -2.630494      1.007545
  C       1.257787     -0.775107     -0.051093
  C       1.043240      0.056633      1.148128
  O       1.061511     -0.650712      2.307545
  C       0.855177      0.103718      3.496745
  H       0.897864     -0.612516      4.327395
  H       1.633798      0.873712      3.616440
  H      -0.123663      0.607782      3.478792
  O       0.876122      1.259115      1.126643
  C       1.296509     -0.046611     -1.359245
  H       2.173302      0.621096     -1.412321
  H       0.408806      0.595975     -1.476347
  H       1.361061     -0.747579     -2.202372
  H       1.439832     -2.748147     -0.845485
  O       4.542466     -0.842274     -1.237487
41
Coordinates from ORCA-job orca E -847.138526005660
  O       3.708008     -2.673645     -2.155124
  C       3.983739     -2.074438     -1.139100
  C       3.641875     -2.580748      0.215850
  C       4.127477     -1.831645      1.430672
  H       3.396897     -1.931363      2.249813
  H       5.051587     -2.330439      1.788888
  C       4.433018     -0.363525      1.148192
  H       4.995737      0.073156      1.987630
  H       3.512193      0.228399      1.042433
  C       5.240526     -0.230299     -0.133574
  H       6.202036     -0.768611     -0.015996
  C       5.524779      1.203045     -0.564198
  C       6.459717      1.971066      0.372528
  H       6.006228      2.051240      1.376038
  H       7.395207      1.397025      0.506868
  C       6.788180      3.372123     -0.143549
  H       7.460599      3.909060      0.544323
  H       5.874006      3.978182     -0.259001
  H       7.281157      3.329010     -1.129159
  H       4.562689      1.737220     -0.662424
  H       5.961071      1.162804     -1.576538
  C       3.554308     -4.075352      0.339090
  H       2.996318     -4.371021      1.241727
  H       4.569751     -4.506750      0.427014
  H       3.085061     -4.521785     -0.547528
  C       1.496502     -2.137208      0.056609
  H       1.284981     -2.632201      1.004932
  C       1.258543     -0.774533     -0.049950
  C       1.042190      0.055156      1.150208
  O       1.059410     -0.653771      2.308769
  C       0.851253      0.099134      3.498588
  H       0.893459     -0.618103      4.328414
  H       1.629204      0.869504      3.620183
  H      -0.127879      0.602620      3.480219
  O       0.875093      1.257675      1.130190
  C       1.297787     -0.043907     -1.356972
  H       2.165458      0.635986     -1.402341
  H       0.402595      0.587325     -1.480201
  H       1.376818     -0.742786     -2.200548
  H       1.440475     -2.746515     -0.847566
  O       4.541004     -0.841538     -1.237817
41
Coordinates from ORCA-job orca E -847.138530665926
  O       3.709742     -2.675503     -2.154471
  C       3.984464     -2.075080     -1.138858
  C       3.641305     -2.580143      0.216316
  C       4.126197     -1.829953      1.430828
  H       3.394772     -1.928196      2.249394
  H       5.049701     -2.328960      1.790258
  C       4.432654     -0.362228      1.147190
  H       4.995160      0.074879      1.986556
  H       3.512058      0.229983      1.040627
  C       5.240819     -0.230393     -0.134265
  H       6.201967     -0.769189     -0.015852
  C       5.525943      1.202370     -0.566113
  C       6.460440      1.971082      0.370460
  H       6.006170      2.052642      1.373510
  H       7.395589      1.396823      0.506216
  C       6.789904      3.371376     -0.147063
  H       7.462056      3.908843      0.540654
  H       5.876075      3.977691     -0.263894
  H       7.283579      3.326859     -1.132263
  H       4.564120      1.736776     -0.665660
  H       5.962866      1.160884     -1.578130
  C       3.554314     -4.074708      0.340761
  H       2.995267     -4.369942      1.242885
  H       4.570059     -4.505034      0.430439
  H       3.086427     -4.522048     -0.546110
  C       1.496088     -2.136534      0.055191
  H       1.282368     -2.633704      1.001892
  C       1.259855     -0.773351     -0.048770
  C       1.041877      0.054232      1.152428
  O       1.057661     -0.656649      2.309807
  C       0.847654      0.094204      3.500579
  H       0.889115     -0.624380      4.329277
  H       1.625059      0.864755      3.624508
  H      -0.131681      0.597293      3.481844
  O       0.875036      1.256830      1.134111
  C       1.300566     -0.040131     -1.354384
  H       2.161239      0.648893     -1.392865
  H       0.399969      0.582592     -1.482472
  H       1.391027     -0.736715     -2.198687
  H       1.440083     -2.744295     -0.850015
  O       4.541495     -0.842325     -1.238268
41
Coordinates from ORCA-job orca E -847.138533921026
  O       3.712197     -2.678345     -2.153615
  C       3.986028     -2.076637     -1.138488
  C       3.640653     -2.579538      0.216886
  C       4.124853     -1.828141      1.430908
  H       3.392885     -1.924899      2.249143
  H       5.047883     -2.327228      1.791472
  C       4.432274     -0.360921      1.145755
  H       4.994107      0.076935      1.985200
  H       3.512003      0.231536      1.037632
  C       5.241849     -0.230903     -0.134990
  H       6.202831     -0.769586     -0.014876
  C       5.527396      1.201207     -0.568629
  C       6.460688      1.971410      0.367907
  H       6.005160      2.054517      1.370254
  H       7.395711      1.397436      0.505720
  C       6.790687      3.370922     -0.151405
  H       7.461985      3.909498      0.536274
  H       5.876958      3.976993     -0.270263
  H       7.285544      3.324898     -1.135944
  H       4.565655      1.735381     -0.670140
  H       5.965491      1.158251     -1.580081
  C       3.553389     -4.073902      0.343075
  H       2.993751     -4.368374      1.245075
  H       4.569235     -4.503783      0.434117
  H       3.086462     -4.522434     -0.543690
  C       1.495720     -2.135414      0.053400
  H       1.279359     -2.634817      0.998307
  C       1.261472     -0.771520     -0.047522
  C       1.041840      0.053458      1.155115
  O       1.055327     -0.660118      2.310805
  C       0.843341      0.087861      3.503043
  H       0.883433     -0.632679      4.330112
  H       1.620503      0.858150      3.630101
  H      -0.135979      0.590981      3.483897
  O       0.875652      1.256192      1.139144
  C       1.304668     -0.034933     -1.351216
  H       2.159784      0.661207     -1.382787
  H       0.399977      0.581146     -1.483270
  H       1.404902     -0.728783     -2.196676
  H       1.439653     -2.741092     -0.853198
  O       4.543734     -0.844385     -1.238961
41
Coordinates from ORCA-job orca E -847.138533491880
  O       3.714169     -2.680656     -2.152873
  C       3.987485     -2.078029     -1.138132
  C       3.640268     -2.578956      0.217418
  C       4.123856     -1.826485      1.430952
  H       3.391618     -1.922282      2.249040
  H       5.046649     -2.325396      1.792422
  C       4.431899     -0.359647      1.144434
  H       4.992966      0.079012      1.983983
  H       3.511939      0.232975      1.034660
  C       5.242927     -0.231278     -0.135586
  H       6.203850     -0.769642     -0.013712
  C       5.528784      1.200306     -0.570820
  C       6.461073      1.971824      0.365647
  H       6.004517      2.056238      1.367417
  H       7.395989      1.398095      0.505172
  C       6.791498      3.370684     -0.155177
  H       7.462064      3.910216      0.532468
  H       5.877850      3.976539     -0.275762
  H       7.287355      3.323387     -1.139150
  H       4.567112      1.734263     -0.673960
  H       5.967896      1.156121     -1.581778
  C       3.552330     -4.073093      0.345220
  H       2.992680     -4.366702      1.247483
  H       4.568064     -4.503223      0.436836
  H       3.085651     -4.522658     -0.541144
  C       1.495578     -2.134430      0.051871
  H       1.277375     -2.635439      0.995479
  C       1.262447     -0.770043     -0.046584
  C       1.041568      0.052631      1.157443
  O       1.052789     -0.663383      2.311583
  C       0.839236      0.082060      3.505151
  H       0.877916     -0.640245      4.330737
  H       1.616409      0.851876      3.634955
  H      -0.139941      0.585449      3.485607
  O       0.876096      1.255494      1.143690
  C       1.307908     -0.030584     -1.348574
  H       2.159994      0.669400     -1.375267
  H       0.401031      0.581885     -1.482795
  H       1.414071     -0.722235     -2.195123
  H       1.439935     -2.738205     -0.856031
  O       4.546160     -0.846292     -1.239610
41
Coordinates from ORCA-job orca E -847.136307526389
  O       3.713103     -2.701169     -2.122108
  C       3.999140     -2.093504     -1.114552
  C       3.678058     -2.584991      0.231306
  C       4.149341     -1.836749      1.436468
  H       3.391574     -1.936480      2.240211
  H       5.067999     -2.332012      1.813527
  C       4.440456     -0.369812      1.149231
  H       4.985422      0.079136      1.994165
  H       3.502745      0.208196      1.025928
  C       5.255961     -0.237889     -0.123104
  H       6.222145     -0.765342      0.005487
  C       5.534067      1.192511     -0.569613
  C       6.459976      1.976103      0.363256
  H       6.000448      2.065877      1.363220
  H       7.397522      1.408312      0.509574
  C       6.784447      3.372661     -0.167530
  H       7.450469      3.920987      0.517646
  H       5.867955      3.972835     -0.295103
  H       7.283040      3.320346     -1.149884
  H       4.571284      1.721497     -0.678921
  H       5.975928      1.142783     -1.579135
  C       3.553426     -4.040187      0.360292
  H       2.984761     -4.320225      1.261910
  H       4.565300     -4.477915      0.459039
  H       3.079949     -4.489872     -0.522756
  C       1.434922     -2.100716      0.042028
  H       1.255603     -2.600681      0.972822
  C       1.226795     -0.742467     -0.064790
  C       1.025529      0.066401      1.147005
  O       1.042535     -0.679364      2.284785
  C       0.855241      0.039384      3.499724
  H       0.895179     -0.703931      4.306869
  H       1.644674      0.795368      3.638156
  H      -0.117326      0.556629      3.505859
  O       0.882361      1.271944      1.157141
  C       1.293863     -0.015947     -1.370433
  H       2.168725      0.658073     -1.392542
  H       0.403094      0.617862     -1.516116
  H       1.389130     -0.717066     -2.210613
  H       1.425394     -2.710128     -0.840508
  O       4.558824     -0.860912     -1.220351
41
Coordinates from ORCA-job orca E -847.138069820785
  O       3.716719     -2.688138     -2.143730
  C       4.001526     -2.088546     -1.128744
  C       3.685377     -2.595113      0.222482
  C       4.147866     -1.837473      1.435058
  H       3.397325     -1.936515      2.237865
  H       5.066997     -2.328812      1.816292
  C       4.441374     -0.368180      1.147601
  H       4.990101      0.080493      1.990052
  H       3.512011      0.208512      1.030039
  C       5.251989     -0.233948     -0.131251
  H       6.217988     -0.763429     -0.008514
  C       5.529591      1.198579     -0.569305
  C       6.457864      1.976115      0.366319
  H       6.000874      2.058705      1.368099
  H       7.396035      1.407783      0.506307
  C       6.780384      3.376462     -0.155533
  H       7.447894      3.920343      0.531681
  H       5.863327      3.977053     -0.276571
  H       7.276471      3.331215     -1.139494
  H       4.565541      1.727985     -0.672955
  H       5.968877      1.154667     -1.580150
  C       3.552414     -4.073308      0.350926
  H       2.983488     -4.355775      1.251959
  H       4.560121     -4.524063      0.448815
  H       3.078094     -4.518822     -0.533552
  C       1.441035     -2.113925      0.039744
  H       1.264257     -2.623730      0.985745
  C       1.236963     -0.758723     -0.058385
  C       1.038586      0.061157      1.154459
  O       1.047762     -0.663865      2.304031
  C       0.850481      0.077091      3.503539
  H       0.884523     -0.650620      4.324525
  H       1.638343      0.835954      3.633735
  H      -0.122217      0.593216      3.492598
  O       0.884225      1.264374      1.151530
  C       1.296436     -0.022841     -1.361503
  H       2.166517      0.654745     -1.386413
  H       0.403745      0.609108     -1.498835
  H       1.388649     -0.718799     -2.205937
  H       1.433831     -2.726456     -0.862965
  O       4.555677     -0.852925     -1.231975
41
Coordinates from ORCA-job orca E -847.138204995646
  O       3.717120     -2.684297     -2.148821
  C       4.000845     -2.086664     -1.132022
  C       3.687820     -2.598447      0.220060
  C       4.142094     -1.837647      1.435989
  H       3.393959     -1.937236      2.239553
  H       5.061494     -2.326913      1.819710
  C       4.437230     -0.368089      1.148158
  H       4.988861      0.079158      1.989201
  H       3.509997      0.210950      1.033408
  C       5.246715     -0.232887     -0.132432
  H       6.211805     -0.764539     -0.012139
  C       5.524446      1.200989     -0.565727
  C       6.454749      1.975162      0.370643
  H       5.999678      2.054772      1.373508
  H       7.392881      1.405952      0.507088
  C       6.777109      3.376962     -0.147323
  H       7.446151      3.918301      0.540402
  H       5.860174      3.978431     -0.264839
  H       7.271423      3.334565     -1.132300
  H       4.560110      1.730799     -0.666008
  H       5.961831      1.160318     -1.577537
  C       3.553001     -4.084616      0.348811
  H       2.982987     -4.366397      1.248799
  H       4.557767     -4.540531      0.447729
  H       3.080588     -4.527312     -0.538060
  C       1.442711     -2.121010      0.036907
  H       1.267687     -2.630521      0.985192
  C       1.238453     -0.768495     -0.059545
  C       1.032073      0.057142      1.150453
  O       1.053339     -0.657019      2.305036
  C       0.864668      0.093264      3.499991
  H       0.907805     -0.627759      4.326415
  H       1.651636      0.855057      3.617010
  H      -0.109419      0.606614      3.493358
  O       0.887693      1.261470      1.139170
  C       1.296419     -0.026730     -1.360812
  H       2.161631      0.656704     -1.383812
  H       0.400181      0.600291     -1.496860
  H       1.393233     -0.719707     -2.207226
  H       1.439276     -2.731116     -0.868868
  O       4.550838     -0.849419     -1.234673
41
Coordinates from ORCA-job orca E -847.138232363734
  O       3.713678     -2.681421     -2.150471
  C       4.000404     -2.084141     -1.134214
  C       3.693767     -2.597851      0.218668
  C       4.143037     -1.834612      1.435313
  H       3.395949     -1.932726      2.240050
  H       5.062236     -2.323187      1.821001
  C       4.440908     -0.365579      1.145901
  H       4.997848      0.079686      1.984422
  H       3.515540      0.217889      1.035311
  C       5.247101     -0.231766     -0.137316
  H       6.210849     -0.766569     -0.020486
  C       5.526045      1.202381     -0.568879
  C       6.461480      1.973419      0.364888
  H       6.010574      2.052618      1.369648
  H       7.398975      1.402119      0.496846
  C       6.784702      3.375210     -0.152506
  H       7.457534      3.914276      0.533307
  H       5.868564      3.978725     -0.265711
  H       7.275109      3.333071     -1.139443
  H       4.562144      1.733824     -0.664600
  H       5.959363      1.162762     -1.582508
  C       3.558102     -4.087438      0.348026
  H       2.989105     -4.367632      1.248778
  H       4.560929     -4.547042      0.445231
  H       3.085017     -4.527237     -0.539935
  C       1.447740     -2.122609      0.041138
  H       1.276832     -2.630527      0.990702
  C       1.245183     -0.771573     -0.053393
  C       1.042399      0.056051      1.156866
  O       1.044507     -0.658712      2.310023
  C       0.838953      0.089793      3.503361
  H       0.867756     -0.632976      4.328898
  H       1.625728      0.849554      3.633718
  H      -0.133815      0.605195      3.482701
  O       0.884614      1.258604      1.141416
  C       1.297222     -0.024297     -1.352745
  H       2.159320      0.662698     -1.377263
  H       0.398248      0.599912     -1.483182
  H       1.393088     -0.714320     -2.201815
  H       1.444794     -2.730029     -0.865732
  O       4.547529     -0.845990     -1.238424
41
Coordinates from ORCA-job orca E -847.138258997225
  O       3.712679     -2.682305     -2.148853
  C       3.999551     -2.084236     -1.133135
  C       3.693457     -2.597187      0.219132
  C       4.141138     -1.834282      1.435554
  H       3.392907     -1.932610      2.239529
  H       5.059942     -2.322743      1.822428
  C       4.439041     -0.365428      1.146314
  H       4.996020      0.079677      1.985010
  H       3.513684      0.218456      1.035385
  C       5.245867     -0.231884     -0.136242
  H       6.209322     -0.767080     -0.018847
  C       5.525385      1.202104     -0.567990
  C       6.460776      1.973076      0.365843
  H       6.009570      2.052887      1.370433
  H       7.397978      1.401411      0.498337
  C       6.784757      3.374518     -0.152020
  H       7.457551      3.913586      0.533828
  H       5.868916      3.978372     -0.265843
  H       7.275532      3.331753     -1.138749
  H       4.561693      1.733756     -0.664156
  H       5.959057      1.162231     -1.581472
  C       3.558682     -4.085024      0.348506
  H       2.988894     -4.364550      1.249070
  H       4.561741     -4.544204      0.446357
  H       3.086374     -4.524438     -0.540068
  C       1.447322     -2.122948      0.040290
  H       1.276505     -2.629904      0.989765
  C       1.243778     -0.771704     -0.055078
  C       1.037612      0.055496      1.154912
  O       1.044738     -0.659315      2.307936
  C       0.844322      0.088814      3.502508
  H       0.876716     -0.634178      4.327704
  H       1.631632      0.848604      3.629667
  H      -0.128591      0.604160      3.486076
  O       0.886198      1.258947      1.140245
  C       1.296739     -0.024813     -1.354414
  H       2.157044      0.664519     -1.376895
  H       0.396188      0.596709     -1.486789
  H       1.396434     -0.714769     -2.203157
  H       1.445964     -2.730194     -0.866165
  O       4.545946     -0.845729     -1.237366
41
Coordinates from ORCA-job orca E -847.138268515606
  O       3.710232     -2.681665     -2.147843
  C       3.998378     -2.083195     -1.132645
  C       3.694798     -2.596146      0.219340
  C       4.139575     -1.832638      1.435710
  H       3.389797     -1.930596      2.238422
  H       5.057548     -2.320765      1.825098
  C       4.438214     -0.364015      1.146260
  H       4.996475      0.080543      1.984478
  H       3.513490      0.221168      1.035980
  C       5.244693     -0.231278     -0.136516
  H       6.207417     -0.767852     -0.019520
  C       5.525614      1.202402     -0.568331
  C       6.462542      1.972341      0.364788
  H       6.012110      2.053017      1.369665
  H       7.399080      1.399473      0.496811
  C       6.788001      3.373230     -0.153643
  H       7.461887      3.911621      0.531665
  H       5.872872      3.978228     -0.267116
  H       7.278148      3.329557     -1.140645
  H       4.562405      1.734996     -0.663894
  H       5.958610      1.162188     -1.582096
  C       3.560574     -4.082846      0.348830
  H       2.989990     -4.361314      1.249248
  H       4.563393     -4.542577      0.447039
  H       3.088757     -4.521211     -0.540530
  C       1.448276     -2.123680      0.040667
  H       1.278687     -2.629459      0.990618
  C       1.243922     -0.772490     -0.054970
  C       1.035374      0.054155      1.155261
  O       1.041673     -0.661404      2.307562
  C       0.841659      0.085694      3.502969
  H       0.873134     -0.638153      4.327425
  H       1.629690      0.844599      3.630991
  H      -0.130789      0.601929      3.486625
  O       0.886798      1.257975      1.141199
  C       1.296423     -0.024925     -1.353861
  H       2.153185      0.668824     -1.373803
  H       0.392831      0.591898     -1.487733
  H       1.401445     -0.713984     -2.202718
  H       1.449181     -2.730195     -0.865948
  O       4.542973     -0.843903     -1.237251
41
Coordinates from ORCA-job orca E -847.138272753520
  O       3.707428     -2.679953     -2.147494
  C       3.997079     -2.081559     -1.132563
  C       3.696375     -2.595082      0.219435
  C       4.138555     -1.830534      1.435847
  H       3.386931     -1.927850      2.236947
  H       5.055499     -2.318302      1.828115
  C       4.437931     -0.362053      1.146024
  H       4.997442      0.082088      1.983654
  H       3.513818      0.224238      1.036439
  C       5.243722     -0.230266     -0.137329
  H       6.205623     -0.768460     -0.021063
  C       5.526442      1.202985     -0.569286
  C       6.464925      1.971681      0.363282
  H       6.015109      2.053234      1.368368
  H       7.400660      1.397422      0.494964
  C       6.792217      3.372005     -0.155559
  H       7.467169      3.909547      0.529364
  H       5.877927      3.978314     -0.268783
  H       7.281891      3.327418     -1.142756
  H       4.563852      1.736785     -0.664414
  H       5.958900      1.162217     -1.583263
  C       3.562304     -4.081207      0.349045
  H       2.990873     -4.358846      1.249188
  H       4.564726     -4.541749      0.447642
  H       3.090688     -4.518721     -0.540847
  C       1.449405     -2.124526      0.041371
  H       1.281158     -2.629525      0.991884
  C       1.244179     -0.773488     -0.054249
  C       1.034205      0.052436      1.156438
  O       1.038098     -0.663975      2.308106
  C       0.837022      0.082277      3.503940
  H       0.866468     -0.642341      4.327777
  H       1.625671      0.840229      3.633746
  H      -0.134880      0.599487      3.486414
  O       0.886634      1.256371      1.143058
  C       1.295964     -0.025298     -1.352734
  H       2.148451      0.673686     -1.369791
  H       0.388865      0.586013     -1.488626
  H       1.407221     -0.713355     -2.201593
  H       1.452776     -2.730368     -0.865606
  O       4.539739     -0.841424     -1.237501
41
Coordinates from ORCA-job orca E -847.138269155851
  O       3.704846     -2.677657     -2.147515
  C       3.995791     -2.079647     -1.132635
  C       3.697644     -2.594027      0.219540
  C       4.137943     -1.828385      1.436054
  H       3.384362     -1.924953      2.235407
  H       5.053821     -2.315881      1.831016
  C       4.437837     -0.359969      1.145819
  H       4.998143      0.083969      1.983009
  H       3.514069      0.226934      1.036684
  C       5.242924     -0.229014     -0.138152
  H       6.204052     -0.768764     -0.022692
  C       5.527572      1.203789     -0.570279
  C       6.467464      1.971265      0.361877
  H       6.018073      2.053721      1.367078
  H       7.402380      1.395638      0.493403
  C       6.796683      3.370999     -0.157354
  H       7.472605      3.907705      0.527271
  H       5.883243      3.978612     -0.270459
  H       7.286021      3.325491     -1.144680
  H       4.565674      1.738887     -0.665174
  H       5.959629      1.162347     -1.584392
  C       3.563555     -4.080030      0.349214
  H       2.991218     -4.357309      1.248901
  H       4.565616     -4.541209      0.448405
  H       3.092059     -4.517173     -0.540935
  C       1.450231     -2.125395      0.041984
  H       1.283019     -2.630197      0.992833
  C       1.243946     -0.774565     -0.053431
  C       1.033164      0.050535      1.157702
  O       1.034957     -0.666646      2.308962
  C       0.832689      0.079095      3.504929
  H       0.860396     -0.646037      4.328368
  H       1.621727      0.836367      3.636272
  H      -0.138803      0.597009      3.486206
  O       0.885572      1.254465      1.145042
  C       1.295200     -0.025935     -1.351624
  H       2.143078      0.678614     -1.365499
  H       0.384527      0.579544     -1.490261
  H       1.413311     -0.713048     -2.200284
  H       1.456075     -2.730815     -0.865304
  O       4.536745     -0.838780     -1.237717
41
Coordinates from ORCA-job orca E -847.138275356933
  O       3.703226     -2.675829     -2.147685
  C       3.994891     -2.078192     -1.132760
  C       3.698170     -2.593188      0.219625
  C       4.137752     -1.826856      1.436201
  H       3.382811     -1.922807      2.234336
  H       5.052914     -2.314284      1.832729
  C       4.437850     -0.358467      1.145594
  H       4.998298      0.085519      1.982637
  H       3.514102      0.228469      1.036482
  C       5.242533     -0.228046     -0.138731
  H       6.203133     -0.768855     -0.023791
  C       5.528653      1.204415     -0.570990
  C       6.469239      1.971057      0.361152
  H       6.019832      2.054073      1.366298
  H       7.403580      1.394530      0.492825
  C       6.799862      3.370414     -0.158203
  H       7.476243      3.906557      0.526412
  H       5.887002      3.978874     -0.271439
  H       7.289223      3.324338     -1.145490
  H       4.567307      1.740484     -0.666037
  H       5.960707      1.162385     -1.585079
  C       3.564086     -4.079344      0.349390
  H       2.991045     -4.356717      1.248615
  H       4.565992     -4.540650      0.449311
  H       3.092763     -4.516747     -0.540739
  C       1.450438     -2.126028      0.042237
  H       1.283632     -2.631180      0.993052
  C       1.243170     -0.775391     -0.052932
  C       1.032193      0.049148      1.158427
  O       1.033464     -0.668412      2.309612
  C       0.830547      0.077183      3.505543
  H       0.857916     -0.648076      4.328892
  H       1.619451      0.834499      3.637400
  H      -0.140969      0.595025      3.486430
  O       0.884029      1.253008      1.146235
  C       1.294133     -0.026584     -1.351023
  H       2.138267      0.682430     -1.362332
  H       0.380712      0.574234     -1.492323
  H       1.417884     -0.713080     -2.199347
  H       1.458048     -2.731414     -0.865110
  O       4.534933     -0.836943     -1.237832
41
Coordinates from ORCA-job orca E -847.138277658462
  O       3.702455     -2.674697     -2.147790
  C       3.994385     -2.077262     -1.132835
  C       3.698166     -2.592504      0.219699
  C       4.137679     -1.825886      1.436302
  H       3.382068     -1.921410      2.233854
  H       5.052509     -2.313371      1.833398
  C       4.437792     -0.357524      1.145392
  H       4.997994      0.086643      1.982489
  H       3.513890      0.229162      1.036014
  C       5.242410     -0.227421     -0.139002
  H       6.202712     -0.768824     -0.024254
  C       5.529492      1.204802     -0.571330
  C       6.470310      1.970925      0.360987
  H       6.020652      2.054293      1.365989
  H       7.404268      1.393845      0.492978
  C       6.801940      3.370030     -0.158399
  H       7.478470      3.905824      0.526335
  H       5.889476      3.979031     -0.271918
  H       7.291520      3.323569     -1.145557
  H       4.568542      1.741527     -0.666683
  H       5.961715      1.162346     -1.585327
  C       3.564272     -4.078877      0.349574
  H       2.990711     -4.356554      1.248382
  H       4.566213     -4.539881      0.450325
  H       3.093356     -4.516843     -0.540494
  C       1.450218     -2.126447      0.042149
  H       1.283377     -2.632224      0.992674
  C       1.242135     -0.775983     -0.052765
  C       1.031129      0.048282      1.158631
  O       1.033203     -0.669341      2.309905
  C       0.830198      0.076241      3.505797
  H       0.858351     -0.648929      4.329205
  H       1.618622      0.834109      3.637362
  H      -0.141664      0.593451      3.487041
  O       0.882128      1.252036      1.146617
  C       1.292869     -0.027069     -1.350827
  H       2.134053      0.685411     -1.360247
  H       0.377386      0.570150     -1.494314
  H       1.420948     -0.713161     -2.198828
  H       1.458952     -2.732004     -0.865088
  O       4.534160     -0.835918     -1.237852
41
Coordinates from ORCA-job orca E -847.137266379615
  O       3.700958     -2.698737     -2.115020
  C       4.007588     -2.094628     -1.109316
  C       3.737906     -2.598771      0.233691
  C       4.163298     -1.835832      1.435093
  H       3.377432     -1.937830      2.207492
  H       5.072937     -2.318469      1.850100
  C       4.447541     -0.367450      1.148586
  H       4.988232      0.086072      1.993778
  H       3.506520      0.204730      1.023839
  C       5.257555     -0.234133     -0.127025
  H       6.223008     -0.764908     -0.005244
  C       5.536845      1.196718     -0.570594
  C       6.470913      1.975507      0.358126
  H       6.018129      2.064349      1.361275
  H       7.407746      1.404694      0.497176
  C       6.796101      3.372338     -0.171500
  H       7.467824      3.917353      0.510768
  H       5.880534      3.975338     -0.292274
  H       7.288554      3.320768     -1.156993
  H       4.574081      1.727856     -0.672504
  H       5.971964      1.148606     -1.583119
  C       3.566371     -4.041755      0.364982
  H       2.981267     -4.299340      1.258417
  H       4.562953     -4.512902      0.472618
  H       3.087860     -4.470822     -0.520859
  C       1.390841     -2.095038      0.035312
  H       1.258406     -2.596483      0.969061
  C       1.206959     -0.750701     -0.067044
  C       1.015374      0.059924      1.152029
  O       1.019676     -0.686675      2.287992
  C       0.841321      0.033165      3.504116
  H       0.867890     -0.712245      4.309754
  H       1.642583      0.776053      3.645036
  H      -0.123004      0.565387      3.508764
  O       0.889476      1.266122      1.163000
  C       1.280837     -0.015455     -1.370560
  H       2.144197      0.672385     -1.379491
  H       0.381028      0.602850     -1.526279
  H       1.398057     -0.713007     -2.210928
  H       1.442645     -2.703653     -0.846439
  O       4.548658     -0.851828     -1.218224
41
Coordinates from ORCA-job orca E -847.139336876268
  O       3.705967     -2.682925     -2.137948
  C       4.011020     -2.088578     -1.123682
  C       3.745268     -2.608619      0.224854
  C       4.162047     -1.836320      1.438235
  H       3.382813     -1.936726      2.214173
  H       5.071878     -2.314675      1.857808
  C       4.447455     -0.365405      1.148276
  H       4.992277      0.088883      1.990027
  H       3.513884      0.204779      1.029166
  C       5.253079     -0.229761     -0.134210
  H       6.218435     -0.762258     -0.017900
  C       5.531966      1.203120     -0.569988
  C       6.468005      1.975856      0.361744
  H       6.017326      2.057612      1.366480
  H       7.405319      1.404471      0.494900
  C       6.791582      3.376377     -0.158957
  H       7.464605      3.916923      0.525515
  H       5.875580      3.979839     -0.273543
  H       7.281863      3.331759     -1.145857
  H       4.568434      1.734811     -0.666726
  H       5.964956      1.160601     -1.583639
  C       3.564696     -4.076935      0.354730
  H       2.977735     -4.338766      1.250305
  H       4.556353     -4.561327      0.461646
  H       3.084178     -4.504260     -0.535266
  C       1.396540     -2.110462      0.032160
  H       1.265671     -2.623610      0.983162
  C       1.214096     -0.765998     -0.062819
  C       1.023315      0.055560      1.156034
  O       1.025763     -0.670519      2.303276
  C       0.842452      0.070983      3.505154
  H       0.867643     -0.659139      4.324235
  H       1.642097      0.817415      3.634731
  H      -0.122519      0.601313      3.497318
  O       0.889888      1.260164      1.154428
  C       1.282052     -0.021259     -1.362435
  H       2.140472      0.670418     -1.370560
  H       0.380164      0.594718     -1.511558
  H       1.398650     -0.713026     -2.207284
  H       1.450186     -2.722365     -0.868668
  O       4.545873     -0.843122     -1.229727
41
Coordinates from ORCA-job orca E -847.139496306501
  O       3.706347     -2.677872     -2.143132
  C       4.010811     -2.085614     -1.127250
  C       3.748580     -2.610830      0.222475
  C       4.158613     -1.835347      1.440520
  H       3.383502     -1.934586      2.219511
  H       5.068379     -2.312156      1.861752
  C       4.445835     -0.364368      1.147759
  H       4.995041      0.088972      1.986953
  H       3.514486      0.208591      1.031878
  C       5.249862     -0.228627     -0.136766
  H       6.214051     -0.763677     -0.023007
  C       5.529277      1.205364     -0.568515
  C       6.467869      1.974802      0.363388
  H       6.019439      2.054059      1.369289
  H       7.404994      1.402317      0.492929
  C       6.791588      3.376499     -0.154015
  H       7.466567      3.914508      0.530527
  H       5.875889      3.981103     -0.264942
  H       7.279725      3.334246     -1.142078
  H       4.565752      1.737905     -0.661879
  H       5.960089      1.165459     -1.583187
  C       3.566924     -4.088074      0.352716
  H       2.980055     -4.350246      1.248067
  H       4.555458     -4.577077      0.460308
  H       3.088098     -4.514441     -0.538974
  C       1.398886     -2.116910      0.030644
  H       1.268977     -2.630031      0.983419
  C       1.216081     -0.773535     -0.062276
  C       1.020820      0.052725      1.154444
  O       1.027268     -0.665478      2.305064
  C       0.845581      0.082421      3.503090
  H       0.873791     -0.643198      4.326070
  H       1.644356      0.830691      3.626586
  H      -0.120196      0.611080      3.494606
  O       0.889811      1.257584      1.145566
  C       1.280497     -0.022822     -1.359469
  H       2.135022      0.673415     -1.365830
  H       0.375766      0.589594     -1.505419
  H       1.399335     -0.710938     -2.207061
  H       1.453414     -2.726510     -0.872679
  O       4.542418     -0.839447     -1.233492
41
Coordinates from ORCA-job orca E -847.139510842014
  O       3.703521     -2.676225     -2.143672
  C       4.009758     -2.083893     -1.128373
  C       3.751707     -2.610564      0.221525
  C       4.158388     -1.834218      1.440791
  H       3.385780     -1.932667      2.222209
  H       5.068397     -2.310729      1.862091
  C       4.446725     -0.363553      1.146747
  H       5.000078      0.088505      1.983962
  H       3.516315      0.212215      1.034075
  C       5.248929     -0.228221     -0.139049
  H       6.212135     -0.765386     -0.027260
  C       5.529087      1.206194     -0.569000
  C       6.471091      1.973276      0.361368
  H       6.025537      2.051851      1.368589
  H       7.407832      1.399437      0.487609
  C       6.795213      3.375184     -0.155157
  H       7.472768      3.911444      0.528214
  H       5.880013      3.981134     -0.262846
  H       7.280612      3.333535     -1.144594
  H       4.565900      1.739849     -0.659134
  H       5.957170      1.167434     -1.584896
  C       3.571063     -4.090272      0.352209
  H       2.985232     -4.351875      1.248119
  H       4.558497     -4.581019      0.459394
  H       3.092978     -4.515937     -0.540141
  C       1.401432     -2.118428      0.032247
  H       1.272783     -2.629889      0.985657
  C       1.219409     -0.775579     -0.060121
  C       1.025455      0.052459      1.156123
  O       1.025161     -0.664732      2.306417
  C       0.835350      0.082760      3.503500
  H       0.858671     -0.643095      4.326427
  H       1.632968      0.831385      3.632128
  H      -0.130655      0.610863      3.488985
  O       0.885921      1.256391      1.143789
  C       1.279768     -0.021817     -1.356190
  H       2.131675      0.677437     -1.362550
  H       0.372863      0.588048     -1.498936
  H       1.399029     -0.707839     -2.205540
  H       1.454884     -2.726535     -0.871566
  O       4.539619     -0.837378     -1.235559
41
Coordinates from ORCA-job orca E -847.139520918766
  O       3.701734     -2.676023     -2.142653
  C       4.008493     -2.083000     -1.127904
  C       3.752284     -2.609946      0.221662
  C       4.155855     -1.833340      1.441292
  H       3.383878     -1.931556      2.223358
  H       5.065652     -2.309784      1.863421
  C       4.445172     -0.362977      1.146924
  H       5.000458      0.088318      1.983370
  H       3.515555      0.214503      1.035300
  C       5.247205     -0.227999     -0.138842
  H       6.209675     -0.766504     -0.027386
  C       5.528199      1.206497     -0.567963
  C       6.471774      1.972375      0.361763
  H       6.027340      2.051060      1.369476
  H       7.408107      1.397618      0.486847
  C       6.796674      3.374130     -0.154666
  H       7.475416      3.909536      0.528194
  H       5.881945      3.980987     -0.261279
  H       7.281064      3.332323     -1.144592
  H       4.565313      1.740851     -0.656930
  H       5.955293      1.168118     -1.584311
  C       3.573576     -4.089915      0.352672
  H       2.987433     -4.351064      1.248379
  H       4.560845     -4.580707      0.460987
  H       3.097435     -4.515554     -0.540651
  C       1.401692     -2.119788      0.031192
  H       1.272601     -2.629872      0.984808
  C       1.219175     -0.777201     -0.061160
  C       1.021158      0.051247      1.154603
  O       1.024424     -0.664805      2.305060
  C       0.837565      0.082948      3.502536
  H       0.863397     -0.642663      4.325589
  H       1.635254      0.831927      3.628706
  H      -0.128718      0.610619      3.490367
  O       0.886641      1.255822      1.141385
  C       1.278518     -0.022016     -1.356592
  H       2.127325      0.680972     -1.360892
  H       0.369168      0.584097     -1.499626
  H       1.401684     -0.706693     -2.206536
  H       1.455699     -2.726880     -0.872826
  O       4.537100     -0.836111     -1.235492
41
Coordinates from ORCA-job orca E -847.139527448407
  O       3.699779     -2.675585     -2.141893
  C       4.007570     -2.082398     -1.127481
  C       3.752596     -2.609318      0.221961
  C       4.155458     -1.832677      1.441207
  H       3.383077     -1.930835      2.222959
  H       5.064992     -2.309247      1.863903
  C       4.445135     -0.362367      1.147165
  H       5.001199      0.088561      1.983334
  H       3.515826      0.215673      1.036157
  C       5.246743     -0.227677     -0.138838
  H       6.208899     -0.766804     -0.027678
  C       5.528460      1.206588     -0.568152
  C       6.473096      1.971875      0.360965
  H       6.029323      2.051019      1.368943
  H       7.409091      1.396463      0.485567
  C       6.798663      3.373341     -0.155843
  H       7.478162      3.908364      0.526565
  H       5.884298      3.980821     -0.262028
  H       7.282468      3.331063     -1.146036
  H       4.565879      1.741554     -0.656620
  H       5.955009      1.167937     -1.584720
  C       3.575185     -4.088440      0.352993
  H       2.988829     -4.349482      1.248637
  H       4.562806     -4.578623      0.461805
  H       3.099822     -4.514257     -0.540648
  C       1.401902     -2.119727      0.031304
  H       1.272483     -2.629123      0.985155
  C       1.219476     -0.777008     -0.061116
  C       1.020911      0.050867      1.155038
  O       1.023086     -0.665937      2.304996
  C       0.835148      0.080956      3.502892
  H       0.860054     -0.645246      4.325438
  H       1.632835      0.829724      3.630320
  H      -0.131054      0.608755      3.490051
  O       0.886057      1.255404      1.142496
  C       1.278186     -0.021881     -1.356546
  H       2.124995      0.683484     -1.359862
  H       0.367222      0.581692     -1.500282
  H       1.403949     -0.706196     -2.206372
  H       1.455837     -2.726522     -0.872894
  O       4.535607     -0.835239     -1.235255
41
Coordinates from ORCA-job orca E -847.139531737862
  O       3.696138     -2.673704     -2.141186
  C       4.005703     -2.080767     -1.127057
  C       3.753184     -2.608308      0.222381
  C       4.154809     -1.831180      1.441290
  H       3.381497     -1.929103      2.222215
  H       5.063691     -2.307845      1.865364
  C       4.445198     -0.360915      1.147612
  H       5.002638      0.089377      1.983227
  H       3.516396      0.218094      1.037773
  C       5.245798     -0.226768     -0.139119
  H       6.207315     -0.767199     -0.028836
  C       5.529037      1.207085     -0.568652
  C       6.475715      1.971012      0.359500
  H       6.033174      2.050768      1.367982
  H       7.411046      1.394300      0.483062
  C       6.802602      3.372055     -0.157638
  H       7.483533      3.906173      0.524054
  H       5.888934      3.980743     -0.262865
  H       7.285304      3.329135     -1.148342
  H       4.567083      1.743342     -0.656123
  H       5.954561      1.167960     -1.585633
  C       3.577905     -4.086766      0.353434
  H       2.990991     -4.347995      1.248719
  H       4.566011     -4.575908      0.463339
  H       3.103987     -4.513087     -0.540743
  C       1.402212     -2.120128      0.031520
  H       1.272140     -2.628579      0.985821
  C       1.219906     -0.777223     -0.060810
  C       1.020393      0.049776      1.155865
  O       1.020682     -0.667975      2.305243
  C       0.830834      0.077957      3.503486
  H       0.854189     -0.648938      4.325453
  H       1.628469      0.826452      3.632805
  H      -0.135248      0.605922      3.489294
  O       0.884878      1.254236      1.144204
  C       1.277504     -0.022028     -1.356151
  H       2.119949      0.688475     -1.357305
  H       0.363169      0.576098     -1.501775
  H       1.409043     -0.705587     -2.205669
  H       1.456157     -2.726312     -0.873143
  O       4.532534     -0.833094     -1.235007
41
Coordinates from ORCA-job orca E -847.139535491528
  O       3.693451     -2.671750     -2.141004
  C       4.004151     -2.079272     -1.126911
  C       3.753453     -2.607542      0.222629
  C       4.154416     -1.829892      1.441457
  H       3.380141     -1.927476      2.221495
  H       5.062672     -2.306627      1.866733
  C       4.445356     -0.359670      1.147849
  H       5.003637      0.090199      1.983117
  H       3.516842      0.219939      1.038751
  C       5.245118     -0.225938     -0.139497
  H       6.206142     -0.767419     -0.030044
  C       5.529591      1.207621     -0.569113
  C       6.477561      1.970504      0.358599
  H       6.035644      2.050689      1.367322
  H       7.412343      1.392792      0.481648
  C       6.805662      3.371236     -0.158638
  H       7.487512      3.904610      0.522720
  H       5.892572      3.980882     -0.263358
  H       7.287793      3.327858     -1.149599
  H       4.568151      1.744881     -0.656063
  H       5.954574      1.168117     -1.586295
  C       3.579648     -4.086016      0.353692
  H       2.992115     -4.347721      1.248469
  H       4.568114     -4.574224      0.464651
  H       3.106881     -4.512922     -0.540827
  C       1.402205     -2.120738      0.031662
  H       1.271553     -2.628779      0.986158
  C       1.219879     -0.777726     -0.060500
  C       1.019747      0.048740      1.156388
  O       1.019042     -0.669473      2.305573
  C       0.828219      0.076113      3.503890
  H       0.850718     -0.651071      4.325622
  H       1.625854      0.824436      3.634157
  H      -0.137768      0.604219      3.488944
  O       0.884081      1.253189      1.145205
  C       1.276829     -0.022447     -1.355771
  H       2.115450      0.692499     -1.354971
  H       0.359681      0.570938     -1.503498
  H       1.413599     -0.705432     -2.204903
  H       1.456308     -2.726512     -0.873301
  O       4.530124     -0.831262     -1.234849
41
Coordinates from ORCA-job orca E -847.139537077936
  O       3.689928     -2.668761     -2.140998
  C       4.001922     -2.077011     -1.126864
  C       3.753546     -2.606301      0.222880
  C       4.153807     -1.827884      1.441750
  H       3.377982     -1.924779      2.220353
  H       5.061085     -2.304752      1.868751
  C       4.445518     -0.357780      1.147950
  H       5.004641      0.091575      1.982900
  H       3.517342      0.222527      1.039565
  C       5.244242     -0.224701     -0.140160
  H       6.204543     -0.767701     -0.031876
  C       5.530580      1.208443     -0.569822
  C       6.479988      1.969882      0.357615
  H       6.038540      2.050631      1.366491
  H       7.413971      1.390797      0.480302
  C       6.809964      3.370181     -0.159618
  H       7.492865      3.902498      0.521511
  H       5.897722      3.981168     -0.263918
  H       7.291630      3.326187     -1.150784
  H       4.569908      1.747132     -0.656425
  H       5.955156      1.168356     -1.587145
  C       3.581804     -4.085227      0.353988
  H       2.993158     -4.347954      1.247761
  H       4.570843     -4.571797      0.466796
  H       3.110879     -4.513198     -0.541007
  C       1.401814     -2.121873      0.031829
  H       1.270280     -2.629742      0.986363
  C       1.219289     -0.778785     -0.060013
  C       1.018456      0.047111      1.157007
  O       1.017002     -0.671519      2.306106
  C       0.825495      0.073893      3.504414
  H       0.847310     -0.653485      4.326000
  H       1.623165      0.822053      3.635423
  H      -0.140382      0.602179      3.488911
  O       0.882894      1.251582      1.146318
  C       1.275622     -0.023309     -1.355182
  H       2.108358      0.698368     -1.351263
  H       0.354337      0.562840     -1.506637
  H       1.420603     -0.705459     -2.203607
  H       1.456380     -2.727217     -0.873403
  O       4.526872     -0.828623     -1.234674
41
Coordinates from ORCA-job orca E -847.139538222774
  O       3.688434     -2.667165     -2.141131
  C       4.000868     -2.075783     -1.126939
  C       3.753347     -2.605474      0.222910
  C       4.153325     -1.826765      1.441946
  H       3.376683     -1.923133      2.219801
  H       5.060056     -2.303826      1.869738
  C       4.445509     -0.356747      1.147879
  H       5.004824      0.092379      1.982815
  H       3.517475      0.223863      1.039610
  C       5.243883     -0.224026     -0.140487
  H       6.203810     -0.767814     -0.032746
  C       5.531228      1.208938     -0.570117
  C       6.481274      1.969666      0.357261
  H       6.039901      2.050765      1.366141
  H       7.414818      1.389864      0.479929
  C       6.812336      3.369689     -0.160008
  H       7.495678      3.901485      0.521082
  H       5.900566      3.981388     -0.264277
  H       7.293927      3.325306     -1.151190
  H       4.570966      1.748361     -0.656644
  H       5.955628      1.168533     -1.587505
  C       3.582747     -4.084861      0.354063
  H       2.993290     -4.348353      1.247079
  H       4.572175     -4.570246      0.468242
  H       3.113130     -4.513571     -0.541270
  C       1.401283     -2.122651      0.031886
  H       1.269272     -2.630798      0.986219
  C       1.218524     -0.779599     -0.059725
  C       1.017501      0.046171      1.157262
  O       1.016097     -0.672520      2.306397
  C       0.824625      0.072905      3.504677
  H       0.846480     -0.654474      4.326269
  H       1.622279      0.821078      3.635713
  H      -0.141249      0.601200      3.489259
  O       0.882108      1.250664      1.146663
  C       1.274725     -0.023892     -1.354814
  H       2.103996      0.701666     -1.348933
  H       0.351136      0.558064     -1.508692
  H       1.424604     -0.705514     -2.202830
  H       1.456312     -2.727934     -0.873346
  O       4.525489     -0.827287     -1.234599
41
Coordinates from ORCA-job orca E -847.139539190621
  O       3.687954     -2.666444     -2.141307
  C       4.000447     -2.075140     -1.127114
  C       3.752998     -2.604790      0.222789
  C       4.152882     -1.826017      1.441961
  H       3.375893     -1.921936      2.219508
  H       5.059355     -2.303263      1.870016
  C       4.445363     -0.356082      1.147582
  H       5.004526      0.093039      1.982635
  H       3.517383      0.224622      1.039034
  C       5.243846     -0.223694     -0.140716
  H       6.203561     -0.767878     -0.033034
  C       5.531826      1.209159     -0.570309
  C       6.482020      1.969521      0.357204
  H       6.040446      2.050830      1.365976
  H       7.415311      1.389359      0.480095
  C       6.813748      3.369380     -0.160068
  H       7.497166      3.900934      0.521139
  H       5.902242      3.981437     -0.264544
  H       7.295520      3.324761     -1.151148
  H       4.571821      1.749005     -0.657010
  H       5.956302      1.168532     -1.587663
  C       3.583160     -4.084500      0.354025
  H       2.992979     -4.348538      1.246399
  H       4.572914     -4.568870      0.469465
  H       3.114740     -4.513787     -0.541649
  C       1.400669     -2.123185      0.031949
  H       1.268451     -2.631831      0.985986
  C       1.217660     -0.780216     -0.059488
  C       1.016708      0.045622      1.157443
  O       1.015755     -0.672996      2.306633
  C       0.824520      0.072443      3.504915
  H       0.846861     -0.654867      4.326560
  H       1.622010      0.820844      3.635671
  H      -0.141496      0.600499      3.489882
  O       0.881393      1.250117      1.146772
  C       1.273920     -0.024310     -1.354512
  H       2.100910      0.703772     -1.347241
  H       0.348876      0.554910     -1.510140
  H       1.427078     -0.705567     -2.202248
  H       1.456148     -2.728617     -0.873139
  O       4.525189     -0.826709     -1.234719
41
Coordinates from ORCA-job orca E -847.138830555689
  O       3.690297     -2.688158     -2.112817
  C       4.017073     -2.089165     -1.108856
  C       3.797342     -2.607421      0.235997
  C       4.163072     -1.836877      1.433034
  H       3.370249     -1.928362      2.199467
  H       5.068794     -2.319115      1.857113
  C       4.448778     -0.367356      1.142360
  H       5.001376      0.085737      1.979673
  H       3.507611      0.205398      1.030947
  C       5.253830     -0.231218     -0.136750
  H       6.216173     -0.769576     -0.023045
  C       5.537421      1.200870     -0.571014
  C       6.480814      1.969430      0.356744
  H       6.035206      2.053007      1.363568
  H       7.416274      1.393994      0.485478
  C       6.808113      3.368601     -0.165230
  H       7.486658      3.906112      0.516218
  H       5.894228      3.976108     -0.275605
  H       7.293690      3.321971     -1.154370
  H       4.574788      1.735734     -0.663619
  H       5.965793      1.157869     -1.586647
  C       3.593380     -4.042618      0.364405
  H       2.991233     -4.290769      1.254898
  H       4.578354     -4.535944      0.483257
  H       3.117485     -4.461757     -0.531241
  C       1.345456     -2.088398      0.028633
  H       1.249511     -2.591199      0.968271
  C       1.183357     -0.754572     -0.064870
  C       0.999019      0.061412      1.156410
  O       1.000400     -0.681897      2.292706
  C       0.831573      0.041531      3.508257
  H       0.852732     -0.702921      4.314759
  H       1.640422      0.776596      3.646072
  H      -0.127543      0.582804      3.514085
  O       0.885271      1.267743      1.164126
  C       1.264837     -0.025935     -1.368211
  H       2.109883      0.683256     -1.366434
  H       0.354372      0.569597     -1.549788
  H       1.421557     -0.739432     -2.190161
  H       1.440863     -2.694645     -0.857991
  O       4.539317     -0.840886     -1.222238
41
Coordinates from ORCA-job orca E -847.141070169444
  O       3.691349     -2.676732     -2.132980
  C       4.018612     -2.087131     -1.121331
  C       3.802828     -2.620691      0.226829
  C       4.170556     -1.838111      1.439970
  H       3.379673     -1.933402      2.204981
  H       5.077235     -2.311722      1.874701
  C       4.452057     -0.365349      1.147317
  H       5.003408      0.091158      1.983688
  H       3.515526      0.201901      1.036232
  C       5.251146     -0.227338     -0.139472
  H       6.215260     -0.764017     -0.029368
  C       5.532340      1.206920     -0.569061
  C       6.477641      1.972141      0.359333
  H       6.034894      2.050463      1.367859
  H       7.414079      1.397142      0.482609
  C       6.801804      3.374127     -0.157000
  H       7.481800      3.909175      0.524895
  H       5.886933      3.981091     -0.261709
  H       7.284401      3.332731     -1.147825
  H       4.569628      1.741616     -0.656682
  H       5.957899      1.168204     -1.586061
  C       3.588403     -4.081620      0.355858
  H       2.986891     -4.330450      1.245664
  H       4.567505     -4.589779      0.473648
  H       3.109127     -4.498680     -0.539619
  C       1.349600     -2.105394      0.026141
  H       1.254299     -2.618452      0.981541
  C       1.188854     -0.766661     -0.064521
  C       1.006600      0.057756      1.157296
  O       1.006522     -0.668384      2.303102
  C       0.834094      0.073247      3.506850
  H       0.854154     -0.658428      4.324642
  H       1.641842      0.811080      3.635088
  H      -0.125466      0.613228      3.502407
  O       0.886605      1.262971      1.154951
  C       1.266274     -0.022645     -1.364994
  H       2.107002      0.689834     -1.357369
  H       0.353916      0.571091     -1.538910
  H       1.422067     -0.721202     -2.197867
  H       1.445519     -2.715146     -0.872422
  O       4.536183     -0.834992     -1.230819
41
Coordinates from ORCA-job orca E -847.141286141193
  O       3.691020     -2.671348     -2.137458
  C       4.018072     -2.085200     -1.123645
  C       3.805017     -2.625254      0.224148
  C       4.173228     -1.838915      1.444567
  H       3.382854     -1.937402      2.208524
  H       5.078294     -2.307485      1.886222
  C       4.453193     -0.365810      1.149846
  H       5.004680      0.091087      1.985530
  H       3.517742      0.201701      1.038630
  C       5.250287     -0.226641     -0.139052
  H       6.214180     -0.763877     -0.031681
  C       5.529544      1.208700     -0.566643
  C       6.476994      1.972659      0.360635
  H       6.037050      2.048831      1.370526
  H       7.414097      1.397978      0.480220
  C       6.798959      3.375800     -0.153899
  H       7.480583      3.909895      0.527117
  H       5.883477      3.982481     -0.254881
  H       7.278805      3.336578     -1.146143
  H       4.566408      1.743371     -0.650788
  H       5.952444      1.172089     -1.584812
  C       3.588212     -4.095834      0.353736
  H       2.986754     -4.343890      1.243278
  H       4.563257     -4.609659      0.472161
  H       3.109529     -4.511518     -0.542936
  C       1.351133     -2.112827      0.024131
  H       1.254404     -2.626073      0.980631
  C       1.190792     -0.773486     -0.066109
  C       1.005727      0.055055      1.153961
  O       1.008959     -0.663526      2.303171
  C       0.838935      0.084744      3.502998
  H       0.861349     -0.642422      4.324750
  H       1.646547      0.823653      3.625129
  H      -0.120928      0.624035      3.497856
  O       0.888334      1.260668      1.145096
  C       1.265236     -0.020651     -1.363118
  H       2.102573      0.695387     -1.350786
  H       0.350020      0.570069     -1.531457
  H       1.421009     -0.709828     -2.203827
  H       1.446327     -2.721424     -0.875959
  O       4.533961     -0.832161     -1.232079
41
Coordinates from ORCA-job orca E -847.141306652010
  O       3.688358     -2.669725     -2.137332
  C       4.017101     -2.084257     -1.123734
  C       3.806936     -2.625980      0.223507
  C       4.176467     -1.839307      1.445602
  H       3.386436     -1.939410      2.209762
  H       5.080614     -2.306095      1.890231
  C       4.455754     -0.366459      1.149787
  H       5.008906      0.089992      1.984649
  H       3.520595      0.202436      1.039855
  C       5.251146     -0.226858     -0.140063
  H       6.214629     -0.765112     -0.035038
  C       5.529526      1.208900     -0.566823
  C       6.479233      1.972012      0.358893
  H       6.041825      2.047161      1.369970
  H       7.416673      1.397292      0.475576
  C       6.799838      3.375701     -0.155011
  H       7.483130      3.909145      0.524848
  H       5.884078      3.982443     -0.253109
  H       7.277220      3.337522     -1.148484
  H       4.566255      1.743736     -0.648207
  H       5.950049      1.173273     -1.586004
  C       3.590497     -4.098597      0.353664
  H       2.989555     -4.345444      1.243823
  H       4.564192     -4.614330      0.472111
  H       3.112107     -4.513356     -0.543630
  C       1.352799     -2.114148      0.025096
  H       1.254745     -2.626099      0.981738
  C       1.194049     -0.775001     -0.065514
  C       1.010615      0.054962      1.154223
  O       1.007834     -0.662670      2.303241
  C       0.831450      0.085533      3.502219
  H       0.849433     -0.641727      4.324004
  H       1.638514      0.824320      3.628539
  H      -0.128330      0.624895      3.492031
  O       0.886081      1.259959      1.142629
  C       1.265071     -0.018528     -1.360605
  H       2.100886      0.699081     -1.347291
  H       0.348078      0.570829     -1.524056
  H       1.418552     -0.703172     -2.205569
  H       1.445503     -2.722134     -0.875311
  O       4.532661     -0.831236     -1.232628
41
Coordinates from ORCA-job orca E -847.141325929304
  O       3.686616     -2.669570     -2.135892
  C       4.015981     -2.083943     -1.122579
  C       3.807067     -2.626208      0.224021
  C       4.176523     -1.839762      1.446811
  H       3.385966     -1.941389      2.210348
  H       5.079375     -2.305305      1.894966
  C       4.455724     -0.367254      1.150296
  H       5.009734      0.088939      1.984845
  H       3.521230      0.202933      1.040439
  C       5.250814     -0.227368     -0.139463
  H       6.213903     -0.766434     -0.035602
  C       5.528575      1.208654     -0.565555
  C       6.479139      1.971486      0.359544
  H       6.042967      2.045781      1.371227
  H       7.416932      1.397043      0.474680
  C       6.798584      3.375661     -0.153759
  H       7.482500      3.908882      0.525650
  H       5.882482      3.982138     -0.250334
  H       7.274791      3.338372     -1.147834
  H       4.565080      1.743279     -0.645592
  H       5.948046      1.173750     -1.585194
  C       3.592177     -4.099304      0.354737
  H       2.990361     -4.344927      1.244653
  H       4.565197     -4.615660      0.475024
  H       3.115825     -4.513685     -0.543823
  C       1.352845     -2.115664      0.023340
  H       1.251585     -2.626080      0.980033
  C       1.194764     -0.776755     -0.067846
  C       1.007981      0.054088      1.151420
  O       1.008269     -0.661994      2.300769
  C       0.835537      0.086935      3.499888
  H       0.855522     -0.639887      4.322001
  H       1.643284      0.825446      3.623447
  H      -0.124067      0.626658      3.491968
  O       0.888738      1.259740      1.138582
  C       1.263914     -0.017745     -1.361271
  H       2.097762      0.702048     -1.346109
  H       0.344945      0.569439     -1.521674
  H       1.417005     -0.698668     -2.209387
  H       1.444103     -2.723110     -0.877309
  O       4.531285     -0.831013     -1.231877
41
Coordinates from ORCA-job orca E -847.141329736356
  O       3.685061     -2.669811     -2.134834
  C       4.015402     -2.083859     -1.121924
  C       3.807272     -2.625721      0.224696
  C       4.176922     -1.839763      1.446653
  H       3.386077     -1.941589      2.210027
  H       5.079307     -2.305512      1.895726
  C       4.456358     -0.367310      1.150397
  H       5.011252      0.088566      1.984586
  H       3.522203      0.203545      1.041253
  C       5.250934     -0.227495     -0.139639
  H       6.213908     -0.766905     -0.036418
  C       5.528795      1.208464     -0.565748
  C       6.480045      1.971067      0.358815
  H       6.044588      2.045234      1.370815
  H       7.417878      1.396541      0.473204
  C       6.799211      3.375289     -0.154510
  H       7.483624      3.908378      0.524501
  H       5.883080      3.981832     -0.250379
  H       7.274734      3.338114     -1.148915
  H       4.565323      1.743194     -0.645147
  H       5.947681      1.173596     -1.585632
  C       3.593633     -4.097876      0.355609
  H       2.991196     -4.343062      1.245272
  H       4.566905     -4.613707      0.476984
  H       3.118345     -4.512380     -0.543444
  C       1.353080     -2.115390      0.023123
  H       1.249730     -2.624932      0.980000
  C       1.195979     -0.776359     -0.068218
  C       1.009048      0.054097      1.151562
  O       1.007484     -0.662752      2.300336
  C       0.833354      0.085258      3.499872
  H       0.851853     -0.642232      4.321413
  H       1.641274      0.823300      3.625101
  H      -0.126000      0.625402      3.490944
  O       0.889070      1.259663      1.139315
  C       1.263821     -0.017112     -1.361383
  H       2.097095      0.703328     -1.346594
  H       0.344177      0.569521     -1.520189
  H       1.415886     -0.697355     -2.210170
  H       1.442811     -2.722700     -0.877795
  O       4.530664     -0.831013     -1.231673
41
Coordinates from ORCA-job orca E -847.141336008233
  O       3.683398     -2.669594     -2.133814
  C       4.014638     -2.083454     -1.121197
  C       3.807238     -2.625034      0.225689
  C       4.176921     -1.839297      1.446645
  H       3.385575     -1.940881      2.209659
  H       5.078703     -2.305573      1.896621
  C       4.456990     -0.366821      1.150981
  H       5.012961      0.088601      1.984702
  H       3.523247      0.204753      1.042822
  C       5.250823     -0.227259     -0.139639
  H       6.213717     -0.766955     -0.037039
  C       5.529041      1.208533     -0.566008
  C       6.481138      1.970831      0.357921
  H       6.046367      2.045203      1.370200
  H       7.418840      1.395966      0.471729
  C       6.800481      3.374890     -0.155737
  H       7.485520      3.907798      0.522786
  H       5.884509      3.981754     -0.251089
  H       7.275356      3.337458     -1.150445
  H       4.565687      1.743561     -0.644861
  H       5.947339      1.173470     -1.586126
  C       3.595162     -4.096423      0.356702
  H       2.991372     -4.341609      1.245505
  H       4.568853     -4.611205      0.480061
  H       3.121646     -4.511514     -0.543005
  C       1.353058     -2.115286      0.022496
  H       1.246506     -2.623960      0.979603
  C       1.197330     -0.775870     -0.068644
  C       1.010123      0.053693      1.151863
  O       1.006624     -0.664289      2.299993
  C       0.831190      0.082702      3.499998
  H       0.848064     -0.645572      4.320865
  H       1.639394      0.820123      3.627029
  H      -0.127823      0.623422      3.490080
  O       0.889981      1.259214      1.140777
  C       1.263796     -0.016533     -1.361712
  H       2.096432      0.704647     -1.347798
  H       0.343491      0.569555     -1.519007
  H       1.414818     -0.696541     -2.210792
  H       1.440803     -2.722316     -0.878922
  O       4.529755     -0.830639     -1.231304
41
Coordinates from ORCA-job orca E -847.141348368167
  O       3.682415     -2.668950     -2.133407
  C       4.013932     -2.082867     -1.120846
  C       3.806927     -2.624489      0.226278
  C       4.176543     -1.838545      1.446858
  H       3.384820     -1.939579      2.209586
  H       5.077909     -2.305280      1.897255
  C       4.457306     -0.366098      1.151482
  H       5.014030      0.088928      1.984892
  H       3.523819      0.205984      1.044020
  C       5.250583     -0.226834     -0.139588
  H       6.213391     -0.766754     -0.037322
  C       5.529212      1.208814     -0.566192
  C       6.481753      1.970861      0.357478
  H       6.047190      2.045554      1.369826
  H       7.419236      1.395628      0.471201
  C       6.801597      3.374703     -0.156451
  H       7.486952      3.907435      0.521889
  H       5.885864      3.981929     -0.251770
  H       7.276315      3.336915     -1.151218
  H       4.566019      1.744155     -0.644919
  H       5.947317      1.173505     -1.586383
  C       3.595959     -4.095915      0.357320
  H       2.990890     -4.341544      1.245160
  H       4.569973     -4.609685      0.482487
  H       3.124046     -4.511749     -0.542883
  C       1.352668     -2.115602      0.021880
  H       1.243734     -2.623898      0.979012
  C       1.197961     -0.775862     -0.068843
  C       1.010708      0.053083      1.152008
  O       1.006314     -0.665531      2.299876
  C       0.830484      0.081042      3.500086
  H       0.846552     -0.647597      4.320648
  H       1.638941      0.818049      3.627914
  H      -0.128279      0.622187      3.489794
  O       0.890880      1.258631      1.141630
  C       1.263728     -0.016489     -1.361933
  H       2.095950      0.705172     -1.348759
  H       0.343066      0.569238     -1.518616
  H       1.414371     -0.696638     -2.210940
  H       1.439056     -2.722331     -0.879919
  O       4.528928     -0.830026     -1.231000
41
Coordinates from ORCA-job orca E -847.141343093492
  O       3.681148     -2.667559     -2.133096
  C       4.012640     -2.081689     -1.120470
  C       3.806014     -2.623518      0.226935
  C       4.175408     -1.837013      1.447407
  H       3.383141     -1.936894      2.209706
  H       5.076201     -2.304522      1.898093
  C       4.457471     -0.364716      1.152182
  H       5.015247      0.089569      1.985242
  H       3.524397      0.208199      1.045695
  C       5.249994     -0.225976     -0.139469
  H       6.212590     -0.766351     -0.037593
  C       5.529419      1.209455     -0.566393
  C       6.482537      1.971050      0.357054
  H       6.048068      2.046300      1.369395
  H       7.419615      1.395169      0.470869
  C       6.803378      3.374536     -0.157231
  H       7.489157      3.906944      0.520936
  H       5.888080      3.982399     -0.252651
  H       7.278005      3.336154     -1.152019
  H       4.566554      1.745399     -0.645116
  H       5.947397      1.173707     -1.586619
  C       3.596851     -4.095493      0.358036
  H       2.989607     -4.342217      1.244123
  H       4.571450     -4.607331      0.486365
  H       3.127843     -4.512795     -0.543003
  C       1.351501     -2.116553      0.020821
  H       1.239269     -2.624666      0.977753
  C       1.198329     -0.776369     -0.069032
  C       1.011400      0.051851      1.152096
  O       1.006168     -0.667427      2.299764
  C       0.830528      0.078886      3.500153
  H       0.845694     -0.650085      4.320447
  H       1.639558      0.815158      3.628586
  H      -0.127767      0.620852      3.489726
  O       0.892582      1.257513      1.142531
  C       1.263648     -0.016944     -1.362193
  H       2.095382      0.705271     -1.349936
  H       0.342640      0.568316     -1.518686
  H       1.414327     -0.697535     -2.210839
  H       1.436156     -2.722775     -0.881509
  O       4.527436     -0.828750     -1.230472
41
Coordinates from ORCA-job orca E -847.141345226823
  O       3.680559     -2.666575     -2.133163
  C       4.011736     -2.080823     -1.120432
  C       3.805142     -2.622753      0.227023
  C       4.174326     -1.835875      1.447756
  H       3.381842     -1.935023      2.209861
  H       5.074914     -2.303824      1.898301
  C       4.457149     -0.363731      1.152348
  H       5.015335      0.090101      1.985384
  H       3.524306      0.209663      1.046215
  C       5.249451     -0.225351     -0.139441
  H       6.211834     -0.766131     -0.037650
  C       5.529509      1.209927     -0.566469
  C       6.482829      1.971173      0.357049
  H       6.048151      2.046857      1.369267
  H       7.419560      1.394796      0.471195
  C       6.804567      3.374386     -0.157421
  H       7.490484      3.906545      0.520802
  H       5.889623      3.982736     -0.253167
  H       7.279404      3.335544     -1.152091
  H       4.566924      1.746338     -0.645385
  H       5.947606      1.173875     -1.586632
  C       3.597221     -4.095240      0.358246
  H       2.988726     -4.342771      1.243251
  H       4.572279     -4.605637      0.488606
  H       3.130226     -4.513594     -0.543345
  C       1.350342     -2.117443      0.020261
  H       1.236915     -2.625843      0.976916
  C       1.197906     -0.777107     -0.069032
  C       1.011528      0.050970      1.152084
  O       1.006365     -0.668408      2.299777
  C       0.831334      0.077959      3.500209
  H       0.846493     -0.651026      4.320497
  H       1.640642      0.813958      3.628465
  H      -0.126773      0.620268      3.490124
  O       0.893437      1.256720      1.142689
  C       1.263611     -0.017623     -1.362208
  H       2.095176      0.704775     -1.349978
  H       0.342546      0.567389     -1.519273
  H       1.414964     -0.698462     -2.210551
  H       1.434465     -2.723412     -0.882273
  O       4.526406     -0.827779     -1.230227
41
Coordinates from ORCA-job orca E -847.141346933574
  O       3.679857     -2.665394     -2.133291
  C       4.010581     -2.079709     -1.120429
  C       3.803861     -2.621642      0.226957
  C       4.172747     -1.834446      1.448112
  H       3.380074     -1.932887      2.210025
  H       5.073159     -2.302863      1.898399
  C       4.456398     -0.362492      1.152353
  H       5.014886      0.090846      1.985488
  H       3.523865      0.211494      1.046408
  C       5.248629     -0.224545     -0.139445
  H       6.210671     -0.765944     -0.037710
  C       5.529549      1.210553     -0.566495
  C       6.483322      1.971239      0.357036
  H       6.048543      2.047388      1.369178
  H       7.419620      1.394195      0.471405
  C       6.806152      3.374156     -0.157573
  H       7.492397      3.905889      0.520649
  H       5.891660      3.983163     -0.253471
  H       7.281050      3.334839     -1.152199
  H       4.567330      1.747605     -0.645470
  H       5.947611      1.174180     -1.586666
  C       3.597659     -4.094664      0.358467
  H       2.987682     -4.343050      1.242210
  H       4.573339     -4.603148      0.491481
  H       3.133424     -4.514361     -0.543919
  C       1.348615     -2.118702      0.019719
  H       1.234529     -2.627722      0.975959
  C       1.196944     -0.778296     -0.069022
  C       1.011474      0.049837      1.152033
  O       1.006519     -0.669525      2.299742
  C       0.832502      0.076913      3.500259
  H       0.847744     -0.652077      4.320545
  H       1.642225      0.812523      3.628138
  H      -0.125343      0.619701      3.490760
  O       0.894367      1.255702      1.142656
  C       1.263695     -0.018644     -1.362097
  H       2.095085      0.703914     -1.349141
  H       0.342620      0.566021     -1.520332
  H       1.416414     -0.699537     -2.210177
  H       1.432579     -2.724460     -0.882948
  O       4.525026     -0.826500     -1.230004
41
Coordinates from ORCA-job orca E -847.140046765034
  O       3.680129     -2.684517     -2.106430
  C       4.024417     -2.091549     -1.103383
  C       3.846861     -2.623501      0.238790
  C       4.182069     -1.845001      1.436295
  H       3.375624     -1.941110      2.187016
  H       5.082253     -2.318897      1.881337
  C       4.460645     -0.374351      1.146359
  H       5.013625      0.081017      1.982081
  H       3.518218      0.191417      1.039436
  C       5.256874     -0.230840     -0.136927
  H       6.221440     -0.767139     -0.031926
  C       5.533395      1.204157     -0.566433
  C       6.482308      1.970784      0.357223
  H       6.045224      2.047541      1.368330
  H       7.420681      1.397739      0.474779
  C       6.800559      3.373798     -0.159993
  H       7.483342      3.909838      0.518356
  H       5.883828      3.978936     -0.259109
  H       7.277580      3.334074     -1.153589
  H       4.568705      1.736915     -0.648680
  H       5.953633      1.167099     -1.585687
  C       3.606255     -4.052153      0.368252
  H       2.984352     -4.283974      1.250215
  H       4.576737     -4.570156      0.503006
  H       3.133732     -4.461197     -0.533613
  C       1.291948     -2.083129      0.016591
  H       1.211938     -2.587070      0.958436
  C       1.172981     -0.770702     -0.072781
  C       1.001559      0.052352      1.151464
  O       0.996836     -0.680382      2.291655
  C       0.838607      0.054226      3.501816
  H       0.851789     -0.684239      4.313721
  H       1.656816      0.779987      3.632622
  H      -0.113673      0.607054      3.504903
  O       0.899007      1.259749      1.152706
  C       1.260917     -0.026559     -1.371002
  H       2.102203      0.684896     -1.362098
  H       0.349893      0.569370     -1.546121
  H       1.415193     -0.726345     -2.202899
  H       1.415010     -2.690270     -0.868737
  O       4.535550     -0.838318     -1.218391
41
Coordinates from ORCA-job orca E -847.142809782515
  O       3.681863     -2.675189     -2.124610
  C       4.027007     -2.091085     -1.114601
  C       3.851964     -2.636646      0.230919
  C       4.188528     -1.845853      1.445264
  H       3.382445     -1.945568      2.194467
  H       5.089464     -2.310483      1.901573
  C       4.461982     -0.371311      1.152196
  H       5.013093      0.088318      1.986927
  H       3.521835      0.190481      1.044093
  C       5.253912     -0.227479     -0.138393
  H       6.220125     -0.762097     -0.035659
  C       5.528659      1.209074     -0.564699
  C       6.478826      1.973218      0.359570
  H       6.043724      2.045930      1.371860
  H       7.417944      1.400615      0.473167
  C       6.794624      3.378395     -0.153230
  H       7.478294      3.912646      0.525615
  H       5.877106      3.982969     -0.248215
  H       7.269581      3.342751     -1.147964
  H       4.564169      1.741844     -0.643401
  H       5.946979      1.175037     -1.584869
  C       3.604037     -4.090839      0.360984
  H       2.983349     -4.323996      1.242054
  H       4.569335     -4.621340      0.495135
  H       3.129304     -4.499086     -0.540983
  C       1.294758     -2.105279      0.013428
  H       1.214932     -2.619563      0.970114
  C       1.172990     -0.772143     -0.074485
  C       1.002379      0.057628      1.150365
  O       1.000417     -0.664647      2.296497
  C       0.844434      0.080911      3.500216
  H       0.859504     -0.649952      4.318808
  H       1.662698      0.807958      3.622491
  H      -0.107922      0.633346      3.500213
  O       0.901307      1.264409      1.145581
  C       1.259861     -0.017458     -1.370071
  H       2.099429      0.695267     -1.353783
  H       0.347801      0.577165     -1.542654
  H       1.416995     -0.708615     -2.208922
  H       1.418632     -2.716150     -0.881578
  O       4.532692     -0.833635     -1.225828
41
Coordinates from ORCA-job orca E -847.143041061840
  O       3.681092     -2.670079     -2.128527
  C       4.027160     -2.089227     -1.117042
  C       3.854441     -2.640405      0.228416
  C       4.193064     -1.845918      1.449934
  H       3.387696     -1.947950      2.198370
  H       5.092214     -2.305634      1.912566
  C       4.464491     -0.370971      1.154066
  H       5.016030      0.089467      1.987683
  H       3.524889      0.191059      1.046078
  C       5.254603     -0.226939     -0.138813
  H       6.220421     -0.762240     -0.038405
  C       5.527718      1.210303     -0.564109
  C       6.479700      1.973805      0.358885
  H       6.047023      2.044996      1.372292
  H       7.419418      1.401617      0.469517
  C       6.793484      3.379829     -0.152831
  H       7.478492      3.913572      0.525069
  H       5.875403      3.984014     -0.244805
  H       7.266060      3.345773     -1.148753
  H       4.562862      1.743041     -0.640053
  H       5.943771      1.177593     -1.585236
  C       3.604615     -4.103849      0.359003
  H       2.984880     -4.335967      1.240448
  H       4.565821     -4.639852      0.492945
  H       3.129599     -4.510609     -0.543709
  C       1.296495     -2.111664      0.013242
  H       1.215136     -2.625658      0.970855
  C       1.174002     -0.772796     -0.074396
  C       1.004599      0.058660      1.149285
  O       1.000077     -0.660848      2.296519
  C       0.841746      0.087085      3.498405
  H       0.854719     -0.642299      4.318357
  H       1.660101      0.813948      3.620986
  H      -0.110372      0.639892      3.495341
  O       0.900742      1.265130      1.140588
  C       1.258929     -0.013970     -1.367740
  H       2.097705      0.699605     -1.347747
  H       0.345625      0.579473     -1.537110
  H       1.415565     -0.699750     -2.211183
  H       1.417273     -2.721478     -0.883159
  O       4.531772     -0.831205     -1.227645
41
Coordinates from ORCA-job orca E -847.143067557852
  O       3.679897     -2.668855     -2.128086
  C       4.026432     -2.088400     -1.116633
  C       3.854672     -2.641055      0.228278
  C       4.194422     -1.846293      1.451746
  H       3.388915     -1.949685      2.199719
  H       5.092193     -2.304254      1.917941
  C       4.465267     -0.371612      1.154509
  H       5.017384      0.088952      1.987725
  H       3.526128      0.191199      1.046381
  C       5.255077     -0.227312     -0.138436
  H       6.220445     -0.763400     -0.039074
  C       5.527323      1.210262     -0.563161
  C       6.479828      1.973873      0.359264
  H       6.048209      2.044271      1.373179
  H       7.420027      1.402231      0.468591
  C       6.792197      3.380369     -0.152019
  H       7.477581      3.914181      0.525449
  H       5.873641      3.984033     -0.242704
  H       7.263755      3.347160     -1.148453
  H       4.562140      1.742589     -0.638000
  H       5.942473      1.178252     -1.584663
  C       3.605516     -4.106543      0.359155
  H       2.985605     -4.337412      1.240749
  H       4.565267     -4.644326      0.494106
  H       3.131525     -4.512415     -0.544530
  C       1.296651     -2.113060      0.012151
  H       1.212389     -2.625718      0.969905
  C       1.173775     -0.773495     -0.075660
  C       1.003295      0.058254      1.147472
  O       1.000016     -0.660117      2.295092
  C       0.843928      0.088703      3.496738
  H       0.857450     -0.640186      4.317121
  H       1.663047      0.814982      3.617734
  H      -0.107774      0.642247      3.494620
  O       0.902508      1.265105      1.137611
  C       1.257916     -0.013490     -1.368051
  H       2.096182      0.700661     -1.346248
  H       0.343826      0.579211     -1.535842
  H       1.414038     -0.696685     -2.213700
  H       1.414588     -2.721997     -0.884960
  O       4.531306     -0.830675     -1.227426
41
Coordinates from ORCA-job orca E -847.143093701103
  O       3.676658     -2.667698     -2.126868
  C       4.025172     -2.087399     -1.115992
  C       3.855623     -2.641204      0.228374
  C       4.197711     -1.847032      1.452762
  H       3.392164     -1.951885      2.200704
  H       5.094014     -2.303691      1.922496
  C       4.467826     -0.372637      1.154508
  H       5.021647      0.087696      1.986850
  H       3.529145      0.191420      1.047471
  C       5.256331     -0.227839     -0.138974
  H       6.221214     -0.765016     -0.041671
  C       5.527627      1.210103     -0.562965
  C       6.481585      1.973488      0.358175
  H       6.052005      2.042841      1.373033
  H       7.422328      1.402293      0.465128
  C       6.792130      3.380564     -0.152623
  H       7.478549      3.914235      0.523909
  H       5.873051      3.983785     -0.241018
  H       7.261744      3.348426     -1.150013
  H       4.562115      1.742071     -0.635641
  H       5.940931      1.179033     -1.585243
  C       3.608178     -4.107622      0.359637
  H       2.988226     -4.336797      1.241669
  H       4.566784     -4.646841      0.495766
  H       3.135305     -4.512466     -0.545103
  C       1.297592     -2.113304      0.012140
  H       1.208819     -2.623884      0.970254
  C       1.175089     -0.773733     -0.075902
  C       1.005430      0.058041      1.147176
  O       0.997963     -0.660182      2.294485
  C       0.839399      0.088550      3.495890
  H       0.849299     -0.640579      4.316101
  H       1.659338      0.813466      3.619476
  H      -0.111417      0.643593      3.491050
  O       0.902919      1.264887      1.136511
  C       1.257286     -0.012562     -1.367438
  H       2.095215      0.701913     -1.344811
  H       0.342411      0.579844     -1.532262
  H       1.411189     -0.692985     -2.215693
  H       1.409852     -2.721109     -0.886238
  O       4.530611     -0.830232     -1.227518
41
Coordinates from ORCA-job orca E -847.143103556535
  O       3.674254     -2.667373     -2.125381
  C       4.023954     -2.086893     -1.114901
  C       3.855441     -2.640858      0.229330
  C       4.198544     -1.847478      1.453185
  H       3.392631     -1.952978      2.200834
  H       5.093878     -2.304041      1.924865
  C       4.468669     -0.373158      1.155078
  H       5.023519      0.086930      1.986939
  H       3.530445      0.191649      1.048723
  C       5.256438     -0.228040     -0.138679
  H       6.221153     -0.765680     -0.042445
  C       5.527377      1.210008     -0.562340
  C       6.482012      1.973235      0.358207
  H       6.053387      2.042113      1.373500
  H       7.422972      1.402200      0.464043
  C       6.791772      3.380545     -0.152396
  H       7.478683      3.914135      0.523698
  H       5.872482      3.983590     -0.239763
  H       7.260498      3.348856     -1.150217
  H       4.561665      1.741738     -0.634005
  H       5.939853      1.179381     -1.584972
  C       3.610197     -4.106844      0.360698
  H       2.989277     -4.335375      1.242285
  H       4.568809     -4.645623      0.498865
  H       3.139162     -4.511722     -0.544973
  C       1.297489     -2.113473      0.010927
  H       1.204024     -2.622586      0.969299
  C       1.175126     -0.774268     -0.077251
  C       1.004496      0.057374      1.146032
  O       0.996937     -0.660740      2.293272
  C       0.840297      0.088118      3.494866
  H       0.849569     -0.641102      4.314998
  H       1.661460      0.811722      3.617993
  H      -0.109645      0.644643      3.490591
  O       0.905524      1.264596      1.135735
  C       1.256565     -0.012537     -1.368430
  H       2.094276      0.702186     -1.345691
  H       0.341347      0.579809     -1.531783
  H       1.409248     -0.691857     -2.217749
  H       1.405494     -2.720534     -0.888462
  O       4.529781     -0.830114     -1.226935
41
Coordinates from ORCA-job orca E -847.143113156334
  O       3.671957     -2.666760     -2.124426
  C       4.022877     -2.086390     -1.114212
  C       3.855398     -2.640323      0.230244
  C       4.199244     -1.847472      1.453043
  H       3.393189     -1.952747      2.200759
  H       5.094287     -2.304769      1.924793
  C       4.469770     -0.373051      1.155782
  H       5.025729      0.086548      1.987160
  H       3.531711      0.192241      1.050697
  C       5.256406     -0.227796     -0.138711
  H       6.221188     -0.765536     -0.043434
  C       5.527382      1.210208     -0.562418
  C       6.483006      1.973029      0.357412
  H       6.055314      2.041837      1.373104
  H       7.423920      1.401742      0.462299
  C       6.792650      3.380337     -0.153263
  H       7.480273      3.913672      0.522308
  H       5.873429      3.983604     -0.239756
  H       7.260503      3.348673     -1.151493
  H       4.561704      1.742128     -0.633156
  H       5.938994      1.179658     -1.585404
  C       3.612083     -4.105734      0.361505
  H       2.990132     -4.334709      1.242332
  H       4.571351     -4.643070      0.501460
  H       3.142577     -4.511359     -0.544606
  C       1.297454     -2.113435      0.010541
  H       1.200243     -2.621836      0.969031
  C       1.175820     -0.774338     -0.077522
  C       1.005754      0.057059      1.146206
  O       0.995320     -0.661769      2.293029
  C       0.837824      0.086564      3.494837
  H       0.844505     -0.643206      4.314506
  H       1.659965      0.808731      3.619814
  H      -0.111186      0.644652      3.489246
  O       0.907105      1.264296      1.136605
  C       1.256608     -0.012304     -1.368642
  H       2.094500      0.702202     -1.346993
  H       0.341513      0.580575     -1.530832
  H       1.407886     -0.691735     -2.218098
  H       1.401797     -2.720093     -0.889643
  O       4.528878     -0.829776     -1.226516
41
Coordinates from ORCA-job orca E -847.143120630898
  O       3.670233     -2.665788     -2.123847
  C       4.021661     -2.085713     -1.113641
  C       3.854775     -2.639626      0.231153
  C       4.198731     -1.846823      1.453120
  H       3.392612     -1.951289      2.200933
  H       5.093808     -2.305203      1.923965
  C       4.470108     -0.372301      1.156753
  H       5.026905      0.086697      1.987837
  H       3.532177      0.193338      1.052791
  C       5.255809     -0.227170     -0.138435
  H       6.220712     -0.764843     -0.043669
  C       5.527149      1.210685     -0.562418
  C       6.483527      1.973046      0.356999
  H       6.056262      2.042166      1.372852
  H       7.424162      1.401234      0.461564
  C       6.793766      3.380142     -0.153909
  H       7.481948      3.913149      0.521358
  H       5.874851      3.983917     -0.240105
  H       7.261222      3.348124     -1.152317
  H       4.561673      1.743047     -0.632764
  H       5.938323      1.179886     -1.585569
  C       3.613342     -4.104894      0.362211
  H       2.989980     -4.335231      1.241746
  H       4.573642     -4.639957      0.504312
  H       3.145768     -4.511962     -0.544226
  C       1.296730     -2.113909      0.009822
  H       1.196356     -2.622214      0.968178
  C       1.175978     -0.774614     -0.077951
  C       1.006415      0.056551      1.146120
  O       0.994380     -0.662965      2.292664
  C       0.837357      0.085005      3.494753
  H       0.842427     -0.645207      4.314039
  H       1.660563      0.805814      3.620597
  H      -0.110757      0.644606      3.488879
  O       0.909329      1.263863      1.137311
  C       1.256730     -0.012487     -1.369124
  H       2.095017      0.701579     -1.348768
  H       0.342004      0.581103     -1.530846
  H       1.407140     -0.692717     -2.218099
  H       1.398568     -2.720415     -0.890843
  O       4.527679     -0.829074     -1.225835
41
Coordinates from ORCA-job orca E -847.143124234008
  O       3.668733     -2.664466     -2.123615
  C       4.020210     -2.084782     -1.113287
  C       3.853760     -2.638805      0.231747
  C       4.197654     -1.845712      1.453494
  H       3.391656     -1.949203      2.201516
  H       5.092909     -2.305101      1.923093
  C       4.470042     -0.371210      1.157570
  H       5.027614      0.087093      1.988475
  H       3.532284      0.194897      1.054591
  C       5.254960     -0.226382     -0.138188
  H       6.219862     -0.764146     -0.043759
  C       5.526853      1.211315     -0.562428
  C       6.483729      1.973201      0.356865
  H       6.056469      2.042815      1.372684
  H       7.423956      1.400747      0.461572
  C       6.795000      3.379981     -0.154292
  H       7.483543      3.912619      0.520893
  H       5.876519      3.984399     -0.240644
  H       7.262468      3.347420     -1.152676
  H       4.561686      1.744241     -0.632721
  H       5.937920      1.180168     -1.585608
  C       3.614161     -4.104483      0.362675
  H       2.989344     -4.336528      1.240766
  H       4.575524     -4.637051      0.507052
  H       3.148836     -4.513224     -0.544154
  C       1.295482     -2.114776      0.009118
  H       1.192747     -2.623349      0.967166
  C       1.175885     -0.775126     -0.078291
  C       1.007293      0.055886      1.145948
  O       0.994057     -0.664127      2.292324
  C       0.837870      0.083686      3.494607
  H       0.841699     -0.646807      4.313651
  H       1.662109      0.803242      3.620902
  H      -0.109405      0.644704      3.488729
  O       0.911679      1.263278      1.137640
  C       1.256928     -0.013068     -1.369536
  H       2.095750      0.700381     -1.350258
  H       0.342658      0.581242     -1.531114
  H       1.406747     -0.694121     -2.217970
  H       1.395687     -2.721287     -0.891772
  O       4.526182     -0.828013     -1.225174
41
Coordinates from ORCA-job orca E -847.143127577062
  O       3.667295     -2.662936     -2.123543
  C       4.018519     -2.083589     -1.113040
  C       3.852379     -2.637807      0.232050
  C       4.196165     -1.844351      1.454102
  H       3.390391     -1.947071      2.202363
  H       5.091595     -2.304483      1.922582
  C       4.469529     -0.369981      1.158157
  H       5.027824      0.087567      1.988983
  H       3.532071      0.196776      1.055975
  C       5.253870     -0.225497     -0.137972
  H       6.218593     -0.763655     -0.043852
  C       5.526471      1.212085     -0.562278
  C       6.483929      1.973358      0.356935
  H       6.056659      2.043451      1.372715
  H       7.423709      1.400178      0.461779
  C       6.796350      3.379825     -0.154376
  H       7.485278      3.912003      0.520780
  H       5.878354      3.984958     -0.240856
  H       7.263850      3.346756     -1.152727
  H       4.561655      1.745671     -0.632447
  H       5.937381      1.180666     -1.585513
  C       3.614797     -4.104197      0.363023
  H       2.988535     -4.337848      1.239668
  H       4.577158     -4.634249      0.509884
  H       3.152177     -4.514638     -0.544415
  C       1.293740     -2.115988      0.008386
  H       1.189391     -2.624977      0.966054
  C       1.175497     -0.776014     -0.078680
  C       1.008122      0.054960      1.145599
  O       0.994208     -0.665248      2.291933
  C       0.839236      0.082665      3.494301
  H       0.842245     -0.647901      4.313287
  H       1.664463      0.801103      3.620543
  H      -0.107281      0.644968      3.488687
  O       0.914102      1.262475      1.137499
  C       1.257095     -0.014108     -1.369980
  H       2.096473      0.698690     -1.351210
  H       0.343236      0.580803     -1.531634
  H       1.406598     -0.695655     -2.218086
  H       1.393079     -2.722603     -0.892532
  O       4.524323     -0.826615     -1.224557
41
Coordinates from ORCA-job orca E -847.143128633314
  O       3.665773     -2.661429     -2.123521
  C       4.016611     -2.082240     -1.112866
  C       3.850654     -2.636607      0.232127
  C       4.194385     -1.842879      1.454711
  H       3.388896     -1.945143      2.203221
  H       5.089942     -2.303483      1.922361
  C       4.468605     -0.368693      1.158466
  H       5.027564      0.088129      1.989275
  H       3.531571      0.198899      1.056849
  C       5.252563     -0.224607     -0.137860
  H       6.216934     -0.763453     -0.044070
  C       5.526028      1.212868     -0.562017
  C       6.484070      1.973415      0.357214
  H       6.056769      2.043871      1.372952
  H       7.423391      1.399501      0.462154
  C       6.797636      3.379634     -0.154076
  H       7.486943      3.911268      0.521120
  H       5.880118      3.985490     -0.240604
  H       7.265166      3.346203     -1.152406
  H       4.561593      1.747141     -0.632009
  H       5.936792      1.181267     -1.585310
  C       3.615342     -4.103733      0.363340
  H       2.987596     -4.338667      1.238579
  H       4.578613     -4.631311      0.512984
  H       3.155943     -4.515820     -0.544985
  C       1.291545     -2.117429      0.007683
  H       1.186318     -2.626849      0.965007
  C       1.174911     -0.777235     -0.079139
  C       1.009002      0.053849      1.145090
  O       0.994773     -0.666283      2.291472
  C       0.841388      0.081917      3.493863
  H       0.843841     -0.648582      4.312917
  H       1.667631      0.799270      3.619666
  H      -0.104384      0.645481      3.488725
  O       0.916690      1.261523      1.136953
  C       1.257306     -0.015568     -1.370492
  H       2.097237      0.696558     -1.351654
  H       0.343815      0.579825     -1.532434
  H       1.406691     -0.697290     -2.218485
  H       1.390681     -2.724238     -0.893116
  O       4.522116     -0.825020     -1.224096
41
Coordinates from ORCA-job orca E -847.143128123388
  O       3.664184     -2.659935     -2.123458
  C       4.014667     -2.080738     -1.112689
  C       3.848796     -2.635217      0.232112
  C       4.192550     -1.841454      1.455192
  H       3.387291     -1.943690      2.203877
  H       5.088135     -2.302267      1.922475
  C       4.467366     -0.367419      1.158685
  H       5.026879      0.088809      1.989491
  H       3.530802      0.201045      1.057425
  C       5.251101     -0.223666     -0.137743
  H       6.215008     -0.763415     -0.044371
  C       5.525521      1.213705     -0.561637
  C       6.484376      1.973384      0.357468
  H       6.057255      2.044176      1.373261
  H       7.423206      1.398648      0.462271
  C       6.799105      3.379351     -0.153805
  H       7.488956      3.910353      0.521340
  H       5.882110      3.986016     -0.240193
  H       7.266494      3.345575     -1.152188
  H       4.561473      1.748718     -0.631231
  H       5.935941      1.182008     -1.585069
  C       3.615958     -4.102912      0.363673
  H       2.986591     -4.338659      1.237521
  H       4.579986     -4.628197      0.516430
  H       3.160220     -4.516487     -0.545820
  C       1.289144     -2.118988      0.007074
  H       1.183679     -2.628737      0.964178
  C       1.174251     -0.778696     -0.079621
  C       1.009872      0.052560      1.144574
  O       0.995287     -0.667396      2.290980
  C       0.843555      0.081109      3.493391
  H       0.845420     -0.649317      4.312507
  H       1.670861      0.797318      3.618711
  H      -0.101437      0.645978      3.488722
  O       0.919341      1.260413      1.136345
  C       1.257565     -0.017215     -1.370993
  H       2.097976      0.694299     -1.351591
  H       0.344374      0.578553     -1.533331
  H       1.406941     -0.698803     -2.219084
  H       1.388564     -2.726012     -0.893543
  O       4.519696     -0.823249     -1.223743
41
Coordinates from ORCA-job orca E -847.143134106929
  O       3.662525     -2.658668     -2.123339
  C       4.012854     -2.079312     -1.112550
  C       3.847024     -2.633814      0.232078
  C       4.190930     -1.840178      1.455337
  H       3.385775     -1.942684      2.204107
  H       5.086425     -2.300996      1.922729
  C       4.466065     -0.366220      1.158786
  H       5.025999      0.089657      1.989542
  H       3.529945      0.203001      1.057679
  C       5.249660     -0.222772     -0.137722
  H       6.213079     -0.763462     -0.044822
  C       5.525019      1.214479     -0.561310
  C       6.484737      1.973219      0.357658
  H       6.057930      2.044162      1.373572
  H       7.423141      1.397719      0.462112
  C       6.800440      3.379033     -0.153435
  H       7.490881      3.909361      0.521639
  H       5.883903      3.986441     -0.239457
  H       7.267549      3.345103     -1.151944
  H       4.561324      1.750193     -0.630426
  H       5.935059      1.182761     -1.584896
  C       3.616587     -4.101811      0.364042
  H       2.985337     -4.337851      1.236455
  H       4.581148     -4.625125      0.520242
  H       3.164716     -4.516728     -0.546769
  C       1.286812     -2.120537      0.006645
  H       1.181637     -2.630367      0.963723
  C       1.173688     -0.780223     -0.080094
  C       1.010770      0.051282      1.144114
  O       0.995495     -0.668497      2.290515
  C       0.845513      0.080315      3.492962
  H       0.846424     -0.650081      4.312108
  H       1.674127      0.795073      3.617900
  H      -0.098497      0.646816      3.488623
  O       0.922183      1.259318      1.135811
  C       1.257896     -0.018857     -1.371456
  H       2.098645      0.692190     -1.351265
  H       0.344935      0.577166     -1.534229
  H       1.407336     -0.700203     -2.219714
  H       1.386736     -2.727776     -0.893772
  O       4.517307     -0.821578     -1.223585
41
Coordinates from ORCA-job orca E -847.143130721981
  O       3.661328     -2.657825     -2.123219
  C       4.011752     -2.078330     -1.112465
  C       3.845947     -2.632847      0.232093
  C       4.190030     -1.839402      1.455164
  H       3.384787     -1.942251      2.203862
  H       5.085320     -2.300110      1.923070
  C       4.465196     -0.365418      1.158856
  H       5.025283      0.090409      1.989538
  H       3.529315      0.204182      1.057685
  C       5.248762     -0.222136     -0.137722
  H       6.211831     -0.763486     -0.045205
  C       5.524771      1.215002     -0.561164
  C       6.485239      1.973075      0.357556
  H       6.058931      2.043979      1.373680
  H       7.423428      1.397131      0.461446
  C       6.801330      3.378864     -0.153357
  H       7.492309      3.908729      0.521529
  H       5.885019      3.986689     -0.238816
  H       7.267967      3.344962     -1.152085
  H       4.561307      1.751205     -0.629817
  H       5.934418      1.183271     -1.584908
  C       3.616969     -4.100852      0.364279
  H       2.983826     -4.336703      1.235389
  H       4.581643     -4.623094      0.523490
  H       3.168141     -4.516601     -0.547650
  C       1.285336     -2.121616      0.006544
  H       1.180789     -2.631253      0.963792
  C       1.173492     -0.781312     -0.080338
  C       1.011499      0.050391      1.143951
  O       0.995038     -0.669376      2.290273
  C       0.846229      0.079542      3.492818
  H       0.845774     -0.650976      4.311851
  H       1.676102      0.792809      3.617901
  H      -0.096785      0.647692      3.488426
  O       0.924619      1.258566      1.135696
  C       1.258274     -0.019929     -1.371650
  H       2.099155      0.690909     -1.350849
  H       0.345438      0.576227     -1.534722
  H       1.407779     -0.701124     -2.220015
  H       1.385708     -2.728976     -0.893753
  O       4.515765     -0.820466     -1.223564
41
Coordinates from ORCA-job orca E -847.143136657288
  O       3.660455     -2.657131     -2.123163
  C       4.011172     -2.077601     -1.112465
  C       3.845491     -2.632212      0.232119
  C       4.189691     -1.838940      1.454803
  H       3.384190     -1.942085      2.203291
  H       5.084692     -2.299503      1.923467
  C       4.464711     -0.364853      1.158923
  H       5.024756      0.091129      1.989531
  H       3.528889      0.204797      1.057563
  C       5.248306     -0.221617     -0.137713
  H       6.211164     -0.763371     -0.045475
  C       5.524727      1.215421     -0.561158
  C       6.485893      1.973029      0.357218
  H       6.060184      2.043846      1.373601
  H       7.423980      1.396800      0.460461
  C       6.802088      3.378829     -0.153600
  H       7.493571      3.908380      0.521017
  H       5.885891      3.986915     -0.238458
  H       7.268185      3.344985     -1.152581
  H       4.561428      1.751976     -0.629367
  H       5.933962      1.183652     -1.585064
  C       3.617160     -4.100081      0.364310
  H       2.981774     -4.335505      1.233937
  H       4.581585     -4.621878      0.526553
  H       3.170942     -4.516342     -0.548656
  C       1.284574     -2.122441      0.006737
  H       1.180856     -2.631676      0.964293
  C       1.173565     -0.782127     -0.080317
  C       1.012052      0.049698      1.144083
  O       0.993925     -0.670202      2.290268
  C       0.845852      0.078747      3.492896
  H       0.843653     -0.651960      4.311753
  H       1.676987      0.790449      3.618504
  H      -0.096117      0.648614      3.488092
  O       0.926836      1.257984      1.135986
  C       1.258566     -0.020621     -1.371553
  H       2.099392      0.690246     -1.350419
  H       0.345745      0.575530     -1.534794
  H       1.408168     -0.701793     -2.219910
  H       1.385200     -2.729833     -0.893528
  O       4.514917     -0.819705     -1.223597
41
Coordinates from ORCA-job orca E -847.143138238190
  O       3.659422     -2.656176     -2.123218
  C       4.010692     -2.076791     -1.112595
  C       3.845394     -2.631607      0.232096
  C       4.189655     -1.838398      1.454310
  H       3.383767     -1.941612      2.202493
  H       5.084253     -2.298894      1.923869
  C       4.464583     -0.364198      1.158907
  H       5.024600      0.091969      1.989399
  H       3.528740      0.205400      1.057394
  C       5.248122     -0.221016     -0.137850
  H       6.210834     -0.763058     -0.045879
  C       5.524889      1.215889     -0.561389
  C       6.486728      1.973033      0.356655
  H       6.061670      2.043688      1.373325
  H       7.424745      1.396553      0.459174
  C       6.802928      3.378882     -0.154020
  H       7.494949      3.908122      0.520288
  H       5.886813      3.987188     -0.238180
  H       7.268397      3.345145     -1.153299
  H       4.561763      1.752814     -0.629220
  H       5.933775      1.184022     -1.585422
  C       3.617259     -4.099334      0.364137
  H       2.978431     -4.334262      1.231434
  H       4.581100     -4.620844      0.530708
  H       3.174364     -4.516170     -0.550162
  C       1.284133     -2.123344      0.007219
  H       1.181347     -2.631977      0.965205
  C       1.173868     -0.782968     -0.080013
  C       1.012758      0.048948      1.144514
  O       0.991997     -0.671211      2.290511
  C       0.844532      0.077748      3.493229
  H       0.839652     -0.653226      4.311834
  H       1.677341      0.787301      3.619905
  H      -0.095985      0.649985      3.487563
  O       0.929799      1.257376      1.136677
  C       1.258810     -0.021368     -1.371205
  H       2.099503      0.689631     -1.350090
  H       0.345957      0.574732     -1.534494
  H       1.408479     -0.702719     -2.219413
  H       1.384639     -2.730747     -0.893085
  O       4.514356     -0.818953     -1.223721
41
Coordinates from ORCA-job orca E -847.143137818458
  O       3.658103     -2.654790     -2.123506
  C       4.010241     -2.075835     -1.112942
  C       3.845637     -2.631012      0.231903
  C       4.189709     -1.837725      1.453748
  H       3.383264     -1.940692      2.201460
  H       5.083739     -2.298289      1.924345
  C       4.464731     -0.363449      1.158704
  H       5.024707      0.092859      1.989105
  H       3.528863      0.206058      1.057016
  C       5.248223     -0.220346     -0.138153
  H       6.210836     -0.762583     -0.046364
  C       5.525261      1.216450     -0.561810
  C       6.487712      1.973149      0.355975
  H       6.063318      2.043431      1.372951
  H       7.425728      1.396526      0.457659
  C       6.803749      3.379170     -0.154336
  H       7.496298      3.908058      0.519707
  H       5.887651      3.987613     -0.237642
  H       7.268530      3.345750     -1.153946
  H       4.562299      1.753719     -0.629280
  H       5.933848      1.184505     -1.585962
  C       3.617117     -4.098621      0.363669
  H       2.972854     -4.332920      1.227191
  H       4.579845     -4.619967      0.536905
  H       3.179059     -4.516186     -0.552597
  C       1.283938     -2.124515      0.008043
  H       1.182289     -2.632335      0.966574
  C       1.174281     -0.784040     -0.079422
  C       1.013586      0.048024      1.145149
  O       0.989240     -0.672387      2.290965
  C       0.842892      0.076774      3.493701
  H       0.834263     -0.654428      4.312066
  H       1.678143      0.783222      3.621693
  H      -0.095500      0.652461      3.486894
  O       0.933874      1.256651      1.137558
  C       1.258845     -0.022515     -1.370679
  H       2.099285      0.688777     -1.349960
  H       0.345861      0.573387     -1.533997
  H       1.408679     -0.704268     -2.218537
  H       1.383924     -2.731958     -0.892302
  O       4.514137     -0.818170     -1.223958
41
Coordinates from ORCA-job orca E -847.143142291759
  O       3.656711     -2.653019     -2.124162
  C       4.010078     -2.074877     -1.113616
  C       3.846503     -2.630627      0.231314
  C       4.190041     -1.837149      1.453166
  H       3.382948     -1.939540      2.200291
  H       5.083437     -2.297962      1.924679
  C       4.465413     -0.362880      1.158178
  H       5.025366      0.093369      1.988605
  H       3.529538      0.206611      1.056391
  C       5.248908     -0.219814     -0.138702
  H       6.211519     -0.762063     -0.046930
  C       5.526034      1.216953     -0.562440
  C       6.488643      1.973498      0.355335
  H       6.064505      2.043458      1.372438
  H       7.426716      1.396895      0.456609
  C       6.804512      3.379683     -0.154659
  H       7.497246      3.908399      0.519326
  H       5.888374      3.988121     -0.237538
  H       7.269006      3.346546     -1.154414
  H       4.563158      1.754377     -0.629889
  H       5.934634      1.184930     -1.586579
  C       3.616649     -4.098135      0.362717
  H       2.965230     -4.331586      1.221182
  H       4.577591     -4.619729      0.544612
  H       3.184632     -4.516365     -0.556078
  C       1.284337     -2.125659      0.009348
  H       1.183957     -2.632642      0.968430
  C       1.174733     -0.785109     -0.078362
  C       1.014415      0.047151      1.146116
  O       0.986131     -0.673397      2.291821
  C       0.840671      0.076088      3.494473
  H       0.827981     -0.655249      4.312664
  H       1.678394      0.779334      3.623995
  H      -0.095506      0.655339      3.486256
  O       0.937998      1.255986      1.138601
  C       1.258417     -0.023898     -1.369853
  H       2.098474      0.687869     -1.349917
  H       0.345134      0.571562     -1.533100
  H       1.408487     -0.706158     -2.217271
  H       1.383337     -2.733207     -0.891023
  O       4.514710     -0.817553     -1.224422
41
Coordinates from ORCA-job orca E -847.143150083672
  O       3.655680     -2.651369     -2.125039
  C       4.010232     -2.074176     -1.114439
  C       3.847636     -2.630510      0.230394
  C       4.190257     -1.836797      1.452776
  H       3.382632     -1.938507      2.199333
  H       5.083198     -2.297995      1.924679
  C       4.466231     -0.362640      1.157451
  H       5.026171      0.093255      1.988086
  H       3.530470      0.207047      1.055639
  C       5.249900     -0.219620     -0.139263
  H       6.212566     -0.761742     -0.047224
  C       5.526975      1.217217     -0.562922
  C       6.489209      1.973923      0.355137
  H       6.064793      2.043682      1.372134
  H       7.427387      1.397520      0.456581
  C       6.804901      3.380226     -0.154628
  H       7.497422      3.908990      0.519538
  H       5.888660      3.988502     -0.237583
  H       7.269573      3.347306     -1.154309
  H       4.564073      1.754551     -0.630677
  H       5.935883      1.185188     -1.586940
  C       3.615989     -4.097941      0.361589
  H       2.957481     -4.330473      1.214951
  H       4.574934     -4.619975      0.552228
  H       3.190099     -4.516691     -0.559797
  C       1.285095     -2.126466      0.010667
  H       1.185589     -2.632983      0.970048
  C       1.174758     -0.785945     -0.077281
  C       1.014695      0.046564      1.146937
  O       0.984041     -0.673834      2.292689
  C       0.839427      0.076100      3.495156
  H       0.824187     -0.655126      4.313406
  H       1.678815      0.777232      3.625414
  H      -0.095255      0.657740      3.486108
  O       0.940461      1.255550      1.139218
  C       1.257393     -0.025306     -1.369176
  H       2.097041      0.686988     -1.350059
  H       0.343706      0.569537     -1.532383
  H       1.407779     -0.707945     -2.216244
  H       1.383032     -2.734271     -0.889615
  O       4.515944     -0.817257     -1.224991
41
Coordinates from ORCA-job orca E -847.143150595934
  O       3.654772     -2.649828     -2.126097
  C       4.010422     -2.073550     -1.115397
  C       3.848679     -2.630419      0.229138
  C       4.190189     -1.836539      1.452378
  H       3.382222     -1.937757      2.198484
  H       5.082934     -2.298124      1.924128
  C       4.466874     -0.362562      1.156563
  H       5.026885      0.092751      1.987514
  H       3.531377      0.207608      1.054860
  C       5.250840     -0.219605     -0.139848
  H       6.213535     -0.761643     -0.047414
  C       5.527906      1.217384     -0.563128
  C       6.489427      1.974259      0.355520
  H       6.064220      2.044067      1.372180
  H       7.427589      1.397960      0.457717
  C       6.805368      3.380535     -0.154126
  H       7.497423      3.909360      0.520468
  H       5.889158      3.988771     -0.237706
  H       7.270698      3.347600     -1.153499
  H       4.564933      1.754516     -0.631371
  H       5.937336      1.185495     -1.586947
  C       3.615506     -4.097775      0.360429
  H       2.950156     -4.329291      1.208780
  H       4.572465     -4.620016      0.560033
  H       3.196284     -4.517179     -0.563692
  C       1.285772     -2.127157      0.011900
  H       1.186742     -2.633631      0.971312
  C       1.174096     -0.786789     -0.076345
  C       1.014429      0.046132      1.147476
  O       0.983526     -0.673714      2.293511
  C       0.839504      0.076818      3.495661
  H       0.823819     -0.654019      4.314254
  H       1.679366      0.777441      3.625613
  H      -0.094775      0.659099      3.486470
  O       0.940709      1.255181      1.139167
  C       1.255699     -0.026879     -1.368733
  H       2.094945      0.685938     -1.350207
  H       0.341531      0.567215     -1.531967
  H       1.406412     -0.709658     -2.215621
  H       1.382810     -2.735438     -0.888140
  O       4.517275     -0.817005     -1.225725
41
Coordinates from ORCA-job orca E -847.143156694789
  O       3.654020     -2.648567     -2.126943
  C       4.010429     -2.072894     -1.116137
  C       3.849124     -2.630150      0.228053
  C       4.189717     -1.836299      1.451956
  H       3.381556     -1.937514      2.197738
  H       5.082462     -2.298082      1.923445
  C       4.466885     -0.362434      1.155958
  H       5.026934      0.092406      1.987182
  H       3.531689      0.208263      1.054304
  C       5.251237     -0.219542     -0.140148
  H       6.213840     -0.761703     -0.047403
  C       5.528546      1.217547     -0.563015
  C       6.489509      1.974403      0.356206
  H       6.063477      2.044491      1.372499
  H       7.427499      1.397977      0.459282
  C       6.806073      3.380526     -0.153474
  H       7.497699      3.909350      0.521566
  H       5.890041      3.988923     -0.237867
  H       7.272177      3.347349     -1.152479
  H       4.565550      1.754586     -0.631703
  H       5.938451      1.185790     -1.586655
  C       3.615409     -4.097403      0.359629
  H       2.944286     -4.327951      1.203713
  H       4.570773     -4.619376      0.567349
  H       3.202755     -4.517709     -0.567024
  C       1.285883     -2.127775      0.012700
  H       1.186965     -2.634420      0.972018
  C       1.172914     -0.787625     -0.075941
  C       1.013698      0.045761      1.147559
  O       0.984302     -0.673457      2.293942
  C       0.840954      0.077551      3.495864
  H       0.826525     -0.652880      4.314842
  H       1.680484      0.778782      3.624671
  H      -0.093715      0.659219      3.487315
  O       0.939263      1.254792      1.138624
  C       1.253928     -0.028293     -1.368720
  H       2.092849      0.684918     -1.350314
  H       0.339379      0.565185     -1.532090
  H       1.404899     -0.711018     -2.215601
  H       1.382600     -2.736608     -0.886997
  O       4.517994     -0.816573     -1.226314
41
Coordinates from ORCA-job orca E -847.143155456860
  O       3.653994     -2.648210     -2.127467
  C       4.010580     -2.072681     -1.116571
  C       3.849145     -2.630077      0.227361
  C       4.189228     -1.836368      1.451547
  H       3.381062     -1.938007      2.197225
  H       5.082203     -2.298056      1.922699
  C       4.466437     -0.362501      1.155692
  H       5.026352      0.092207      1.987096
  H       3.531405      0.208447      1.053927
  C       5.251241     -0.219615     -0.140131
  H       6.213731     -0.761934     -0.047083
  C       5.528884      1.217518     -0.562691
  C       6.489421      1.974307      0.357004
  H       6.062717      2.044674      1.372996
  H       7.427233      1.397731      0.460823
  C       6.806551      3.380296     -0.152701
  H       7.497796      3.909116      0.522732
  H       5.890679      3.988837     -0.237809
  H       7.273337      3.346903     -1.151381
  H       4.565898      1.754523     -0.631775
  H       5.939187      1.185867     -1.586181
  C       3.615516     -4.097204      0.359272
  H       2.941047     -4.327002      1.200882
  H       4.570091     -4.618617      0.572064
  H       3.207392     -4.518346     -0.568983
  C       1.285786     -2.127871      0.013032
  H       1.186635     -2.634812      0.972179
  C       1.171511     -0.787961     -0.076075
  C       1.012477      0.045822      1.147213
  O       0.986412     -0.672827      2.293970
  C       0.843279      0.078410      3.495771
  H       0.832028     -0.651654      4.315127
  H       1.681315      0.781749      3.622770
  H      -0.092839      0.657775      3.488558
  O       0.935569      1.254698      1.137714
  C       1.252372     -0.028975     -1.369084
  H       2.091115      0.684446     -1.350533
  H       0.337637      0.564173     -1.532606
  H       1.403385     -0.711597     -2.216027
  H       1.382895     -2.737218     -0.886278
  O       4.518359     -0.816417     -1.226690
41
Coordinates from ORCA-job orca E -847.143158940222
  O       3.654510     -2.648322     -2.127926
  C       4.010960     -2.072723     -1.116935
  C       3.849107     -2.630244      0.226817
  C       4.189001     -1.836805      1.450972
  H       3.380950     -1.939279      2.196691
  H       5.082377     -2.298092      1.921829
  C       4.465724     -0.362802      1.155622
  H       5.025277      0.092128      1.987146
  H       3.530632      0.207997      1.053564
  C       5.251032     -0.219743     -0.139932
  H       6.213396     -0.762220     -0.046646
  C       5.529029      1.217383     -0.562224
  C       6.489294      1.973971      0.357897
  H       6.062062      2.044613      1.373653
  H       7.426878      1.397140      0.462336
  C       6.807100      3.379822     -0.151797
  H       7.498036      3.908565      0.524018
  H       5.891431      3.988569     -0.237561
  H       7.274518      3.346197     -1.150171
  H       4.566088      1.754435     -0.631634
  H       5.939677      1.185839     -1.585579
  C       3.615925     -4.097247      0.358973
  H       2.938550     -4.326333      1.198452
  H       4.569995     -4.617793      0.576253
  H       3.212126     -4.519404     -0.570694
  C       1.285769     -2.127588      0.013286
  H       1.186208     -2.634761      0.972294
  C       1.169845     -0.787942     -0.076463
  C       1.010637      0.046239      1.146656
  O       0.989762     -0.671757      2.293910
  C       0.846038      0.079642      3.495542
  H       0.839962     -0.649914      4.315406
  H       1.681187      0.786836      3.620056
  H      -0.092716      0.654755      3.490111
  O       0.929373      1.254799      1.136557
  C       1.250601     -0.029139     -1.369608
  H       2.089190      0.684464     -1.350946
  H       0.335743      0.563826     -1.533154
  H       1.401432     -0.711701     -2.216618
  H       1.383811     -2.737462     -0.885592
  O       4.518541     -0.816396     -1.226970
41
Coordinates from ORCA-job orca E -847.143154827324
  O       3.655006     -2.648577     -2.128050
  C       4.011153     -2.072848     -1.117008
  C       3.848990     -2.630475      0.226763
  C       4.189137     -1.837235      1.450681
  H       3.381220     -1.940233      2.196536
  H       5.082742     -2.298157      1.921523
  C       4.465256     -0.363073      1.155822
  H       5.024469      0.092220      1.987354
  H       3.529916      0.207267      1.053514
  C       5.250737     -0.219758     -0.139668
  H       6.213043     -0.762328     -0.046394
  C       5.528919      1.217328     -0.561935
  C       6.489337      1.973696      0.358206
  H       6.062191      2.044387      1.373996
  H       7.426814      1.396679      0.462576
  C       6.807381      3.379511     -0.151440
  H       7.498422      3.908114      0.524371
  H       5.891805      3.988404     -0.237160
  H       7.274751      3.345830     -1.149830
  H       4.566076      1.754557     -0.631356
  H       5.939590      1.185782     -1.585278
  C       3.616376     -4.097503      0.358803
  H       2.937442     -4.326513      1.197075
  H       4.570351     -4.617309      0.578312
  H       3.214842     -4.520354     -0.571528
  C       1.285756     -2.127234      0.013374
  H       1.185908     -2.634286      0.972442
  C       1.169112     -0.787669     -0.076783
  C       1.009532      0.046655      1.146293
  O       0.991701     -0.671093      2.293812
  C       0.847293      0.080302      3.495373
  H       0.844300     -0.649006      4.315472
  H       1.680558      0.789932      3.618603
  H      -0.093123      0.652704      3.490881
  O       0.925525      1.254992      1.135984
  C       1.249836     -0.028866     -1.369921
  H       2.088475      0.684674     -1.351420
  H       0.335063      0.564271     -1.533298
  H       1.400299     -0.711565     -2.216887
  H       1.384553     -2.737289     -0.885325
  O       4.518306     -0.816387     -1.226894
41
Coordinates from ORCA-job orca E -847.142366675500
  O       3.653328     -2.667732     -2.099609
  C       4.023675     -2.085884     -1.097618
  C       3.887922     -2.633477      0.241848
  C       4.208901     -1.849227      1.447760
  H       3.375459     -1.954724      2.171547
  H       5.095939     -2.305970      1.935154
  C       4.473036     -0.374727      1.157640
  H       5.014007      0.087950      1.997396
  H       3.521764      0.183396      1.041114
  C       5.264684     -0.227744     -0.130259
  H       6.231407     -0.761374     -0.030559
  C       5.535385      1.208252     -0.561331
  C       6.489203      1.976242      0.356146
  H       6.059231      2.051086      1.370458
  H       7.429798      1.405377      0.466518
  C       6.800258      3.380579     -0.161941
  H       7.486608      3.917634      0.512055
  H       5.881333      3.983570     -0.253819
  H       7.270196      3.343094     -1.159000
  H       4.569673      1.739468     -0.636527
  H       5.948668      1.172406     -1.583492
  C       3.620027     -4.056333      0.371630
  H       2.930615     -4.268452      1.207450
  H       4.572196     -4.581359      0.586630
  H       3.209488     -4.469302     -0.558729
  C       1.225865     -2.090131      0.008349
  H       1.165876     -2.592166      0.955130
  C       1.133172     -0.759735     -0.086186
  C       0.992305      0.062531      1.142068
  O       0.977037     -0.683504      2.274560
  C       0.858129      0.041415      3.495743
  H       0.853709     -0.707413      4.298478
  H       1.703600      0.735473      3.626119
  H      -0.073662      0.628181      3.515950
  O       0.933147      1.272110      1.152909
  C       1.241643     -0.026811     -1.386575
  H       2.098631      0.665841     -1.373198
  H       0.343326      0.584733     -1.575263
  H       1.393886     -0.740739     -2.208422
  H       1.367531     -2.702993     -0.870949
  O       4.532063     -0.829993     -1.211586
41
Coordinates from ORCA-job orca E -847.144323600038
  O       3.654863     -2.656465     -2.117779
  C       4.027320     -2.084507     -1.109773
  C       3.895947     -2.647055      0.232104
  C       4.213824     -1.851081      1.451043
  H       3.385950     -1.957265      2.176806
  H       5.101509     -2.302060      1.943014
  C       4.474684     -0.373609      1.157886
  H       5.018980      0.091359      1.993831
  H       3.529649      0.180150      1.046690
  C       5.260536     -0.223933     -0.136130
  H       6.227637     -0.758159     -0.041922
  C       5.530104      1.214333     -0.560223
  C       6.485559      1.977002      0.359882
  H       6.057766      2.044782      1.375653
  H       7.426795      1.406127      0.464417
  C       6.794398      3.384938     -0.149592
  H       7.481815      3.918067      0.526362
  H       5.874830      3.987765     -0.235414
  H       7.262126      3.354399     -1.147923
  H       4.564238      1.745831     -0.630307
  H       5.941318      1.183918     -1.583362
  C       3.620736     -4.095764      0.361056
  H       2.934121     -4.310113      1.197555
  H       4.567844     -4.633782      0.572516
  H       3.205525     -4.506788     -0.568454
  C       1.231767     -2.110833      0.006489
  H       1.170167     -2.623704      0.965397
  C       1.139118     -0.772741     -0.082775
  C       1.000673      0.059278      1.144975
  O       0.983049     -0.666214      2.289348
  C       0.857673      0.081150      3.495784
  H       0.851741     -0.651979      4.312429
  H       1.701021      0.779372      3.616034
  H      -0.075310      0.665699      3.501460
  O       0.932732      1.267916      1.143371
  C       1.241607     -0.025765     -1.380601
  H       2.094805      0.670747     -1.362556
  H       0.340897      0.583579     -1.561106
  H       1.392668     -0.725673     -2.213186
  H       1.369814     -2.724600     -0.884976
  O       4.528561     -0.824769     -1.220432
41
Coordinates from ORCA-job orca E -847.144526576130
  O       3.654581     -2.652417     -2.120879
  C       4.027335     -2.082948     -1.111742
  C       3.898972     -2.651070      0.230103
  C       4.214462     -1.851414      1.454615
  H       3.390484     -1.958753      2.182887
  H       5.102543     -2.300332      1.946663
  C       4.474778     -0.373789      1.158749
  H       5.022896      0.091013      1.992075
  H       3.531143      0.181020      1.050809
  C       5.258521     -0.223107     -0.137214
  H       6.224993     -0.758825     -0.046037
  C       5.527126      1.216252     -0.558160
  C       6.484284      1.976740      0.362006
  H       6.058602      2.041726      1.378803
  H       7.425850      1.405826      0.463088
  C       6.791834      3.386057     -0.144367
  H       7.480517      3.917525      0.531602
  H       5.871983      3.988927     -0.226743
  H       7.257566      3.358248     -1.143706
  H       4.560979      1.747886     -0.625114
  H       5.936397      1.188449     -1.582153
  C       3.623226     -4.109527      0.359707
  H       2.938461     -4.323228      1.197209
  H       4.566259     -4.652901      0.570636
  H       3.206910     -4.519446     -0.569953
  C       1.234086     -2.118293      0.004662
  H       1.167249     -2.631216      0.964565
  C       1.140687     -0.778922     -0.083753
  C       0.997484      0.057114      1.141179
  O       0.984893     -0.660659      2.289260
  C       0.863032      0.093669      3.491484
  H       0.860647     -0.634718      4.312392
  H       1.706069      0.793339      3.604589
  H      -0.070463      0.677255      3.497054
  O       0.934242      1.266245      1.132690
  C       1.239809     -0.024515     -1.378800
  H       2.089986      0.675360     -1.356594
  H       0.336332      0.582004     -1.554221
  H       1.390942     -0.715773     -2.218625
  H       1.367146     -2.730691     -0.888966
  O       4.526216     -0.822560     -1.222214
41
Coordinates from ORCA-job orca E -847.144569280864
  O       3.651470     -2.650768     -2.120929
  C       4.026461     -2.081710     -1.112503
  C       3.902430     -2.652097      0.228899
  C       4.218230     -1.851963      1.455515
  H       3.397681     -1.960505      2.187137
  H       5.107647     -2.300735      1.944981
  C       4.478218     -0.374547      1.158559
  H       5.031099      0.089019      1.989499
  H       3.534954      0.182387      1.055058
  C       5.258933     -0.223138     -0.139262
  H       6.224907     -0.760160     -0.051213
  C       5.526702      1.216876     -0.558438
  C       6.487092      1.975622      0.359834
  H       6.064835      2.039127      1.378135
  H       7.428811      1.404265      0.456866
  C       6.793457      3.385633     -0.145315
  H       7.484507      3.915802      0.529264
  H       5.873546      3.988942     -0.223774
  H       7.255965      3.359254     -1.146188
  H       4.560528      1.748906     -0.621455
  H       5.932715      1.190781     -1.583781
  C       3.628412     -4.114026      0.359058
  H       2.946246     -4.326661      1.198832
  H       4.569503     -4.660300      0.568728
  H       3.210170     -4.522661     -0.570343
  C       1.237182     -2.119826      0.006568
  H       1.165477     -2.631047      0.966738
  C       1.145421     -0.780504     -0.082017
  C       1.004953      0.057198      1.142045
  O       0.982837     -0.658788      2.290261
  C       0.850557      0.096230      3.490942
  H       0.841094     -0.631720      4.312203
  H       1.692618      0.795945      3.610733
  H      -0.082948      0.679814      3.488244
  O       0.930163      1.265841      1.129823
  C       1.239757     -0.022204     -1.375360
  H       2.088834      0.678728     -1.353074
  H       0.334614      0.583658     -1.544343
  H       1.386823     -0.708218     -2.220308
  H       1.362560     -2.731493     -0.888322
  O       4.524600     -0.821407     -1.223705
41
Coordinates from ORCA-job orca E -847.144617710792
  O       3.649823     -2.651271     -2.118929
  C       4.025125     -2.081313     -1.111134
  C       3.902694     -2.652126      0.229724
  C       4.217986     -1.852637      1.457045
  H       3.399573     -1.962650      2.190787
  H       5.108357     -2.301899      1.944440
  C       4.478313     -0.375578      1.159887
  H       5.034113      0.087005      1.989580
  H       3.535643      0.183083      1.058620
  C       5.257929     -0.223575     -0.138301
  H       6.223614     -0.761219     -0.051369
  C       5.524922      1.216841     -0.556450
  C       6.486815      1.975055      0.360715
  H       6.066352      2.037963      1.379797
  H       7.428721      1.403670      0.455742
  C       6.792287      3.385356     -0.144157
  H       7.484425      3.915160      0.529594
  H       5.872236      3.988693     -0.220797
  H       7.253184      3.359547     -1.145787
  H       4.558569      1.748724     -0.617460
  H       5.929279      1.191806     -1.582484
  C       3.632168     -4.114879      0.360288
  H       2.950796     -4.326573      1.201058
  H       4.572210     -4.662192      0.571366
  H       3.214355     -4.523007     -0.569522
  C       1.237498     -2.120815      0.004481
  H       1.158086     -2.629784      0.964800
  C       1.146292     -0.781812     -0.084669
  C       1.001435      0.056789      1.138642
  O       0.982788     -0.657727      2.287248
  C       0.854261      0.097832      3.488060
  H       0.846996     -0.629761      4.309650
  H       1.696880      0.797379      3.605027
  H      -0.079099      0.681683      3.487784
  O       0.932693      1.265967      1.125213
  C       1.238845     -0.021371     -1.376640
  H       2.086654      0.680962     -1.353181
  H       0.332189      0.583264     -1.542121
  H       1.384313     -0.703789     -2.224824
  H       1.356731     -2.732014     -0.891303
  O       4.523012     -0.821237     -1.222832
41
Coordinates from ORCA-job orca E -847.144644291755
  O       3.647743     -2.652012     -2.116817
  C       4.023685     -2.081210     -1.109607
  C       3.902094     -2.651430      0.231039
  C       4.218530     -1.853290      1.457493
  H       3.401470     -1.964353      2.192759
  H       5.109811     -2.303618      1.942621
  C       4.479310     -0.376305      1.161454
  H       5.037177      0.085254      1.990423
  H       3.537117      0.183538      1.062258
  C       5.257466     -0.223856     -0.137380
  H       6.223229     -0.761507     -0.051339
  C       5.523919      1.216638     -0.555471
  C       6.487336      1.974626      0.360263
  H       6.068511      2.037593      1.380029
  H       7.429293      1.403074      0.453763
  C       6.792229      3.384888     -0.145068
  H       7.485435      3.914589      0.527667
  H       5.872157      3.988357     -0.220366
  H       7.251659      3.359007     -1.147372
  H       4.557498      1.748524     -0.614819
  H       5.926733      1.191936     -1.582124
  C       3.635616     -4.112834      0.361551
  H       2.954595     -4.324526      1.202841
  H       4.575902     -4.659406      0.574374
  H       3.218424     -4.521163     -0.568401
  C       1.237114     -2.120129      0.003242
  H       1.150397     -2.626884      0.963857
  C       1.147912     -0.781142     -0.086447
  C       1.002145      0.057072      1.137460
  O       0.982167     -0.658339      2.285366
  C       0.853401      0.096069      3.486931
  H       0.844770     -0.632344      4.307760
  H       1.696641      0.794659      3.605209
  H      -0.079377      0.680855      3.486387
  O       0.934615      1.266320      1.125043
  C       1.239296     -0.020549     -1.378093
  H       2.087319      0.681537     -1.355924
  H       0.332403      0.584641     -1.540667
  H       1.381591     -0.702199     -2.227351
  H       1.350149     -2.731280     -0.893309
  O       4.521580     -0.821251     -1.221645
41
Coordinates from ORCA-job orca E -847.144651648604
  O       3.646351     -2.651819     -2.115689
  C       4.022301     -2.080915     -1.108468
  C       3.900546     -2.650799      0.232282
  C       4.218943     -1.853512      1.457804
  H       3.402525     -1.964844      2.193844
  H       5.110666     -2.304732      1.941512
  C       4.480277     -0.376383      1.163113
  H       5.039193      0.084357      1.991811
  H       3.538375      0.184049      1.065429
  C       5.256990     -0.223633     -0.136583
  H       6.222986     -0.761033     -0.051415
  C       5.523154      1.216813     -0.555004
  C       6.487565      1.974651      0.359794
  H       6.069712      2.037754      1.379960
  H       7.429502      1.402925      0.452437
  C       6.792207      3.384836     -0.145906
  H       7.486072      3.914485      0.526184
  H       5.872153      3.988422     -0.220451
  H       7.250758      3.358804     -1.148611
  H       4.556725      1.748801     -0.613355
  H       5.925033      1.192065     -1.582015
  C       3.637317     -4.111318      0.362325
  H       2.955966     -4.324332      1.203195
  H       4.578366     -4.656137      0.577028
  H       3.221236     -4.520593     -0.567682
  C       1.235705     -2.119779      0.002213
  H       1.143420     -2.625096      0.963138
  C       1.149113     -0.780394     -0.087625
  C       1.004242      0.057197      1.136990
  O       0.982381     -0.659334      2.284395
  C       0.853085      0.094273      3.486417
  H       0.842771     -0.634767      4.306660
  H       1.696969      0.791837      3.606150
  H      -0.079043      0.680082      3.485212
  O       0.937250      1.266409      1.125878
  C       1.240423     -0.020485     -1.379536
  H       2.089604      0.680275     -1.359611
  H       0.334289      0.586353     -1.540498
  H       1.379611     -0.703116     -2.228445
  H       1.344254     -2.730991     -0.894909
  O       4.520068     -0.820828     -1.220378
41
Coordinates from ORCA-job orca E -847.144659881819
  O       3.645413     -2.650874     -2.115324
  C       4.020736     -2.080276     -1.107730
  C       3.898386     -2.650216      0.233194
  C       4.218950     -1.853365      1.458216
  H       3.402881     -1.964434      2.194724
  H       5.110824     -2.305216      1.941067
  C       4.480819     -0.376093      1.164527
  H       5.040336      0.083909      1.993177
  H       3.539083      0.184692      1.068005
  C       5.256217     -0.223071     -0.135995
  H       6.222401     -0.760309     -0.051806
  C       5.522258      1.217384     -0.554543
  C       6.487225      1.974981      0.359885
  H       6.069796      2.038119      1.380225
  H       7.429077      1.403043      0.452123
  C       6.791974      3.385135     -0.145853
  H       7.486212      3.914614      0.525991
  H       5.872015      3.988910     -0.220010
  H       7.250120      3.359048     -1.148743
  H       4.555844      1.749503     -0.612285
  H       5.923627      1.192631     -1.581742
  C       3.637667     -4.110828      0.362685
  H       2.955578     -4.325929      1.202520
  H       4.579676     -4.653386      0.579213
  H       3.223235     -4.521475     -0.567443
  C       1.233502     -2.120211      0.001292
  H       1.137490     -2.624687      0.962413
  C       1.149651     -0.780367     -0.088510
  C       1.006509      0.056963      1.136352
  O       0.983545     -0.660071      2.283727
  C       0.854769      0.093573      3.485769
  H       0.843364     -0.635556      4.305926
  H       1.699448      0.790111      3.605866
  H      -0.076652      0.680497      3.484330
  O       0.940562      1.266183      1.125915
  C       1.241632     -0.021377     -1.380897
  H       2.092417      0.677498     -1.363174
  H       0.336762      0.587534     -1.541248
  H       1.378255     -0.705565     -2.228931
  H       1.339244     -2.731557     -0.896134
  O       4.518210     -0.819915     -1.219185
41
Coordinates from ORCA-job orca E -847.144665460917
  O       3.644352     -2.649229     -2.115319
  C       4.018467     -2.079116     -1.107116
  C       3.895264     -2.649356      0.233930
  C       4.218394     -1.852974      1.458850
  H       3.402701     -1.963460      2.195897
  H       5.110323     -2.305514      1.940842
  C       4.480902     -0.375574      1.165980
  H       5.041058      0.083434      1.994697
  H       3.539340      0.185666      1.070724
  C       5.254847     -0.222164     -0.135409
  H       6.221139     -0.759437     -0.052577
  C       5.520896      1.218370     -0.553764
  C       6.486265      1.975480      0.360637
  H       6.069004      2.038502      1.381046
  H       7.427946      1.403222      0.452610
  C       6.791400      3.385650     -0.144819
  H       7.485932      3.914758      0.527016
  H       5.871617      3.989733     -0.218675
  H       7.249348      3.359629     -1.147801
  H       4.554548      1.750683     -0.610948
  H       5.921902      1.193752     -1.581100
  C       3.637313     -4.110810      0.362751
  H       2.954064     -4.328912      1.200917
  H       4.580708     -4.650097      0.581445
  H       3.225632     -4.523346     -0.567759
  C       1.230103     -2.121509      0.000295
  H       1.131210     -2.625411      0.961544
  C       1.149692     -0.781223     -0.089485
  C       1.009275      0.056394      1.135162
  O       0.985736     -0.660479      2.282931
  C       0.858895      0.093982      3.484646
  H       0.846660     -0.634751      4.305154
  H       1.704854      0.789085      3.604050
  H      -0.071485      0.682553      3.483464
  O       0.945361      1.265700      1.124726
  C       1.243034     -0.023455     -1.382556
  H       2.096074      0.672718     -1.367085
  H       0.339995      0.588151     -1.542898
  H       1.377097     -0.709618     -2.229404
  H       1.333780     -2.733156     -0.897207
  O       4.515419     -0.818325     -1.217801
41
Coordinates from ORCA-job orca E -847.144664815282
  O       3.643167     -2.647794     -2.115404
  C       4.016298     -2.077959     -1.106771
  C       3.892649     -2.648520      0.234212
  C       4.217405     -1.852639      1.459442
  H       3.402164     -1.962708      2.197034
  H       5.109396     -2.305749      1.940637
  C       4.480379     -0.375186      1.166961
  H       5.041211      0.082945      1.995709
  H       3.539009      0.186557      1.072719
  C       5.253297     -0.221390     -0.134972
  H       6.219522     -0.758989     -0.053353
  C       5.519459      1.219317     -0.552772
  C       6.485357      1.975779      0.361620
  H       6.068401      2.038466      1.382174
  H       7.426916      1.403220      0.453077
  C       6.790758      3.386082     -0.143306
  H       7.485657      3.914702      0.528539
  H       5.871128      3.990467     -0.216615
  H       7.248383      3.360367     -1.146443
  H       4.553193      1.751858     -0.609245
  H       5.919958      1.195071     -1.580322
  C       3.636813     -4.110937      0.362660
  H       2.952563     -4.331284      1.199397
  H       4.581408     -4.647402      0.582966
  H       3.227921     -4.524911     -0.568444
  C       1.227092     -2.123074     -0.000318
  H       1.127314     -2.626739      0.961001
  C       1.149365     -0.782617     -0.090351
  C       1.011360      0.055822      1.133753
  O       0.987768     -0.660307      2.282061
  C       0.863480      0.095228      3.483349
  H       0.850804     -0.632909      4.304385
  H       1.710793      0.788904      3.601450
  H      -0.065846      0.685462      3.482777
  O       0.949676      1.265263      1.122648
  C       1.244061     -0.025776     -1.383955
  H       2.098927      0.668145     -1.369514
  H       0.342492      0.587856     -1.544691
  H       1.376618     -0.713102     -2.230117
  H       1.330076     -2.735190     -0.897589
  O       4.512669     -0.816779     -1.216799
41
Coordinates from ORCA-job orca E -847.144666741706
  O       3.641647     -2.646507     -2.115462
  C       4.014248     -2.076796     -1.106601
  C       3.890659     -2.647707      0.234161
  C       4.216241     -1.852465      1.459884
  H       3.401562     -1.962473      2.198073
  H       5.108393     -2.306115      1.940185
  C       4.479509     -0.374970      1.167714
  H       5.041153      0.082344      1.996392
  H       3.538358      0.187328      1.074423
  C       5.251613     -0.220721     -0.134590
  H       6.217679     -0.758765     -0.054071
  C       5.517889      1.220190     -0.551599
  C       6.484482      1.975823      0.362729
  H       6.067973      2.038169      1.383481
  H       7.425863      1.402863      0.453506
  C       6.790233      3.386227     -0.141672
  H       7.485628      3.914248      0.530123
  H       5.870817      3.991019     -0.214310
  H       7.247433      3.360798     -1.145014
  H       4.551716      1.752993     -0.607158
  H       5.917741      1.196508     -1.579421
  C       3.636666     -4.110899      0.362421
  H       2.951615     -4.332713      1.198058
  H       4.582296     -4.645003      0.583921
  H       3.230476     -4.525845     -0.569443
  C       1.224638     -2.124701     -0.000551
  H       1.125196     -2.628220      0.960869
  C       1.148975     -0.784261     -0.091171
  C       1.013040      0.055345      1.132284
  O       0.989401     -0.659721      2.281148
  C       0.867804      0.096971      3.481974
  H       0.854619     -0.630489      4.303606
  H       1.716567      0.789120      3.598639
  H      -0.060391      0.688980      3.481976
  O       0.953590      1.264929      1.120151
  C       1.244717     -0.028153     -1.385177
  H       2.100992      0.664000     -1.370972
  H       0.344210      0.586898     -1.546298
  H       1.376338     -0.715973     -2.231105
  H       1.327512     -2.737445     -0.897396
  O       4.509960     -0.815263     -1.216117
41
Coordinates from ORCA-job orca E -847.144672510716
  O       3.640022     -2.645578     -2.115390
  C       4.012662     -2.075921     -1.106487
  C       3.889542     -2.647187      0.234002
  C       4.215271     -1.852540      1.460131
  H       3.401111     -1.962823      2.198830
  H       5.107651     -2.306602      1.939626
  C       4.478657     -0.374990      1.168331
  H       5.041041      0.081750      1.996856
  H       3.537692      0.187752      1.075818
  C       5.250218     -0.220314     -0.134217
  H       6.216107     -0.758782     -0.054508
  C       5.516580      1.220784     -0.550536
  C       6.484026      1.975687      0.363513
  H       6.068242      2.037575      1.384587
  H       7.425339      1.402460      0.453323
  C       6.789751      3.386305     -0.140316
  H       7.485737      3.913781      0.531300
  H       5.870429      3.991360     -0.211975
  H       7.246264      3.361347     -1.143979
  H       4.550486      1.753829     -0.605104
  H       5.915668      1.197640     -1.578674
  C       3.636836     -4.110732      0.362180
  H       2.951206     -4.333076      1.197160
  H       4.583092     -4.643390      0.584473
  H       3.232686     -4.526083     -0.570394
  C       1.223159     -2.125905     -0.000435
  H       1.124569     -2.629172      0.961174
  C       1.148815     -0.785568     -0.091903
  C       1.014315      0.055143      1.131031
  O       0.990269     -0.659012      2.280285
  C       0.870881      0.098557      3.480777
  H       0.856895     -0.628405      4.302832
  H       1.721035      0.789166      3.596426
  H      -0.056199      0.692305      3.481073
  O       0.956756      1.264837      1.117970
  C       1.245058     -0.030038     -1.386197
  H       2.102174      0.661040     -1.371835
  H       0.345107      0.585762     -1.547474
  H       1.376101     -0.717919     -2.232170
  H       1.325971     -2.739347     -0.896807
  O       4.507839     -0.814147     -1.215707
41
Coordinates from ORCA-job orca E -847.144671679319
  O       3.638493     -2.644786     -2.115313
  C       4.011564     -2.075278     -1.106438
  C       3.889158     -2.646982      0.233796
  C       4.214768     -1.852800      1.460156
  H       3.400982     -1.963524      2.199193
  H       5.107367     -2.307118      1.939053
  C       4.478146     -0.375169      1.168850
  H       5.041117      0.081212      1.997183
  H       3.537297      0.187868      1.076971
  C       5.249250     -0.220081     -0.133907
  H       6.215029     -0.758814     -0.054807
  C       5.515559      1.221149     -0.549678
  C       6.483730      1.975445      0.364079
  H       6.068654      2.036893      1.385470
  H       7.425018      1.402037      0.452955
  C       6.789298      3.386267     -0.139267
  H       7.485793      3.913317      0.532156
  H       5.870013      3.991478     -0.210030
  H       7.245163      3.361747     -1.143237
  H       4.549497      1.754341     -0.603330
  H       5.913980      1.198479     -1.578085
  C       3.637290     -4.110569      0.361824
  H       2.951242     -4.332950      1.196427
  H       4.583813     -4.642548      0.584669
  H       3.234406     -4.525973     -0.571273
  C       1.222534     -2.126678     -0.000072
  H       1.124726     -2.629530      0.961810
  C       1.148928     -0.786423     -0.092442
  C       1.015386      0.055168      1.130124
  O       0.990549     -0.658291      2.279673
  C       0.872674      0.099993      3.479880
  H       0.857600     -0.626581      4.302253
  H       1.724061      0.789175      3.595006
  H      -0.053376      0.695338      3.480061
  O       0.959349      1.264936      1.116370
  C       1.245107     -0.031454     -1.387025
  H       2.102643      0.659094     -1.372735
  H       0.345353      0.584672     -1.548183
  H       1.375587     -0.719400     -2.233028
  H       1.324961     -2.740758     -0.896056
  O       4.506352     -0.813353     -1.215464
41
Coordinates from ORCA-job orca E -847.144672823275
  O       3.636960     -2.643932     -2.115284
  C       4.010697     -2.074770     -1.106413
  C       3.889153     -2.647096      0.233563
  C       4.214605     -1.853325      1.460093
  H       3.401051     -1.964604      2.199312
  H       5.107379     -2.307803      1.938575
  C       4.477893     -0.375556      1.169432
  H       5.041316      0.080556      1.997611
  H       3.537095      0.187648      1.078131
  C       5.248545     -0.219955     -0.133551
  H       6.214291     -0.758809     -0.055010
  C       5.514673      1.221427     -0.548859
  C       6.483462      1.975276      0.364613
  H       6.069116      2.036235      1.386332
  H       7.424815      1.401836      0.452548
  C       6.788646      3.386349     -0.138253
  H       7.485578      3.913089      0.532960
  H       5.869294      3.991562     -0.208098
  H       7.243836      3.362334     -1.142542
  H       4.548595      1.754671     -0.601663
  H       5.912497      1.199210     -1.577505
  C       3.637714     -4.110605      0.361247
  H       2.951178     -4.332876      1.195484
  H       4.584218     -4.642422      0.584615
  H       3.235658     -4.525816     -0.572288
  C       1.222382     -2.127189      0.000499
  H       1.125343     -2.629431      0.962763
  C       1.149227     -0.786995     -0.092888
  C       1.016542      0.055415      1.129327
  O       0.990680     -0.657422      2.279183
  C       0.874063      0.101599      3.479059
  H       0.857692     -0.624585      4.301745
  H       1.726673      0.789328      3.593864
  H      -0.050937      0.698562      3.478891
  O       0.961952      1.265244      1.114972
  C       1.244978     -0.032791     -1.387895
  H       2.102764      0.657447     -1.374100
  H       0.345292      0.583504     -1.548848
  H       1.374797     -0.721077     -2.233712
  H       1.324122     -2.741933     -0.895118
  O       4.505228     -0.812751     -1.215201
41
Coordinates from ORCA-job orca E -847.143529782049
  O       3.627112     -2.660905     -2.082170
  C       4.021832     -2.083127     -1.087807
  C       3.930319     -2.648562      0.252574
  C       4.236054     -1.864681      1.458034
  H       3.395464     -1.979770      2.174494
  H       5.122481     -2.314135      1.953130
  C       4.486587     -0.386457      1.171270
  H       5.031426      0.077119      2.007980
  H       3.528526      0.163908      1.065963
  C       5.264134     -0.227164     -0.125815
  H       6.234291     -0.757219     -0.041145
  C       5.523003      1.212997     -0.550239
  C       6.486005      1.978172      0.360024
  H       6.069462      2.043611      1.380585
  H       7.430333      1.410458      0.453462
  C       6.784392      3.387594     -0.151600
  H       7.477221      3.922574      0.517407
  H       5.861859      3.987320     -0.227117
  H       7.241546      3.359437     -1.154900
  H       4.554242      1.740692     -0.608288
  H       5.922819      1.186161     -1.578014
  C       3.641474     -4.070225      0.378428
  H       2.943717     -4.274023      1.210217
  H       4.586069     -4.607339      0.597270
  H       3.229392     -4.476223     -0.554862
  C       1.164523     -2.091378     -0.004445
  H       1.104017     -2.586819      0.946453
  C       1.115105     -0.759514     -0.104070
  C       0.998514      0.069627      1.123834
  O       0.974580     -0.672585      2.257988
  C       0.879376      0.056235      3.479592
  H       0.861568     -0.691878      4.282892
  H       1.741080      0.730553      3.605910
  H      -0.038225      0.664669      3.504176
  O       0.967876      1.279998      1.131390
  C       1.238493     -0.027012     -1.404461
  H       2.113092      0.642835     -1.394148
  H       0.355026      0.606926     -1.588519
  H       1.369415     -0.741207     -2.227987
  H       1.306099     -2.708212     -0.877492
  O       4.518762     -0.822900     -1.202406
41
Coordinates from ORCA-job orca E -847.145435773293
  O       3.630047     -2.652296     -2.099947
  C       4.025136     -2.083992     -1.098758
  C       3.937635     -2.661856      0.241036
  C       4.240544     -1.865457      1.461251
  H       3.406377     -1.980239      2.179511
  H       5.127363     -2.308859      1.961676
  C       4.487772     -0.384536      1.171202
  H       5.036194      0.081858      2.003556
  H       3.536954      0.161547      1.070881
  C       5.258987     -0.223858     -0.130860
  H       6.229039     -0.754886     -0.050812
  C       5.517569      1.218314     -0.548603
  C       6.481522      1.978357      0.364860
  H       6.066086      2.037358      1.386304
  H       7.426160      1.410450      0.453801
  C       6.778798      3.390961     -0.138474
  H       7.472145      3.922130      0.532966
  H       5.855958      3.990717     -0.209261
  H       7.234821      3.369114     -1.142442
  H       4.548817      1.746346     -0.602731
  H       5.916308      1.196307     -1.576872
  C       3.643735     -4.107723      0.364635
  H       2.949398     -4.315097      1.196829
  H       4.583678     -4.657037      0.578797
  H       3.227587     -4.510322     -0.568085
  C       1.169623     -2.111603     -0.006892
  H       1.108100     -2.619691      0.954974
  C       1.119241     -0.772550     -0.098973
  C       1.006433      0.066187      1.128414
  O       0.980600     -0.654918      2.274806
  C       0.879904      0.098540      3.479817
  H       0.861010     -0.632141      4.298425
  H       1.740374      0.776662      3.593645
  H      -0.038719      0.705361      3.488899
  O       0.966397      1.275956      1.123495
  C       1.237013     -0.028007     -1.396995
  H       2.108428      0.645338     -1.382435
  H       0.351349      0.604033     -1.573594
  H       1.366960     -0.730836     -2.230715
  H       1.308273     -2.729705     -0.895723
  O       4.515441     -0.820379     -1.210018
41
Coordinates from ORCA-job orca E -847.145640960014
  O       3.631236     -2.647293     -2.104308
  C       4.026027     -2.083083     -1.100386
  C       3.940414     -2.665528      0.238139
  C       4.241417     -1.864905      1.464616
  H       3.411498     -1.980133      2.185609
  H       5.128387     -2.306360      1.965149
  C       4.488562     -0.383984      1.171349
  H       5.040877      0.082584      2.000817
  H       3.539577      0.163467      1.073886
  C       5.257661     -0.222817     -0.132122
  H       6.226888     -0.755705     -0.054969
  C       5.515710      1.220173     -0.547297
  C       6.481419      1.978122      0.366062
  H       6.067807      2.035137      1.388309
  H       7.426056      1.409819      0.452198
  C       6.778267      3.391642     -0.134895
  H       7.472876      3.921221      0.536490
  H       5.855487      3.991805     -0.202934
  H       7.232651      3.371708     -1.139637
  H       4.546830      1.748490     -0.598664
  H       5.912650      1.200304     -1.576323
  C       3.646830     -4.120607      0.362715
  H       2.954963     -4.327630      1.196366
  H       4.582723     -4.675377      0.575766
  H       3.229257     -4.521702     -0.570104
  C       1.171667     -2.118302     -0.008273
  H       1.105549     -2.627889      0.954002
  C       1.119833     -0.778050     -0.098262
  C       1.003444      0.064105      1.126570
  O       0.981367     -0.650193      2.276223
  C       0.880426      0.109339      3.477161
  H       0.864526     -0.617078      4.299643
  H       1.739271      0.790177      3.586050
  H      -0.039699      0.713743      3.484459
  O       0.968177      1.274305      1.115343
  C       1.234445     -0.026879     -1.393945
  H       2.103268      0.649572     -1.375488
  H       0.346268      0.602683     -1.566163
  H       1.364652     -0.722168     -2.233999
  H       1.305566     -2.734316     -0.900072
  O       4.514231     -0.818848     -1.211490
41
Coordinates from ORCA-job orca E -847.145697987966
  O       3.629979     -2.645132     -2.105320
  C       4.025656     -2.082430     -1.100715
  C       3.942550     -2.666538      0.236685
  C       4.243441     -1.865142      1.465673
  H       3.416747     -1.981497      2.189763
  H       5.131496     -2.306674      1.963788
  C       4.490664     -0.384490      1.171516
  H       5.047282      0.080803      1.998927
  H       3.542219      0.165442      1.077976
  C       5.257670     -0.222647     -0.133084
  H       6.226455     -0.756669     -0.058301
  C       5.514979      1.220893     -0.546665
  C       6.483095      1.977517      0.365263
  H       6.072033      2.033556      1.388577
  H       7.427762      1.408833      0.448432
  C       6.779200      3.391481     -0.134854
  H       7.475550      3.920098      0.535487
  H       5.856455      3.992015     -0.200086
  H       7.231247      3.372495     -1.140665
  H       4.546056      1.749390     -0.594950
  H       5.909379      1.202557     -1.576698
  C       3.651424     -4.124782      0.362502
  H       2.962202     -4.330709      1.198509
  H       4.585224     -4.682460      0.574816
  H       3.232181     -4.524849     -0.570106
  C       1.173446     -2.120160     -0.007594
  H       1.102272     -2.628882      0.954453
  C       1.122240     -0.780076     -0.097410
  C       1.007685      0.063466      1.126267
  O       0.978475     -0.648866      2.276172
  C       0.874052      0.112292      3.475688
  H       0.851998     -0.613068      4.298980
  H       1.734723      0.790408      3.587318
  H      -0.044153      0.719662      3.478004
  O       0.964559      1.273585      1.111680
  C       1.233336     -0.025631     -1.391775
  H       2.101120      0.651882     -1.372554
  H       0.343788      0.603307     -1.559116
  H       1.360658     -0.716363     -2.236053
  H       1.300541     -2.734943     -0.900765
  O       4.513372     -0.818122     -1.212176
41
Coordinates from ORCA-job orca E -847.145743876704
  O       3.629196     -2.644459     -2.104456
  C       4.024780     -2.081928     -1.099603
  C       3.942861     -2.666348      0.236797
  C       4.243722     -1.865273      1.466770
  H       3.419804     -1.983101      2.193702
  H       5.132977     -2.307760      1.961921
  C       4.491770     -0.385181      1.172261
  H       5.051861      0.078925      1.998199
  H       3.544280      0.167176      1.081216
  C       5.257688     -0.222886     -0.132645
  H       6.226130     -0.757682     -0.059093
  C       5.514222      1.221012     -0.545181
  C       6.484127      1.977018      0.365377
  H       6.075081      2.032657      1.389527
  H       7.428873      1.408157      0.446408
  C       6.779474      3.391180     -0.134634
  H       7.477102      3.919390      0.534704
  H       5.856691      3.991868     -0.197941
  H       7.229725      3.372588     -1.141257
  H       4.545151      1.749400     -0.591176
  H       5.906658      1.203805     -1.575989
  C       3.656257     -4.125703      0.364153
  H       2.968993     -4.330272      1.202219
  H       4.588506     -4.685153      0.577723
  H       3.236505     -4.525482     -0.568425
  C       1.173673     -2.121168     -0.009202
  H       1.093897     -2.628077      0.952590
  C       1.122701     -0.781401     -0.099166
  C       1.004804      0.062971      1.123873
  O       0.976386     -0.648279      2.273833
  C       0.873470      0.112783      3.473716
  H       0.851396     -0.612693      4.296899
  H       1.734744      0.790205      3.584835
  H      -0.044258      0.720874      3.476795
  O       0.967751      1.273493      1.108109
  C       1.231458     -0.024580     -1.392277
  H       2.097994      0.654381     -1.371983
  H       0.340363      0.603268     -1.555641
  H       1.356689     -0.711443     -2.240027
  H       1.292810     -2.734941     -0.903699
  O       4.512749     -0.817789     -1.211641
41
Coordinates from ORCA-job orca E -847.145778751893
  O       3.627640     -2.645012     -2.102736
  C       4.023400     -2.081575     -1.098425
  C       3.942191     -2.665326      0.237767
  C       4.244528     -1.865515      1.466786
  H       3.422283     -1.984586      2.195612
  H       5.134938     -2.309462      1.958975
  C       4.493277     -0.385581      1.173600
  H       5.055702      0.077180      1.998815
  H       3.546453      0.168389      1.084904
  C       5.257761     -0.222945     -0.132072
  H       6.226297     -0.757675     -0.059317
  C       5.513804      1.221059     -0.544478
  C       6.485341      1.976744      0.364619
  H       6.078005      2.032435      1.389462
  H       7.430073      1.407639      0.444044
  C       6.780187      3.390890     -0.135764
  H       7.478938      3.918915      0.532549
  H       5.857433      3.991769     -0.197638
  H       7.228912      3.372263     -1.143069
  H       4.544721      1.749512     -0.588705
  H       5.904615      1.204242     -1.575914
  C       3.660321     -4.123571      0.365784
  H       2.974187     -4.327859      1.205099
  H       4.592471     -4.682756      0.581224
  H       3.240458     -4.524018     -0.566446
  C       1.173065     -2.120722     -0.010191
  H       1.085171     -2.625486      0.951724
  C       1.124050     -0.781033     -0.100662
  C       1.006332      0.062923      1.123083
  O       0.973799     -0.649407      2.272101
  C       0.870809      0.110402      3.472851
  H       0.844688     -0.616057      4.295025
  H       1.734102      0.784849      3.586495
  H      -0.044932      0.721474      3.474706
  O       0.969979      1.273469      1.108366
  C       1.231241     -0.023878     -1.393459
  H       2.097995      0.654778     -1.374678
  H       0.339956      0.604679     -1.553485
  H       1.352783     -0.709747     -2.242476
  H       1.284251     -2.734334     -0.905665
  O       4.511838     -0.817518     -1.210822
41
Coordinates from ORCA-job orca E -847.145791762784
  O       3.626607     -2.645270     -2.101276
  C       4.022024     -2.080994     -1.097403
  C       3.940372     -2.664109      0.239241
  C       4.244867     -1.865241      1.466865
  H       3.423085     -1.984604      2.196322
  H       5.135758     -2.310229      1.957572
  C       4.494295     -0.385191      1.175172
  H       5.057443      0.076740      2.000318
  H       3.547826      0.169307      1.087639
  C       5.257465     -0.222510     -0.131381
  H       6.226263     -0.756834     -0.059167
  C       5.513420      1.221391     -0.544236
  C       6.485884      1.976903      0.364011
  H       6.079387      2.032791      1.389183
  H       7.430528      1.407551      0.442728
  C       6.780658      3.390949     -0.136708
  H       7.480030      3.918881      0.531030
  H       5.857986      3.992014     -0.197927
  H       7.228599      3.372139     -1.144361
  H       4.544433      1.750084     -0.587655
  H       5.903456      1.204360     -1.575954
  C       3.661962     -4.121342      0.366877
  H       2.975483     -4.326969      1.205810
  H       4.594869     -4.678705      0.584743
  H       3.243106     -4.523336     -0.565089
  C       1.171292     -2.120501     -0.011403
  H       1.077248     -2.623738      0.950808
  C       1.124916     -0.780487     -0.102008
  C       1.008129      0.062612      1.122697
  O       0.972915     -0.651123      2.271045
  C       0.870325      0.107622      3.472524
  H       0.841569     -0.619710      4.293827
  H       1.735056      0.779919      3.587974
  H      -0.043976      0.720834      3.473880
  O       0.974158      1.273152      1.109762
  C       1.232084     -0.024029     -1.395013
  H       2.100040      0.653161     -1.378733
  H       0.341689      0.606281     -1.553435
  H       1.350364     -0.710992     -2.243536
  H       1.276930     -2.734393     -0.907474
  O       4.510516     -0.816834     -1.209677
41
Coordinates from ORCA-job orca E -847.145801267123
  O       3.625801     -2.644543     -2.100496
  C       4.020549     -2.079976     -1.096671
  C       3.938097     -2.662911      0.240512
  C       4.244864     -1.864525      1.467320
  H       3.423164     -1.983459      2.197017
  H       5.135825     -2.310063      1.957472
  C       4.494888     -0.384309      1.176530
  H       5.058319      0.077002      2.001736
  H       3.548575      0.170389      1.089766
  C       5.256780     -0.221658     -0.130881
  H       6.225713     -0.755858     -0.059487
  C       5.512949      1.222138     -0.544117
  C       6.486109      1.977304      0.363667
  H       6.080087      2.033283      1.389029
  H       7.430603      1.407637      0.441945
  C       6.781117      3.391267     -0.137146
  H       7.480936      3.918982      0.530290
  H       5.858593      3.992600     -0.197948
  H       7.228600      3.372347     -1.145005
  H       4.544144      1.751223     -0.587020
  H       5.902508      1.204801     -1.576003
  C       3.662051     -4.120139      0.367289
  H       2.974451     -4.328077      1.204868
  H       4.596008     -4.674995      0.587523
  H       3.245071     -4.523917     -0.564696
  C       1.168877     -2.121084     -0.012432
  H       1.070821     -2.623418      0.950008
  C       1.125475     -0.780675     -0.102834
  C       1.010478      0.061820      1.122410
  O       0.973334     -0.652745      2.270532
  C       0.871062      0.105693      3.472206
  H       0.840518     -0.621978      4.293144
  H       1.736753      0.776558      3.588754
  H      -0.042245      0.720381      3.473077
  O       0.978876      1.272364      1.110629
  C       1.233378     -0.025010     -1.396166
  H       2.103017      0.650082     -1.382308
  H       0.344406      0.607505     -1.553908
  H       1.348932     -0.713561     -2.243758
  H       1.270958     -2.735352     -0.908783
  O       4.508616     -0.815572     -1.208475
41
Coordinates from ORCA-job orca E -847.145810744949
  O       3.624539     -2.642741     -2.099979
  C       4.018216     -2.078202     -1.095883
  C       3.934794     -2.661198      0.241770
  C       4.244315     -1.863227      1.468225
  H       3.422807     -1.981215      2.198318
  H       5.135204     -2.309244      1.957945
  C       4.495086     -0.382872      1.177915
  H       5.058997      0.077674      2.003150
  H       3.548951      0.172155      1.092046
  C       5.255413     -0.220270     -0.130445
  H       6.224272     -0.754809     -0.060449
  C       5.512103      1.223467     -0.543777
  C       6.486190      1.977870      0.363663
  H       6.080692      2.033789      1.389230
  H       7.430405      1.407645      0.441337
  C       6.781779      3.391784     -0.136935
  H       7.482297      3.918923      0.530228
  H       5.859571      3.993673     -0.197048
  H       7.228656      3.372859     -1.145062
  H       4.543593      1.753184     -0.585996
  H       5.901078      1.205915     -1.575876
  C       3.661374     -4.119254      0.367454
  H       2.971897     -4.330548      1.202721
  H       4.596881     -4.670359      0.590671
  H       3.247811     -4.525314     -0.565018
  C       1.165128     -2.122777     -0.013543
  H       1.063692     -2.624340      0.949100
  C       1.125804     -0.781988     -0.103644
  C       1.013707      0.060321      1.121718
  O       0.974860     -0.654482      2.269972
  C       0.873389      0.104242      3.471497
  H       0.841191     -0.623359      4.292447
  H       1.740141      0.773625      3.588637
  H      -0.038833      0.720542      3.471931
  O       0.985389      1.270923      1.110437
  C       1.235105     -0.027240     -1.397423
  H       2.107216      0.644699     -1.386081
  H       0.348260      0.608325     -1.554800
  H       1.347578     -0.717612     -2.243958
  H       1.264093     -2.737618     -0.909931
  O       4.505414     -0.813395     -1.206972
41
Coordinates from ORCA-job orca E -847.145817896393
  O       3.623032     -2.640511     -2.099843
  C       4.015700     -2.076223     -1.095288
  C       3.931688     -2.659451      0.242425
  C       4.243159     -1.861910      1.469158
  H       3.422082     -1.979059      2.199854
  H       5.134013     -2.308397      1.958336
  C       4.494599     -0.381524      1.178889
  H       5.059264      0.078211      2.004046
  H       3.548725      0.174092      1.093887
  C       5.253762     -0.218889     -0.130086
  H       6.222312     -0.754190     -0.061548
  C       5.511083      1.224853     -0.543070
  C       6.486206      1.978271      0.364071
  H       6.081298      2.034038      1.389868
  H       7.430094      1.407399      0.441001
  C       6.782477      3.392169     -0.136160
  H       7.483793      3.918563      0.530753
  H       5.860648      3.994726     -0.195449
  H       7.228692      3.373326     -1.144584
  H       4.542878      1.755197     -0.584428
  H       5.899334      1.207380     -1.575445
  C       3.660587     -4.118631      0.367451
  H       2.969294     -4.332663      1.200490
  H       4.597568     -4.666144      0.593188
  H       3.250911     -4.526471     -0.565947
  C       1.161372     -2.125060     -0.014306
  H       1.058473     -2.626195      0.948464
  C       1.125711     -0.784122     -0.104329
  C       1.016484      0.058661      1.120696
  O       0.976730     -0.655602      2.269341
  C       0.876603      0.103870      3.470476
  H       0.843330     -0.623285      4.291790
  H       1.744365      0.771982      3.587374
  H      -0.034657      0.721603      3.470755
  O       0.991142      1.269355      1.109010
  C       1.236477     -0.030018     -1.398444
  H       2.110841      0.638977     -1.388347
  H       0.351531      0.608165     -1.555771
  H       1.346713     -0.721396     -2.244477
  H       1.258716     -2.740525     -0.910452
  O       4.502032     -0.811021     -1.205755
41
Coordinates from ORCA-job orca E -847.145812989278
  O       3.620911     -2.637945     -2.099826
  C       4.012693     -2.073930     -1.094754
  C       3.928497     -2.657437      0.242661
  C       4.241304     -1.860500      1.469991
  H       3.420984     -1.977114      2.201566
  H       5.132267     -2.307666      1.958184
  C       4.493441     -0.380144      1.179762
  H       5.059209      0.078632      2.004738
  H       3.547980      0.176375      1.095750
  C       5.251664     -0.217393     -0.129635
  H       6.219717     -0.753779     -0.062576
  C       5.509774      1.226399     -0.541907
  C       6.486170      1.978550      0.364907
  H       6.081965      2.034214      1.390982
  H       7.429606      1.406818      0.440974
  C       6.783416      3.392383     -0.134911
  H       7.485695      3.917819      0.531745
  H       5.862121      3.995839     -0.193303
  H       7.228926      3.373562     -1.143642
  H       4.541913      1.757459     -0.582192
  H       5.897139      1.209233     -1.574627
  C       3.660007     -4.117732      0.367484
  H       2.966864     -4.333888      1.198352
  H       4.598487     -4.661563      0.595675
  H       3.254921     -4.527040     -0.567283
  C       1.157307     -2.127955     -0.014806
  H       1.054166     -2.628738      0.948106
  C       1.125263     -0.787047     -0.105192
  C       1.019047      0.056775      1.119214
  O       0.978657     -0.656420      2.268377
  C       0.880884      0.104090      3.469035
  H       0.846570     -0.622392      4.290906
  H       1.750096      0.770479      3.584980
  H      -0.029080      0.723736      3.469493
  O       0.996803      1.267581      1.106513
  C       1.237500     -0.033524     -1.399605
  H       2.114028      0.632591     -1.389830
  H       0.354311      0.607034     -1.556950
  H       1.345865     -0.725288     -2.245584
  H       1.253744     -2.744197     -0.910471
  O       4.498228     -0.808326     -1.204712
41
Coordinates from ORCA-job orca E -847.145821385876
  O       3.618767     -2.635968     -2.099840
  C       4.010238     -2.072126     -1.094469
  C       3.926327     -2.655888      0.242500
  C       4.239494     -1.859529      1.470338
  H       3.419901     -1.976186      2.202668
  H       5.130678     -2.307412      1.957456
  C       4.492190     -0.379216      1.180400
  H       5.059001      0.078786      2.005156
  H       3.547157      0.178217      1.097202
  C       5.249915     -0.216323     -0.129206
  H       6.217525     -0.753615     -0.063093
  C       5.508619      1.227527     -0.540722
  C       6.486078      1.978528      0.365868
  H       6.082531      2.033965      1.392213
  H       7.429163      1.406098      0.441075
  C       6.784000      3.392399     -0.133428
  H       7.487048      3.917004      0.533078
  H       5.863095      3.996535     -0.190984
  H       7.228921      3.373755     -1.142423
  H       4.541015      1.759116     -0.580025
  H       5.895239      1.210820     -1.573733
  C       3.659917     -4.116750      0.367570
  H       2.965483     -4.333634      1.197079
  H       4.599350     -4.658171      0.597484
  H       3.258387     -4.526814     -0.568424
  C       1.154373     -2.130371     -0.014866
  H       1.051928     -2.630826      0.948239
  C       1.124717     -0.789594     -0.106083
  C       1.020639      0.055435      1.117724
  O       0.979793     -0.656651      2.267343
  C       0.884922      0.104851      3.467602
  H       0.849588     -0.620969      4.290011
  H       1.755875      0.769197      3.582217
  H      -0.023536      0.726692      3.468466
  O       1.000774      1.266321      1.103915
  C       1.237790     -0.036641     -1.400766
  H       2.115670      0.627639     -1.390701
  H       0.355624      0.605300     -1.558082
  H       1.344997     -0.728343     -2.246936
  H       1.250455     -2.747342     -0.910044
  O       4.495413     -0.806267     -1.204191
41
Coordinates from ORCA-job orca E -847.145826143909
  O       3.616915     -2.634499     -2.099806
  C       4.008572     -2.070858     -1.094319
  C       3.925120     -2.654955      0.242220
  C       4.238031     -1.859106      1.470367
  H       3.418899     -1.976241      2.203114
  H       5.129413     -2.307603      1.956639
  C       4.491111     -0.378796      1.181077
  H       5.058628      0.078633      2.005689
  H       3.546425      0.179330      1.098465
  C       5.248686     -0.215639     -0.128600
  H       6.216028     -0.753439     -0.062905
  C       5.507705      1.228301     -0.539527
  C       6.486120      1.978488      0.366720
  H       6.083339      2.033652      1.393385
  H       7.429021      1.405633      0.440998
  C       6.784247      3.392476     -0.132148
  H       7.487949      3.916509      0.534120
  H       5.863542      3.996997     -0.188816
  H       7.228489      3.374102     -1.141449
  H       4.540258      1.760243     -0.577895
  H       5.893597      1.212040     -1.572823
  C       3.660069     -4.115911      0.367539
  H       2.964741     -4.332614      1.196302
  H       4.599859     -4.656213      0.598638
  H       3.260800     -4.526216     -0.569338
  C       1.152615     -2.132109     -0.014656
  H       1.051129     -2.632182      0.948703
  C       1.124247     -0.791459     -0.106964
  C       1.021512      0.054632      1.116379
  O       0.980109     -0.656570      2.266355
  C       0.888309      0.105803      3.466324
  H       0.851787     -0.619465      4.289160
  H       1.761215      0.767821      3.579612
  H      -0.018461      0.730091      3.467639
  O       1.003422      1.265553      1.101700
  C       1.237535     -0.039148     -1.401956
  H       2.116055      0.624260     -1.391629
  H       0.355788      0.603392     -1.559187
  H       1.344036     -0.730805     -2.248241
  H       1.248433     -2.749678     -0.909441
  O       4.493767     -0.804903     -1.203852
41
Coordinates from ORCA-job orca E -847.145828003079
  O       3.615164     -2.633118     -2.099826
  C       4.007397     -2.069846     -1.094317
  C       3.924504     -2.654458      0.241880
  C       4.237001     -1.859027      1.470203
  H       3.418047     -1.976817      2.203052
  H       5.128509     -2.307964      1.955951
  C       4.490298     -0.378657      1.181770
  H       5.058241      0.078343      2.006336
  H       3.545849      0.179926      1.099617
  C       5.247818     -0.215142     -0.127940
  H       6.215054     -0.753126     -0.062396
  C       5.506933      1.228901     -0.538374
  C       6.485879      1.978531      0.367758
  H       6.083547      2.033480      1.394624
  H       7.428656      1.405404      0.441455
  C       6.784154      3.392604     -0.130771
  H       7.488251      3.916235      0.535390
  H       5.863578      3.997371     -0.186874
  H       7.227988      3.374441     -1.140255
  H       4.539564      1.761022     -0.576139
  H       5.892470      1.213036     -1.571802
  C       3.660254     -4.115324      0.367170
  H       2.964150     -4.331624      1.195387
  H       4.599992     -4.655312      0.599267
  H       3.262351     -4.525641     -0.570288
  C       1.151578     -2.133470     -0.014228
  H       1.051048     -2.633037      0.949469
  C       1.123860     -0.792916     -0.107772
  C       1.022210      0.054171      1.115131
  O       0.980160     -0.656214      2.265516
  C       0.891655      0.107165      3.465116
  H       0.853805     -0.617478      4.288432
  H       1.766711      0.766602      3.576966
  H      -0.013234      0.734149      3.466840
  O       1.005690      1.265103      1.099697
  C       1.236817     -0.041516     -1.403250
  H       2.115613      0.621519     -1.393257
  H       0.355190      0.601240     -1.560339
  H       1.342629     -0.733518     -2.249324
  H       1.246856     -2.751582     -0.908715
  O       4.492825     -0.803907     -1.203568
41
Coordinates from ORCA-job orca E -847.145829723954
  O       3.612626     -2.631071     -2.099962
  C       4.006031     -2.068588     -1.094459
  C       3.924047     -2.654177      0.241340
  C       4.236027     -1.859316      1.469901
  H       3.417051     -1.978046      2.202602
  H       5.127579     -2.308674      1.955291
  C       4.489468     -0.378797      1.182740
  H       5.057765      0.077676      2.007339
  H       3.545236      0.180199      1.101193
  C       5.246863     -0.214597     -0.127043
  H       6.214099     -0.752594     -0.061681
  C       5.505889      1.229666     -0.536749
  C       6.485259      1.978652      0.369496
  H       6.083385      2.032969      1.396578
  H       7.428013      1.405390      0.442420
  C       6.783437      3.393055     -0.128185
  H       7.487809      3.916192      0.538079
  H       5.862874      3.997906     -0.183543
  H       7.226902      3.375545     -1.137842
  H       4.538534      1.761867     -0.573816
  H       5.891150      1.214424     -1.570285
  C       3.660315     -4.114882      0.366181
  H       2.963016     -4.330698      1.193559
  H       4.599602     -4.655043      0.599724
  H       3.263695     -4.525069     -0.571875
  C       1.150600     -2.135259     -0.013319
  H       1.051501     -2.633838      0.951020
  C       1.123349     -0.794815     -0.108854
  C       1.023389      0.053853      1.113221
  O       0.980464     -0.655168      2.264414
  C       0.896912      0.109999      3.463273
  H       0.857190     -0.613526      4.287481
  H       1.775133      0.765636      3.572810
  H      -0.005176      0.740961      3.465519
  O       1.009156      1.264790      1.096508
  C       1.235284     -0.045162     -1.405345
  H       2.114300      0.617605     -1.396710
  H       0.353682      0.597709     -1.562236
  H       1.339970     -0.738216     -2.250670
  H       1.244715     -2.754237     -0.907372
  O       4.491916     -0.802770     -1.203154
41
Coordinates from ORCA-job orca E -847.145835403143
  O       3.608847     -2.627688     -2.100338
  C       4.004214     -2.066752     -1.094767
  C       3.923658     -2.654117      0.240467
  C       4.235206     -1.860200      1.469543
  H       3.415968     -1.980101      2.201801
  H       5.126657     -2.309999      1.954800
  C       4.488706     -0.379401      1.184168
  H       5.057360      0.076255      2.008949
  H       3.544640      0.179975      1.103572
  C       5.245771     -0.213915     -0.125750
  H       6.213133     -0.751734     -0.060873
  C       5.504418      1.230770     -0.534247
  C       6.484004      1.978975      0.372447
  H       6.082539      2.032133      1.399757
  H       7.426876      1.405780      0.444384
  C       6.781758      3.393968     -0.123803
  H       7.486244      3.916513      0.542802
  H       5.861056      3.998695     -0.178210
  H       7.224898      3.377632     -1.133625
  H       4.536976      1.762865     -0.570454
  H       5.889483      1.216554     -1.567866
  C       3.659989     -4.114705      0.364084
  H       2.960695     -4.330248      1.189938
  H       4.598296     -4.655557      0.599918
  H       3.264864     -4.524539     -0.574747
  C       1.149493     -2.137809     -0.011665
  H       1.052602     -2.634598      0.953814
  C       1.122594     -0.797535     -0.110294
  C       1.025616      0.053717      1.110249
  O       0.981692     -0.652971      2.262906
  C       0.905211      0.115187      3.460374
  H       0.863023     -0.606404      4.286144
  H       1.787795      0.765562      3.566365
  H       0.007053      0.751680      3.463212
  O       1.014754      1.264652      1.091323
  C       1.232526     -0.050958     -1.408656
  H       2.111798      0.611499     -1.403003
  H       0.350922      0.591980     -1.565360
  H       1.335393     -0.746176     -2.252400
  H       1.241484     -2.758250     -0.904975
  O       4.490847     -0.801185     -1.202395
41
Coordinates from ORCA-job orca E -847.145838764273
  O       3.604009     -2.622893     -2.101028
  C       4.001964     -2.064348     -1.095205
  C       3.923379     -2.654354      0.239216
  C       4.234916     -1.861969      1.469274
  H       3.415240     -1.983068      2.200894
  H       5.126108     -2.312255      1.954524
  C       4.488328     -0.380729      1.186090
  H       5.057409      0.073696      2.011238
  H       3.544319      0.178909      1.106916
  C       5.244663     -0.213179     -0.124054
  H       6.212304     -0.750642     -0.060303
  C       5.502511      1.232197     -0.530693
  C       6.482139      1.979517      0.376699
  H       6.081133      2.030927      1.404276
  H       7.425324      1.406675      0.447332
  C       6.778985      3.395394     -0.117554
  H       7.483517      3.917283      0.549519
  H       5.857956      3.999736     -0.170638
  H       7.221666      3.380797     -1.127606
  H       4.534820      1.763916     -0.565731
  H       5.887285      1.219544     -1.564431
  C       3.659136     -4.114973      0.360600
  H       2.956954     -4.330865      1.184040
  H       4.595907     -4.657006      0.599656
  H       3.265861     -4.524074     -0.579299
  C       1.148308     -2.141129     -0.009205
  H       1.054327     -2.635168      0.957981
  C       1.121513     -0.801104     -0.111976
  C       1.029014      0.053899      1.106152
  O       0.984554     -0.649228      2.261070
  C       0.916410      0.123222      3.456310
  H       0.871901     -0.595485      4.284468
  H       1.803755      0.767905      3.557541
  H       0.022611      0.765766      3.459636
  O       1.022336      1.264813      1.083787
  C       1.228357     -0.058946     -1.413108
  H       2.108018      0.603013     -1.412199
  H       0.346774      0.584074     -1.569665
  H       1.328700     -0.757413     -2.254445
  H       1.237137     -2.763785     -0.901332
  O       4.489514     -0.799120     -1.201158
41
Coordinates from ORCA-job orca E -847.145841861415
  O       3.599826     -2.618310     -2.101871
  C       4.000034     -2.062223     -1.095638
  C       3.923384     -2.654917      0.237902
  C       4.235551     -1.864371      1.469180
  H       3.415545     -1.986220      2.200332
  H       5.126473     -2.315110      1.954336
  C       4.488694     -0.382650      1.187894
  H       5.058211      0.070403      2.013489
  H       3.544559      0.176991      1.110297
  C       5.243970     -0.212736     -0.122531
  H       6.211950     -0.749797     -0.060445
  C       5.500723      1.233473     -0.527031
  C       6.480382      1.980041      0.380948
  H       6.079974      2.029484      1.408847
  H       7.424061      1.407819      0.450066
  C       6.775853      3.396922     -0.111231
  H       7.480436      3.918284      0.556198
  H       5.854332      4.000646     -0.162756
  H       7.217874      3.384269     -1.121596
  H       4.532650      1.764586     -0.560638
  H       5.884890      1.222612     -1.561016
  C       3.657867     -4.115682      0.356691
  H       2.952720     -4.332498      1.177467
  H       4.592983     -4.659043      0.598977
  H       3.266396     -4.523751     -0.584388
  C       1.147521     -2.144083     -0.006568
  H       1.056415     -2.635049      0.962464
  C       1.120348     -0.804351     -0.113353
  C       1.032587      0.054603      1.102103
  O       0.988951     -0.644675      2.259470
  C       0.926858      0.132018      3.452281
  H       0.881703     -0.583748      4.282955
  H       1.817042      0.773489      3.549117
  H       0.035669      0.778146      3.455754
  O       1.029010      1.265474      1.075885
  C       1.223900     -0.066665     -1.417355
  H       2.103961      0.594744     -1.421425
  H       0.342327      0.576363     -1.573939
  H       1.321896     -0.768409     -2.256236
  H       1.233249     -2.769279     -0.897206
  O       4.488284     -0.797252     -1.199842
41
Coordinates from ORCA-job orca E -847.145845000823
  O       3.596420     -2.614240     -2.102822
  C       3.998390     -2.060441     -1.096059
  C       3.923712     -2.655750      0.236498
  C       4.237240     -1.867410      1.469137
  H       3.417294     -1.989686      2.200292
  H       5.128099     -2.318723      1.953656
  C       4.489897     -0.385161      1.189560
  H       5.060021      0.066452      2.015543
  H       3.545456      0.174191      1.113812
  C       5.243620     -0.212586     -0.121283
  H       6.211995     -0.749215     -0.061488
  C       5.498944      1.234578     -0.523323
  C       6.478703      1.980315      0.385171
  H       6.079037      2.027576      1.413457
  H       7.422946      1.408810      0.452532
  C       6.772567      3.398299     -0.104790
  H       7.477243      3.919127      0.562960
  H       5.850487      4.001318     -0.154563
  H       7.213805      3.387758     -1.115521
  H       4.530368      1.764878     -0.555144
  H       5.882169      1.225837     -1.557688
  C       3.656423     -4.116656      0.352569
  H       2.948286     -4.334677      1.170526
  H       4.589848     -4.661389      0.598072
  H       3.266975     -4.523330     -0.589922
  C       1.147170     -2.146567     -0.003678
  H       1.058921     -2.634029      0.967400
  C       1.119038     -0.807194     -0.114529
  C       1.036024      0.055937      1.098059
  O       0.994980     -0.639252      2.257985
  C       0.936273      0.141521      3.448243
  H       0.892593     -0.571352      4.281490
  H       1.827035      0.782797      3.541008
  H       0.045513      0.788257      3.451663
  O       1.033917      1.266739      1.067612
  C       1.219034     -0.073947     -1.421410
  H       2.099450      0.586947     -1.430412
  H       0.337363      0.568908     -1.578040
  H       1.314862     -0.778740     -2.257995
  H       1.229978     -2.774803     -0.892402
  O       4.486964     -0.795546     -1.198589
41
Coordinates from ORCA-job orca E -847.145847764048
  O       3.594394     -2.611274     -2.103601
  C       3.997144     -2.059116     -1.096238
  C       3.923986     -2.656542      0.235350
  C       4.239209     -1.870443      1.469175
  H       3.419890     -1.993115      2.200953
  H       5.130388     -2.322507      1.952255
  C       4.491364     -0.387694      1.191228
  H       5.062239      0.062593      2.017435
  H       3.546569      0.171282      1.117325
  C       5.243376     -0.212580     -0.120134
  H       6.212070     -0.748902     -0.062792
  C       5.497275      1.235474     -0.519947
  C       6.477707      1.980404      0.388447
  H       6.079240      2.025865      1.417276
  H       7.422415      1.409425      0.453812
  C       6.770102      3.399292     -0.099802
  H       7.475266      3.919598      0.567847
  H       5.847596      4.001815     -0.147616
  H       7.210151      3.390470     -1.111069
  H       4.528232      1.765047     -0.549571
  H       5.878978      1.228733     -1.554899
  C       3.655228     -4.117508      0.349177
  H       2.944414     -4.336532      1.164563
  H       4.587351     -4.663106      0.597579
  H       3.268252     -4.522816     -0.594905
  C       1.146967     -2.148281     -0.001230
  H       1.060942     -2.632492      0.971673
  C       1.117810     -0.809269     -0.115603
  C       1.038452      0.057429      1.094612
  O       1.001096     -0.634313      2.256653
  C       0.943124      0.149572      3.444824
  H       0.902393     -0.561045      4.280150
  H       1.832599      0.793067      3.534453
  H       0.050986      0.794447      3.448190
  O       1.036001      1.268142      1.060530
  C       1.214899     -0.079540     -1.424742
  H       2.095734      0.580743     -1.437431
  H       0.333186      0.563246     -1.581279
  H       1.308870     -0.786481     -2.259736
  H       1.227663     -2.779521     -0.887955
  O       4.485502     -0.794019     -1.197366
41
Coordinates from ORCA-job orca E -847.145851075152
  O       3.592793     -2.608421     -2.104495
  C       3.995815     -2.057825     -1.096345
  C       3.924334     -2.657696      0.234009
  C       4.242067     -1.874556      1.469122
  H       3.424225     -1.998122      2.202398
  H       5.134172     -2.327784      1.949334
  C       4.493455     -0.391149      1.193562
  H       5.065508      0.057576      2.019829
  H       3.548144      0.167236      1.122233
  C       5.242945     -0.212691     -0.118675
  H       6.212048     -0.748602     -0.064675
  C       5.494883      1.236493     -0.515654
  C       6.476765      1.980208      0.392119
  H       6.080402      2.023415      1.421862
  H       7.421994      1.409748      0.454416
  C       6.767254      3.400219     -0.094033
  H       7.473446      3.919728      0.573154
  H       5.844277      4.002247     -0.138882
  H       7.205286      3.393538     -1.106189
  H       4.525278      1.765224     -0.541865
  H       5.874089      1.232421     -1.551537
  C       3.654028     -4.118591      0.345327
  H       2.939784     -4.338401      1.157501
  H       4.584692     -4.664974      0.597440
  H       3.270866     -4.522169     -0.601025
  C       1.146875     -2.149826      0.001797
  H       1.063315     -2.629870      0.976979
  C       1.116386     -0.811305     -0.117126
  C       1.040661      0.059679      1.090337
  O       1.009066     -0.627988      2.254865
  C       0.950568      0.159412      3.440588
  H       0.914769     -0.548617      4.278341
  H       1.837225      0.807272      3.526419
  H       0.055518      0.800299      3.444007
  O       1.036019      1.270246      1.051903
  C       1.210058     -0.085662     -1.428804
  H       2.091507      0.573731     -1.445534
  H       0.328344      0.557192     -1.584935
  H       1.301496     -0.794845     -2.262177
  H       1.225407     -2.785076     -0.882197
  O       4.483297     -0.792164     -1.195800
41
Coordinates from ORCA-job orca E -847.145854636210
  O       3.591676     -2.606324     -2.105381
  C       3.994594     -2.056924     -1.096491
  C       3.924599     -2.659103      0.232687
  C       4.245009     -1.878861      1.468794
  H       3.429247     -2.003972      2.204120
  H       5.138539     -2.333269      1.945303
  C       4.495440     -0.394808      1.196041
  H       5.068785      0.052539      2.022159
  H       3.549607      0.162937      1.127438
  C       5.242217     -0.212942     -0.117223
  H       6.211753     -0.748365     -0.066526
  C       5.492093      1.237373     -0.511361
  C       6.475727      1.979671      0.395655
  H       6.081873      2.020318      1.426479
  H       7.421493      1.409727      0.454369
  C       6.764045      3.400973     -0.088031
  H       7.471392      3.919532      0.578672
  H       5.840527      4.002415     -0.129459
  H       7.199780      3.396803     -1.101194
  H       4.521956      1.765309     -0.533797
  H       5.868622      1.236089     -1.548228
  C       3.653180     -4.119813      0.341798
  H       2.935329     -4.339742      1.150750
  H       4.582469     -4.666744      0.597776
  H       3.274382     -4.521903     -0.606932
  C       1.146836     -2.150885      0.004912
  H       1.065607     -2.626771      0.982333
  C       1.115210     -0.812879     -0.118917
  C       1.042157      0.062329      1.085907
  O       1.016776     -0.621387      2.252864
  C       0.958118      0.169512      3.436184
  H       0.927590     -0.535944      4.276316
  H       1.842022      0.821648      3.517755
  H       0.060197      0.806410      3.440020
  O       1.034273      1.272705      1.043286
  C       1.205648     -0.091367     -1.433024
  H       2.087963      0.566782     -1.453730
  H       0.324164      0.551962     -1.588377
  H       1.293883     -0.802782     -2.264828
  H       1.223567     -2.790223     -0.876266
  O       4.480712     -0.790473     -1.194263
41
Coordinates from ORCA-job orca E -847.145858753610
  O       3.591378     -2.605009     -2.106510
  C       3.993732     -2.056638     -1.096810
  C       3.925112     -2.661329      0.231182
  C       4.248615     -1.884173      1.468140
  H       3.435777     -2.011964      2.206247
  H       5.144307     -2.339623      1.939786
  C       4.497441     -0.399359      1.198937
  H       5.072162      0.046744      2.024754
  H       3.550894      0.157442      1.133482
  C       5.241079     -0.213516     -0.115584
  H       6.211201     -0.748153     -0.068395
  C       5.488454      1.238054     -0.506627
  C       6.474284      1.978739      0.399336
  H       6.083666      2.016295      1.431525
  H       7.420699      1.409436      0.453559
  C       6.759870      3.401599     -0.081392
  H       7.468706      3.919028      0.584606
  H       5.835679      4.002276     -0.118515
  H       7.192619      3.400498     -1.095841
  H       4.517745      1.765110     -0.524545
  H       5.861824      1.239934     -1.544622
  C       3.652829     -4.121792      0.338022
  H       2.930915     -4.341224      1.143475
  H       4.580696     -4.669164      0.598201
  H       3.278988     -4.522552     -0.613208
  C       1.147298     -2.151143      0.008481
  H       1.068337     -2.622730      0.988176
  C       1.114511     -0.813705     -0.120922
  C       1.042872      0.065948      1.081079
  O       1.024736     -0.613560      2.250665
  C       0.966118      0.181299      3.431298
  H       0.941825     -0.521261      4.274059
  H       1.847003      0.838133      3.507626
  H       0.065020      0.813713      3.435859
  O       1.029939      1.276054      1.034051
  C       1.201532     -0.096730     -1.437590
  H       2.085059      0.559674     -1.462868
  H       0.320589      0.547644     -1.591597
  H       1.285395     -0.810675     -2.267653
  H       1.222494     -2.794723     -0.869735
  O       4.477661     -0.789045     -1.192543
41
Coordinates from ORCA-job orca E -847.145862865470
  O       3.591462     -2.604133     -2.107910
  C       3.993201     -2.056908     -1.097366
  C       3.925786     -2.664322      0.229493
  C       4.252236     -1.890130      1.467302
  H       3.442533     -2.021504      2.208253
  H       5.150372     -2.346133      1.933996
  C       4.498888     -0.404466      1.202000
  H       5.074756      0.040506      2.027593
  H       3.551521      0.151195      1.139799
  C       5.239477     -0.214315     -0.113735
  H       6.210365     -0.747798     -0.069752
  C       5.484062      1.238551     -0.501665
  C       6.472054      1.977765      0.403202
  H       6.084886      2.012011      1.436817
  H       7.419231      1.409308      0.452667
  C       6.754541      3.402296     -0.074419
  H       7.464879      3.918652      0.590806
  H       5.829550      4.002000     -0.106961
  H       7.184089      3.404506     -1.090223
  H       4.512734      1.764608     -0.514986
  H       5.854304      1.243661     -1.540750
  C       3.652942     -4.124662      0.333902
  H       2.926782     -4.343442      1.135756
  H       4.579313     -4.672498      0.598342
  H       3.283859     -4.524457     -0.619571
  C       1.148156     -2.150803      0.012222
  H       1.071300     -2.618521      0.993938
  C       1.114527     -0.813913     -0.122842
  C       1.043324      0.070189      1.076168
  O       1.031938     -0.604997      2.248475
  C       0.975074      0.194320      3.426208
  H       0.956422     -0.505035      4.271778
  H       1.854105      0.854328      3.496442
  H       0.071895      0.823741      3.431775
  O       1.025170      1.279982      1.024694
  C       1.198263     -0.101778     -1.442204
  H       2.083402      0.552266     -1.472801
  H       0.318339      0.544352     -1.594580
  H       1.276810     -0.818707     -2.270182
  H       1.221944     -2.798094     -0.863425
  O       4.474569     -0.788071     -1.190666
41
Coordinates from ORCA-job orca E -847.145868047744
  O       3.590664     -2.602627     -2.110147
  C       3.992193     -2.057491     -1.098451
  C       3.926684     -2.668911      0.226869
  C       4.256965     -1.898712      1.466057
  H       3.451195     -2.035134      2.210412
  H       5.158194     -2.354987      1.926698
  C       4.500342     -0.411831      1.205953
  H       5.077613      0.031470      2.031439
  H       3.551837      0.142222      1.148293
  C       5.236906     -0.215634     -0.111276
  H       6.208982     -0.747264     -0.071461
  C       5.477428      1.239086     -0.494742
  C       6.467615      1.976559      0.409211
  H       6.084706      2.005763      1.444581
  H       7.416088      1.409753      0.452401
  C       6.745359      3.403632     -0.063609
  H       7.457292      3.918661      0.600943
  H       5.819023      4.001559     -0.090011
  H       7.170850      3.410908     -1.081093
  H       4.505116      1.763466     -0.502284
  H       5.843964      1.248731     -1.535089
  C       3.653144     -4.129291      0.327652
  H       2.921111     -4.347698      1.124404
  H       4.577100     -4.678155      0.598136
  H       3.289959     -4.528046     -0.628512
  C       1.149385     -2.150272      0.017686
  H       1.075531     -2.612947      1.002055
  C       1.115227     -0.814158     -0.125191
  C       1.045346      0.076439      1.069143
  O       1.041719     -0.592332      2.245374
  C       0.989703      0.213822      3.418705
  H       0.977114     -0.480639      4.268412
  H       1.868095      0.875614      3.479949
  H       0.085527      0.841751      3.425597
  O       1.021919      1.285783      1.011117
  C       1.194443     -0.109415     -1.448690
  H       2.082289      0.540579     -1.487816
  H       0.316473      0.539808     -1.598995
  H       1.264961     -0.831187     -2.273135
  H       1.220646     -2.802159     -0.854854
  O       4.470351     -0.787164     -1.188144
41
Coordinates from ORCA-job orca E -847.145873574033
  O       3.588063     -2.599308     -2.113903
  C       3.990124     -2.058303     -1.100272
  C       3.928129     -2.676515      0.222340
  C       4.264287     -1.913016      1.464226
  H       3.463960     -2.056794      2.213119
  H       5.169712     -2.369647      1.916331
  C       4.502581     -0.424140      1.212183
  H       5.081960      0.016067      2.037838
  H       3.552260      0.127288      1.161849
  C       5.232885     -0.218002     -0.107130
  H       6.207007     -0.746346     -0.074046
  C       5.466378      1.239798     -0.483114
  C       6.459238      1.975123      0.419700
  H       6.082693      1.996026      1.457610
  H       7.410117      1.411709      0.453253
  C       6.728610      3.406334     -0.045394
  H       7.442595      3.919752      0.618192
  H       5.799816      4.000781     -0.062250
  H       7.147842      3.421907     -1.065372
  H       4.492190      1.760785     -0.481798
  H       5.827158      1.256953     -1.525357
  C       3.652800     -4.137015      0.316775
  H       2.911395     -4.355639      1.105080
  H       4.571908     -4.688813      0.597205
  H       3.298363     -4.533693     -0.643569
  C       1.151400     -2.149601      0.026706
  H       1.082898     -2.604007      1.015380
  C       1.116717     -0.814851     -0.128652
  C       1.051124      0.086749      1.057507
  O       1.058571     -0.571056      2.240126
  C       1.015579      0.246493      3.405916
  H       1.011332     -0.439662      4.262434
  H       1.894006      0.909499      3.452727
  H       0.110960      0.873711      3.414596
  O       1.022096      1.295332      0.988372
  C       1.188654     -0.122711     -1.459187
  H       2.081112      0.520062     -1.512696
  H       0.314249      0.531784     -1.606897
  H       1.246374     -0.852682     -2.277356
  H       1.217850     -2.808769     -0.840879
  O       4.464068     -0.786033     -1.184002
41
Coordinates from ORCA-job orca E -847.145877941129
  O       3.588743     -2.600793     -2.116205
  C       3.990410     -2.061434     -1.101682
  C       3.929815     -2.682511      0.219766
  C       4.268779     -1.921959      1.462875
  H       3.471239     -2.069627      2.213926
  H       5.176502     -2.377749      1.911158
  C       4.503459     -0.432002      1.214214
  H       5.083377      0.006970      2.040155
  H       3.551815      0.117337      1.167361
  C       5.230932     -0.220666     -0.105820
  H       6.206568     -0.746384     -0.075552
  C       5.459927      1.238823     -0.478225
  C       6.453034      1.974010      0.424418
  H       6.079154      1.990493      1.463367
  H       7.405576      1.413164      0.453629
  C       6.717212      3.407435     -0.036819
  H       7.431532      3.920719      0.626516
  H       5.786727      3.999329     -0.049340
  H       7.133711      3.427409     -1.057836
  H       4.484541      1.757418     -0.473107
  H       5.818296      1.259797     -1.521228
  C       3.653358     -4.143108      0.311250
  H       2.908396     -4.362461      1.095962
  H       4.571066     -4.695361      0.595081
  H       3.301496     -4.539093     -0.650196
  C       1.154332     -2.146541      0.031171
  H       1.087728     -2.598020      1.021165
  C       1.119302     -0.812308     -0.129176
  C       1.054272      0.094314      1.052904
  O       1.066711     -0.558347      2.238390
  C       1.026695      0.264358      3.400636
  H       1.026882     -0.417933      4.260251
  H       1.904385      0.928804      3.441005
  H       0.121232      0.890326      3.409983
  O       1.021751      1.302503      0.978548
  C       1.188562     -0.125936     -1.462841
  H       2.083854      0.512196     -1.523281
  H       0.316720      0.532121     -1.609455
  H       1.239750     -0.859695     -2.278013
  H       1.219259     -2.807931     -0.834667
  O       4.461962     -0.788116     -1.182699
41
Coordinates from ORCA-job orca E -847.145882422148
  O       3.586322     -2.599785     -2.118750
  C       3.988941     -2.063484     -1.102994
  C       3.931239     -2.688888      0.216467
  C       4.273491     -1.932820      1.461690
  H       3.478468     -2.083977      2.214726
  H       5.183126     -2.388647      1.905863
  C       4.504866     -0.441533      1.217397
  H       5.086108     -0.004982      2.043732
  H       3.551879      0.105761      1.175395
  C       5.228513     -0.223443     -0.103518
  H       6.205930     -0.746068     -0.077611
  C       5.451563      1.238257     -0.470887
  C       6.444954      1.973318      0.431488
  H       6.074287      1.984381      1.471659
  H       7.399596      1.415794      0.455458
  C       6.702649      3.409433     -0.025059
  H       7.417278      3.922677      0.637986
  H       5.770072      3.998099     -0.032433
  H       7.115918      3.434728     -1.047267
  H       4.474388      1.753458     -0.460680
  H       5.806470      1.264424     -1.514967
  C       3.653118     -4.149594      0.303765
  H       2.903186     -4.370671      1.083487
  H       4.568042     -4.703536      0.592968
  H       3.305380     -4.543764     -0.659976
  C       1.156786     -2.144484      0.037095
  H       1.093442     -2.590743      1.029710
  C       1.121758     -0.811172     -0.130576
  C       1.061764      0.102860      1.045758
  O       1.078822     -0.542480      2.235087
  C       1.043901      0.286958      3.392625
  H       1.047689     -0.390212      4.256277
  H       1.921854      0.951491      3.425456
  H       0.138623      0.913209      3.402254
  O       1.029458      1.310574      0.963895
  C       1.187178     -0.132947     -1.468753
  H       2.085929      0.499519     -1.537903
  H       0.318268      0.528988     -1.614836
  H       1.230869     -0.871591     -2.279940
  H       1.217878     -2.810144     -0.825810
  O       4.459054     -0.789414     -1.180686
41
Coordinates from ORCA-job orca E -847.145896669630
  O       3.586398     -2.603593     -2.119891
  C       3.989196     -2.068042     -1.103879
  C       3.932759     -2.694414      0.214886
  C       4.275604     -1.939602      1.460805
  H       3.481021     -2.091389      2.214102
  H       5.185693     -2.394794      1.904458
  C       4.505178     -0.447789      1.217110
  H       5.086751     -0.012071      2.043689
  H       3.551391      0.098115      1.176838
  C       5.227702     -0.226887     -0.103687
  H       6.206621     -0.746751     -0.078940
  C       5.446525      1.235989     -0.469326
  C       6.438499      1.972590      0.433290
  H       6.068314      1.981460      1.473644
  H       7.394687      1.417663      0.456103
  C       6.692127      3.409893     -0.021863
  H       7.405805      3.924311      0.641309
  H       5.758008      3.996113     -0.028099
  H       7.104802      3.437333     -1.044254
  H       4.468086      1.748614     -0.457711
  H       5.800375      1.264458     -1.513720
  C       3.654383     -4.155292      0.301096
  H       2.904843     -4.378757      1.080328
  H       4.570894     -4.706924      0.589562
  H       3.305955     -4.548872     -0.662487
  C       1.160085     -2.139903      0.039014
  H       1.096527     -2.585286      1.031821
  C       1.125513     -0.806685     -0.129776
  C       1.067436      0.109662      1.044685
  O       1.082772     -0.533522      2.234938
  C       1.047620      0.297234      3.391460
  H       1.050691     -0.378836      4.255973
  H       1.925573      0.961740      3.424277
  H       0.142468      0.923727      3.399901
  O       1.038055      1.317337      0.960461
  C       1.191478     -0.130417     -1.468951
  H       2.092278      0.498792     -1.539623
  H       0.324563      0.533923     -1.615565
  H       1.233038     -0.869873     -2.279477
  H       1.219785     -2.805757     -0.823608
  O       4.459564     -0.793949     -1.181304
41
Coordinates from ORCA-job orca E -847.145891018469
  O       3.582061     -2.601733     -2.121224
  C       3.986708     -2.068937     -1.104368
  C       3.933235     -2.699056      0.212524
  C       4.278258     -1.948066      1.460072
  H       3.485094     -2.101773      2.214584
  H       5.189255     -2.404558      1.900506
  C       4.506621     -0.455380      1.220320
  H       5.089935     -0.021858      2.046836
  H       3.552257      0.089551      1.184112
  C       5.225729     -0.229147     -0.101335
  H       6.206056     -0.746470     -0.080424
  C       5.439161      1.235513     -0.462872
  C       6.431642      1.972271      0.439027
  H       6.064409      1.977020      1.480454
  H       7.389535      1.420130      0.457482
  C       6.679732      3.411649     -0.012653
  H       7.393694      3.926299      0.650037
  H       5.743848      3.995064     -0.014692
  H       7.089561      3.443197     -1.036070
  H       4.458994      1.744883     -0.446496
  H       5.789591      1.268459     -1.508287
  C       3.654158     -4.159925      0.295477
  H       2.900964     -4.384610      1.071070
  H       4.568453     -4.712888      0.588336
  H       3.310079     -4.551442     -0.670653
  C       1.161342     -2.138524      0.043559
  H       1.100536     -2.578481      1.039136
  C       1.127459     -0.806223     -0.131875
  C       1.076194      0.116084      1.038372
  O       1.092677     -0.521486      2.231501
  C       1.062398      0.314402      3.384335
  H       1.065841     -0.357763      4.251884
  H       1.941919      0.977067      3.412251
  H       0.158718      0.943066      3.392149
  O       1.051114      1.323431      0.948399
  C       1.190840     -0.136398     -1.474469
  H       2.094107      0.488873     -1.550627
  H       0.325878      0.530412     -1.621227
  H       1.227276     -0.879340     -2.282096
  H       1.216604     -2.809059     -0.815918
  O       4.457126     -0.794705     -1.179546
41
Coordinates from ORCA-job orca E -847.145894457201
  O       3.579617     -2.602847     -2.121514
  C       3.985624     -2.071134     -1.104551
  C       3.933727     -2.702892      0.211500
  C       4.279325     -1.953371      1.459446
  H       3.486590     -2.107726      2.214347
  H       5.190537     -2.410954      1.898458
  C       4.507732     -0.460470      1.221681
  H       5.092174     -0.027756      2.047803
  H       3.553289      0.084199      1.187403
  C       5.225003     -0.231621     -0.100515
  H       6.206372     -0.746993     -0.081309
  C       5.434628      1.234056     -0.460310
  C       6.426820      1.971806      0.441106
  H       6.061049      1.974495      1.483061
  H       7.385939      1.421737      0.457548
  C       6.671058      3.412322     -0.009054
  H       7.384617      3.927795      0.653424
  H       5.733808      3.993535     -0.009254
  H       7.079578      3.446056     -1.032923
  H       4.453233      1.741020     -0.441497
  H       5.783369      1.269416     -1.506195
  C       3.655014     -4.163752      0.293222
  H       2.901433     -4.388902      1.068290
  H       4.569722     -4.715865      0.586486
  H       3.312621     -4.554122     -0.673962
  C       1.163018     -2.135669      0.045478
  H       1.102958     -2.572773      1.042397
  C       1.129745     -0.803754     -0.132998
  C       1.082022      0.120801      1.035956
  O       1.096190     -0.514827      2.230140
  C       1.067851      0.322994      3.381588
  H       1.069256     -0.347769      4.250225
  H       1.948966      0.983567      3.408737
  H       0.165713      0.953912      3.388096
  O       1.061452      1.328088      0.944000
  C       1.192955     -0.136229     -1.476609
  H       2.097035      0.487806     -1.553524
  H       0.328653      0.531370     -1.623808
  H       1.227891     -0.880230     -2.283324
  H       1.215820     -2.808676     -0.812231
  O       4.456656     -0.797093     -1.179223
41
Coordinates from ORCA-job orca E -847.145894329893
  O       3.577685     -2.604010     -2.122028
  C       3.984953     -2.073509     -1.104912
  C       3.934488     -2.707283      0.210309
  C       4.281220     -1.959376      1.458655
  H       3.489459     -2.115212      2.214330
  H       5.193032     -2.417881      1.895638
  C       4.509225     -0.466201      1.223437
  H       5.094772     -0.034242      2.049118
  H       3.554592      0.078111      1.191432
  C       5.224262     -0.234284     -0.099543
  H       6.206688     -0.747679     -0.082306
  C       5.429973      1.232444     -0.457378
  C       6.421791      1.971186      0.443684
  H       6.057661      1.971474      1.486232
  H       7.382227      1.423355      0.457816
  C       6.661817      3.412997     -0.004615
  H       7.374937      3.929285      0.657691
  H       5.723062      3.991769     -0.002683
  H       7.068836      3.449298     -1.028994
  H       4.447312      1.736870     -0.436098
  H       5.777189      1.270369     -1.503667
  C       3.656038     -4.168197      0.290295
  H       2.901639     -4.393308      1.064578
  H       4.570810     -4.719937      0.584106
  H       3.315537     -4.557567     -0.677929
  C       1.165149     -2.132369      0.047920
  H       1.106255     -2.566255      1.046337
  C       1.132035     -0.800899     -0.134230
  C       1.086800      0.126103      1.033103
  O       1.099667     -0.507218      2.228658
  C       1.074004      0.333260      3.378245
  H       1.074096     -0.335618      4.248337
  H       1.956819      0.991638      3.403432
  H       0.173466      0.966458      3.383736
  O       1.069128      1.333246      0.938873
  C       1.194327     -0.136281     -1.479166
  H       2.098813      0.486961     -1.557808
  H       0.330390      0.531784     -1.626600
  H       1.227398     -0.882044     -2.284310
  H       1.215700     -2.808255     -0.807648
  O       4.455808     -0.799432     -1.178457
41
Coordinates from ORCA-job orca E -847.145895211474
  O       3.576729     -2.604310     -2.122280
  C       3.984652     -2.074455     -1.105121
  C       3.934876     -2.709237      0.209759
  C       4.282397     -1.962055      1.458316
  H       3.491165     -2.118601      2.214399
  H       5.194469     -2.420911      1.894420
  C       4.510192     -0.468765      1.224205
  H       5.096364     -0.037260      2.049664
  H       3.555536      0.075532      1.193432
  C       5.224019     -0.235453     -0.099260
  H       6.206836     -0.748135     -0.083109
  C       5.428199      1.231724     -0.456200
  C       6.419642      1.970881      0.444955
  H       6.056020      1.970129      1.487678
  H       7.380630      1.423998      0.458273
  C       6.657961      3.413245     -0.002483
  H       7.370771      3.929871      0.659897
  H       5.718557      3.990957      0.000215
  H       7.064508      3.450687     -1.027010
  H       4.445017      1.735079     -0.434161
  H       5.775064      1.270704     -1.502560
  C       3.656740     -4.170298      0.288708
  H       2.902114     -4.395632      1.062694
  H       4.571622     -4.721903      0.582412
  H       3.316873     -4.559323     -0.679841
  C       1.166146     -2.130894      0.049176
  H       1.107967     -2.563250      1.048276
  C       1.132898     -0.799623     -0.134640
  C       1.088451      0.128489      1.031839
  O       1.100564     -0.503688      2.228111
  C       1.076339      0.338150      3.376782
  H       1.075540     -0.329793      4.247594
  H       1.960203      0.995150      3.401073
  H       0.176801      0.972757      3.381696
  O       1.071986      1.335557      0.936501
  C       1.194418     -0.136427     -1.480266
  H       2.098526      0.487180     -1.559880
  H       0.330167      0.531199     -1.627977
  H       1.227222     -0.883220     -2.284435
  H       1.215740     -2.808199     -0.805295
  O       4.455139     -0.800308     -1.177968
41
Coordinates from ORCA-job orca E -847.145090953341
  O       3.576651     -2.616486     -2.099682
  C       3.998541     -2.088272     -1.086713
  C       3.972416     -2.718099      0.225120
  C       4.307760     -1.972688      1.457276
  H       3.484784     -2.133767      2.187047
  H       5.213883     -2.426406      1.911227
  C       4.520378     -0.479396      1.226919
  H       5.087135     -0.039561      2.061811
  H       3.549373      0.051255      1.179973
  C       5.239447     -0.242515     -0.089311
  H       6.227727     -0.744530     -0.067028
  C       5.432946      1.223915     -0.455820
  C       6.416967      1.976685      0.442334
  H       6.051285      1.980164      1.484342
  H       7.382099      1.437219      0.461229
  C       6.645174      3.417861     -0.014319
  H       7.352732      3.944371      0.646003
  H       5.701359      3.988428     -0.017362
  H       7.053466      3.451522     -1.038292
  H       4.446074      1.720054     -0.439044
  H       5.781572      1.258506     -1.501760
  C       3.662590     -4.149602      0.301051
  H       2.897517     -4.333210      1.076822
  H       4.559759     -4.730354      0.595194
  H       3.308517     -4.525530     -0.667979
  C       1.106863     -2.090040      0.044474
  H       1.088849     -2.522173      1.027934
  C       1.100306     -0.768560     -0.144857
  C       1.076316      0.148231      1.027819
  O       1.088114     -0.512717      2.211323
  C       1.087126      0.301117      3.381764
  H       1.082478     -0.388921      4.235624
  H       1.980845      0.944153      3.417143
  H       0.197565      0.949686      3.409854
  O       1.085898      1.357126      0.952065
  C       1.188484     -0.131694     -1.499864
  H       2.111610      0.465742     -1.582183
  H       0.342757      0.554649     -1.671360
  H       1.215592     -0.902390     -2.285478
  H       1.206192     -2.770346     -0.793909
  O       4.469914     -0.813876     -1.161799
41
Coordinates from ORCA-job orca E -847.146346507730
  O       3.576616     -2.611061     -2.111327
  C       4.001543     -2.087914     -1.097143
  C       3.980869     -2.728410      0.214774
  C       4.310172     -1.976222      1.459428
  H       3.495929     -2.136865      2.192383
  H       5.216317     -2.425423      1.916796
  C       4.520973     -0.480363      1.226762
  H       5.091787     -0.039713      2.058006
  H       3.556694      0.047431      1.186107
  C       5.234439     -0.240333     -0.094966
  H       6.222343     -0.743503     -0.078371
  C       5.427998      1.227922     -0.454174
  C       6.414097      1.975128      0.446166
  H       6.050913      1.971592      1.489093
  H       7.379462      1.435950      0.459173
  C       6.640512      3.419331     -0.001601
  H       7.349459      3.941846      0.660308
  H       5.696442      3.989374      0.001527
  H       7.046161      3.459913     -1.026369
  H       4.441394      1.724365     -0.432475
  H       5.774396      1.267733     -1.500636
  C       3.666294     -4.176187      0.291471
  H       2.900289     -4.369550      1.064243
  H       4.561272     -4.758630      0.587879
  H       3.314455     -4.554197     -0.677061
  C       1.112690     -2.110106      0.042348
  H       1.089967     -2.552162      1.038547
  C       1.103751     -0.780442     -0.140934
  C       1.081306      0.144067      1.029463
  O       1.093649     -0.496989      2.222392
  C       1.088385      0.338345      3.376314
  H       1.084594     -0.334880      4.243007
  H       1.980741      0.983874      3.399413
  H       0.197193      0.984594      3.390937
  O       1.084393      1.351361      0.942779
  C       1.185882     -0.129248     -1.491155
  H       2.105712      0.471482     -1.570394
  H       0.338246      0.556054     -1.653613
  H       1.211712     -0.887677     -2.284467
  H       1.204305     -2.790425     -0.807178
  O       4.465710     -0.810513     -1.169864
41
Coordinates from ORCA-job orca E -847.146533772355
  O       3.575494     -2.609584     -2.112870
  C       4.001740     -2.086284     -1.099712
  C       3.985623     -2.730798      0.211409
  C       4.311255     -1.976966      1.461931
  H       3.503050     -2.137978      2.199340
  H       5.218173     -2.424521      1.918695
  C       4.522086     -0.480669      1.226751
  H       5.097735     -0.040430      2.054745
  H       3.559592      0.048513      1.190967
  C       5.232758     -0.239834     -0.097390
  H       6.219623     -0.745014     -0.084327
  C       5.426297      1.229175     -0.453059
  C       6.415046      1.973493      0.446708
  H       6.054678      1.967207      1.490552
  H       7.380255      1.433994      0.455615
  C       6.640735      3.418808      0.002234
  H       7.351652      3.939303      0.663609
  H       5.696848      3.989106      0.009486
  H       7.043605      3.462050     -1.023516
  H       4.439931      1.726159     -0.427668
  H       5.770062      1.271541     -1.500310
  C       3.670513     -4.184426      0.289360
  H       2.903990     -4.383792      1.059458
  H       4.565355     -4.764961      0.587971
  H       3.321568     -4.563530     -0.679818
  C       1.116082     -2.118077      0.041716
  H       1.085298     -2.560010      1.039460
  C       1.105649     -0.786577     -0.139602
  C       1.079413      0.141220      1.028030
  O       1.093125     -0.492218      2.224065
  C       1.085814      0.349800      3.372755
  H       1.083213     -0.318212      4.243501
  H       1.976997      0.997002      3.391736
  H       0.193435      0.994331      3.383520
  O       1.083150      1.348175      0.934444
  C       1.183866     -0.127011     -1.486501
  H       2.101258      0.477416     -1.563247
  H       0.333925      0.556661     -1.642600
  H       1.209170     -0.878399     -2.286354
  H       1.197652     -2.796703     -0.810620
  O       4.463348     -0.808411     -1.172874
41
Coordinates from ORCA-job orca E -847.146613628447
  O       3.572909     -2.609494     -2.111734
  C       4.000702     -2.084740     -1.100100
  C       3.988527     -2.730773      0.210206
  C       4.312850     -1.977272      1.463376
  H       3.509861     -2.139265      2.205692
  H       5.221298     -2.424709      1.917288
  C       4.524255     -0.481018      1.226979
  H       5.105388     -0.041944      2.051848
  H       3.562766      0.050767      1.196408
  C       5.232165     -0.239847     -0.098794
  H       6.218103     -0.746744     -0.088432
  C       5.425484      1.229627     -0.452318
  C       6.417430      1.972117      0.445450
  H       6.060416      1.964622      1.490407
  H       7.382365      1.432101      0.450505
  C       6.642534      3.417897      0.002173
  H       7.355856      3.937103      0.661971
  H       5.698984      3.988698      0.013194
  H       7.042166      3.462294     -1.024787
  H       4.439431      1.727054     -0.423205
  H       5.766025      1.273707     -1.500570
  C       3.675407     -4.186565      0.289334
  H       2.908076     -4.390590      1.057052
  H       4.571534     -4.763441      0.590605
  H       3.330249     -4.566838     -0.680809
  C       1.118201     -2.121421      0.041667
  H       1.077238     -2.560611      1.039974
  C       1.108844     -0.789845     -0.139107
  C       1.082461      0.139289      1.027257
  O       1.089843     -0.491197      2.224134
  C       1.078521      0.352763      3.371268
  H       1.070436     -0.313624      4.243246
  H       1.971080      0.998008      3.392892
  H       0.187464      0.999186      3.376741
  O       1.080068      1.346250      0.930223
  C       1.183601     -0.124886     -1.483757
  H       2.099154      0.482183     -1.559649
  H       0.331975      0.557955     -1.633856
  H       1.206781     -0.871134     -2.288698
  H       1.187236     -2.799003     -0.812176
  O       4.461376     -0.807108     -1.174309
41
Coordinates from ORCA-job orca E -847.146661503063
  O       3.570271     -2.609875     -2.109034
  C       3.998571     -2.083213     -1.098503
  C       3.988262     -2.729229      0.211328
  C       4.313221     -1.977035      1.464757
  H       3.514542     -2.140380      2.211497
  H       5.223463     -2.425201      1.914826
  C       4.525544     -0.481153      1.228024
  H       5.110901     -0.042956      2.050533
  H       3.564983      0.052824      1.200887
  C       5.231595     -0.239986     -0.098430
  H       6.216827     -0.748147     -0.089427
  C       5.424749      1.229660     -0.451043
  C       6.419278      1.971277      0.444609
  H       6.064982      1.963622      1.490483
  H       7.383953      1.430776      0.446952
  C       6.643970      3.417112      0.001250
  H       7.359189      3.935739      0.659455
  H       5.700721      3.988368      0.014799
  H       7.041088      3.461664     -1.026675
  H       4.438953      1.727391     -0.419237
  H       5.762728      1.274628     -1.500101
  C       3.679792     -4.185446      0.291249
  H       2.910640     -4.393438      1.055965
  H       4.577962     -4.757005      0.596806
  H       3.340477     -4.567692     -0.680204
  C       1.117529     -2.122628      0.039814
  H       1.063570     -2.557963      1.038429
  C       1.110143     -0.791452     -0.140926
  C       1.078632      0.138085      1.025444
  O       1.087174     -0.491941      2.222051
  C       1.076419      0.351230      3.369951
  H       1.068834     -0.315766      4.241462
  H       1.968854      0.996623      3.391671
  H       0.185277      0.997534      3.376355
  O       1.083404      1.345229      0.927572
  C       1.184053     -0.123577     -1.484158
  H       2.097681      0.486474     -1.558694
  H       0.330536      0.557696     -1.630923
  H       1.207010     -0.866503     -2.292351
  H       1.173795     -2.799589     -0.814976
  O       4.459488     -0.806208     -1.173899
41
Coordinates from ORCA-job orca E -847.146692567003
  O       3.567317     -2.609468     -2.107184
  C       3.996171     -2.082383     -1.096914
  C       3.985882     -2.727652      0.212945
  C       4.314358     -1.976811      1.464725
  H       3.517864     -2.141095      2.213919
  H       5.225983     -2.426230      1.911194
  C       4.527396     -0.481082      1.229370
  H       5.115220     -0.044023      2.050797
  H       3.567338      0.054317      1.204757
  C       5.231463     -0.239815     -0.097863
  H       6.216648     -0.748081     -0.089859
  C       5.424341      1.229790     -0.450778
  C       6.420833      1.971201      0.442875
  H       6.068630      1.963835      1.489473
  H       7.385341      1.430393      0.443367
  C       6.645055      3.416921     -0.001106
  H       7.361662      3.935435      0.655681
  H       5.701990      3.988440      0.014147
  H       7.040238      3.461212     -1.029788
  H       4.438752      1.727723     -0.417032
  H       5.760346      1.274837     -1.500466
  C       3.682285     -4.183357      0.292816
  H       2.911831     -4.393113      1.055855
  H       4.582159     -4.750845      0.601475
  H       3.347170     -4.567534     -0.679310
  C       1.115215     -2.121373      0.039213
  H       1.053456     -2.553910      1.038085
  C       1.112295     -0.790549     -0.142045
  C       1.083513      0.137981      1.025512
  O       1.085005     -0.494090      2.221027
  C       1.071967      0.347064      3.370428
  H       1.058157     -0.321457      4.240682
  H       1.966574      0.989277      3.397223
  H       0.183054      0.996474      3.373884
  O       1.085454      1.345253      0.929567
  C       1.186481     -0.123093     -1.485346
  H       2.099754      0.487281     -1.560767
  H       0.332756      0.558335     -1.630954
  H       1.208020     -0.865911     -2.293655
  H       1.163227     -2.798583     -0.815657
  O       4.457863     -0.805763     -1.172703
41
Coordinates from ORCA-job orca E -847.146705265368
  O       3.565059     -2.608181     -2.106322
  C       3.993507     -2.081704     -1.095474
  C       3.981714     -2.726392      0.214669
  C       4.314801     -1.976548      1.464631
  H       3.519227     -2.141240      2.214943
  H       5.227296     -2.427069      1.908385
  C       4.528342     -0.480861      1.230886
  H       5.116714     -0.044599      2.052312
  H       3.568538      0.054899      1.207140
  C       5.230952     -0.239336     -0.096982
  H       6.216396     -0.747166     -0.089748
  C       5.423594      1.230170     -0.450493
  C       6.420858      1.971610      0.442291
  H       6.069483      1.964374      1.489190
  H       7.385323      1.430724      0.442072
  C       6.644792      3.417295     -0.001944
  H       7.361879      3.935833      0.654299
  H       5.701758      3.988838      0.013943
  H       7.039232      3.461493     -1.030917
  H       4.438065      1.728170     -0.415964
  H       5.758842      1.274989     -1.500416
  C       3.682908     -4.182157      0.293860
  H       2.911280     -4.393008      1.055592
  H       4.583912     -4.746569      0.605183
  H       3.351277     -4.568332     -0.678629
  C       1.111167     -2.120304      0.038295
  H       1.045158     -2.551602      1.037410
  C       1.112816     -0.789427     -0.143375
  C       1.085928      0.138266      1.025086
  O       1.085315     -0.495522      2.220001
  C       1.072585      0.344280      3.370453
  H       1.056723     -0.325357      4.239806
  H       1.968174      0.985032      3.399198
  H       0.184737      0.995151      3.373667
  O       1.091648      1.345562      0.931040
  C       1.188963     -0.123901     -1.487323
  H       2.102322      0.486254     -1.563378
  H       0.335386      0.557530     -1.634522
  H       1.210866     -0.868418     -2.293954
  H       1.155493     -2.798043     -0.816376
  O       4.456028     -0.805182     -1.170944
41
Coordinates from ORCA-job orca E -847.146714544448
  O       3.562428     -2.606046     -2.106066
  C       3.990149     -2.080681     -1.094391
  C       3.976797     -2.725336      0.215927
  C       4.315167     -1.976450      1.464809
  H       3.520820     -2.141247      2.216468
  H       5.228510     -2.427960      1.905730
  C       4.529097     -0.480691      1.232513
  H       5.117925     -0.045462      2.054090
  H       3.569539      0.055304      1.209816
  C       5.229819     -0.238582     -0.096340
  H       6.215524     -0.745989     -0.090672
  C       5.422124      1.230969     -0.449946
  C       6.420123      1.972107      0.442296
  H       6.069546      1.964465      1.489469
  H       7.384579      1.431198      0.441144
  C       6.643758      3.417973     -0.001497
  H       7.361347      3.936222      0.654429
  H       5.700749      3.989527      0.015338
  H       7.037417      3.462586     -1.030755
  H       4.436634      1.728994     -0.414393
  H       5.756564      1.275873     -1.500114
  C       3.682980     -4.182133      0.294132
  H       2.910296     -4.394802      1.054446
  H       4.584925     -4.743626      0.607992
  H       3.354755     -4.570262     -0.678700
  C       1.106170     -2.120201      0.037603
  H       1.037578     -2.551061      1.036931
  C       1.113243     -0.789097     -0.144388
  C       1.089486      0.138321      1.024222
  O       1.086875     -0.496043      2.219191
  C       1.075021      0.343679      3.369705
  H       1.057119     -0.326101      4.238909
  H       1.971797      0.982704      3.399490
  H       0.188460      0.996304      3.372240
  O       1.100143      1.345553      0.930980
  C       1.191769     -0.125602     -1.489082
  H       2.105311      0.484166     -1.565504
  H       0.338452      0.555704     -1.638809
  H       1.214820     -0.872213     -2.293682
  H       1.148076     -2.798502     -0.816859
  O       4.453168     -0.804009     -1.169080
41
Coordinates from ORCA-job orca E -847.146718548426
  O       3.560097     -2.604341     -2.106091
  C       3.987344     -2.079710     -1.093948
  C       3.973438     -2.724732      0.216292
  C       4.315307     -1.976678      1.465189
  H       3.522418     -2.141456      2.218356
  H       5.229344     -2.428811      1.903837
  C       4.529426     -0.480806      1.233565
  H       5.118982     -0.046512      2.055081
  H       3.570094      0.055491      1.212078
  C       5.228454     -0.238019     -0.096160
  H       6.214240     -0.745319     -0.092233
  C       5.420394      1.231762     -0.449132
  C       6.419008      1.972325      0.442896
  H       6.069134      1.963898      1.490287
  H       7.383496      1.431469      0.440706
  C       6.642282      3.418521     -0.000004
  H       7.360312      3.936333      0.655788
  H       5.699254      3.990010      0.017918
  H       7.035203      3.463908     -1.029511
  H       4.434918      1.729748     -0.412475
  H       5.754053      1.277212     -1.499521
  C       3.682798     -4.182673      0.293820
  H       2.909534     -4.397308      1.053043
  H       4.585349     -4.742218      0.609220
  H       3.356766     -4.571815     -0.679342
  C       1.102548     -2.121004      0.037430
  H       1.033144     -2.551828      1.036867
  C       1.113736     -0.789818     -0.144929
  C       1.092846      0.138136      1.023035
  O       1.088661     -0.495459      2.218552
  C       1.078125      0.345236      3.368338
  H       1.058424     -0.323806      4.238079
  H       1.976196      0.982438      3.398136
  H       0.192938      0.999728      3.369969
  O       1.107576      1.345276      0.929126
  C       1.193795     -0.127478     -1.490128
  H       2.107394      0.482151     -1.566351
  H       0.340554      0.553499     -1.641839
  H       1.218144     -0.875287     -2.293567
  H       1.143044     -2.799719     -0.816849
  O       4.450291     -0.802793     -1.167936
41
Coordinates from ORCA-job orca E -847.146720766023
  O       3.557971     -2.602975     -2.106034
  C       3.984963     -2.078725     -1.093675
  C       3.971148     -2.724276      0.216299
  C       4.315189     -1.977128      1.465703
  H       3.523887     -2.141973      2.220436
  H       5.229884     -2.429743      1.902338
  C       4.529358     -0.481112      1.234473
  H       5.119850     -0.047690      2.055779
  H       3.570225      0.055541      1.214308
  C       5.226904     -0.237561     -0.095948
  H       6.212656     -0.744923     -0.093728
  C       5.418387      1.232530     -0.447939
  C       6.417671      1.972487      0.443820
  H       6.068552      1.963329      1.491443
  H       7.382176      1.431654      0.440557
  C       6.640622      3.418967      0.001705
  H       7.359152      3.936348      0.657291
  H       5.697601      3.990439      0.020716
  H       7.032765      3.465042     -1.028070
  H       4.432888      1.730369     -0.410019
  H       5.751093      1.278777     -1.498604
  C       3.682315     -4.183061      0.293334
  H       2.908709     -4.399547      1.051676
  H       4.585290     -4.741329      0.609621
  H       3.357685     -4.572474     -0.680198
  C       1.099919     -2.122151      0.037480
  H       1.030667     -2.552996      1.036976
  C       1.114348     -0.791064     -0.145435
  C       1.096103      0.137853      1.021573
  O       1.090284     -0.494449      2.217736
  C       1.081737      0.347453      3.366609
  H       1.060023     -0.320612      4.237059
  H       1.981508      0.982277      3.396014
  H       0.198323      1.004338      3.367396
  O       1.114494      1.344894      0.926378
  C       1.195437     -0.129471     -1.491029
  H       2.109058      0.480120     -1.566617
  H       0.342168      0.551095     -1.644335
  H       1.221107     -0.877900     -2.293880
  H       1.139489     -2.801263     -0.816565
  O       4.447454     -0.801541     -1.167054
41
Coordinates from ORCA-job orca E -847.146722002615
  O       3.556326     -2.602187     -2.105825
  C       3.983395     -2.078049     -1.093452
  C       3.970028     -2.724093      0.216207
  C       4.314989     -1.977740      1.466088
  H       3.524932     -2.142828      2.222019
  H       5.230212     -2.430695      1.901250
  C       4.529107     -0.481597      1.235228
  H       5.120449     -0.048793      2.056270
  H       3.570099      0.055318      1.216183
  C       5.225599     -0.237306     -0.095594
  H       6.211325     -0.744697     -0.094615
  C       5.416512      1.233090     -0.446639
  C       6.416363      1.972666      0.444789
  H       6.067975      1.962925      1.492647
  H       7.380936      1.431962      0.440562
  C       6.638841      3.419391      0.003238
  H       7.357784      3.936531      0.658563
  H       5.695766      3.990736      0.023207
  H       7.030241      3.466029     -1.026790
  H       4.430915      1.730647     -0.407556
  H       5.748289      1.280169     -1.497572
  C       3.681480     -4.183112      0.292965
  H       2.907707     -4.400605      1.050821
  H       4.584598     -4.740956      0.609532
  H       3.357358     -4.572268     -0.680853
  C       1.098549     -2.123094      0.037617
  H       1.029886     -2.553780      1.037194
  C       1.115038     -0.792217     -0.146046
  C       1.098843      0.137702      1.020120
  O       1.091415     -0.493412      2.216771
  C       1.085313      0.349460      3.364916
  H       1.061393     -0.317755      4.235964
  H       1.987085      0.981477      3.393872
  H       0.203973      1.009123      3.365046
  O       1.120170      1.344653      0.923716
  C       1.196627     -0.131242     -1.491963
  H       2.110312      0.478268     -1.566941
  H       0.343329      0.549047     -1.646237
  H       1.223113     -0.879931     -2.294568
  H       1.137464     -2.802625     -0.816120
  O       4.445326     -0.800662     -1.166424
41
Coordinates from ORCA-job orca E -847.146723539659
  O       3.554954     -2.601732     -2.105486
  C       3.982321     -2.077647     -1.093170
  C       3.969523     -2.724148      0.216178
  C       4.314891     -1.978501      1.466338
  H       3.525794     -2.144013      2.223156
  H       5.230572     -2.431714      1.900342
  C       4.528892     -0.482248      1.236000
  H       5.120993     -0.049883      2.056749
  H       3.569941      0.054811      1.217947
  C       5.224555     -0.237205     -0.095076
  H       6.210333     -0.744467     -0.095001
  C       5.414709      1.233476     -0.445323
  C       6.414882      1.972925      0.445844
  H       6.067123      1.962589      1.493905
  H       7.379631      1.432537      0.440785
  C       6.636617      3.419937      0.004834
  H       7.355767      3.937017      0.659983
  H       5.693354      3.990942      0.025611
  H       7.027409      3.467182     -1.025398
  H       4.428911      1.730567     -0.405273
  H       5.745723      1.281361     -1.496465
  C       3.680212     -4.182957      0.292725
  H       2.906298     -4.400645      1.050353
  H       4.583200     -4.741052      0.609256
  H       3.356049     -4.571586     -0.681296
  C       1.097902     -2.123768      0.037778
  H       1.029894     -2.553992      1.037540
  C       1.115792     -0.793144     -0.146886
  C       1.101464      0.137764      1.018577
  O       1.092296     -0.492346      2.215608
  C       1.089271      0.351294      3.363183
  H       1.062778     -0.315200      4.234702
  H       1.993490      0.979852      3.391687
  H       0.210471      1.014326      3.362813
  O       1.125678      1.344617      0.921163
  C       1.197549     -0.132978     -1.493195
  H       2.111409      0.476273     -1.567878
  H       0.344300      0.547239     -1.648064
  H       1.224284     -0.881946     -2.295543
  H       1.136063     -2.803847     -0.815544
  O       4.443768     -0.800137     -1.165869
41
Coordinates from ORCA-job orca E -847.146724980388
  O       3.553601     -2.601204     -2.105034
  C       3.981424     -2.077363     -1.092723
  C       3.969242     -2.724462      0.216261
  C       4.315108     -1.979597      1.466543
  H       3.526843     -2.145810      2.224079
  H       5.231264     -2.433076      1.899406
  C       4.528901     -0.483185      1.237109
  H       5.121808     -0.051283      2.057532
  H       3.569966      0.053955      1.220222
  C       5.223637     -0.237146     -0.094231
  H       6.209578     -0.744057     -0.095037
  C       5.412702      1.233829     -0.443760
  C       6.413004      1.973439      0.447121
  H       6.065858      1.962564      1.495383
  H       7.378035      1.433563      0.441314
  C       6.633688      3.420737      0.006527
  H       7.352885      3.937983      0.661488
  H       5.690108      3.991190      0.027996
  H       7.023919      3.468572     -1.023890
  H       4.426582      1.730197     -0.402775
  H       5.742992      1.282555     -1.495094
  C       3.678358     -4.182790      0.292462
  H       2.904239     -4.399953      1.050022
  H       4.580898     -4.741770      0.608784
  H       3.353786     -4.570697     -0.681711
  C       1.097579     -2.124263      0.037938
  H       1.030136     -2.553631      1.038051
  C       1.116712     -0.793900     -0.148053
  C       1.104570      0.138008      1.016743
  O       1.093232     -0.491172      2.214140
  C       1.093961      0.353195      3.361181
  H       1.064153     -0.312587      4.233135
  H       2.001251      0.977361      3.389350
  H       0.218388      1.020455      3.360189
  O       1.132259      1.344728      0.918426
  C       1.198452     -0.134898     -1.494902
  H       2.112664      0.473778     -1.569787
  H       0.345437      0.545546     -1.650135
  H       1.224793     -0.884371     -2.296782
  H       1.134556     -2.805110     -0.814816
  O       4.442489     -0.799778     -1.165083
41
Coordinates from ORCA-job orca E -847.146727022785
  O       3.552794     -2.600793     -2.104711
  C       3.981048     -2.077356     -1.092324
  C       3.969299     -2.725034      0.216363
  C       4.315697     -1.980790      1.466646
  H       3.527846     -2.147741      2.224484
  H       5.232169     -2.434413      1.898782
  C       4.529226     -0.484244      1.238141
  H       5.122673     -0.052701      2.058354
  H       3.570264      0.052841      1.222205
  C       5.223250     -0.237218     -0.093387
  H       6.209459     -0.743592     -0.094776
  C       5.411165      1.234024     -0.442395
  C       6.411303      1.974027      0.448355
  H       6.064574      1.962632      1.496755
  H       7.376701      1.434813      0.442018
  C       6.630781      3.421613      0.008105
  H       7.349794      3.939213      0.662993
  H       5.686773      3.991340      0.030017
  H       7.020659      3.470014     -1.022418
  H       4.424672      1.729595     -0.400789
  H       5.741023      1.283456     -1.493822
  C       3.676495     -4.182839      0.292149
  H       2.902155     -4.398908      1.049802
  H       4.578337     -4.743165      0.608138
  H       3.351243     -4.570004     -0.682077
  C       1.097702     -2.124502      0.038103
  H       1.030632     -2.552837      1.038667
  C       1.117380     -0.794317     -0.149149
  C       1.107140      0.138409      1.015094
  O       1.094133     -0.490018      2.212854
  C       1.098159      0.355030      3.359394
  H       1.065441     -0.310099      4.231737
  H       2.008135      0.975317      3.387279
  H       0.225438      1.025993      3.357791
  O       1.137785      1.344999      0.916078
  C       1.198748     -0.136509     -1.496553
  H       2.113411      0.471389     -1.572322
  H       0.346121      0.544461     -1.651711
  H       1.223983     -0.886617     -2.297852
  H       1.133412     -2.806139     -0.814074
  O       4.442042     -0.799781     -1.164355
41
Coordinates from ORCA-job orca E -847.146730136868
  O       3.552021     -2.600191     -2.104526
  C       3.980721     -2.077452     -1.091951
  C       3.969309     -2.725848      0.216415
  C       4.316844     -1.982370      1.466697
  H       3.529410     -2.150167      2.224808
  H       5.233647     -2.436172      1.897977
  C       4.530058     -0.485663      1.239313
  H       5.124080     -0.054605      2.059358
  H       3.571051      0.051316      1.224535
  C       5.223144     -0.237394     -0.092512
  H       6.209761     -0.742982     -0.094614
  C       5.409597      1.234175     -0.440911
  C       6.409236      1.974726      0.449942
  H       6.062773      1.962549      1.498425
  H       7.375145      1.436432      0.443142
  C       6.627190      3.422734      0.010300
  H       7.345758      3.940783      0.665322
  H       5.682593      3.991460      0.032586
  H       7.016873      3.471987     -1.020261
  H       4.422608      1.728731     -0.398803
  H       5.739209      1.284422     -1.492376
  C       3.674366     -4.183176      0.291599
  H       2.899747     -4.397822      1.049389
  H       4.575266     -4.745227      0.607197
  H       3.348274     -4.569517     -0.682661
  C       1.097817     -2.124730      0.038426
  H       1.031112     -2.551670      1.039627
  C       1.117924     -0.794707     -0.150327
  C       1.110124      0.139009      1.013131
  O       1.095502     -0.488381      2.211465
  C       1.102981      0.357696      3.357240
  H       1.067079     -0.306503      4.230163
  H       2.015814      0.973816      3.384788
  H       0.233342      1.032617      3.354723
  O       1.144091      1.345422      0.913166
  C       1.198557     -0.138479     -1.498481
  H       2.113862      0.468242     -1.575981
  H       0.346566      0.543382     -1.653321
  H       1.221890     -0.889573     -2.298888
  H       1.131799     -2.807382     -0.813014
  O       4.441920     -0.799939     -1.163517
41
Coordinates from ORCA-job orca E -847.146730488422
  O       3.551715     -2.599811     -2.104600
  C       3.980669     -2.077652     -1.091862
  C       3.969340     -2.726526      0.216305
  C       4.318013     -1.983629      1.466659
  H       3.530867     -2.151883      2.224984
  H       5.235009     -2.437600      1.897309
  C       4.531028     -0.486805      1.239949
  H       5.125423     -0.056158      2.059932
  H       3.572002      0.050113      1.226001
  C       5.223397     -0.237654     -0.092113
  H       6.210360     -0.742569     -0.094760
  C       5.408753      1.234182     -0.439967
  C       6.407799      1.975120      0.451217
  H       6.061324      1.962232      1.499684
  H       7.374119      1.437568      0.444208
  C       6.624641      3.423483      0.012195
  H       7.342755      3.941831      0.667473
  H       5.679581      3.991433      0.034659
  H       7.014339      3.473476     -1.018323
  H       4.421386      1.727963     -0.397665
  H       5.738390      1.285057     -1.491389
  C       3.673065     -4.183671      0.291036
  H       2.898285     -4.397391      1.048936
  H       4.573287     -4.746957      0.606322
  H       3.346336     -4.569437     -0.683232
  C       1.097933     -2.124849      0.038851
  H       1.031629     -2.550705      1.040569
  C       1.118032     -0.794926     -0.150986
  C       1.111944      0.139601      1.011768
  O       1.096833     -0.486871      2.210643
  C       1.106090      0.360150      3.355715
  H       1.068591     -0.303262      4.229173
  H       2.020362      0.974167      3.382902
  H       0.238027      1.037080      3.352506
  O       1.147721      1.345890      0.910937
  C       1.197797     -0.139864     -1.499757
  H       2.113628      0.465852     -1.579012
  H       0.346379      0.542821     -1.654136
  H       1.219321     -0.891747     -2.299461
  H       1.130677     -2.808291     -0.812010
  O       4.442211     -0.800213     -1.163070
41
Coordinates from ORCA-job orca E -847.146731041540
  O       3.551547     -2.599243     -2.104880
  C       3.980667     -2.077807     -1.091893
  C       3.969335     -2.727309      0.215992
  C       4.319572     -1.985320      1.466585
  H       3.532967     -2.154065      2.225363
  H       5.236863     -2.439579      1.896206
  C       4.532336     -0.488339      1.240690
  H       5.127176     -0.058334      2.060670
  H       3.573282      0.048499      1.227807
  C       5.223806     -0.238009     -0.091647
  H       6.211195     -0.742105     -0.095064
  C       5.407880      1.234202     -0.438675
  C       6.406350      1.975529      0.452856
  H       6.059898      1.961852      1.501315
  H       7.373114      1.438767      0.445569
  C       6.622034      3.424275      0.014515
  H       7.339731      3.942909      0.670029
  H       5.676506      3.991429      0.037246
  H       7.011676      3.475071     -1.015982
  H       4.420084      1.727086     -0.396004
  H       5.737393      1.285920     -1.490097
  C       3.671915     -4.184381      0.290077
  H       2.897011     -4.397494      1.048029
  H       4.571512     -4.748837      0.604956
  H       3.344557     -4.569410     -0.684267
  C       1.097982     -2.125064      0.039575
  H       1.032472     -2.549654      1.041913
  C       1.117860     -0.795283     -0.151577
  C       1.113718      0.140405      1.010152
  O       1.098620     -0.484722      2.209788
  C       1.109307      0.363639      3.353849
  H       1.070553     -0.298684      4.228083
  H       2.024698      0.976020      3.380468
  H       0.242498      1.042155      3.349748
  O       1.150987      1.346546      0.908012
  C       1.196256     -0.141638     -1.501137
  H       2.112724      0.462824     -1.582727
  H       0.345537      0.542069     -1.654815
  H       1.215425     -0.894452     -2.300030
  H       1.129369     -2.809478     -0.810556
  O       4.442646     -0.800442     -1.162552
41
Coordinates from ORCA-job orca E -847.145769783833
  O       3.551958     -2.610060     -2.081882
  C       3.994243     -2.090267     -1.072709
  C       4.005323     -2.735482      0.235446
  C       4.346888     -1.994321      1.475867
  H       3.533859     -2.162567      2.221289
  H       5.258953     -2.444231      1.921245
  C       4.543357     -0.497913      1.244169
  H       5.122859     -0.056938      2.069522
  H       3.566575      0.024868      1.216152
  C       5.239026     -0.245421     -0.082456
  H       6.232128     -0.738368     -0.079746
  C       5.412105      1.226056     -0.440156
  C       6.403652      1.981007      0.447800
  H       6.055510      1.972272      1.495765
  H       7.374339      1.451236      0.445985
  C       6.609529      3.428202     -0.000491
  H       7.322329      3.956734      0.652554
  H       5.659831      3.988630      0.016588
  H       7.000560      3.474499     -1.030684
  H       4.421468      1.712631     -0.402389
  H       5.742965      1.272657     -1.491407
  C       3.675301     -4.163742      0.302053
  H       2.888974     -4.334980      1.059506
  H       4.555761     -4.758616      0.617078
  H       3.334992     -4.533558     -0.674152
  C       1.038411     -2.080731      0.030299
  H       1.016838     -2.504170      1.023678
  C       1.085634     -0.761652     -0.165116
  C       1.101644      0.160030      1.004892
  O       1.085461     -0.497029      2.190735
  C       1.117631      0.319109      3.359445
  H       1.074465     -0.367832      4.214833
  H       2.041532      0.917751      3.399432
  H       0.260895      1.010646      3.380596
  O       1.164850      1.367427      0.924816
  C       1.191009     -0.134354     -1.522678
  H       2.126374      0.442549     -1.604516
  H       0.359883      0.568268     -1.700667
  H       1.204855     -0.910884     -2.303047
  H       1.119989     -2.768333     -0.802666
  O       4.457104     -0.813575     -1.147390
41
Coordinates from ORCA-job orca E -847.146875691893
  O       3.551331     -2.607466     -2.090794
  C       3.996870     -2.091355     -1.081857
  C       4.013480     -2.746126      0.224145
  C       4.349858     -1.999636      1.472097
  H       3.546767     -2.169977      2.215391
  H       5.262816     -2.445257      1.918703
  C       4.543961     -0.500417      1.243748
  H       5.125735     -0.059482      2.067289
  H       3.574571      0.018586      1.221679
  C       5.233820     -0.243431     -0.087116
  H       6.226578     -0.737141     -0.090362
  C       5.406147      1.230105     -0.436129
  C       6.400390      1.979651      0.453322
  H       6.055863      1.963254      1.502415
  H       7.371526      1.450797      0.444437
  C       6.603357      3.430109      0.014496
  H       7.317966      3.954728      0.668622
  H       5.653222      3.989436      0.038954
  H       6.990626      3.484007     -1.016748
  H       4.415166      1.716189     -0.392173
  H       5.733613      1.282790     -1.488097
  C       3.679322     -4.189800      0.294426
  H       2.892078     -4.369721      1.049655
  H       4.557770     -4.785172      0.612840
  H       3.341082     -4.563182     -0.680590
  C       1.043521     -2.102241      0.028937
  H       1.015680     -2.534683      1.029588
  C       1.088385     -0.774461     -0.160561
  C       1.107340      0.155556      1.006302
  O       1.093435     -0.479538      2.202266
  C       1.121870      0.360695      3.352299
  H       1.081414     -0.307491      4.221951
  H       2.044016      0.962952      3.378030
  H       0.262659      1.048932      3.358759
  O       1.163547      1.361245      0.914066
  C       1.187998     -0.132312     -1.513873
  H       2.120732      0.447694     -1.593297
  H       0.355345      0.569878     -1.682400
  H       1.199848     -0.896013     -2.302375
  H       1.116439     -2.790640     -0.816251
  O       4.452917     -0.811512     -1.154205
41
Coordinates from ORCA-job orca E -847.147053379297
  O       3.550091     -2.606911     -2.091667
  C       3.997497     -2.090612     -1.084012
  C       4.018200     -2.748906      0.220158
  C       4.351899     -2.001430      1.471980
  H       3.554345     -2.174430      2.217951
  H       5.266828     -2.444985      1.916446
  C       4.545474     -0.501515      1.244417
  H       5.130494     -0.061375      2.065898
  H       3.577706      0.018163      1.227048
  C       5.232496     -0.242879     -0.088675
  H       6.224428     -0.738132     -0.095740
  C       5.404011      1.231411     -0.433895
  C       6.401363      1.978288      0.454187
  H       6.060622      1.958746      1.504437
  H       7.372492      1.449590      0.440217
  C       6.602551      3.430027      0.018855
  H       7.319498      3.952808      0.671874
  H       5.652436      3.989129      0.048450
  H       6.986016      3.487010     -1.013640
  H       4.413021      1.717393     -0.385284
  H       5.727857      1.287081     -1.486874
  C       3.683136     -4.198158      0.293681
  H       2.895104     -4.383167      1.046248
  H       4.561168     -4.791188      0.615690
  H       3.348051     -4.573670     -0.681625
  C       1.046867     -2.110331      0.028461
  H       1.009170     -2.543616      1.029821
  C       1.090170     -0.780561     -0.159327
  C       1.105515      0.153092      1.004265
  O       1.093883     -0.474010      2.203377
  C       1.120400      0.373360      3.347760
  H       1.082155     -0.289304      4.221739
  H       2.041071      0.977966      3.368637
  H       0.259441      1.059275      3.350445
  O       1.162427      1.358302      0.904672
  C       1.186137     -0.129583     -1.509398
  H       2.117076      0.453229     -1.586822
  H       0.351832      0.572049     -1.670847
  H       1.196116     -0.885718     -2.304967
  H       1.108677     -2.796796     -0.819914
  O       4.451340     -0.810090     -1.156437
41
Coordinates from ORCA-job orca E -847.147142180284
  O       3.547556     -2.607239     -2.090821
  C       3.997068     -2.089932     -1.084632
  C       4.021549     -2.749736      0.218006
  C       4.354869     -2.003086      1.471907
  H       3.562495     -2.179311      2.222276
  H       5.272551     -2.445684      1.911940
  C       4.548353     -0.502956      1.245168
  H       5.137819     -0.064200      2.064218
  H       3.581363      0.018869      1.233238
  C       5.232416     -0.243230     -0.089690
  H       6.223628     -0.739734     -0.099870
  C       5.402702      1.231586     -0.432446
  C       6.403361      1.976813      0.453243
  H       6.066881      1.955049      1.504809
  H       7.374544      1.448416      0.434264
  C       6.602376      3.429486      0.020034
  H       7.321814      3.951155      0.671210
  H       5.652210      3.988223      0.054588
  H       6.981648      3.488676     -1.013875
  H       4.411778      1.717278     -0.379285
  H       5.722579      1.289604     -1.486543
  C       3.687900     -4.201200      0.294273
  H       2.898430     -4.390314      1.043881
  H       4.566796     -4.790118      0.620757
  H       3.357469     -4.578843     -0.681880
  C       1.049508     -2.113780      0.028584
  H       0.999253     -2.545312      1.029999
  C       1.093892     -0.783986     -0.158870
  C       1.109503      0.151633      1.002824
  O       1.091562     -0.471284      2.203156
  C       1.114083      0.378946      3.345369
  H       1.070591     -0.281200      4.221035
  H       2.035951      0.981677      3.368292
  H       0.254444      1.066512      3.342398
  O       1.159173      1.357107      0.898838
  C       1.186004     -0.127117     -1.506642
  H       2.115887      0.457035     -1.584245
  H       0.350870      0.575153     -1.660457
  H       1.191334     -0.877341     -2.308089
  H       1.096540     -2.798512     -0.821704
  O       4.450309     -0.809553     -1.157668
41
Coordinates from ORCA-job orca E -847.147194338363
  O       3.545389     -2.608023     -2.088759
  C       3.995445     -2.089387     -1.083298
  C       4.021273     -2.749063      0.218663
  C       4.356622     -2.004201      1.472689
  H       3.568730     -2.183411      2.227507
  H       5.277084     -2.446708      1.907457
  C       4.550121     -0.504299      1.246429
  H       5.142733     -0.066249      2.063698
  H       3.583620      0.019026      1.237709
  C       5.232397     -0.244002     -0.089083
  H       6.223259     -0.741045     -0.100540
  C       5.401497      1.231086     -0.430911
  C       6.404047      1.975978      0.452947
  H       6.070362      1.953212      1.505387
  H       7.375392      1.448012      0.430969
  C       6.601276      3.429119      0.020456
  H       7.322182      3.950552      0.670200
  H       5.650942      3.987383      0.057949
  H       6.977813      3.489353     -1.014387
  H       4.410525      1.716313     -0.375146
  H       5.718938      1.290387     -1.485681
  C       3.691595     -4.200650      0.296415
  H       2.899378     -4.392759      1.042250
  H       4.571913     -4.784222      0.628867
  H       3.367962     -4.580928     -0.681042
  C       1.049181     -2.114013      0.027010
  H       0.984863     -2.542388      1.028378
  C       1.095589     -0.784922     -0.160898
  C       1.105950      0.151913      1.000370
  O       1.089955     -0.470282      2.200619
  C       1.113921      0.379323      3.343479
  H       1.071756     -0.281312      4.218845
  H       2.035597      0.982346      3.365572
  H       0.254075      1.066664      3.342125
  O       1.163358      1.357220      0.895068
  C       1.186735     -0.125930     -1.507614
  H       2.115830      0.459344     -1.585366
  H       0.350886      0.576486     -1.657147
  H       1.189144     -0.873063     -2.312166
  H       1.082220     -2.797602     -0.824256
  O       4.449507     -0.809709     -1.157172
41
Coordinates from ORCA-job orca E -847.147226212662
  O       3.543099     -2.607909     -2.087480
  C       3.993315     -2.089185     -1.081957
  C       4.018734     -2.748177      0.220173
  C       4.358632     -2.004983      1.472924
  H       3.573569     -2.185563      2.230800
  H       5.280893     -2.448395      1.903260
  C       4.552112     -0.505170      1.247678
  H       5.146871     -0.067970      2.063926
  H       3.585819      0.019066      1.241347
  C       5.232432     -0.244387     -0.088466
  H       6.223536     -0.740916     -0.100689
  C       5.400589      1.230804     -0.430551
  C       6.404342      1.976005      0.451751
  H       6.072403      1.953228      1.504751
  H       7.375762      1.448230      0.428207
  C       6.600552      3.429192      0.018923
  H       7.322399      3.950789      0.667493
  H       5.650157      3.987245      0.057943
  H       6.975392      3.489493     -1.016537
  H       4.409615      1.715740     -0.373256
  H       5.716480      1.290353     -1.485760
  C       3.693453     -4.199024      0.297392
  H       2.899061     -4.392319      1.040755
  H       4.574912     -4.778861      0.633860
  H       3.374803     -4.581271     -0.680922
  C       1.047070     -2.111642      0.026821
  H       0.975494     -2.537353      1.028411
  C       1.098095     -0.783290     -0.162071
  C       1.111427      0.152766      1.000171
  O       1.088535     -0.471192      2.199408
  C       1.110806      0.376509      3.343797
  H       1.062780     -0.285391      4.217891
  H       2.034518      0.976250      3.370558
  H       0.253378      1.066885      3.339955
  O       1.166162      1.358317      0.896711
  C       1.189463     -0.125804     -1.509307
  H       2.119175      0.458129     -1.589207
  H       0.354469      0.578106     -1.657373
  H       1.188510     -0.873440     -2.313381
  H       1.071767     -2.795307     -0.824327
  O       4.448478     -0.810005     -1.156030
41
Coordinates from ORCA-job orca E -847.147240556674
  O       3.541188     -2.607012     -2.086848
  C       3.990580     -2.088934     -1.080600
  C       4.014247     -2.747493      0.222021
  C       4.360080     -2.005754      1.473215
  H       3.577334     -2.186755      2.233588
  H       5.283663     -2.450349      1.899575
  C       4.553357     -0.505953      1.249135
  H       5.149108     -0.069426      2.065030
  H       3.587107      0.018239      1.244149
  C       5.231782     -0.244388     -0.087611
  H       6.223412     -0.739907     -0.100691
  C       5.399054      1.230911     -0.429984
  C       6.403224      1.976507      0.451562
  H       6.072083      1.953692      1.504823
  H       7.374784      1.449000      0.427318
  C       6.598694      3.429745      0.018568
  H       7.320865      3.951563      0.666601
  H       5.648167      3.987524      0.058275
  H       6.972754      3.490136     -1.017173
  H       4.407985      1.715528     -0.371881
  H       5.714226      1.290497     -1.485389
  C       3.693741     -4.198311      0.297633
  H       2.897166     -4.392572      1.038631
  H       4.575856     -4.775238      0.637690
  H       3.379706     -4.582482     -0.681370
  C       1.043063     -2.109396      0.026455
  H       0.967886     -2.533271      1.028458
  C       1.099293     -0.781344     -0.163407
  C       1.115102      0.154049      0.999569
  O       1.089167     -0.471521      2.198250
  C       1.111810      0.374905      3.343646
  H       1.061203     -0.287955      4.216859
  H       2.036680      0.972749      3.372561
  H       0.255829      1.067073      3.339299
  O       1.173666      1.359435      0.897954
  C       1.192602     -0.126876     -1.511736
  H       2.123302      0.455273     -1.593383
  H       0.358771      0.578275     -1.661214
  H       1.190283     -0.876893     -2.313476
  H       1.063557     -2.793784     -0.824205
  O       4.446684     -0.809939     -1.154308
41
Coordinates from ORCA-job orca E -847.147250135227
  O       3.538837     -2.605601     -2.086772
  C       3.987282     -2.088532     -1.079698
  C       4.009394     -2.747372      0.223114
  C       4.361803     -2.007249      1.473280
  H       3.581981     -2.188587      2.236572
  H       5.286851     -2.452999      1.895164
  C       4.554648     -0.507273      1.250743
  H       5.151505     -0.071756      2.066344
  H       3.588390      0.016603      1.247682
  C       5.230396     -0.244211     -0.087056
  H       6.222595     -0.738605     -0.102171
  C       5.396357      1.231428     -0.428764
  C       6.401079      1.976928      0.452233
  H       6.071009      1.953214      1.505812
  H       7.372876      1.449905      0.426640
  C       6.595388      3.430564      0.020091
  H       7.317939      3.952281      0.667784
  H       5.644615      3.987826      0.061153
  H       6.968382      3.491894     -1.015984
  H       4.405109      1.715501     -0.369126
  H       5.710386      1.291736     -1.484457
  C       3.693556     -4.199241      0.296923
  H       2.894838     -4.395268      1.035337
  H       4.575979     -4.773594      0.640504
  H       3.384045     -4.585147     -0.682789
  C       1.038486     -2.108291      0.026566
  H       0.961632     -2.530857      1.029087
  C       1.100536     -0.780342     -0.164354
  C       1.119925      0.155272      0.998249
  O       1.091330     -0.470080      2.197344
  C       1.114839      0.376946      3.342277
  H       1.061971     -0.285404      4.215742
  H       2.040892      0.972900      3.372001
  H       0.260340      1.070937      3.336687
  O       1.183848      1.360288      0.896747
  C       1.196020     -0.128782     -1.513822
  H       2.127836      0.451362     -1.596818
  H       0.363498      0.577517     -1.665523
  H       1.193066     -0.881365     -2.313071
  H       1.055887     -2.793637     -0.823512
  O       4.443714     -0.809358     -1.152567
41
Coordinates from ORCA-job orca E -847.147254192836
  O       3.536597     -2.604435     -2.086908
  C       3.984465     -2.088170     -1.079292
  C       4.006004     -2.747794      0.223229
  C       4.363283     -2.009284      1.473233
  H       3.586314     -2.191191      2.239189
  H       5.289702     -2.455834      1.891157
  C       4.555641     -0.509019      1.252218
  H       5.153680     -0.074656      2.067526
  H       3.589371      0.014607      1.251371
  C       5.228727     -0.244120     -0.086659
  H       6.221335     -0.737652     -0.104313
  C       5.393120      1.232041     -0.426936
  C       6.398686      1.977157      0.453407
  H       6.070102      1.952069      1.507416
  H       7.370772      1.450762      0.425862
  C       6.591489      3.431384      0.022595
  H       7.314631      3.952846      0.669839
  H       5.640421      3.987988      0.065622
  H       6.962969      3.494101     -1.013939
  H       4.401639      1.715392     -0.365126
  H       5.705462      1.293673     -1.483057
  C       3.693060     -4.200907      0.295829
  H       2.892745     -4.398898      1.032057
  H       4.575469     -4.773558      0.642042
  H       3.386833     -4.587692     -0.684558
  C       1.035170     -2.108253      0.027063
  H       0.958074     -2.530011      1.030037
  C       1.101876     -0.780469     -0.164970
  C       1.124642      0.156245      0.996366
  O       1.093956     -0.467367      2.196453
  C       1.118801      0.381378      3.340047
  H       1.063950     -0.279527      4.214494
  H       2.046119      0.975363      3.369530
  H       0.265851      1.077261      3.332928
  O       1.193449      1.360868      0.893356
  C       1.198884     -0.130779     -1.515277
  H       2.131557      0.447850     -1.598708
  H       0.367332      0.576231     -1.668887
  H       1.195942     -0.884951     -2.313008
  H       1.050406     -2.794479     -0.822450
  O       4.440533     -0.808620     -1.151184
41
Coordinates from ORCA-job orca E -847.147258187510
  O       3.534233     -2.603667     -2.087095
  C       3.981983     -2.088027     -1.079177
  C       4.003847     -2.748704      0.222711
  C       4.364747     -2.011971      1.473023
  H       3.590577     -2.194843      2.241486
  H       5.292572     -2.459070      1.887193
  C       4.556475     -0.511362      1.253569
  H       5.155798     -0.078170      2.068535
  H       3.590160      0.012008      1.255144
  C       5.226906     -0.244341     -0.086318
  H       6.219838     -0.737109     -0.106744
  C       5.389355      1.232496     -0.424635
  C       6.395675      1.977199      0.455177
  H       6.068689      1.950315      1.509633
  H       7.368197      1.451726      0.425421
  C       6.586519      3.432214      0.026154
  H       7.310124      3.953433      0.673080
  H       5.634991      3.987858      0.071346
  H       6.956429      3.496755     -1.010825
  H       4.397508      1.714790     -0.360378
  H       5.699826      1.295965     -1.481213
  C       3.692215     -4.202695      0.294504
  H       2.890640     -4.402427      1.028889
  H       4.574400     -4.774363      0.642664
  H       3.388294     -4.589579     -0.686565
  C       1.033049     -2.108543      0.028032
  H       0.956639     -2.529462      1.031492
  C       1.103474     -0.781124     -0.165594
  C       1.129608      0.157473      0.993892
  O       1.096896     -0.463443      2.195271
  C       1.124099      0.387610      3.337045
  H       1.067008     -0.271257      4.212893
  H       2.053203      0.978842      3.365553
  H       0.273284      1.086091      3.328313
  O       1.203057      1.361671      0.888350
  C       1.201339     -0.133111     -1.516747
  H       2.134759      0.444209     -1.600261
  H       0.370536      0.574381     -1.671947
  H       1.198477     -0.888376     -2.313471
  H       1.046399     -2.795804     -0.820742
  O       4.437235     -0.808038     -1.150071
41
Coordinates from ORCA-job orca E -847.147260666750
  O       3.531899     -2.603262     -2.087257
  C       3.979960     -2.088247     -1.079145
  C       4.002775     -2.750212      0.221885
  C       4.366426     -2.015437      1.472711
  H       3.594905     -2.199765      2.243422
  H       5.295683     -2.462913      1.883276
  C       4.557310     -0.514431      1.255057
  H       5.157983     -0.082372      2.069635
  H       3.590849      0.008605      1.259231
  C       5.225102     -0.244941     -0.085698
  H       6.218419     -0.736764     -0.108908
  C       5.385063      1.232667     -0.421812
  C       6.391949      1.977247      0.457441
  H       6.066679      1.948421      1.512376
  H       7.365073      1.453027      0.425362
  C       6.580308      3.433129      0.030249
  H       7.304259      3.954321      0.676811
  H       5.628138      3.987483      0.077711
  H       6.948525      3.499653     -1.007208
  H       4.392659      1.713470     -0.354964
  H       5.693524      1.298321     -1.478859
  C       3.690845     -4.204456      0.293003
  H       2.888166     -4.405192      1.025885
  H       4.572521     -4.775991      0.642541
  H       3.388348     -4.590805     -0.688737
  C       1.032167     -2.108509      0.029397
  H       0.956930     -2.528247      1.033461
  C       1.105481     -0.781645     -0.166478
  C       1.134941      0.159312      0.990913
  O       1.100042     -0.458586      2.193610
  C       1.130609      0.394861      3.333460
  H       1.070793     -0.261759      4.210812
  H       2.062107      0.982395      3.360677
  H       0.282634      1.096761      3.323152
  O       1.212820      1.363058      0.882475
  C       1.203633     -0.135618     -1.518642
  H       2.137770      0.440446     -1.602313
  H       0.373453      0.572273     -1.675150
  H       1.200589     -0.891853     -2.314475
  H       1.043579     -2.797068     -0.818360
  O       4.434144     -0.807826     -1.148957
41
Coordinates from ORCA-job orca E -847.147268502824
  O       3.528350     -2.603032     -2.087468
  C       3.977279     -2.089219     -1.079050
  C       4.002000     -2.753492      0.220502
  C       4.369754     -2.022026      1.472112
  H       3.602241     -2.209191      2.246109
  H       5.301303     -2.470008      1.877030
  C       4.558994     -0.520347      1.257704
  H       5.161848     -0.089994      2.071592
  H       3.592187      0.001907      1.266203
  C       5.222516     -0.246460     -0.084302
  H       6.216675     -0.736294     -0.111780
  C       5.377721      1.232451     -0.416830
  C       6.385026      1.977408      0.461588
  H       6.062551      1.945238      1.517280
  H       7.359430      1.455811      0.425757
  C       6.568427      3.434803      0.037410
  H       7.292625      3.956400      0.683371
  H       5.614874      3.986439      0.088593
  H       6.933801      3.504789     -1.000828
  H       4.384137      1.710226     -0.345857
  H       5.682987      1.301890     -1.474572
  C       3.687971     -4.207412      0.290334
  H       2.883533     -4.408494      1.021180
  H       4.568381     -4.779811      0.641560
  H       3.386919     -4.592380     -0.692414
  C       1.032055     -2.107557      0.031983
  H       0.958743     -2.524692      1.037247
  C       1.109216     -0.781718     -0.168340
  C       1.144064      0.163330      0.985589
  O       1.105366     -0.449697      2.190390
  C       1.142416      0.407483      3.327193
  H       1.077644     -0.245477      4.206918
  H       2.078414      0.987963      3.352202
  H       0.299830      1.115793      3.314422
  O       1.229077      1.366260      0.872486
  C       1.207228     -0.139729     -1.522471
  H       2.142606      0.434085     -1.607211
  H       0.378120      0.569001     -1.680716
  H       1.202988     -0.897878     -2.316497
  H       1.039915     -2.798604     -0.813772
  O       4.429845     -0.808215     -1.147060
41
Coordinates from ORCA-job orca E -847.147276060779
  O       3.522098     -2.603099     -2.087876
  C       3.973030     -2.091972     -1.078836
  C       4.001482     -2.760850      0.217904
  C       4.377179     -2.035737      1.470725
  H       3.616884     -2.228639      2.250415
  H       5.312901     -2.484576      1.865205
  C       4.562934     -0.532786      1.262858
  H       5.169832     -0.105496      2.075366
  H       3.595286     -0.012447      1.279748
  C       5.218311     -0.250033     -0.081338
  H       6.214388     -0.735340     -0.116522
  C       5.363680      1.231372     -0.407146
  C       6.370802      1.977948      0.470090
  H       6.053230      1.939394      1.527059
  H       7.347977      1.462055      0.427659
  C       6.543933      3.438239      0.051555
  H       7.267886      3.961242      0.696662
  H       5.587371      3.983988      0.109232
  H       6.904338      3.514893     -0.987947
  H       4.367520      1.702660     -0.328951
  H       5.663436      1.308047     -1.465969
  C       3.681967     -4.213526      0.284826
  H       2.874266     -4.413593      1.012376
  H       4.559381     -4.788937      0.638545
  H       3.382636     -4.595484     -0.699638
  C       1.033322     -2.104501      0.037392
  H       0.963398     -2.515806      1.045249
  C       1.116698     -0.780642     -0.172157
  C       1.161748      0.172213      0.975137
  O       1.116016     -0.431620      2.183945
  C       1.165731      0.432551      3.314904
  H       1.091581     -0.213318      4.199106
  H       2.110279      0.999273      3.335675
  H       0.333681      1.153081      3.297361
  O       1.260040      1.373381      0.853341
  C       1.213539     -0.147296     -1.530400
  H       2.151303      0.421979     -1.618805
  H       0.386613      0.563377     -1.691264
  H       1.205535     -0.909690     -2.320322
  H       1.033823     -2.800684     -0.804177
  O       4.423004     -0.810074     -1.143394
41
Coordinates from ORCA-job orca E -847.147286841148
  O       3.507732     -2.604125     -2.089005
  C       3.964062     -2.100246     -1.078424
  C       4.001431     -2.780624      0.211409
  C       4.397107     -2.071197      1.466621
  H       3.653948     -2.278556      2.259079
  H       5.342432     -2.521852      1.835947
  C       4.573734     -0.565162      1.275421
  H       5.190201     -0.144955      2.084433
  H       3.603730     -0.050509      1.313172
  C       5.208997     -0.260027     -0.073686
  H       6.210191     -0.732757     -0.126931
  C       5.328847      1.227105     -0.383058
  C       6.333399      1.979285      0.492307
  H       6.027027      1.924744      1.551892
  H       7.317923      1.479036      0.434787
  C       6.479511      3.446555      0.088012
  H       7.201301      3.974149      0.731823
  H       5.514924      3.976151      0.160566
  H       6.828496      3.540049     -0.954008
  H       4.325861      1.680820     -0.288627
  H       5.616122      1.321406     -1.443939
  C       3.666330     -4.229478      0.270791
  H       2.850930     -4.424390      0.991339
  H       4.535349     -4.814428      0.629397
  H       3.369413     -4.603559     -0.717427
  C       1.038792     -2.094641      0.051582
  H       0.977389     -2.490331      1.066201
  C       1.135879     -0.775923     -0.181763
  C       1.206398      0.195820      0.948685
  O       1.144503     -0.384671      2.167463
  C       1.225725      0.496531      3.283246
  H       1.129683     -0.130721      4.178652
  H       2.190190      1.029181      3.293234
  H       0.419965      1.245876      3.253358
  O       1.336784      1.391658      0.805455
  C       1.228230     -0.165026     -1.550494
  H       2.171843      0.392444     -1.650825
  H       0.407098      0.551133     -1.716686
  H       1.208394     -0.938682     -2.329165
  H       1.020602     -2.803926     -0.778838
  O       4.408590     -0.816603     -1.134407
41
Coordinates from ORCA-job orca E -847.147306323506
  O       3.506637     -2.605440     -2.089712
  C       3.964374     -2.103072     -1.078965
  C       4.003845     -2.785693      0.209715
  C       4.402460     -2.078627      1.465146
  H       3.661370     -2.288653      2.258865
  H       5.349145     -2.529161      1.831170
  C       4.576888     -0.572120      1.276894
  H       5.194933     -0.152857      2.085186
  H       3.606192     -0.059233      1.318646
  C       5.208880     -0.262623     -0.072752
  H       6.211323     -0.732441     -0.128267
  C       5.324117      1.225514     -0.379516
  C       6.325823      1.979422      0.497620
  H       6.019091      1.922275      1.556978
  H       7.311941      1.482342      0.439845
  C       6.467474      3.447798      0.095787
  H       7.187252      3.976658      0.740813
  H       5.501151      3.974154      0.168697
  H       6.816647      3.544112     -0.945917
  H       4.319730      1.675758     -0.284845
  H       5.611771      1.322617     -1.440029
  C       3.663558     -4.233141      0.267554
  H       2.847665     -4.424815      0.988392
  H       4.530407     -4.821996      0.625033
  H       3.364548     -4.605121     -0.720796
  C       1.042794     -2.091702      0.055113
  H       0.983487     -2.483565      1.071238
  C       1.138439     -0.773753     -0.183172
  C       1.211970      0.201746      0.943991
  O       1.150116     -0.374676      2.164765
  C       1.236143      0.509969      3.277513
  H       1.139151     -0.113949      4.175138
  H       2.202678      1.038907      3.284141
  H       0.433164      1.262217      3.246196
  O       1.344338      1.396919      0.796840
  C       1.227339     -0.167884     -1.554136
  H       2.171473      0.387788     -1.659098
  H       0.406793      0.549097     -1.719870
  H       1.203619     -0.944130     -2.330043
  H       1.021618     -2.803716     -0.772815
  O       4.408714     -0.819377     -1.133755
41
Coordinates from ORCA-job orca E -847.147418199847
  O       3.504573     -2.611624     -2.094603
  C       3.968549     -2.118546     -1.082253
  C       4.016563     -2.812797      0.201149
  C       4.434360     -2.118243      1.456439
  H       3.703645     -2.341044      2.256453
  H       5.387637     -2.568507      1.805135
  C       4.596578     -0.609371      1.284064
  H       5.222515     -0.195234      2.088848
  H       3.621638     -0.107649      1.347653
  C       5.211135     -0.276622     -0.068003
  H       6.220787     -0.729561     -0.134237
  C       5.302969      1.216094     -0.362122
  C       6.288499      1.979091      0.525519
  H       5.977639      1.909954      1.582954
  H       7.282439      1.497516      0.469371
  C       6.409403      3.452293      0.134953
  H       7.118030      3.987468      0.787087
  H       5.434722      3.963080      0.207139
  H       6.761645      3.561652     -0.904436
  H       4.291421      1.649126     -0.268518
  H       5.594478      1.326354     -1.420259
  C       3.653361     -4.254111      0.248967
  H       2.835852     -4.428941      0.972551
  H       4.509155     -4.863090      0.599183
  H       3.343231     -4.615862     -0.739519
  C       1.065047     -2.074047      0.074072
  H       1.015755     -2.444840      1.098444
  C       1.148193     -0.759185     -0.188748
  C       1.233722      0.234669      0.921385
  O       1.180216     -0.322220      2.152703
  C       1.282431      0.581520      3.248936
  H       1.190868     -0.026241      4.158129
  H       2.252632      1.103540      3.236021
  H       0.484010      1.338259      3.211771
  O       1.367344      1.427142      0.754941
  C       1.215834     -0.180474     -1.571636
  H       2.161526      0.366204     -1.706594
  H       0.398171      0.540913     -1.733503
  H       1.169082     -0.971906     -2.330564
  H       1.029302     -2.800231     -0.740706
  O       4.414101     -0.834979     -1.130577
41
Coordinates from ORCA-job orca E -847.147479399074
  O       3.500313     -2.614626     -2.097347
  C       3.968138     -2.128022     -1.083731
  C       4.021663     -2.830657      0.195196
  C       4.455377     -2.146826      1.450777
  H       3.734903     -2.379106      2.257423
  H       5.414087     -2.597609      1.783502
  C       4.609256     -0.635844      1.290898
  H       5.241289     -0.226127      2.093138
  H       3.631561     -0.141844      1.370947
  C       5.209285     -0.285958     -0.063447
  H       6.223651     -0.726743     -0.139876
  C       5.282667      1.210007     -0.346357
  C       6.261041      1.978064      0.544826
  H       5.952574      1.898788      1.602282
  H       7.260186      1.507871      0.484240
  C       6.364985      3.455012      0.163724
  H       7.068577      3.993801      0.818346
  H       5.384755      3.954346      0.240592
  H       6.714408      3.575166     -0.875437
  H       4.266141      1.629945     -0.247293
  H       5.570621      1.331618     -1.404201
  C       3.646178     -4.268919      0.236197
  H       2.826556     -4.436369      0.959455
  H       4.495178     -4.888564      0.583884
  H       3.331757     -4.623758     -0.753374
  C       1.076969     -2.062264      0.087040
  H       1.036282     -2.419157      1.116883
  C       1.157543     -0.750444     -0.193397
  C       1.255365      0.256877      0.903172
  O       1.204571     -0.283632      2.142239
  C       1.319733      0.634285      3.225415
  H       1.228556      0.039699      4.143312
  H       2.294109      1.147978      3.199729
  H       0.527165      1.396768      3.181979
  O       1.395932      1.446143      0.721057
  C       1.213130     -0.190100     -1.584371
  H       2.160486      0.348900     -1.738008
  H       0.398590      0.534917     -1.745873
  H       1.152045     -0.991470     -2.331674
  H       1.030802     -2.798608     -0.718101
  O       4.412634     -0.843988     -1.126176
41
Coordinates from ORCA-job orca E -847.147601065951
  O       3.490650     -2.619041     -2.100405
  C       3.964846     -2.141718     -1.085209
  C       4.027554     -2.857108      0.186238
  C       4.484390     -2.190233      1.442166
  H       3.780526     -2.438457      2.258759
  H       5.451420     -2.641560      1.749256
  C       4.625893     -0.676098      1.302332
  H       5.267495     -0.273065      2.100314
  H       3.644485     -0.193304      1.407730
  C       5.203174     -0.299935     -0.055293
  H       6.223999     -0.722359     -0.147924
  C       5.246977      1.200556     -0.320270
  C       6.214679      1.976846      0.575400
  H       5.912016      1.880809      1.633169
  H       7.222113      1.525857      0.506111
  C       6.289570      3.459476      0.209950
  H       6.985616      4.004304      0.867661
  H       5.300437      3.939372      0.295893
  H       6.632398      3.597418     -0.829204
  H       4.222677      1.598708     -0.211565
  H       5.527699      1.340428     -1.377785
  C       3.632287     -4.289598      0.218369
  H       2.808463     -4.445887      0.939793
  H       4.470558     -4.924440      0.564361
  H       3.312990     -4.633982     -0.773250
  C       1.093789     -2.044724      0.106217
  H       1.066494     -2.380786      1.143736
  C       1.176218     -0.738758     -0.202030
  C       1.297751      0.289117      0.872879
  O       1.244753     -0.224055      2.123350
  C       1.387614      0.714600      3.185111
  H       1.289413      0.142646      4.116546
  H       2.373720      1.204223      3.140875
  H       0.612512      1.493993      3.129448
  O       1.457687      1.471689      0.665747
  C       1.215406     -0.206048     -1.604405
  H       2.165992      0.319512     -1.783923
  H       0.406687      0.525481     -1.766142
  H       1.132876     -1.021260     -2.334429
  H       1.029030     -2.796230     -0.683663
  O       4.406204     -0.856838     -1.118326
41
Coordinates from ORCA-job orca E -847.147753767307
  O       3.474777     -2.625878     -2.104419
  C       3.958807     -2.162364     -1.087179
  C       4.035067     -2.896385      0.172800
  C       4.525992     -2.254822      1.428032
  H       3.847153     -2.528269      2.257787
  H       5.504693     -2.705783      1.696561
  C       4.648016     -0.736091      1.319295
  H       5.303085     -0.342085      2.110757
  H       3.661107     -0.271403      1.462425
  C       5.191433     -0.320933     -0.041962
  H       6.221306     -0.714888     -0.157093
  C       5.190146      1.184761     -0.280448
  C       6.137482      1.974585      0.625077
  H       5.840922      1.853295      1.682052
  H       7.157567      1.554512      0.546382
  C       6.167321      3.464410      0.283355
  H       6.848930      4.019164      0.947897
  H       5.164546      3.913013      0.379459
  H       6.502536      3.629192     -0.754383
  H       4.154079      1.548282     -0.161667
  H       5.462970      1.351485     -1.336103
  C       3.609345     -4.318980      0.192998
  H       2.779399     -4.456713      0.912004
  H       4.430495     -4.976641      0.536994
  H       3.282659     -4.647912     -0.801321
  C       1.119879     -2.016835      0.135165
  H       1.114218     -2.321380      1.183308
  C       1.207521     -0.720944     -0.215563
  C       1.369113      0.336525      0.824973
  O       1.311946     -0.132693      2.091948
  C       1.503921      0.835781      3.118153
  H       1.393128      0.301500      4.070279
  H       2.509715      1.280161      3.044860
  H       0.761326      1.644407      3.041807
  O       1.562666      1.506274      0.579099
  C       1.221351     -0.230051     -1.633824
  H       2.176348      0.272751     -1.853377
  H       0.422843      0.512706     -1.795754
  H       1.104694     -1.065163     -2.336201
  H       1.025305     -2.790522     -0.630402
  O       4.395250     -0.876517     -1.106181
41
Coordinates from ORCA-job orca E -847.148051119041
  O       3.464176     -2.637694     -2.110127
  C       3.951958     -2.181912     -1.091814
  C       4.035377     -2.926281      0.161123
  C       4.568849     -2.304713      1.410691
  H       3.920853     -2.590184      2.260017
  H       5.557943     -2.754991      1.637825
  C       4.676876     -0.784785      1.321542
  H       5.346657     -0.400349      2.105201
  H       3.690529     -0.340364      1.499817
  C       5.186910     -0.338763     -0.041675
  H       6.222897     -0.709042     -0.178441
  C       5.153891      1.172101     -0.252708
  C       6.086903      1.963190      0.666236
  H       5.794158      1.815501      1.721115
  H       7.115332      1.565686      0.578824
  C       6.085902      3.459688      0.353862
  H       6.757867      4.014816      1.027969
  H       5.074553      3.886212      0.460614
  H       6.415619      3.651586     -0.680948
  H       4.112285      1.513035     -0.124668
  H       5.420920      1.362962     -1.305724
  C       3.607118     -4.351870      0.173094
  H       2.777684     -4.493063      0.892171
  H       4.425471     -5.014628      0.512622
  H       3.276271     -4.674412     -0.822075
  C       1.137890     -1.989310      0.161839
  H       1.153610     -2.268178      1.215885
  C       1.223359     -0.702679     -0.219920
  C       1.408014      0.382571      0.785359
  O       1.364584     -0.048411      2.068072
  C       1.568257      0.949704      3.065026
  H       1.463485      0.443396      4.032971
  H       2.573910      1.389963      2.972413
  H       0.826609      1.757323      2.971373
  O       1.606639      1.543778      0.500715
  C       1.204684     -0.248928     -1.649515
  H       2.157129      0.236449     -1.909258
  H       0.410142      0.497898     -1.811138
  H       1.060003     -1.100991     -2.325412
  H       1.025897     -2.779956     -0.582459
  O       4.387849     -0.894805     -1.102904
41
Coordinates from ORCA-job orca E -847.148255313039
  O       3.456856     -2.639472     -2.114151
  C       3.946367     -2.187847     -1.095107
  C       4.036672     -2.939883      0.152313
  C       4.595870     -2.331641      1.397787
  H       3.974375     -2.629653      2.262139
  H       5.594109     -2.777123      1.592323
  C       4.692019     -0.810015      1.321520
  H       5.370390     -0.432225      2.101169
  H       3.704173     -0.376395      1.518816
  C       5.185874     -0.347289     -0.041706
  H       6.222686     -0.709573     -0.192238
  C       5.144758      1.165890     -0.237826
  C       6.073676      1.951848      0.689474
  H       5.781507      1.790759      1.742469
  H       7.104783      1.562073      0.598435
  C       6.062941      3.451713      0.393571
  H       6.731550      4.003630      1.073660
  H       5.048864      3.870412      0.505056
  H       6.391413      3.657016     -0.639020
  H       4.103011      1.502692     -0.107201
  H       5.411169      1.368013     -1.289003
  C       3.616891     -4.370293      0.158720
  H       2.791936     -4.526508      0.879552
  H       4.441736     -5.028172      0.491068
  H       3.283688     -4.688597     -0.837172
  C       1.148498     -1.975071      0.182937
  H       1.183553     -2.239930      1.240515
  C       1.221617     -0.694404     -0.217316
  C       1.407409      0.410222      0.765103
  O       1.384423      0.001682      2.055613
  C       1.580784      1.019253      3.034713
  H       1.488587      0.527363      4.011313
  H       2.578757      1.473781      2.930418
  H       0.826318      1.813884      2.932464
  O       1.588687      1.568706      0.455969
  C       1.178022     -0.262795     -1.653377
  H       2.126480      0.219342     -1.934239
  H       0.379101      0.478985     -1.815586
  H       1.024510     -1.124067     -2.315634
  H       1.033333     -2.777307     -0.548438
  O       4.381667     -0.899452     -1.101513
41
Coordinates from ORCA-job orca E -847.148413503571
  O       3.441142     -2.634684     -2.118216
  C       3.937823     -2.193760     -1.097766
  C       4.041596     -2.961703      0.138329
  C       4.631650     -2.375688      1.379197
  H       4.048378     -2.704868      2.258884
  H       5.643630     -2.809419      1.525647
  C       4.704070     -0.849945      1.332007
  H       5.389962     -0.479161      2.108682
  H       3.710978     -0.432591      1.552827
  C       5.177065     -0.360343     -0.030341
  H       6.215357     -0.710290     -0.198175
  C       5.120174      1.154044     -0.207492
  C       6.039547      1.939409      0.729790
  H       5.747894      1.762907      1.780367
  H       7.075551      1.563472      0.636246
  C       6.010615      3.442402      0.450559
  H       6.671417      3.995034      1.137646
  H       4.991098      3.846736      0.564982
  H       6.337909      3.663123     -0.579192
  H       4.074912      1.479838     -0.075683
  H       5.385381      1.371526     -1.255988
  C       3.623314     -4.391932      0.132832
  H       2.802480     -4.561769      0.855330
  H       4.452541     -5.049555      0.454446
  H       3.285546     -4.698386     -0.865289
  C       1.169063     -1.953857      0.216741
  H       1.236003     -2.195533      1.279659
  C       1.226078     -0.683152     -0.217211
  C       1.422086      0.449086      0.731690
  O       1.424347      0.076891      2.031684
  C       1.631745      1.121040      2.978815
  H       1.550832      0.656775      3.969847
  H       2.628690      1.571946      2.850116
  H       0.875792      1.912393      2.862850
  O       1.588867      1.599772      0.387766
  C       1.149655     -0.286707     -1.663522
  H       2.094004      0.187356     -1.975388
  H       0.347426      0.450879     -1.827400
  H       0.981712     -1.162616     -2.303282
  H       1.044960     -2.775419     -0.492485
  O       4.367770     -0.903699     -1.091917
41
Coordinates from ORCA-job orca E -847.148400366969
  O       3.438739     -2.614469     -2.119328
  C       3.934241     -2.174421     -1.098071
  C       4.041008     -2.945721      0.135884
  C       4.631917     -2.359520      1.376303
  H       4.072525     -2.702599      2.266226
  H       5.654004     -2.777534      1.501866
  C       4.696348     -0.834047      1.329453
  H       5.375598     -0.462667      2.112017
  H       3.704319     -0.412612      1.531264
  C       5.184193     -0.354197     -0.029898
  H       6.214293     -0.727680     -0.196998
  C       5.164959      1.158907     -0.215110
  C       6.103807      1.927723      0.716697
  H       5.807609      1.765885      1.768237
  H       7.130461      1.526504      0.626443
  C       6.111482      3.428906      0.424748
  H       6.784478      3.971424      1.107933
  H       5.101650      3.858132      0.533972
  H       6.445302      3.632578     -0.606387
  H       4.129287      1.516736     -0.087456
  H       5.434193      1.363401     -1.265271
  C       3.658455     -4.386145      0.123262
  H       2.850306     -4.597428      0.847709
  H       4.513249     -5.016660      0.433218
  H       3.325690     -4.693952     -0.876342
  C       1.161382     -1.959484      0.227753
  H       1.239553     -2.203447      1.288563
  C       1.188059     -0.689386     -0.204318
  C       1.340411      0.447911      0.748901
  O       1.373713      0.066885      2.045896
  C       1.525381      1.109859      3.005847
  H       1.467336      0.629684      3.990991
  H       2.494456      1.620630      2.889989
  H       0.726961      1.859758      2.898237
  O       1.443741      1.607143      0.409784
  C       1.106881     -0.294488     -1.651570
  H       2.044145      0.202507     -1.949995
  H       0.285196      0.419258     -1.822314
  H       0.968230     -1.170471     -2.298193
  H       1.062797     -2.783986     -0.481263
  O       4.362705     -0.883367     -1.091090
41
Coordinates from ORCA-job orca E -847.148541499614
  O       3.434534     -2.618663     -2.119891
  C       3.935347     -2.183791     -1.098717
  C       4.046699     -2.960611      0.131649
  C       4.642940     -2.379998      1.371739
  H       4.082998     -2.731050      2.257901
  H       5.665205     -2.797956      1.494836
  C       4.700577     -0.853607      1.336601
  H       5.380514     -0.481498      2.117983
  H       3.704707     -0.440250      1.549034
  C       5.177927     -0.361103     -0.023077
  H       6.212381     -0.721476     -0.192970
  C       5.137968      1.152718     -0.199873
  C       6.066829      1.929932      0.734980
  H       5.773630      1.759766      1.786187
  H       7.098330      1.541838      0.642069
  C       6.055570      3.432300      0.450105
  H       6.722206      3.980033      1.135386
  H       5.040572      3.848553      0.562018
  H       6.385927      3.645024     -0.580342
  H       4.096368      1.492583     -0.068947
  H       5.403194      1.366841     -1.249030
  C       3.646322     -4.394497      0.114897
  H       2.834682     -4.588983      0.841099
  H       4.490311     -5.040359      0.422974
  H       3.307389     -4.695843     -0.884434
  C       1.175524     -1.951142      0.234980
  H       1.256982     -2.184656      1.298141
  C       1.204473     -0.683356     -0.209808
  C       1.375481      0.460167      0.732444
  O       1.407054      0.092844      2.033250
  C       1.586251      1.145505      2.976179
  H       1.526464      0.681539      3.968913
  H       2.566765      1.629653      2.841726
  H       0.804242      1.911619      2.863046
  O       1.496326      1.614218      0.382499
  C       1.116070     -0.299887     -1.659153
  H       2.053064      0.186304     -1.974625
  H       0.301301      0.422816     -1.826497
  H       0.961341     -1.182119     -2.293504
  H       1.063400     -2.780998     -0.466254
  O       4.361194     -0.892860     -1.085925
41
Coordinates from ORCA-job orca E -847.148577035424
  O       3.428235     -2.617315     -2.119498
  C       3.932429     -2.185685     -1.098446
  C       4.048182     -2.967026      0.128723
  C       4.649095     -2.389933      1.368451
  H       4.095144     -2.749130      2.255038
  H       5.673786     -2.804075      1.484518
  C       4.700622     -0.863305      1.340402
  H       5.379248     -0.489837      2.122175
  H       3.703261     -0.454452      1.554978
  C       5.172817     -0.363956     -0.018961
  H       6.208236     -0.720217     -0.191804
  C       5.124858      1.150320     -0.189980
  C       6.053658      1.929237      0.743373
  H       5.766003      1.754244      1.795383
  H       7.086444      1.546040      0.644493
  C       6.034271      3.432378      0.463450
  H       6.700992      3.981067      1.147870
  H       5.017816      3.843674      0.580583
  H       6.359489      3.649885     -0.567630
  H       4.081447      1.482972     -0.053369
  H       5.383913      1.369848     -1.239512
  C       3.643686     -4.399042      0.108031
  H       2.832044     -4.591037      0.835161
  H       4.485480     -5.049077      0.413550
  H       3.302528     -4.696957     -0.891529
  C       1.181495     -1.945966      0.242277
  H       1.265665     -2.171838      1.306645
  C       1.211004     -0.681374     -0.212403
  C       1.389398      0.467071      0.723006
  O       1.420783      0.108527      2.026522
  C       1.609922      1.166618      2.961644
  H       1.546893      0.710859      3.957975
  H       2.594948      1.640228      2.822581
  H       0.835272      1.939332      2.843382
  O       1.516516      1.617794      0.366246
  C       1.119928     -0.306526     -1.663455
  H       2.055823      0.176557     -1.985705
  H       0.306477      0.417517     -1.831852
  H       0.961893     -1.192992     -2.290889
  H       1.064113     -2.780418     -0.452532
  O       4.355248     -0.894463     -1.081301
41
Coordinates from ORCA-job orca E -847.148589659158
  O       3.424449     -2.614420     -2.119599
  C       3.931016     -2.184548     -1.098921
  C       4.050873     -2.968947      0.126260
  C       4.651957     -2.391923      1.366339
  H       4.101294     -2.756028      2.252793
  H       5.678711     -2.801678      1.480131
  C       4.698679     -0.865611      1.340564
  H       5.373949     -0.489732      2.124032
  H       3.699583     -0.459297      1.551791
  C       5.171179     -0.364217     -0.017989
  H       6.206218     -0.721448     -0.191412
  C       5.124102      1.150453     -0.186366
  C       6.056623      1.926988      0.745160
  H       5.772474      1.750505      1.797902
  H       7.088481      1.542434      0.641907
  C       6.038331      3.430546      0.467788
  H       6.707711      3.977290      1.151156
  H       5.022798      3.843141      0.588479
  H       6.360756      3.649252     -0.563915
  H       4.081290      1.483383     -0.046115
  H       5.379687      1.371623     -1.236391
  C       3.647022     -4.400910      0.102626
  H       2.838461     -4.594444      0.832813
  H       4.490073     -5.051975      0.402664
  H       3.302291     -4.696712     -0.896325
  C       1.185645     -1.944756      0.248124
  H       1.270201     -2.165937      1.313113
  C       1.209481     -0.681761     -0.211357
  C       1.384426      0.469775      0.721224
  O       1.420517      0.114245      2.025868
  C       1.606464      1.176001      2.957358
  H       1.547175      0.723159      3.955239
  H       2.589287      1.653360      2.815133
  H       0.828541      1.945240      2.837987
  O       1.505376      1.620262      0.361992
  C       1.117263     -0.311636     -1.662940
  H       2.050614      0.174507     -1.986932
  H       0.301321      0.409349     -1.832754
  H       0.962984     -1.200908     -2.287173
  H       1.069906     -2.782147     -0.443214
  O       4.351850     -0.892928     -1.079451
41
Coordinates from ORCA-job orca E -847.148607709607
  O       3.418334     -2.609604     -2.120071
  C       3.928027     -2.181746     -1.100113
  C       4.054463     -2.970205      0.122151
  C       4.655062     -2.393175      1.362947
  H       4.108953     -2.763156      2.249663
  H       5.684618     -2.796801      1.473848
  C       4.694937     -0.867219      1.339210
  H       5.365221     -0.488278      2.125465
  H       3.693383     -0.464440      1.544762
  C       5.168668     -0.363555     -0.018095
  H       6.202658     -0.723184     -0.192958
  C       5.125213      1.151750     -0.182630
  C       6.065843      1.922597      0.745341
  H       5.788032      1.743682      1.799361
  H       7.095579      1.534645      0.634036
  C       6.051007      3.426975      0.472704
  H       6.726170      3.969344      1.153849
  H       5.037686      3.842901      0.600504
  H       6.368082      3.647714     -0.560223
  H       4.084330      1.487625     -0.035972
  H       5.375311      1.374780     -1.233599
  C       3.654327     -4.403205      0.094773
  H       2.851841     -4.601628      0.830274
  H       4.501039     -5.053857      0.385445
  H       3.303636     -4.696114     -0.902960
  C       1.190557     -1.944019      0.257547
  H       1.273904     -2.158536      1.323719
  C       1.206310     -0.683438     -0.208142
  C       1.373683      0.472745      0.720452
  O       1.415681      0.121645      2.026664
  C       1.592892      1.188532      2.954199
  H       1.538816      0.738767      3.953784
  H       2.570855      1.675112      2.809825
  H       0.807857      1.950224      2.832956
  O       1.484181      1.623032      0.357624
  C       1.113391     -0.319857     -1.660779
  H       2.042966      0.172692     -1.985237
  H       0.292328      0.394542     -1.834002
  H       0.967726     -1.212830     -2.281623
  H       1.079517     -2.785669     -0.429148
  O       4.345977     -0.889237     -1.077961
41
Coordinates from ORCA-job orca E -847.148617265780
  O       3.415006     -2.607248     -2.121112
  C       3.926339     -2.180607     -1.101513
  C       4.056599     -2.971288      0.118918
  C       4.656929     -2.395090      1.360280
  H       4.112551     -2.767509      2.247040
  H       5.687574     -2.796259      1.469858
  C       4.693074     -0.869071      1.338051
  H       5.361213     -0.489403      2.125787
  H       3.690062     -0.468894      1.541774
  C       5.166968     -0.363427     -0.018497
  H       6.200610     -0.723381     -0.194750
  C       5.125075      1.152227     -0.180427
  C       6.070508      1.919521      0.745619
  H       5.796758      1.738433      1.800305
  H       7.099179      1.530296      0.629153
  C       6.056830      3.424571      0.476672
  H       6.735516      3.964268      1.156451
  H       5.044694      3.841804      0.609517
  H       6.370092      3.647366     -0.556973
  H       4.085417      1.489994     -0.029826
  H       5.372151      1.376549     -1.231860
  C       3.659065     -4.405137      0.089460
  H       2.860977     -4.607031      0.828718
  H       4.508332     -5.055355      0.373554
  H       3.303762     -4.695797     -0.907311
  C       1.193838     -1.943266      0.264249
  H       1.275520     -2.153569      1.331418
  C       1.205679     -0.684082     -0.205046
  C       1.368600      0.475449      0.720120
  O       1.413371      0.128129      2.027325
  C       1.584905      1.198621      2.951744
  H       1.534554      0.751167      3.952564
  H       2.559471      1.691356      2.805338
  H       0.794866      1.954941      2.829217
  O       1.473591      1.625280      0.353975
  C       1.111938     -0.324974     -1.658737
  H       2.039456      0.171047     -1.983870
  H       0.287670      0.385123     -1.834412
  H       0.971200     -1.220192     -2.277460
  H       1.086202     -2.787525     -0.419712
  O       4.342918     -0.887487     -1.078008
41
Coordinates from ORCA-job orca E -847.148629347965
  O       3.411925     -2.605154     -2.123307
  C       3.924630     -2.179670     -1.103987
  C       4.058328     -2.972120      0.114687
  C       4.656851     -2.396994      1.357302
  H       4.111330     -2.769687      2.243319
  H       5.687506     -2.797630      1.468066
  C       4.690716     -0.870658      1.335990
  H       5.357297     -0.491221      2.125164
  H       3.686569     -0.472784      1.538502
  C       5.164976     -0.363286     -0.019682
  H       6.198519     -0.722840     -0.197206
  C       5.124417      1.152650     -0.179231
  C       6.075205      1.916365      0.744411
  H       5.806346      1.732731      1.799887
  H       7.102879      1.526419      0.621926
  C       6.061928      3.422185      0.479631
  H       6.744790      3.959182      1.157369
  H       5.051021      3.840302      0.618913
  H       6.370079      3.647528     -0.554992
  H       4.086220      1.492767     -0.024192
  H       5.368361      1.377994     -1.231194
  C       3.663959     -4.407064      0.083335
  H       2.871724     -4.613080      0.827640
  H       4.516522     -5.056560      0.358998
  H       3.302230     -4.694884     -0.911960
  C       1.196733     -1.942657      0.272267
  H       1.273365     -2.148497      1.340822
  C       1.207218     -0.684801     -0.200315
  C       1.365375      0.478029      0.721330
  O       1.409813      0.134903      2.029537
  C       1.574989      1.208825      2.951212
  H       1.528102      0.763360      3.953091
  H       2.545806      1.708353      2.803257
  H       0.779503      1.959246      2.827361
  O       1.467388      1.627036      0.351553
  C       1.114644     -0.330205     -1.655492
  H       2.040527      0.169433     -1.980019
  H       0.286928      0.374894     -1.834975
  H       0.980004     -1.227517     -2.272526
  H       1.093897     -2.789352     -0.409318
  O       4.340441     -0.885991     -1.079586
41
Coordinates from ORCA-job orca E -847.148634677131
  O       3.411519     -2.604660     -2.125788
  C       3.924598     -2.179941     -1.106331
  C       4.058732     -2.972961      0.111690
  C       4.655460     -2.398832      1.355384
  H       4.107183     -2.770397      2.240265
  H       5.685243     -2.800934      1.468346
  C       4.689821     -0.872148      1.334768
  H       5.356683     -0.493967      2.124314
  H       3.685538     -0.474790      1.538167
  C       5.164381     -0.363940     -0.020361
  H       6.198274     -0.722450     -0.197882
  C       5.123659      1.151999     -0.179350
  C       6.075383      1.915127      0.743953
  H       5.807767      1.730521      1.799575
  H       7.103101      1.525790      0.619989
  C       6.061280      3.421218      0.480497
  H       6.745163      3.957791      1.157549
  H       5.050484      3.838887      0.621877
  H       6.367661      3.647594     -0.554425
  H       4.085815      1.492896     -0.023482
  H       5.367336      1.377515     -1.231334
  C       3.665782     -4.408333      0.079230
  H       2.877297     -4.616816      0.826785
  H       4.520404     -5.057422      0.349441
  H       3.299723     -4.694083     -0.915073
  C       1.198210     -1.941814      0.277511
  H       1.270660     -2.145341      1.346991
  C       1.209863     -0.684484     -0.196760
  C       1.365738      0.480149      0.722855
  O       1.408467      0.139505      2.031505
  C       1.571116      1.215039      2.951664
  H       1.526942      0.770529      3.954086
  H       2.539879      1.717875      2.801736
  H       0.772636      1.962347      2.827957
  O       1.467732      1.628522      0.350823
  C       1.118932     -0.332387     -1.652949
  H       2.044529      0.168282     -1.976994
  H       0.289814      0.370423     -1.834870
  H       0.986840     -1.230761     -2.269026
  H       1.098408     -2.789691     -0.403111
  O       4.341006     -0.886305     -1.081633
41
Coordinates from ORCA-job orca E -847.148638944138
  O       3.412730     -2.605258     -2.128220
  C       3.925482     -2.180806     -1.108437
  C       4.057869     -2.973488      0.109839
  C       4.652697     -2.399719      1.354449
  H       4.100978     -2.769329      2.238058
  H       5.681201     -2.804184      1.470322
  C       4.689593     -0.872872      1.333778
  H       5.357635     -0.496084      2.122990
  H       3.686082     -0.474268      1.538577
  C       5.164846     -0.364977     -0.021087
  H       6.199197     -0.722713     -0.197445
  C       5.123311      1.150816     -0.180836
  C       6.073013      1.915290      0.743512
  H       5.804143      1.730803      1.798847
  H       7.101399      1.527222      0.621114
  C       6.057471      3.421292      0.479468
  H       6.740173      3.958887      1.156897
  H       5.046046      3.837785      0.619803
  H       6.364558      3.647609     -0.555259
  H       4.085034      1.491261     -0.026541
  H       5.368496      1.375954     -1.232532
  C       3.665327     -4.408917      0.076883
  H       2.879074     -4.618870      0.826349
  H       4.521277     -5.057634      0.343916
  H       3.296778     -4.693504     -0.916825
  C       1.198159     -1.940904      0.280656
  H       1.266941     -2.143633      1.350612
  C       1.212952     -0.683757     -0.194356
  C       1.368194      0.481316      0.724841
  O       1.407927      0.141484      2.033582
  C       1.570820      1.217096      2.953608
  H       1.528032      0.772530      3.956057
  H       2.539010      1.720561      2.802365
  H       0.771530      1.963737      2.830893
  O       1.472517      1.629247      0.352128
  C       1.124855     -0.332428     -1.651063
  H       2.051093      0.167818     -1.973935
  H       0.295802      0.370027     -1.834694
  H       0.993494     -1.231066     -2.266910
  H       1.099960     -2.789076     -0.399885
  O       4.343362     -0.887698     -1.083931
41
Coordinates from ORCA-job orca E -847.148645161833
  O       3.414651     -2.606475     -2.130552
  C       3.926920     -2.182229     -1.110374
  C       4.056727     -2.974554      0.108401
  C       4.650575     -2.401018      1.353521
  H       4.096701     -2.769544      2.236241
  H       5.678185     -2.807289      1.471117
  C       4.690021     -0.874183      1.333042
  H       5.359477     -0.498583      2.121631
  H       3.687487     -0.473864      1.539510
  C       5.165992     -0.366604     -0.021660
  H       6.200830     -0.723725     -0.196418
  C       5.123113      1.149021     -0.182358
  C       6.068289      1.915788      0.744708
  H       5.795920      1.731773      1.799239
  H       7.097783      1.529379      0.626365
  C       6.051113      3.421539      0.479246
  H       6.730654      3.960906      1.158436
  H       5.038495      3.836372      0.615792
  H       6.361327      3.647381     -0.554655
  H       4.083770      1.487899     -0.031632
  H       5.371355      1.373956     -1.233361
  C       3.663928     -4.409788      0.074962
  H       2.879142     -4.620848      0.825614
  H       4.520746     -5.058360      0.339799
  H       3.293892     -4.693525     -0.918427
  C       1.198233     -1.939306      0.283401
  H       1.265390     -2.141457      1.353594
  C       1.215526     -0.682466     -0.192735
  C       1.370878      0.483053      0.726029
  O       1.409249      0.143875      2.034856
  C       1.574135      1.219536      2.954397
  H       1.533247      0.775176      3.957011
  H       2.542221      1.722469      2.800816
  H       0.774766      1.966380      2.833281
  O       1.476730      1.630654      0.352691
  C       1.129469     -0.331840     -1.649711
  H       2.056492      0.167217     -1.972108
  H       0.301195      0.371308     -1.834256
  H       0.997433     -1.230712     -2.265079
  H       1.100448     -2.787879     -0.396807
  O       4.346556     -0.889884     -1.085977
41
Coordinates from ORCA-job orca E -847.148642211871
  O       3.416153     -2.607634     -2.132426
  C       3.928113     -2.183623     -1.111956
  C       4.055889     -2.975906      0.107167
  C       4.649723     -2.402513      1.352427
  H       4.095532     -2.771098      2.234889
  H       5.677123     -2.809340      1.470235
  C       4.690545     -0.875845      1.332280
  H       5.360810     -0.500807      2.120464
  H       3.688733     -0.474238      1.539662
  C       5.167091     -0.368246     -0.022290
  H       6.202234     -0.725093     -0.195774
  C       5.123055      1.147327     -0.183398
  C       6.063633      1.915922      0.746764
  H       5.787478      1.732152      1.800356
  H       7.094106      1.530836      0.632617
  C       6.045333      3.421467      0.480289
  H       6.721415      3.962257      1.161791
  H       5.031570      3.834891      0.612542
  H       6.359311      3.647044     -0.552532
  H       4.082602      1.484411     -0.036305
  H       5.374353      1.372486     -1.233623
  C       3.662940     -4.411020      0.073150
  H       2.879462     -4.623213      0.824804
  H       4.520481     -5.059543      0.335994
  H       3.291794     -4.694124     -0.920002
  C       1.198820     -1.937417      0.286169
  H       1.265899     -2.138634      1.356485
  C       1.217045     -0.681172     -0.191597
  C       1.372436      0.485100      0.726379
  O       1.411241      0.146879      2.035460
  C       1.577972      1.223109      2.953999
  H       1.538955      0.779451      3.956995
  H       2.545889      1.725648      2.798124
  H       0.778520      1.970047      2.834028
  O       1.478164      1.632422      0.352204
  C       1.131924     -0.331636     -1.648747
  H       2.059343      0.166518     -1.971243
  H       0.304354      0.372211     -1.833831
  H       0.999212     -1.230907     -2.263363
  H       1.100754     -2.786710     -0.393143
  O       4.349051     -0.891911     -1.087456
41
Coordinates from ORCA-job orca E -847.148646242315
  O       3.417229     -2.608597     -2.133647
  C       3.928943     -2.184698     -1.113017
  C       4.055609     -2.977035      0.106291
  C       4.649764     -2.403635      1.351501
  H       4.096127     -2.772665      2.234090
  H       5.677334     -2.810217      1.468915
  C       4.690842     -0.877142      1.331465
  H       5.361135     -0.502122      2.119637
  H       3.689295     -0.474969      1.538746
  C       5.167884     -0.369404     -0.022973
  H       6.203197     -0.726140     -0.195704
  C       5.123154      1.146186     -0.184089
  C       6.060485      1.915673      0.748510
  H       5.781399      1.731966      1.801332
  H       7.091536      1.531209      0.637465
  C       6.041852      3.421113      0.481572
  H       6.715324      3.962617      1.165085
  H       5.027344      3.833774      0.610468
  H       6.358936      3.646644     -0.550310
  H       4.081934      1.481969     -0.039640
  H       5.376706      1.371717     -1.233692
  C       3.662653     -4.412146      0.071927
  H       2.880345     -4.625141      0.824531
  H       4.520690     -5.060775      0.333031
  H       3.290490     -4.694857     -0.920967
  C       1.199702     -1.935866      0.288257
  H       1.267365     -2.136179      1.358630
  C       1.217633     -0.680171     -0.190824
  C       1.372819      0.486783      0.726423
  O       1.412901      0.149337      2.035769
  C       1.580380      1.226256      2.953409
  H       1.542583      0.783274      3.956756
  H       2.548007      1.728953      2.796218
  H       0.780646      1.972954      2.833853
  O       1.477337      1.633985      0.351585
  C       1.132603     -0.331590     -1.648080
  H       2.060091      0.166241     -1.970811
  H       0.305416      0.372623     -1.833485
  H       0.999672     -1.231205     -2.262119
  H       1.101119     -2.785852     -0.390095
  O       4.350579     -0.893318     -1.088422
41
Coordinates from ORCA-job orca E -847.148644842517
  O       3.417769     -2.609255     -2.134386
  C       3.929353     -2.185496     -1.113656
  C       4.055768     -2.978013      0.105598
  C       4.650458     -2.404809      1.350686
  H       4.097697     -2.774435      2.233556
  H       5.678326     -2.810888      1.467319
  C       4.690986     -0.878372      1.330929
  H       5.360942     -0.503245      2.119341
  H       3.689287     -0.476437      1.537865
  C       5.168134     -0.370158     -0.023363
  H       6.203583     -0.726539     -0.195991
  C       5.122819      1.145492     -0.184096
  C       6.058378      1.915281      0.749994
  H       5.777627      1.731453      1.802349
  H       7.089728      1.531126      0.640636
  C       6.039646      3.420712      0.483051
  H       6.711582      3.962481      1.167870
  H       5.024728      3.832961      0.610018
  H       6.358586      3.646412     -0.548223
  H       4.081172      1.480463     -0.041023
  H       5.377575      1.371495     -1.233318
  C       3.662782     -4.413132      0.071031
  H       2.881449     -4.626548      0.824504
  H       4.521082     -5.062013      0.330673
  H       3.289581     -4.695453     -0.921591
  C       1.200775     -1.934726      0.289765
  H       1.269289     -2.134210      1.360214
  C       1.217954     -0.679444     -0.190296
  C       1.373114      0.488192      0.726095
  O       1.414480      0.151624      2.035688
  C       1.582087      1.229331      2.952400
  H       1.544795      0.787117      3.956107
  H       2.549522      1.732208      2.794538
  H       0.782148      1.975750      2.832550
  O       1.476533      1.635237      0.350487
  C       1.132328     -0.331793     -1.647698
  H       2.059728      0.165899     -1.970918
  H       0.305268      0.372509     -1.833288
  H       0.999281     -1.231733     -2.261230
  H       1.101584     -2.785327     -0.387708
  O       4.351140     -0.894166     -1.088889
41
Coordinates from ORCA-job orca E -847.147963567760
  O       3.419311     -2.628901     -2.124000
  C       3.943671     -2.202748     -1.107514
  C       4.098215     -2.997880      0.105556
  C       4.678451     -2.420351      1.337967
  H       4.094863     -2.795317      2.204983
  H       5.707569     -2.818553      1.471012
  C       4.695816     -0.887035      1.325670
  H       5.349632     -0.508111      2.125990
  H       3.677454     -0.484455      1.517427
  C       5.178035     -0.377053     -0.023570
  H       6.217436     -0.723599     -0.192797
  C       5.123228      1.138212     -0.184383
  C       6.052201      1.913469      0.751797
  H       5.770608      1.727447      1.803544
  H       7.086162      1.535814      0.644233
  C       6.024553      3.418893      0.485443
  H       6.691802      3.964583      1.171759
  H       5.006815      3.824738      0.610659
  H       6.344033      3.647017     -0.545134
  H       4.080659      1.467014     -0.042362
  H       5.378249      1.366089     -1.233137
  C       3.683001     -4.409807      0.068402
  H       2.896923     -4.581690      0.835402
  H       4.524691     -5.082876      0.322499
  H       3.290374     -4.677257     -0.920714
  C       1.150842     -1.898663      0.293802
  H       1.235935     -2.104607      1.372683
  C       1.188712     -0.654239     -0.191586
  C       1.358298      0.508739      0.725599
  O       1.402320      0.161081      2.031137
  C       1.589999      1.228515      2.956009
  H       1.551991      0.777968      3.956019
  H       2.562506      1.721708      2.798806
  H       0.799037      1.986284      2.846931
  O       1.480917      1.655746      0.355616
  C       1.126663     -0.331348     -1.654186
  H       2.066682      0.145500     -1.972169
  H       0.312623      0.381068     -1.867010
  H       0.995373     -1.246536     -2.249197
  H       1.102879     -2.761381     -0.377595
  O       4.360531     -0.907930     -1.086000
41
Coordinates from ORCA-job orca E -847.148795143722
  O       3.417638     -2.620427     -2.126152
  C       3.944863     -2.200239     -1.110917
  C       4.103391     -3.000743      0.100176
  C       4.679200     -2.419045      1.345436
  H       4.106898     -2.794167      2.214787
  H       5.710261     -2.808982      1.481577
  C       4.692126     -0.890232      1.329751
  H       5.345495     -0.507626      2.128139
  H       3.681285     -0.501265      1.523433
  C       5.170572     -0.375869     -0.021373
  H       6.209163     -0.723032     -0.193798
  C       5.116621      1.139817     -0.180700
  C       6.048960      1.912772      0.754044
  H       5.769873      1.725496      1.806247
  H       7.082311      1.534357      0.643344
  C       6.021871      3.418577      0.489974
  H       6.691197      3.962683      1.175499
  H       5.004770      3.824973      0.618234
  H       6.339067      3.647974     -0.541012
  H       4.074019      1.470153     -0.036032
  H       5.369610      1.368608     -1.229800
  C       3.685716     -4.424680      0.066053
  H       2.899965     -4.605482      0.825382
  H       4.526171     -5.096632      0.324896
  H       3.297802     -4.696917     -0.923323
  C       1.152771     -1.910983      0.292490
  H       1.233572     -2.117078      1.361004
  C       1.188606     -0.659316     -0.190977
  C       1.357263      0.507337      0.724315
  O       1.407007      0.169052      2.032725
  C       1.601069      1.242986      2.948267
  H       1.565941      0.800760      3.952048
  H       2.575013      1.730345      2.781975
  H       0.812461      2.002642      2.836297
  O       1.472773      1.653130      0.348544
  C       1.124778     -0.325221     -1.652734
  H       2.063927      0.154859     -1.969277
  H       0.310117      0.387701     -1.858845
  H       0.991521     -1.232437     -2.255228
  H       1.098330     -2.769686     -0.381362
  O       4.355064     -0.904615     -1.085516
41
Coordinates from ORCA-job orca E -847.148946638554
  O       3.413901     -2.618367     -2.124920
  C       3.943593     -2.199152     -1.111565
  C       4.106021     -3.001365      0.097816
  C       4.681358     -2.419307      1.348692
  H       4.118565     -2.795806      2.222173
  H       5.713803     -2.806487      1.481893
  C       4.693661     -0.891974      1.330451
  H       5.349960     -0.507138      2.125493
  H       3.683772     -0.507499      1.528381
  C       5.168775     -0.376008     -0.021815
  H       6.206585     -0.724467     -0.196695
  C       5.114920      1.139734     -0.179769
  C       6.049123      1.911694      0.753952
  H       5.771815      1.723575      1.806490
  H       7.082144      1.533097      0.641159
  C       6.021985      3.417746      0.491215
  H       6.692585      3.961112      1.176082
  H       5.005182      3.824249      0.621497
  H       6.337507      3.647943     -0.540107
  H       4.072320      1.470502     -0.033538
  H       5.366396      1.369080     -1.229049
  C       3.688448     -4.430191      0.066600
  H       2.901377     -4.618014      0.821136
  H       4.529765     -5.099084      0.329173
  H       3.305576     -4.705799     -0.924040
  C       1.154557     -1.914297      0.292388
  H       1.229958     -2.118364      1.361115
  C       1.190332     -0.660881     -0.191221
  C       1.357682      0.506923      0.722654
  O       1.406205      0.171570      2.032117
  C       1.598586      1.247629      2.945507
  H       1.561301      0.807875      3.950297
  H       2.573477      1.733289      2.779501
  H       0.810876      2.007611      2.830195
  O       1.470371      1.652176      0.344312
  C       1.124465     -0.320159     -1.651730
  H       2.062946      0.161309     -1.967836
  H       0.309658      0.394052     -1.852161
  H       0.987666     -1.222942     -2.259889
  H       1.089356     -2.770735     -0.382737
  O       4.352485     -0.903579     -1.085628
41
Coordinates from ORCA-job orca E -847.149014940872
  O       3.409572     -2.618846     -2.122692
  C       3.941185     -2.198914     -1.110860
  C       4.106715     -3.001446      0.097334
  C       4.683543     -2.420517      1.349682
  H       4.128582     -2.799246      2.226895
  H       5.717166     -2.807094      1.477378
  C       4.695802     -0.893403      1.330592
  H       5.355043     -0.507051      2.122580
  H       3.685692     -0.510543      1.532203
  C       5.168270     -0.376874     -0.022287
  H       6.205476     -0.726499     -0.198554
  C       5.114424      1.138824     -0.179286
  C       6.049653      1.910651      0.753547
  H       5.773546      1.722369      1.806357
  H       7.082522      1.532029      0.639504
  C       6.022303      3.416752      0.491065
  H       6.693730      3.959987      1.175223
  H       5.005663      3.823278      0.622571
  H       6.336617      3.647087     -0.540598
  H       4.071920      1.469498     -0.032240
  H       5.364799      1.368412     -1.228775
  C       3.692196     -4.432292      0.067843
  H       2.902818     -4.626155      0.818187
  H       4.535775     -5.096645      0.334601
  H       3.315496     -4.711013     -0.924462
  C       1.155188     -1.914539      0.291852
  H       1.223985     -2.115622      1.361796
  C       1.192407     -0.661054     -0.191875
  C       1.358296      0.507275      0.721852
  O       1.405201      0.172823      2.031686
  C       1.593916      1.249878      2.944840
  H       1.554216      0.810903      3.949882
  H       2.569024      1.735906      2.781082
  H       0.805973      2.009161      2.826744
  O       1.471004      1.652330      0.342902
  C       1.124992     -0.316256     -1.651287
  H       2.062978      0.165992     -1.967286
  H       0.310190      0.399225     -1.847213
  H       0.984816     -1.216003     -2.263428
  H       1.077591     -2.769122     -0.384173
  O       4.350775     -0.903696     -1.085595
41
Coordinates from ORCA-job orca E -847.149063730728
  O       3.404323     -2.620332     -2.119632
  C       3.937631     -2.199189     -1.109019
  C       4.105375     -3.001264      0.098598
  C       4.685937     -2.421911      1.349399
  H       4.138099     -2.803225      2.230055
  H       5.720639     -2.808832      1.469713
  C       4.698224     -0.894608      1.330924
  H       5.360302     -0.507376      2.120164
  H       3.688082     -0.512048      1.535888
  C       5.168006     -0.378110     -0.022655
  H       6.204702     -0.728714     -0.200003
  C       5.114363      1.137544     -0.179369
  C       6.050398      1.909703      0.752337
  H       5.775182      1.722034      1.805478
  H       7.083112      1.530875      0.637554
  C       6.023010      3.415651      0.489030
  H       6.695096      3.959178      1.172298
  H       5.006529      3.822373      0.621175
  H       6.336447      3.645375     -0.543035
  H       4.072039      1.468199     -0.031830
  H       5.363837      1.366949     -1.229142
  C       3.697081     -4.433179      0.069661
  H       2.904548     -4.632695      0.815403
  H       4.543837     -5.091385      0.342009
  H       3.328190     -4.715652     -0.924603
  C       1.154263     -1.912801      0.290707
  H       1.215256     -2.110413      1.362100
  C       1.195306     -0.659796     -0.192911
  C       1.361764      0.508021      0.721864
  O       1.404631      0.172802      2.031638
  C       1.587088      1.249771      2.946347
  H       1.542997      0.810183      3.950939
  H       2.562269      1.737370      2.787853
  H       0.798543      2.007845      2.824659
  O       1.473298      1.653610      0.344185
  C       1.126887     -0.312104     -1.651422
  H       2.064679      0.170166     -1.967652
  H       0.312577      0.405067     -1.843591
  H       0.983161     -1.209533     -2.266349
  H       1.062363     -2.765466     -0.385906
  O       4.348989     -0.904530     -1.085270
41
Coordinates from ORCA-job orca E -847.149080078086
  O       3.400782     -2.621349     -2.117220
  C       3.934438     -2.199492     -1.106830
  C       4.102202     -3.000853      0.101098
  C       4.686903     -2.422393      1.348959
  H       4.142538     -2.805122      2.231388
  H       5.722173     -2.809798      1.464026
  C       4.699107     -0.894997      1.331676
  H       5.362210     -0.507695      2.120003
  H       3.689106     -0.512042      1.537646
  C       5.167489     -0.378864     -0.022399
  H       6.203989     -0.729724     -0.200304
  C       5.113998      1.136722     -0.179452
  C       6.050775      1.909273      0.751128
  H       5.776381      1.722267      1.804598
  H       7.083378      1.530300      0.635722
  C       6.023235      3.415058      0.486945
  H       6.695885      3.958956      1.169366
  H       5.006875      3.821893      0.619658
  H       6.335861      3.644151     -0.545504
  H       4.071864      1.467357     -0.031256
  H       5.362580      1.365783     -1.229534
  C       3.701001     -4.433606      0.071051
  H       2.905624     -4.636615      0.813127
  H       4.550234     -5.086610      0.348544
  H       3.338721     -4.719161     -0.924745
  C       1.151337     -1.910965      0.288870
  H       1.206566     -2.106847      1.361039
  C       1.196714     -0.658120     -0.194068
  C       1.362962      0.508839      0.722270
  O       1.405840      0.171941      2.031601
  C       1.584273      1.248217      2.948080
  H       1.540069      0.807058      3.951979
  H       2.558131      1.739115      2.791782
  H       0.793624      2.004093      2.826326
  O       1.478034      1.654569      0.346150
  C       1.129273     -0.309411     -1.652211
  H       2.067248      0.172767     -1.967966
  H       0.315395      0.408579     -1.843573
  H       0.984632     -1.206176     -2.267894
  H       1.050212     -2.762273     -0.388078
  O       4.347404     -0.905275     -1.084408
41
Coordinates from ORCA-job orca E -847.149094339216
  O       3.397968     -2.621821     -2.115481
  C       3.931533     -2.199815     -1.104948
  C       4.098412     -3.000507      0.103676
  C       4.687442     -2.422262      1.348575
  H       4.144648     -2.805342      2.232018
  H       5.722960     -2.810038      1.460122
  C       4.699771     -0.894850      1.332481
  H       5.363582     -0.508265      2.120522
  H       3.690223     -0.511008      1.539252
  C       5.166703     -0.379048     -0.022328
  H       6.203076     -0.729786     -0.201206
  C       5.113456      1.136548     -0.180016
  C       6.051333      1.909191      0.749349
  H       5.777859      1.722790      1.803170
  H       7.083729      1.529868      0.633169
  C       6.023945      3.414863      0.484509
  H       6.697338      3.958896      1.166097
  H       5.007805      3.822004      0.617946
  H       6.335721      3.643409     -0.548320
  H       4.071598      1.467598     -0.030904
  H       5.361128      1.365156     -1.230414
  C       3.703843     -4.434381      0.071935
  H       2.906264     -4.639480      0.811306
  H       4.554735     -5.083420      0.353687
  H       3.346512     -4.722352     -0.924896
  C       1.147771     -1.909306      0.287285
  H       1.199845     -2.105079      1.359621
  C       1.198347     -0.656351     -0.194725
  C       1.367867      0.508962      0.723038
  O       1.407166      0.170464      2.032055
  C       1.581154      1.245832      2.950430
  H       1.534454      0.803265      3.953596
  H       2.554519      1.738849      2.797968
  H       0.789532      2.000463      2.827070
  O       1.481003      1.655525      0.348859
  C       1.132188     -0.307233     -1.652780
  H       2.070652      0.174189     -1.968202
  H       0.319099      0.411630     -1.844474
  H       0.987283     -1.204093     -2.268191
  H       1.041124     -2.759716     -0.389866
  O       4.345471     -0.905800     -1.083392
41
Coordinates from ORCA-job orca E -847.149099194702
  O       3.397089     -2.621671     -2.114875
  C       3.929917     -2.199809     -1.103932
  C       4.095596     -3.000144      0.105307
  C       4.686780     -2.421597      1.348984
  H       4.143790     -2.804058      2.232618
  H       5.722268     -2.809358      1.459925
  C       4.699254     -0.894327      1.332977
  H       5.362797     -0.508251      2.121460
  H       3.689991     -0.510077      1.539316
  C       5.165793     -0.378733     -0.022141
  H       6.202150     -0.729187     -0.201668
  C       5.112549      1.136837     -0.180137
  C       6.050984      1.909303      0.748814
  H       5.778035      1.722776      1.802757
  H       7.083310      1.529956      0.632080
  C       6.023503      3.415027      0.484223
  H       6.697263      3.958948      1.165542
  H       5.007441      3.822161      0.618262
  H       6.334744      3.643724     -0.548735
  H       4.070825      1.468058     -0.030383
  H       5.359771      1.365355     -1.230655
  C       3.704744     -4.435142      0.072315
  H       2.906098     -4.641067      0.810347
  H       4.556142     -5.082462      0.356266
  H       3.349666     -4.724174     -0.924972
  C       1.144731     -1.909049      0.285930
  H       1.196233     -2.106090      1.357976
  C       1.198225     -0.655712     -0.195212
  C       1.368166      0.508906      0.723183
  O       1.409149      0.169667      2.031982
  C       1.583289      1.244660      2.950761
  H       1.539053      0.801329      3.953698
  H       2.555482      1.739547      2.796940
  H       0.790215      1.998094      2.829312
  O       1.484419      1.655306      0.349438
  C       1.133874     -0.306717     -1.653408
  H       2.072731      0.174622     -1.967828
  H       0.320958      0.411929     -1.846625
  H       0.990502     -1.204149     -2.268275
  H       1.037631     -2.759139     -0.391494
  O       4.343902     -0.905741     -1.082482
41
Coordinates from ORCA-job orca E -847.149100532294
  O       3.396571     -2.621508     -2.114611
  C       3.928834     -2.199686     -1.103465
  C       4.093937     -2.999795      0.106096
  C       4.686026     -2.420933      1.349661
  H       4.142909     -2.802629      2.233498
  H       5.721423     -2.808657      1.460750
  C       4.698856     -0.893754      1.333210
  H       5.362512     -0.508047      2.121773
  H       3.689843     -0.509244      1.539647
  C       5.164914     -0.378277     -0.022171
  H       6.201165     -0.728667     -0.202451
  C       5.111723      1.137304     -0.180272
  C       6.050741      1.909498      0.748363
  H       5.778267      1.722792      1.802397
  H       7.082974      1.530068      0.631090
  C       6.023326      3.415295      0.484120
  H       6.697485      3.958991      1.165225
  H       5.007377      3.822516      0.618752
  H       6.334083      3.644184     -0.548942
  H       4.070137      1.468799     -0.029993
  H       5.358592      1.365771     -1.230877
  C       3.704843     -4.435696      0.072707
  H       2.905710     -4.642196      0.810002
  H       4.556358     -5.082256      0.357769
  H       3.350758     -4.725171     -0.924794
  C       1.142761     -1.909260      0.285010
  H       1.194744     -2.107847      1.356688
  C       1.198301     -0.655628     -0.195469
  C       1.369336      0.508403      0.723166
  O       1.410058      0.168892      2.031926
  C       1.584858      1.243616      2.950850
  H       1.541523      0.799996      3.953696
  H       2.556797      1.738764      2.796300
  H       0.791560      1.996981      2.830322
  O       1.486289      1.654821      0.349626
  C       1.135157     -0.306361     -1.653731
  H       2.074348      0.174923     -1.967226
  H       0.322351      0.412116     -1.847939
  H       0.992954     -1.204010     -2.268527
  H       1.036306     -2.759129     -0.392778
  O       4.342350     -0.905431     -1.081812
41
Coordinates from ORCA-job orca E -847.149101208812
  O       3.396050     -2.621516     -2.114237
  C       3.927896     -2.199474     -1.103038
  C       4.092917     -2.999350      0.106654
  C       4.685230     -2.420356      1.350417
  H       4.142308     -2.801536      2.234548
  H       5.720549     -2.808206      1.461552
  C       4.698493     -0.893176      1.333470
  H       5.362551     -0.507630      2.121789
  H       3.689668     -0.508502      1.540326
  C       5.164025     -0.377859     -0.022142
  H       6.200108     -0.728404     -0.203065
  C       5.110948      1.137701     -0.180328
  C       6.050504      1.909707      0.747943
  H       5.778407      1.723020      1.802071
  H       7.082617      1.530083      0.630270
  C       6.023313      3.415509      0.483739
  H       6.697845      3.959052      1.164595
  H       5.007500      3.822934      0.618760
  H       6.333726      3.644353     -0.549436
  H       4.069489      1.469433     -0.029663
  H       5.357498      1.366051     -1.231032
  C       3.704890     -4.435805      0.073371
  H       2.905301     -4.643013      0.809933
  H       4.556580     -5.081665      0.359359
  H       3.351741     -4.725647     -0.924371
  C       1.141377     -1.909546      0.284012
  H       1.193556     -2.109477      1.355428
  C       1.198510     -0.655733     -0.195852
  C       1.370249      0.507812      0.723094
  O       1.410309      0.167958      2.031798
  C       1.586081      1.242282      2.950973
  H       1.543279      0.798333      3.953696
  H       2.558061      1.737169      2.795868
  H       0.792947      1.995967      2.831311
  O       1.488045      1.654257      0.349843
  C       1.136320     -0.305841     -1.654047
  H       2.075790      0.175522     -1.966522
  H       0.323554      0.412530     -1.848731
  H       0.994944     -1.203336     -2.269275
  H       1.035086     -2.759041     -0.394293
  O       4.340795     -0.905013     -1.081199
41
Coordinates from ORCA-job orca E -847.148245380035
  O       3.396019     -2.639378     -2.105376
  C       3.940691     -2.216227     -1.098625
  C       4.136593     -3.021905      0.104330
  C       4.711370     -2.435911      1.337190
  H       4.138957     -2.823695      2.205715
  H       5.748866     -2.813242      1.464762
  C       4.701397     -0.901857      1.328557
  H       5.349261     -0.513541      2.129163
  H       3.677649     -0.515816      1.519912
  C       5.171780     -0.384184     -0.022062
  H       6.211667     -0.724900     -0.200250
  C       5.110144      1.131046     -0.180280
  C       6.043881      1.907690      0.750022
  H       5.770894      1.719072      1.803579
  H       7.078246      1.533667      0.634036
  C       6.009070      3.413463      0.486440
  H       6.679456      3.960330      1.168749
  H       4.990824      3.815367      0.619816
  H       6.320109      3.644435     -0.546076
  H       4.068491      1.457570     -0.030726
  H       5.357114      1.361063     -1.230523
  C       3.734751     -4.441046      0.071855
  H       2.928729     -4.592132      0.824615
  H       4.568448     -5.113676      0.350973
  H       3.343759     -4.713667     -0.916886
  C       1.094160     -1.872587      0.286738
  H       1.162318     -2.079034      1.365922
  C       1.170591     -0.629744     -0.197962
  C       1.356160      0.528757      0.722027
  O       1.398485      0.177686      2.026757
  C       1.593305      1.241602      2.954197
  H       1.549612      0.789299      3.953184
  H       2.570127      1.727136      2.799983
  H       0.808910      2.006159      2.845086
  O       1.492203      1.675067      0.354583
  C       1.130681     -0.303812     -1.660818
  H       2.081832      0.157291     -1.967941
  H       0.330829      0.422166     -1.881340
  H       0.990410     -1.215694     -2.258514
  H       1.033603     -2.729349     -0.385222
  O       4.347670     -0.917918     -1.077998
41
Coordinates from ORCA-job orca E -847.149029996131
  O       3.394080     -2.633549     -2.104969
  C       3.942012     -2.214646     -1.100354
  C       4.141091     -3.022855      0.100307
  C       4.711811     -2.434133      1.345388
  H       4.149865     -2.821741      2.216025
  H       5.750677     -2.804335      1.476271
  C       4.697659     -0.905084      1.332964
  H       5.345417     -0.512905      2.131239
  H       3.680395     -0.532301      1.526760
  C       5.164471     -0.383887     -0.019550
  H       6.203405     -0.725749     -0.200625
  C       5.103659      1.131639     -0.176737
  C       6.040732      1.906397      0.751787
  H       5.770427      1.716725      1.805865
  H       7.074530      1.531783      0.632610
  C       6.006141      3.412472      0.490094
  H       6.678636      3.958082      1.171312
  H       4.988492      3.814777      0.626589
  H       6.314648      3.644477     -0.542941
  H       4.061613      1.459667     -0.024439
  H       5.348444      1.362244     -1.227423
  C       3.736310     -4.451430      0.068418
  H       2.929774     -4.618830      0.810216
  H       4.569613     -5.119591      0.353709
  H       3.360230     -4.729690     -0.923995
  C       1.094818     -1.884246      0.285742
  H       1.158667     -2.091195      1.355305
  C       1.170018     -0.634202     -0.197006
  C       1.355029      0.527992      0.721110
  O       1.402639      0.185897      2.028611
  C       1.604796      1.255921      2.946997
  H       1.563966      0.811679      3.949674
  H       2.583294      1.735067      2.783641
  H       0.823223      2.022872      2.835403
  O       1.484608      1.673251      0.348193
  C       1.128875     -0.297742     -1.659069
  H       2.079628      0.165803     -1.964832
  H       0.328772      0.429164     -1.873381
  H       0.986581     -1.202129     -2.263797
  H       1.027983     -2.740373     -0.390750
  O       4.342030     -0.915744     -1.076774
41
Coordinates from ORCA-job orca E -847.149197626457
  O       3.390052     -2.632501     -2.102389
  C       3.940711     -2.213895     -1.099975
  C       4.143109     -3.022484      0.099012
  C       4.713865     -2.434062      1.349679
  H       4.161355     -2.822578      2.224427
  H       5.753690     -2.802366      1.477947
  C       4.699178     -0.906756      1.333960
  H       5.350099     -0.511621      2.128330
  H       3.682863     -0.539231      1.532455
  C       5.162405     -0.384326     -0.019942
  H       6.200398     -0.727960     -0.203384
  C       5.101716      1.131201     -0.175975
  C       6.040610      1.905254      0.751334
  H       5.772289      1.714716      1.805779
  H       7.074131      1.530694      0.629924
  C       6.005590      3.411557      0.490902
  H       6.679410      3.956611      1.171253
  H       4.988207      3.813769      0.629626
  H       6.312127      3.644351     -0.542539
  H       4.059549      1.459482     -0.022021
  H       5.344799      1.362244     -1.226896
  C       3.737173     -4.455033      0.068984
  H       2.928434     -4.636003      0.802703
  H       4.572535     -5.117741      0.360848
  H       3.375893     -4.738770     -0.927457
  C       1.095524     -1.887511      0.285191
  H       1.153488     -2.092866      1.354707
  C       1.171406     -0.635519     -0.197400
  C       1.355478      0.527636      0.719534
  O       1.401658      0.188281      2.028054
  C       1.603692      1.260144      2.944320
  H       1.560927      0.818312      3.947981
  H       2.583495      1.736603      2.780663
  H       0.823683      2.028175      2.829991
  O       1.482914      1.672385      0.344255
  C       1.128722     -0.291889     -1.658163
  H       2.079131      0.172656     -1.963239
  H       0.328838      0.436767     -1.866686
  H       0.982702     -1.191485     -2.268867
  H       1.018222     -2.741656     -0.392723
  O       4.338992     -0.915031     -1.076612
41
Coordinates from ORCA-job orca E -847.149275083301
  O       3.385847     -2.633654     -2.099573
  C       3.938009     -2.213831     -1.098514
  C       4.142738     -3.022004      0.099665
  C       4.715829     -2.434968      1.351009
  H       4.170435     -2.825117      2.229307
  H       5.756380     -2.803739      1.473982
  C       4.701478     -0.907744      1.334098
  H       5.355448     -0.510765      2.125159
  H       3.684907     -0.541750      1.536374
  C       5.162011     -0.385249     -0.020588
  H       6.199333     -0.730339     -0.205179
  C       5.101416      1.130211     -0.175984
  C       6.040800      1.904518      0.750627
  H       5.773329      1.713967      1.805267
  H       7.074292      1.530153      0.628419
  C       6.005299      3.410798      0.490130
  H       6.679557      3.956024      1.169905
  H       4.987942      3.812821      0.629605
  H       6.310970      3.643576     -0.543572
  H       4.059260      1.458206     -0.021669
  H       5.343754      1.361330     -1.227058
  C       3.739117     -4.455750      0.070872
  H       2.927363     -4.646316      0.798452
  H       4.577411     -5.112364      0.369553
  H       3.390585     -4.744558     -0.928765
  C       1.094977     -1.887178      0.283839
  H       1.146424     -2.090180      1.354439
  C       1.173130     -0.635213     -0.198412
  C       1.356471      0.527880      0.718967
  O       1.400365      0.188640      2.027658
  C       1.600133      1.260740      2.944311
  H       1.554975      0.819082      3.947949
  H       2.580513      1.736784      2.782815
  H       0.820519      2.028860      2.828063
  O       1.485146      1.672526      0.343777
  C       1.129474     -0.287439     -1.658090
  H       2.079695      0.177460     -1.962827
  H       0.329951      0.442822     -1.862388
  H       0.980122     -1.184038     -2.272676
  H       1.006463     -2.739349     -0.394767
  O       4.337193     -0.915304     -1.076589
41
Coordinates from ORCA-job orca E -847.149315490574
  O       3.381007     -2.635494     -2.096282
  C       3.934122     -2.214150     -1.096138
  C       4.140279     -3.021525      0.101935
  C       4.717858     -2.435976      1.351006
  H       4.178798     -2.827993      2.232577
  H       5.759083     -2.805987      1.466886
  C       4.704074     -0.908405      1.334489
  H       5.361055     -0.510508      2.122638
  H       3.687542     -0.542342      1.540208
  C       5.161799     -0.386357     -0.021072
  H       6.198570     -0.732577     -0.206630
  C       5.101437      1.129046     -0.176485
  C       6.041161      1.904060      0.749130
  H       5.774214      1.714387      1.804047
  H       7.074610      1.529624      0.626677
  C       6.005466      3.410109      0.487386
  H       6.680015      3.955924      1.166394
  H       4.988145      3.812189      0.626981
  H       6.310650      3.642044     -0.546651
  H       4.059400      1.456817     -0.022050
  H       5.343156      1.359815     -1.227809
  C       3.742522     -4.455897      0.073553
  H       2.926938     -4.653815      0.795117
  H       4.583940     -5.105375      0.380425
  H       3.406119     -4.750255     -0.928693
  C       1.092893     -1.884953      0.281481
  H       1.136957     -2.085418      1.353305
  C       1.175603     -0.633524     -0.199943
  C       1.360181      0.528276      0.719218
  O       1.399416      0.187400      2.027612
  C       1.594596      1.258578      2.946487
  H       1.545260      0.815634      3.949367
  H       2.575413      1.735350      2.789982
  H       0.815023      2.026355      2.827766
  O       1.489227      1.673548      0.346064
  C       1.131623     -0.282630     -1.658675
  H       2.081944      0.181977     -1.963238
  H       0.332897      0.449571     -1.859548
  H       0.978940     -1.176924     -2.276016
  H       0.991812     -2.734912     -0.397670
  O       4.335314     -0.916136     -1.076241
41
Coordinates from ORCA-job orca E -847.149332617821
  O       3.377470     -2.636649     -2.093691
  C       3.930554     -2.214424     -1.093712
  C       4.136541     -3.021047      0.104895
  C       4.718675     -2.436144      1.350819
  H       4.183233     -2.829226      2.234363
  H       5.760371     -2.806902      1.461278
  C       4.705219     -0.908442      1.335342
  H       5.363660     -0.510592      2.122266
  H       3.689009     -0.541653      1.542509
  C       5.161179     -0.386951     -0.020917
  H       6.197700     -0.733516     -0.207221
  C       5.100999      1.128384     -0.176814
  C       6.041225      1.903954      0.747758
  H       5.774826      1.715170      1.802970
  H       7.074593      1.529363      0.625029
  C       6.005405      3.409790      0.484841
  H       6.680301      3.956131      1.163089
  H       4.988153      3.811966      0.624635
  H       6.310070      3.640913     -0.549531
  H       4.059118      1.456097     -0.021969
  H       5.342044      1.358702     -1.228405
  C       3.746084     -4.456376      0.075760
  H       2.927064     -4.657683      0.792855
  H       4.589395     -5.100294      0.389510
  H       3.417376     -4.754812     -0.927845
  C       1.089377     -1.882969      0.278566
  H       1.127792     -2.082281      1.350989
  C       1.176891     -0.631684     -0.201562
  C       1.361835      0.528673      0.719686
  O       1.400253      0.185582      2.027506
  C       1.592427      1.255533      2.948574
  H       1.542690      0.810637      3.950571
  H       2.572364      1.734804      2.794339
  H       0.811370      2.021871      2.830219
  O       1.495267      1.674097      0.348583
  C       1.134171     -0.279192     -1.659785
  H       2.084778      0.185284     -1.963557
  H       0.336023      0.454010     -1.859681
  H       0.980507     -1.172577     -2.278224
  H       0.979622     -2.731187     -0.401166
  O       4.333429     -0.916811     -1.075279
41
Coordinates from ORCA-job orca E -847.149349266924
  O       3.374293     -2.637279     -2.091583
  C       3.927213     -2.214734     -1.091590
  C       4.132490     -3.020665      0.107769
  C       4.719229     -2.435734      1.350718
  H       4.186131     -2.829112      2.235706
  H       5.761273     -2.806745      1.457053
  C       4.706181     -0.908065      1.336304
  H       5.365879     -0.511043      2.122551
  H       3.690664     -0.540090      1.544815
  C       5.160218     -0.387039     -0.020886
  H       6.196532     -0.733531     -0.208485
  C       5.100277      1.128288     -0.177541
  C       6.041508      1.904018      0.745830
  H       5.775880      1.715985      1.801378
  H       7.074683      1.529047      0.622526
  C       6.005872      3.409719      0.482071
  H       6.681396      3.956288      1.159518
  H       4.988814      3.812189      0.622392
  H       6.309828      3.640169     -0.552661
  H       4.058656      1.456422     -0.021923
  H       5.340535      1.358058     -1.229440
  C       3.749297     -4.457457      0.077450
  H       2.927425     -4.659886      0.791260
  H       4.593512     -5.097362      0.396558
  H       3.424950     -4.758651     -0.926723
  C       1.085492     -1.881316      0.275946
  H       1.120371     -2.080755      1.348445
  C       1.178615     -0.629894     -0.202712
  C       1.367096      0.528328      0.720406
  O       1.401338      0.183309      2.027825
  C       1.589627      1.252000      2.951136
  H       1.537055      0.805448      3.952249
  H       2.569404      1.732823      2.800936
  H       0.808049      2.017620      2.831379
  O       1.499534      1.674625      0.351606
  C       1.137346     -0.276237     -1.660650
  H       2.088425      0.187653     -1.963759
  H       0.339999      0.457929     -1.860486
  H       0.983285     -1.169320     -2.279354
  H       0.969628     -2.728139     -0.404416
  O       4.331062     -0.917311     -1.074029
41
Coordinates from ORCA-job orca E -847.149350946941
  O       3.373231     -2.637168     -2.090721
  C       3.925558     -2.214701     -1.090452
  C       4.129946     -3.020284      0.109401
  C       4.718650     -2.434954      1.351355
  H       4.185945     -2.827891      2.236766
  H       5.760824     -2.805620      1.456751
  C       4.705735     -0.907489      1.336990
  H       5.365420     -0.511022      2.123504
  H       3.690619     -0.539055      1.545348
  C       5.159154     -0.386644     -0.020568
  H       6.195414     -0.732828     -0.209019
  C       5.099166      1.128641     -0.177565
  C       6.041105      1.904191      0.745262
  H       5.776075      1.716150      1.800967
  H       7.074164      1.529101      0.621360
  C       6.005498      3.409929      0.481649
  H       6.681455      3.956377      1.158762
  H       4.988556      3.812473      0.622586
  H       6.308896      3.640432     -0.553236
  H       4.057700      1.456986     -0.021219
  H       5.338863      1.358264     -1.229623
  C       3.750529     -4.458344      0.078155
  H       2.927348     -4.660512      0.790593
  H       4.594670     -5.097007      0.399267
  H       3.426970     -4.760091     -0.926082
  C       1.082616     -1.881320      0.274130
  H       1.116627     -2.081999      1.346309
  C       1.178560     -0.629472     -0.203447
  C       1.367373      0.527979      0.720428
  O       1.403203      0.182154      2.027619
  C       1.591866      1.250402      2.951371
  H       1.541559      0.803055      3.952242
  H       2.570660      1.732803      2.799874
  H       0.809061      2.015074      2.833486
  O       1.503198      1.674047      0.352105
  C       1.139089     -0.275482     -1.661389
  H       2.090459      0.188617     -1.963294
  H       0.341782      0.458398     -1.862451
  H       0.986559     -1.168881     -2.279942
  H       0.965716     -2.727560     -0.406827
  O       4.329244     -0.917194     -1.072857
41
Coordinates from ORCA-job orca E -847.149354207486
  O       3.372679     -2.637001     -2.090286
  C       3.924686     -2.214552     -1.089918
  C       4.128817     -3.019920      0.110102
  C       4.718121     -2.434295      1.352119
  H       4.185539     -2.826693      2.237764
  H       5.760314     -2.804707      1.457576
  C       4.705427     -0.906916      1.337360
  H       5.365313     -0.510772      2.123871
  H       3.690557     -0.538289      1.545954
  C       5.158281     -0.386137     -0.020476
  H       6.194428     -0.732235     -0.209719
  C       5.098312      1.129147     -0.177592
  C       6.040865      1.904430      0.744875
  H       5.776259      1.716336      1.800675
  H       7.073789      1.529135      0.620506
  C       6.005500      3.410212      0.481449
  H       6.681887      3.956436      1.158313
  H       4.988710      3.812962      0.622894
  H       6.308478      3.640760     -0.553547
  H       4.056983      1.457774     -0.020724
  H       5.337631      1.358691     -1.229742
  C       3.750509     -4.458700      0.078629
  H       2.926937     -4.660733      0.790596
  H       4.594439     -5.097265      0.400074
  H       3.426795     -4.760177     -0.925634
  C       1.081095     -1.881758      0.273131
  H       1.115464     -2.083774      1.344969
  C       1.178726     -0.629644     -0.203793
  C       1.368566      0.527261      0.720312
  O       1.404050      0.181206      2.027472
  C       1.593291      1.249205      2.951346
  H       1.543513      0.801636      3.952140
  H       2.571989      1.731631      2.799354
  H       0.810456      2.013959      2.834096
  O       1.504709      1.673378      0.352194
  C       1.140232     -0.275225     -1.661733
  H       2.091790      0.189044     -1.962743
  H       0.342894      0.458395     -1.863512
  H       0.988819     -1.168714     -2.280407
  H       0.964520     -2.727706     -0.408303
  O       4.327694     -0.916835     -1.072049
41
Coordinates from ORCA-job orca E -847.149354221563
  O       3.372115     -2.636959     -2.089694
  C       3.923751     -2.214263     -1.089269
  C       4.127899     -3.019317      0.110869
  C       4.717456     -2.433525      1.353039
  H       4.185137     -2.825441      2.238997
  H       5.759620     -2.803935      1.458510
  C       4.705111     -0.906144      1.337744
  H       5.365411     -0.510134      2.123986
  H       3.690431     -0.537373      1.546790
  C       5.157334     -0.385564     -0.020375
  H       6.193296     -0.731797     -0.210380
  C       5.097460      1.129706     -0.177602
  C       6.040636      1.904789      0.744433
  H       5.776395      1.716785      1.800337
  H       7.073408      1.529199      0.619673
  C       6.005635      3.410578      0.480980
  H       6.682455      3.956622      1.157556
  H       4.989021      3.813635      0.622814
  H       6.308269      3.641010     -0.554143
  H       4.056271      1.458594     -0.020269
  H       5.336391      1.359116     -1.229869
  C       3.750076     -4.458508      0.079583
  H       2.926146     -4.660833      0.790991
  H       4.593951     -5.096865      0.401397
  H       3.426760     -4.759849     -0.924860
  C       1.079639     -1.882299      0.271794
  H       1.114192     -2.085755      1.343334
  C       1.178930     -0.629996     -0.204376
  C       1.369609      0.526312      0.720136
  O       1.404489      0.179796      2.027206
  C       1.594837      1.247290      2.951416
  H       1.545425      0.799338      3.952057
  H       2.573688      1.729256      2.798963
  H       0.812338      2.012520      2.835004
  O       1.506565      1.672483      0.352430
  C       1.141443     -0.274850     -1.662211
  H       2.093192      0.189750     -1.962036
  H       0.343978      0.458466     -1.864519
  H       0.991202     -1.168204     -2.281366
  H       0.963170     -2.727787     -0.410271
  O       4.325930     -0.916298     -1.071212
41
Coordinates from ORCA-job orca E -847.149358014802
  O       3.371439     -2.637033     -2.088849
  C       3.922678     -2.213853     -1.088408
  C       4.127012     -3.018493      0.111891
  C       4.716721     -2.432538      1.354016
  H       4.184708     -2.824033      2.240315
  H       5.758819     -2.803202      1.459344
  C       4.704834     -0.905098      1.338215
  H       5.365720     -0.509097      2.123987
  H       3.690335     -0.536122      1.547851
  C       5.156360     -0.384911     -0.020251
  H       6.192068     -0.731519     -0.210934
  C       5.096755      1.130332     -0.177728
  C       6.040463      1.905318      0.743862
  H       5.776396      1.717662      1.799869
  H       7.073071      1.529316      0.618957
  C       6.005998      3.411047      0.480033
  H       6.683207      3.956995      1.156300
  H       4.989583      3.814555      0.622005
  H       6.308474      3.641094     -0.555224
  H       4.055691      1.459504     -0.020143
  H       5.335436      1.359462     -1.230115
  C       3.749406     -4.457823      0.081096
  H       2.925060     -4.660543      0.791874
  H       4.593344     -5.095781      0.403558
  H       3.426954     -4.759384     -0.923581
  C       1.078078     -1.882880      0.269953
  H       1.112463     -2.087815      1.341235
  C       1.179183     -0.630409     -0.205269
  C       1.370750      0.525084      0.720003
  O       1.404564      0.177696      2.026875
  C       1.596283      1.244307      2.951810
  H       1.546903      0.795649      3.952135
  H       2.575502      1.725475      2.799236
  H       0.814419      2.010343      2.836374
  O       1.509093      1.671359      0.353111
  C       1.142714     -0.274228     -1.662891
  H       2.094665      0.190785     -1.961367
  H       0.345110      0.458862     -1.865451
  H       0.993528     -1.167231     -2.282828
  H       0.961266     -2.727680     -0.412925
  O       4.324009     -0.915622     -1.070352
41
Coordinates from ORCA-job orca E -847.149356126231
  O       3.370954     -2.637160     -2.087903
  C       3.921802     -2.213386     -1.087464
  C       4.126339     -3.017569      0.113053
  C       4.715994     -2.431387      1.354978
  H       4.184030     -2.822507      2.241486
  H       5.757957     -2.802518      1.460277
  C       4.704636     -0.903872      1.338771
  H       5.366145     -0.507788      2.123986
  H       3.690308     -0.534615      1.548968
  C       5.155573     -0.384220     -0.020065
  H       6.191017     -0.731345     -0.211193
  C       5.096344      1.130994     -0.177944
  C       6.040412      1.906055      0.743209
  H       5.776324      1.719020      1.799320
  H       7.072868      1.529582      0.618433
  C       6.006546      3.411655      0.478640
  H       6.683988      3.957651      1.154630
  H       4.990303      3.815660      0.620422
  H       6.309111      3.641074     -0.556732
  H       4.055372      1.460382     -0.020298
  H       5.334892      1.359741     -1.230454
  C       3.748418     -4.456728      0.082972
  H       2.923757     -4.659481      0.793360
  H       4.592358     -5.094415      0.406084
  H       3.426750     -4.758762     -0.921826
  C       1.076629     -1.883573      0.267724
  H       1.110613     -2.089917      1.338782
  C       1.179316     -0.630891     -0.206376
  C       1.371734      0.523609      0.719971
  O       1.404224      0.174999      2.026554
  C       1.597578      1.240446      2.952473
  H       1.547781      0.790896      3.952377
  H       2.577433      1.720384      2.800125
  H       0.816722      2.007646      2.837959
  O       1.511831      1.670039      0.354241
  C       1.143807     -0.273420     -1.663686
  H       2.095981      0.191980     -1.960798
  H       0.346135      0.459617     -1.866208
  H       0.995389     -1.165891     -2.284585
  H       0.959312     -2.727530     -0.416103
  O       4.322377     -0.914904     -1.069568
41
Coordinates from ORCA-job orca E -847.149356678297
  O       3.370802     -2.637255     -2.086911
  C       3.921245     -2.212901     -1.086465
  C       4.125787     -3.016591      0.114380
  C       4.715292     -2.430052      1.355987
  H       4.183073     -2.820789      2.242547
  H       5.757078     -2.801712      1.461466
  C       4.704482     -0.902502      1.339378
  H       5.366488     -0.506310      2.124099
  H       3.690325     -0.532863      1.549927
  C       5.155123     -0.383524     -0.019810
  H       6.190345     -0.731242     -0.211067
  C       5.096362      1.131638     -0.178322
  C       6.040734      1.906947      0.742298
  H       5.776624      1.720713      1.798548
  H       7.073054      1.530036      0.617727
  C       6.007362      3.412385      0.476743
  H       6.685051      3.958584      1.152324
  H       4.991273      3.816844      0.618335
  H       6.309927      3.641008     -0.558804
  H       4.055454      1.461242     -0.020728
  H       5.334838      1.359831     -1.230974
  C       3.747343     -4.455454      0.085048
  H       2.922366     -4.657747      0.795227
  H       4.591134     -5.093016      0.408936
  H       3.426303     -4.758208     -0.919733
  C       1.075235     -1.884340      0.265176
  H       1.108549     -2.091897      1.336037
  C       1.179221     -0.631329     -0.207617
  C       1.372436      0.521965      0.720105
  O       1.403395      0.171814      2.026318
  C       1.598334      1.235789      2.953601
  H       1.547601      0.785070      3.952932
  H       2.579029      1.714259      2.802038
  H       0.818756      2.004413      2.839918
  O       1.514622      1.668589      0.355806
  C       1.144648     -0.272335     -1.664559
  H       2.097087      0.193299     -1.960430
  H       0.347094      0.460940     -1.866798
  H       0.996564     -1.164131     -2.286520
  H       0.957292     -2.727367     -0.419685
  O       4.321333     -0.914251     -1.068886
41
Coordinates from ORCA-job orca E -847.149357885862
  O       3.370884     -2.637318     -2.085602
  C       3.920828     -2.212217     -1.085176
  C       4.125169     -3.015170      0.116242
  C       4.714420     -2.427936      1.357437
  H       4.181553     -2.817975      2.243956
  H       5.755929     -2.800255      1.463519
  C       4.704363     -0.900397      1.340087
  H       5.366862     -0.503962      2.124268
  H       3.690441     -0.530193      1.550801
  C       5.154891     -0.382495     -0.019573
  H       6.189854     -0.731029     -0.210741
  C       5.096813      1.132579     -0.179113
  C       6.041350      1.908248      0.740981
  H       5.776929      1.723169      1.797366
  H       7.073520      1.530733      0.616976
  C       6.008710      3.413446      0.473974
  H       6.686517      3.959982      1.149166
  H       4.992782      3.818507      0.614986
  H       6.311588      3.640928     -0.561738
  H       4.055974      1.462496     -0.021802
  H       5.335447      1.359953     -1.231908
  C       3.745754     -4.453633      0.088007
  H       2.920442     -4.654689      0.798180
  H       4.589096     -5.091364      0.412867
  H       3.425072     -4.757431     -0.916570
  C       1.073320     -1.885689      0.261456
  H       1.105743     -2.094888      1.332029
  C       1.178754     -0.632053     -0.209295
  C       1.373184      0.519413      0.720494
  O       1.401743      0.167055      2.026170
  C       1.599074      1.228914      2.955366
  H       1.546293      0.776678      3.953910
  H       2.581299      1.704711      2.805315
  H       0.821814      1.999981      2.842381
  O       1.518594      1.666298      0.358304
  C       1.145331     -0.270736     -1.665655
  H       2.098137      0.195059     -1.960044
  H       0.348119      0.463110     -1.867245
  H       0.997280     -1.161495     -2.289106
  H       0.954663     -2.727371     -0.424918
  O       4.320525     -0.913412     -1.068161
41
Coordinates from ORCA-job orca E -847.149352432089
  O       3.371318     -2.637231     -2.085626
  C       3.921365     -2.212172     -1.085251
  C       4.125502     -3.015059      0.116287
  C       4.714572     -2.427653      1.357512
  H       4.181331     -2.817566      2.243865
  H       5.756030     -2.799957      1.464013
  C       4.704508     -0.900150      1.339968
  H       5.366810     -0.503608      2.124254
  H       3.690558     -0.529865      1.550371
  C       5.155403     -0.382411     -0.019647
  H       6.190431     -0.730966     -0.210437
  C       5.097366      1.132644     -0.179322
  C       6.041822      1.908343      0.740837
  H       5.777364      1.723250      1.797209
  H       7.074018      1.530877      0.616888
  C       6.009127      3.413550      0.473871
  H       6.686853      3.960107      1.149131
  H       4.993167      3.818543      0.614827
  H       6.312069      3.641080     -0.561810
  H       4.056498      1.462543     -0.022094
  H       5.336096      1.359954     -1.232106
  C       3.745509     -4.453380      0.088238
  H       2.920373     -4.653715      0.798829
  H       4.588581     -5.091553      0.412910
  H       3.424249     -4.757239     -0.916121
  C       1.073443     -1.886102      0.261158
  H       1.105898     -2.095204      1.331740
  C       1.178258     -0.632287     -0.209346
  C       1.372694      0.519028      0.720624
  O       1.401179      0.166559      2.026268
  C       1.598626      1.228330      2.955528
  H       1.545084      0.776166      3.954063
  H       2.581227      1.703507      2.805957
  H       0.821892      1.999852      2.842084
  O       1.518124      1.665948      0.358537
  C       1.144562     -0.270666     -1.665614
  H       2.097378      0.194959     -1.960280
  H       0.347550      0.463511     -1.866799
  H       0.995910     -1.161243     -2.289179
  H       0.954933     -2.727707     -0.425330
  O       4.321383     -0.913468     -1.068418
41
Coordinates from ORCA-job orca E -847.148484238546
  O       3.358549     -2.661910     -2.051528
  C       3.920377     -2.230050     -1.059067
  C       4.167114     -3.035250      0.135163
  C       4.758707     -2.443654      1.368578
  H       4.238619     -2.845173      2.257739
  H       5.808344     -2.794501      1.470104
  C       4.705629     -0.909823      1.349174
  H       5.363490     -0.500728      2.130863
  H       3.669627     -0.548133      1.559995
  C       5.155898     -0.391500     -0.008349
  H       6.195347     -0.728044     -0.197093
  C       5.091793      1.122405     -0.178983
  C       6.035396      1.905564      0.735761
  H       5.771736      1.726808      1.793444
  H       7.068157      1.529009      0.613752
  C       6.000089      3.409005      0.459160
  H       6.677226      3.961012      1.130599
  H       4.983526      3.813223      0.597993
  H       6.302173      3.630395     -0.578121
  H       4.056805      1.452830     -0.022887
  H       5.329462      1.343243     -1.233405
  C       3.776544     -4.460957      0.065414
  H       2.940981     -4.638831      0.773586
  H       4.607216     -5.127898      0.365740
  H       3.435094     -4.727912     -0.943651
  C       1.025132     -1.842017      0.266056
  H       1.039377     -2.035479      1.340248
  C       1.158418     -0.602336     -0.214888
  C       1.362386      0.540771      0.721159
  O       1.379439      0.175117      2.022782
  C       1.587628      1.224588      2.963581
  H       1.522624      0.763032      3.957248
  H       2.577359      1.688212      2.824381
  H       0.822220      2.008091      2.854070
  O       1.527587      1.688041      0.369525
  C       1.151687     -0.261113     -1.677378
  H       2.112698      0.182339     -1.970996
  H       0.370160      0.483726     -1.901008
  H       0.997460     -1.161501     -2.287054
  H       0.929996     -2.700630     -0.406531
  O       4.316989     -0.930418     -1.047586
41
Coordinates from ORCA-job orca E -847.149288475428
  O       3.356632     -2.651622     -2.063069
  C       3.926156     -2.228567     -1.072706
  C       4.169499     -3.038063      0.121834
  C       4.750350     -2.442184      1.360866
  H       4.227344     -2.845757      2.247598
  H       5.800503     -2.787422      1.468160
  C       4.698907     -0.913389      1.345174
  H       5.350616     -0.504212      2.132081
  H       3.675535     -0.564053      1.550492
  C       5.146746     -0.389194     -0.012031
  H       6.185218     -0.727649     -0.202200
  C       5.084033      1.125833     -0.173880
  C       6.030278      1.903281      0.743386
  H       5.768453      1.718551      1.800513
  H       7.062721      1.527009      0.617410
  C       5.995118      3.408320      0.475733
  H       6.673703      3.956098      1.149147
  H       4.978972      3.812075      0.618816
  H       6.295406      3.635677     -0.560765
  H       4.044867      1.457334     -0.014142
  H       5.320695      1.351516     -1.227480
  C       3.784332     -4.473928      0.076267
  H       2.943490     -4.656032      0.775158
  H       4.613724     -5.128065      0.402669
  H       3.463659     -4.763007     -0.931759
  C       1.023716     -1.855954      0.262029
  H       1.040109     -2.056908      1.334370
  C       1.154077     -0.608045     -0.214558
  C       1.358320      0.540908      0.716748
  O       1.392970      0.185857      2.021512
  C       1.614377      1.243137      2.950177
  H       1.561403      0.790777      3.948651
  H       2.603344      1.702538      2.793446
  H       0.849348      2.027224      2.843398
  O       1.517468      1.686535      0.356386
  C       1.143891     -0.257986     -1.673876
  H       2.106134      0.189922     -1.965083
  H       0.360174      0.486016     -1.891206
  H       0.989879     -1.153463     -2.288946
  H       0.923938     -2.707322     -0.415985
  O       4.312955     -0.926235     -1.056745
41
Coordinates from ORCA-job orca E -847.149404980861
  O       3.353183     -2.649565     -2.065543
  C       3.924285     -2.227317     -1.076296
  C       4.168488     -3.038084      0.115301
  C       4.748786     -2.442852      1.356525
  H       4.226528     -2.847690      2.242990
  H       5.799226     -2.788405      1.461906
  C       4.702087     -0.915751      1.343567
  H       5.353948     -0.507842      2.130870
  H       3.680475     -0.568165      1.550457
  C       5.146076     -0.389358     -0.014910
  H       6.183255     -0.730003     -0.208893
  C       5.082524      1.125827     -0.172332
  C       6.030693      1.901473      0.744309
  H       5.772021      1.713517      1.801648
  H       7.063035      1.526431      0.614335
  C       5.993461      3.407207      0.480946
  H       6.673523      3.953681      1.153919
  H       4.977373      3.809656      0.628072
  H       6.290552      3.637717     -0.555767
  H       4.042392      1.456083     -0.009324
  H       5.316223      1.354340     -1.225975
  C       3.789287     -4.477737      0.082168
  H       2.945766     -4.666160      0.774919
  H       4.620238     -5.121281      0.424315
  H       3.482750     -4.779908     -0.927051
  C       1.021848     -1.858971      0.261367
  H       1.039555     -2.062806      1.333424
  C       1.154290     -0.609084     -0.213677
  C       1.363420      0.540959      0.714566
  O       1.395296      0.189866      2.020579
  C       1.615303      1.249802      2.946492
  H       1.558434      0.800817      3.946276
  H       2.605796      1.706416      2.791100
  H       0.852222      2.035013      2.834829
  O       1.513818      1.686825      0.350836
  C       1.141504     -0.253968     -1.671609
  H       2.104190      0.194376     -1.961343
  H       0.358069      0.491446     -1.884440
  H       0.985047     -1.146203     -2.290753
  H       0.912901     -2.706069     -0.420075
  O       4.311192     -0.924685     -1.060137
41
Coordinates from ORCA-job orca E -847.149434327668
  O       3.350533     -2.649781     -2.065599
  C       3.921525     -2.226727     -1.076555
  C       4.165786     -3.037587      0.112674
  C       4.747815     -2.444205      1.354857
  H       4.226428     -2.849561      2.241395
  H       5.798061     -2.791919      1.457158
  C       4.705264     -0.917513      1.342996
  H       5.357342     -0.510059      2.130190
  H       3.683193     -0.569306      1.550441
  C       5.147257     -0.390421     -0.016107
  H       6.183473     -0.732624     -0.212604
  C       5.082136      1.124588     -0.171140
  C       6.030348      1.900404      0.745148
  H       5.773624      1.710513      1.802607
  H       7.063033      1.527141      0.612989
  C       5.990329      3.406438      0.483919
  H       6.670572      3.953035      1.156605
  H       4.973823      3.807073      0.633133
  H       6.285455      3.638848     -0.552921
  H       4.041573      1.452416     -0.006515
  H       5.313719      1.355132     -1.224825
  C       3.793002     -4.478942      0.085625
  H       2.946671     -4.673907      0.772667
  H       4.626125     -5.113311      0.439691
  H       3.498519     -4.790005     -0.924917
  C       1.019086     -1.858816      0.260189
  H       1.036323     -2.064043      1.332031
  C       1.153551     -0.608658     -0.213824
  C       1.359805      0.542817      0.713283
  O       1.397530      0.192383      2.019298
  C       1.617914      1.253331      2.944241
  H       1.564939      0.804666      3.944392
  H       2.607019      1.712017      2.785914
  H       0.852854      2.036858      2.834482
  O       1.518365      1.686895      0.347454
  C       1.140388     -0.251219     -1.671340
  H       2.103285      0.197703     -1.959012
  H       0.356965      0.494636     -1.882423
  H       0.983377     -1.141644     -2.293100
  H       0.901395     -2.702636     -0.423894
  O       4.310657     -0.924460     -1.061013
41
Coordinates from ORCA-job orca E -847.149447368072
  O       3.348652     -2.650891     -2.064344
  C       3.919859     -2.227018     -1.075426
  C       4.164087     -3.037077      0.113523
  C       4.748563     -2.444633      1.355178
  H       4.227908     -2.849496      2.242285
  H       5.798331     -2.794561      1.455176
  C       4.708102     -0.917493      1.342998
  H       5.361751     -0.510230      2.128946
  H       3.686108     -0.567419      1.552008
  C       5.148674     -0.391102     -0.016814
  H       6.184381     -0.734009     -0.214511
  C       5.083347      1.123855     -0.172386
  C       6.031169      1.900488      0.743563
  H       5.774558      1.711033      1.801116
  H       7.064009      1.527577      0.611536
  C       5.990484      3.406369      0.481551
  H       6.670471      3.953621      1.153971
  H       4.973786      3.806617      0.630504
  H       6.285528      3.638359     -0.555407
  H       4.042901      1.451112     -0.008150
  H       5.314770      1.354329     -1.226146
  C       3.793969     -4.478338      0.086662
  H       2.946117     -4.675685      0.771335
  H       4.628148     -5.109416      0.444636
  H       3.503577     -4.791919     -0.924265
  C       1.017783     -1.857033      0.259310
  H       1.035457     -2.062819      1.330944
  C       1.155293     -0.607492     -0.213976
  C       1.365380      0.542462      0.714201
  O       1.397130      0.190795      2.019967
  C       1.612421      1.250963      2.947039
  H       1.554020      0.801409      3.946491
  H       2.602293      1.709973      2.794607
  H       0.847835      2.034481      2.833786
  O       1.520358      1.687612      0.350302
  C       1.141298     -0.249017     -1.671468
  H       2.104580      0.198618     -1.959345
  H       0.358963      0.498403     -1.881165
  H       0.982123     -1.138509     -2.294066
  H       0.894402     -2.699225     -0.425901
  O       4.310474     -0.925145     -1.060675
41
Coordinates from ORCA-job orca E -847.149453182328
  O       3.348097     -2.651508     -2.063140
  C       3.919248     -2.227218     -1.074187
  C       4.162940     -3.036565      0.115350
  C       4.748960     -2.444309      1.356271
  H       4.228424     -2.848306      2.243845
  H       5.798271     -2.795735      1.455319
  C       4.709365     -0.916965      1.343248
  H       5.363999     -0.509587      2.128346
  H       3.687867     -0.565747      1.552889
  C       5.149457     -0.391386     -0.016932
  H       6.185010     -0.734453     -0.215003
  C       5.084182      1.123528     -0.173405
  C       6.031474      1.900905      0.742466
  H       5.774473      1.712164      1.800047
  H       7.064440      1.528079      0.611106
  C       5.990606      3.406596      0.479390
  H       6.670161      3.954454      1.151750
  H       4.973749      3.806713      0.627573
  H       6.286091      3.637919     -0.557593
  H       4.043700      1.450606     -0.009828
  H       5.315969      1.353579     -1.227181
  C       3.793801     -4.477655      0.087226
  H       2.945190     -4.675632      0.770957
  H       4.628291     -5.107898      0.446135
  H       3.504163     -4.791637     -0.923724
  C       1.016620     -1.856167      0.257892
  H       1.034424     -2.062587      1.329363
  C       1.156166     -0.606783     -0.214572
  C       1.367272      0.541999      0.715014
  O       1.397547      0.188723      2.020359
  C       1.609993      1.248012      2.949132
  H       1.550302      0.797142      3.947911
  H       2.599483      1.708636      2.799191
  H       0.844561      2.030647      2.835399
  O       1.523463      1.687486      0.352779
  C       1.142247     -0.247651     -1.671949
  H       2.105840      0.199310     -1.959792
  H       0.360537      0.500588     -1.881220
  H       0.982235     -1.136774     -2.294826
  H       0.890078     -2.697370     -0.427989
  O       4.310366     -0.925604     -1.060027
41
Coordinates from ORCA-job orca E -847.149450145478
  O       3.347744     -2.651885     -2.061795
  C       3.918724     -2.227202     -1.072863
  C       4.161687     -3.035821      0.117487
  C       4.749363     -2.443509      1.357493
  H       4.228859     -2.846309      2.245663
  H       5.798158     -2.796546      1.455769
  C       4.710945     -0.916188      1.343524
  H       5.366826     -0.508817      2.127624
  H       3.690158     -0.563886      1.554057
  C       5.150184     -0.391420     -0.017176
  H       6.185538     -0.734640     -0.215940
  C       5.084954      1.123451     -0.174415
  C       6.031846      1.901472      0.741331
  H       5.774550      1.713379      1.798949
  H       7.064927      1.528733      0.610526
  C       5.990785      3.406996      0.477323
  H       6.669975      3.955409      1.149601
  H       4.973776      3.806950      0.624879
  H       6.286608      3.637745     -0.559697
  H       4.044320      1.450351     -0.011319
  H       5.317025      1.353099     -1.228211
  C       3.793141     -4.476952      0.088617
  H       2.944115     -4.675208      0.771871
  H       4.627766     -5.106674      0.448147
  H       3.503474     -4.791378     -0.922123
  C       1.014905     -1.856126      0.255559
  H       1.033008     -2.063835      1.326755
  C       1.156914     -0.606483     -0.215509
  C       1.369185      0.540883      0.715660
  O       1.398632      0.185944      2.020593
  C       1.608094      1.244434      2.950998
  H       1.547903      0.792155      3.949107
  H       2.596807      1.707333      2.803050
  H       0.841270      2.025710      2.837214
  O       1.527189      1.686632      0.355054
  C       1.143207     -0.245905     -1.672485
  H       2.107195      0.200503     -1.959954
  H       0.362169      0.503251     -1.881090
  H       0.982458     -1.134400     -2.296033
  H       0.884653     -2.695937     -0.431298
  O       4.310021     -0.925761     -1.059354
41
Coordinates from ORCA-job orca E -847.149454600700
  O       3.347869     -2.651894     -2.061033
  C       3.918551     -2.226960     -1.072092
  C       4.160968     -3.035191      0.118819
  C       4.749522     -2.442691      1.358258
  H       4.228985     -2.844659      2.246813
  H       5.798044     -2.796572      1.456356
  C       4.711995     -0.915456      1.343787
  H       5.368710     -0.508260      2.127291
  H       3.691644     -0.562633      1.555038
  C       5.150529     -0.391077     -0.017304
  H       6.185752     -0.734382     -0.216615
  C       5.085346      1.123786     -0.174892
  C       6.032314      1.902078      0.740539
  H       5.775045      1.714416      1.798238
  H       7.065373      1.529245      0.609849
  C       5.991306      3.407512      0.475960
  H       6.670490      3.956171      1.148049
  H       4.974293      3.807514      0.623351
  H       6.287161      3.637867     -0.561139
  H       4.044661      1.450669     -0.011746
  H       5.317320      1.353150     -1.228773
  C       3.792086     -4.476358      0.090183
  H       2.943333     -4.674222      0.773900
  H       4.626630     -5.106351      0.449357
  H       3.501455     -4.790815     -0.920255
  C       1.013550     -1.856798      0.253472
  H       1.031840     -2.065722      1.324438
  C       1.157161     -0.606757     -0.216320
  C       1.370263      0.539543      0.715921
  O       1.399271      0.183557      2.020608
  C       1.607239      1.241492      2.951999
  H       1.547083      0.788286      3.949689
  H       2.595423      1.705778      2.804927
  H       0.839539      2.021967      2.838520
  O       1.529285      1.685479      0.356310
  C       1.143824     -0.244749     -1.672890
  H       2.108083      0.201492     -1.959768
  H       0.363177      0.504943     -1.881026
  H       0.982861     -1.132685     -2.297180
  H       0.881351     -2.695664     -0.434141
  O       4.309728     -0.925502     -1.058908
41
Coordinates from ORCA-job orca E -847.149458297266
  O       3.348272     -2.651760     -2.060191
  C       3.918425     -2.226471     -1.071191
  C       4.160190     -3.034264      0.120312
  C       4.749614     -2.441480      1.359141
  H       4.229100     -2.842549      2.248142
  H       5.797917     -2.796059      1.457228
  C       4.713133     -0.914316      1.344183
  H       5.370741     -0.507384      2.127078
  H       3.693195     -0.561032      1.556234
  C       5.150828     -0.390369     -0.017358
  H       6.185898     -0.733809     -0.217294
  C       5.085695      1.124472     -0.175231
  C       6.033046      1.902876      0.739684
  H       5.776074      1.715563      1.797520
  H       7.066026      1.529880      0.608802
  C       5.992161      3.408250      0.474694
  H       6.671595      3.957010      1.146441
  H       4.975233      3.808394      0.622274
  H       6.287755      3.638291     -0.562550
  H       4.045021      1.451407     -0.011749
  H       5.317341      1.353520     -1.229252
  C       3.790308     -4.475359      0.092511
  H       2.942510     -4.672370      0.777624
  H       4.624773     -5.106188      0.450306
  H       3.497679     -4.789476     -0.917459
  C       1.011774     -1.858059      0.250714
  H       1.030164     -2.068508      1.321401
  C       1.157076     -0.607517     -0.217482
  C       1.371211      0.537526      0.715926
  O       1.399884      0.180380      2.020325
  C       1.606968      1.237629      2.952693
  H       1.547266      0.783412      3.949948
  H       2.594618      1.703149      2.806019
  H       0.838464      2.017437      2.839987
  O       1.531203      1.683680      0.357366
  C       1.144304     -0.243673     -1.673568
  H       2.108865      0.202546     -1.959515
  H       0.364025      0.506533     -1.881185
  H       0.983325     -1.130887     -2.298897
  H       0.878033     -2.695970     -0.437736
  O       4.309347     -0.924905     -1.058307
41
Coordinates from ORCA-job orca E -847.148038852882
  O       3.353070     -2.655524     -2.052637
  C       3.935441     -2.235133     -1.066306
  C       4.206887     -3.059493      0.127971
  C       4.789822     -2.461785      1.361018
  H       4.276213     -2.870923      2.250421
  H       5.843566     -2.800446      1.458495
  C       4.717132     -0.926500      1.350059
  H       5.370206     -0.516539      2.135189
  H       3.672777     -0.558244      1.563304
  C       5.153080     -0.398699     -0.015757
  H       6.190585     -0.735359     -0.214734
  C       5.081054      1.115322     -0.175173
  C       6.026074      1.895335      0.740787
  H       5.767224      1.708864      1.798316
  H       7.059584      1.522989      0.612241
  C       5.984560      3.400419      0.474244
  H       6.662300      3.950349      1.146750
  H       4.967050      3.799942      0.619493
  H       6.281960      3.629666     -0.562660
  H       4.041538      1.446751     -0.012858
  H       5.313725      1.342468     -1.229382
  C       3.821152     -4.489477      0.072049
  H       2.951507     -4.676369      0.753651
  H       4.647658     -5.135796      0.421094
  H       3.520150     -4.787937     -0.940364
  C       0.966431     -1.826785      0.261218
  H       0.977539     -2.034134      1.333368
  C       1.130178     -0.591040     -0.209158
  C       1.355742      0.554988      0.717641
  O       1.381359      0.203523      2.022735
  C       1.598243      1.262192      2.950655
  H       1.534262      0.812424      3.949680
  H       2.589807      1.720005      2.802618
  H       0.836249      2.047885      2.834282
  O       1.528465      1.697234      0.354760
  C       1.137269     -0.242592     -1.666061
  H       2.107132      0.194404     -1.953159
  H       0.364868      0.513741     -1.881149
  H       0.982492     -1.133263     -2.291077
  H       0.858684     -2.677076     -0.438824
  O       4.316023     -0.935835     -1.055150
41
Coordinates from ORCA-job orca E -847.149193308856
  O       3.351224     -2.658979     -2.050853
  C       3.934445     -2.236460     -1.068181
  C       4.205723     -3.054956      0.119030
  C       4.777416     -2.452600      1.358713
  H       4.259207     -2.861999      2.245732
  H       5.831671     -2.785497      1.465202
  C       4.710965     -0.923763      1.346613
  H       5.362167     -0.513716      2.133043
  H       3.688391     -0.566105      1.556234
  C       5.151303     -0.396230     -0.014536
  H       6.188785     -0.734810     -0.209907
  C       5.082665      1.117928     -0.174438
  C       6.027930      1.898289      0.741370
  H       5.769119      1.711471      1.798831
  H       7.061604      1.526336      0.612814
  C       5.985910      3.403466      0.475332
  H       6.663405      3.953467      1.148033
  H       4.968241      3.802576      0.620665
  H       6.283263      3.633159     -0.561482
  H       4.043001      1.447349     -0.012133
  H       5.315317      1.345478     -1.228618
  C       3.819665     -4.489569      0.078156
  H       2.960919     -4.673637      0.756521
  H       4.643106     -5.135401      0.434178
  H       3.520963     -4.793674     -0.932838
  C       0.960146     -1.836456      0.258201
  H       0.973288     -2.046094      1.328952
  C       1.129909     -0.592981     -0.213564
  C       1.358759      0.552134      0.716389
  O       1.388546      0.197414      2.021469
  C       1.607925      1.254179      2.951547
  H       1.545784      0.802449      3.949766
  H       2.599057      1.712111      2.802825
  H       0.846052      2.040466      2.838426
  O       1.530972      1.695766      0.355559
  C       1.136709     -0.240805     -1.671702
  H       2.106364      0.195454     -1.956158
  H       0.365175      0.515865     -1.888940
  H       0.978495     -1.130599     -2.294115
  H       0.849635     -2.676268     -0.432654
  O       4.315836     -0.935209     -1.055894
41
Coordinates from ORCA-job orca E -847.149332857774
  O       3.347829     -2.661174     -2.049876
  C       3.932055     -2.237346     -1.068716
  C       4.202570     -3.052059      0.114756
  C       4.771996     -2.449926      1.357677
  H       4.251427     -2.859101      2.243245
  H       5.825826     -2.783658      1.466698
  C       4.713052     -0.923231      1.344321
  H       5.365207     -0.513328      2.130522
  H       3.693929     -0.568817      1.553434
  C       5.152840     -0.395449     -0.015214
  H       6.189900     -0.734950     -0.211719
  C       5.084232      1.118913     -0.174207
  C       6.029617      1.899000      0.741566
  H       5.771532      1.711042      1.799038
  H       7.063429      1.527830      0.612068
  C       5.986346      3.404320      0.476803
  H       6.663888      3.954200      1.149539
  H       4.968492      3.802585      0.623120
  H       6.282883      3.635095     -0.560008
  H       4.043671      1.447143     -0.011906
  H       5.316900      1.347355     -1.228155
  C       3.822183     -4.490095      0.082853
  H       2.966410     -4.675850      0.760939
  H       4.646444     -5.131906      0.444078
  H       3.529154     -4.798562     -0.928611
  C       0.955366     -1.838228      0.256760
  H       0.968746     -2.047998      1.327627
  C       1.129136     -0.592609     -0.215487
  C       1.358667      0.551485      0.715438
  O       1.389981      0.195106      2.020203
  C       1.610165      1.250878      2.951241
  H       1.548529      0.798220      3.949072
  H       2.601423      1.708267      2.802340
  H       0.848642      2.037726      2.839562
  O       1.531149      1.695389      0.355364
  C       1.135525     -0.237910     -1.673882
  H       2.105841      0.197652     -1.956602
  H       0.364544      0.518989     -1.892243
  H       0.973946     -1.127542     -2.295464
  H       0.840421     -2.677336     -0.432372
  O       4.315166     -0.934572     -1.056209
41
Coordinates from ORCA-job orca E -847.149367042224
  O       3.344110     -2.661673     -2.049035
  C       3.929177     -2.237380     -1.068398
  C       4.199137     -3.050041      0.113506
  C       4.769848     -2.449573      1.357542
  H       4.248010     -2.858269      2.242325
  H       5.822802     -2.786586      1.466150
  C       4.716569     -0.923201      1.343275
  H       5.369618     -0.513226      2.128732
  H       3.696391     -0.570147      1.552373
  C       5.154371     -0.395396     -0.016264
  H       6.190755     -0.735512     -0.215360
  C       5.085296      1.119068     -0.174192
  C       6.030726      1.898896      0.741646
  H       5.773357      1.710024      1.799137
  H       7.064621      1.528316      0.611253
  C       5.986541      3.404359      0.477907
  H       6.664237      3.954106      1.150604
  H       4.968584      3.802013      0.625112
  H       6.282333      3.635982     -0.558931
  H       4.044301      1.446213     -0.011916
  H       5.317839      1.348407     -1.227976
  C       3.826010     -4.490610      0.086601
  H       2.971202     -4.679635      0.764888
  H       4.652768     -5.127072      0.451458
  H       3.538268     -4.802853     -0.925362
  C       0.951348     -1.837725      0.255063
  H       0.964134     -2.047138      1.326135
  C       1.128190     -0.591935     -0.216863
  C       1.358003      0.551286      0.714710
  O       1.389804      0.194004      2.019175
  C       1.610330      1.249213      2.950648
  H       1.548748      0.796107      3.948290
  H       2.601907      1.705751      2.801620
  H       0.849268      2.036605      2.839710
  O       1.530931      1.695237      0.355037
  C       1.134548     -0.235019     -1.674951
  H       2.105613      0.199931     -1.955933
  H       0.364018      0.522156     -1.893825
  H       0.970362     -1.124180     -2.296583
  H       0.831206     -2.677204     -0.433457
  O       4.313777     -0.933749     -1.056260
41
Coordinates from ORCA-job orca E -847.149396440225
  O       3.340092     -2.661054     -2.047773
  C       3.925709     -2.236718     -1.067228
  C       4.195322     -3.048214      0.114261
  C       4.768967     -2.449651      1.358234
  H       4.246306     -2.857486      2.242786
  H       5.820741     -2.791146      1.465053
  C       4.719872     -0.922982      1.343298
  H       5.373512     -0.512519      2.127823
  H       3.698199     -0.571307      1.552203
  C       5.155227     -0.395756     -0.017182
  H       6.190710     -0.736709     -0.219456
  C       5.086117      1.118775     -0.174198
  C       6.031560      1.898469      0.741693
  H       5.774681      1.709243      1.799224
  H       7.065462      1.528112      0.610724
  C       5.987019      3.403998      0.478345
  H       6.664895      3.953685      1.150911
  H       4.969048      3.801419      0.626039
  H       6.282367      3.635919     -0.558551
  H       4.044906      1.444740     -0.011915
  H       5.318409      1.348899     -1.227877
  C       3.830950     -4.491118      0.089437
  H       2.976755     -4.685266      0.767586
  H       4.661665     -5.120849      0.456955
  H       3.548108     -4.807048     -0.922889
  C       0.947164     -1.836539      0.252809
  H       0.958680     -2.045483      1.324061
  C       1.126978     -0.591272     -0.218213
  C       1.357423      0.551118      0.714157
  O       1.389181      0.193173      2.018338
  C       1.610016      1.247968      2.950093
  H       1.548328      0.794574      3.947615
  H       2.602017      1.703392      2.800872
  H       0.849524      2.035960      2.839675
  O       1.530814      1.695107      0.354886
  C       1.133730     -0.232137     -1.675720
  H       2.105612      0.202202     -1.954564
  H       0.363706      0.525452     -1.894800
  H       0.967554     -1.120520     -2.298085
  H       0.820332     -2.676146     -0.435261
  O       4.311404     -0.932738     -1.055775
41
Coordinates from ORCA-job orca E -847.149411477692
  O       3.336634     -2.659996     -2.045942
  C       3.922387     -2.235734     -1.065356
  C       4.191928     -3.046812      0.116499
  C       4.769022     -2.449509      1.359504
  H       4.246189     -2.856182      2.244506
  H       5.819689     -2.795032      1.464094
  C       4.721993     -0.922493      1.344178
  H       5.375905     -0.511199      2.127838
  H       3.699280     -0.572312      1.552789
  C       5.155257     -0.396326     -0.017620
  H       6.189814     -0.738377     -0.222576
  C       5.086754      1.118293     -0.174203
  C       6.032128      1.898057      0.741668
  H       5.775296      1.709178      1.799250
  H       7.065985      1.527539      0.610705
  C       5.987784      3.403540      0.477915
  H       6.665748      3.953321      1.150320
  H       4.969859      3.801115      0.625508
  H       6.283147      3.635130     -0.559045
  H       4.045381      1.443227     -0.011859
  H       5.318745      1.348858     -1.227858
  C       3.835620     -4.491557      0.090665
  H       2.982024     -4.691804      0.768129
  H       4.670677     -5.114874      0.459342
  H       3.556178     -4.810189     -0.921802
  C       0.943471     -1.835441      0.250627
  H       0.953194     -2.043967      1.321955
  C       1.125748     -0.590745     -0.219344
  C       1.357240      0.550958      0.713829
  O       1.388450      0.192505      2.017772
  C       1.609630      1.246939      2.949819
  H       1.547736      0.793278      3.947217
  H       2.602059      1.701258      2.800444
  H       0.849709      2.035498      2.839756
  O       1.531017      1.695025      0.354983
  C       1.133311     -0.229908     -1.676298
  H       2.105963      0.203882     -1.953024
  H       0.363859      0.528262     -1.895368
  H       0.966217     -1.117419     -2.299777
  H       0.809458     -2.674569     -0.437036
  O       4.308573     -0.931867     -1.054615
41
Coordinates from ORCA-job orca E -847.149427073074
  O       3.334182     -2.659189     -2.043744
  C       3.919766     -2.234825     -1.063195
  C       4.189511     -3.045969      0.119342
  C       4.769581     -2.448969      1.360960
  H       4.247339     -2.854503      2.246974
  H       5.819610     -2.796825      1.463611
  C       4.722639     -0.921813      1.345424
  H       5.376590     -0.509565      2.128416
  H       3.699506     -0.573118      1.553852
  C       5.154581     -0.396782     -0.017540
  H       6.188412     -0.740025     -0.224057
  C       5.087134      1.117937     -0.174235
  C       6.032428      1.897863      0.741513
  H       5.775278      1.709789      1.799143
  H       7.066204      1.526912      0.611024
  C       5.988670      3.403215      0.476848
  H       6.666572      3.953176      1.149166
  H       4.970813      3.801193      0.623849
  H       6.284474      3.634092     -0.560145
  H       4.045643      1.442153     -0.011765
  H       5.318819      1.348546     -1.227952
  C       3.839013     -4.491904      0.090461
  H       2.985984     -4.698075      0.766859
  H       4.677715     -5.110557      0.458871
  H       3.561178     -4.811711     -0.922041
  C       0.940796     -1.834800      0.248984
  H       0.948401     -2.043079      1.320321
  C       1.124847     -0.590362     -0.220171
  C       1.357630      0.550830      0.713660
  O       1.387900      0.191924      2.017430
  C       1.609468      1.245960      2.949904
  H       1.547319      0.791929      3.947117
  H       2.602241      1.699420      2.800513
  H       0.850010      2.034984      2.840097
  O       1.531727      1.695008      0.355281
  C       1.133416     -0.228633     -1.676810
  H       2.106681      0.204705     -1.951855
  H       0.364606      0.530237     -1.895734
  H       0.966484     -1.115407     -2.301409
  H       0.800069     -2.672938     -0.438399
  O       4.305825     -0.931277     -1.052975
41
Coordinates from ORCA-job orca E -847.149432649534
  O       3.333244     -2.659101     -2.042162
  C       3.918590     -2.234403     -1.061762
  C       4.188740     -3.045794      0.121205
  C       4.770050     -2.448332      1.361861
  H       4.248849     -2.853401      2.248822
  H       5.820191     -2.795999      1.463644
  C       4.721917     -0.921273      1.346284
  H       5.375760     -0.508399      2.129027
  H       3.698844     -0.573564      1.554809
  C       5.153581     -0.396774     -0.017099
  H       6.187149     -0.740789     -0.223690
  C       5.087021      1.117978     -0.174237
  C       6.032368      1.897970      0.741310
  H       5.774755      1.710738      1.798973
  H       7.066023      1.526452      0.611440
  C       5.989420      3.403183      0.475705
  H       6.667257      3.953240      1.148010
  H       4.971677      3.801707      0.621998
  H       6.285815      3.633310     -0.561288
  H       4.045514      1.442020     -0.011635
  H       5.318528      1.348283     -1.228049
  C       3.840225     -4.492068      0.089706
  H       2.987524     -4.701558      0.765302
  H       4.680451     -5.109313      0.457141
  H       3.562325     -4.811494     -0.922831
  C       0.939897     -1.834701      0.248308
  H       0.945771     -2.042999      1.319607
  C       1.124720     -0.590158     -0.220558
  C       1.358438      0.550735      0.713576
  O       1.387801      0.191431      2.017253
  C       1.609671      1.245040      2.950231
  H       1.547322      0.790539      3.947210
  H       2.602582      1.698198      2.801028
  H       0.850428      2.034287      2.840626
  O       1.532784      1.695014      0.355611
  C       1.133907     -0.228405     -1.677189
  H       2.107434      0.204712     -1.951586
  H       0.365563      0.531008     -1.895896
  H       0.967748     -1.114853     -2.302408
  H       0.795096     -2.671894     -0.439077
  O       4.304080     -0.931023     -1.051631
41
Coordinates from ORCA-job orca E -847.149436479107
  O       3.332905     -2.659498     -2.041152
  C       3.918119     -2.234339     -1.060975
  C       4.188850     -3.045901      0.122121
  C       4.770309     -2.447802      1.362288
  H       4.250266     -2.852989      2.249928
  H       5.820964     -2.793992      1.463802
  C       4.720718     -0.920888      1.346724
  H       5.374454     -0.507645      2.129419
  H       3.697751     -0.573852      1.555565
  C       5.152464     -0.396446     -0.016638
  H       6.186015     -0.740873     -0.222724
  C       5.086501      1.118287     -0.174254
  C       6.032064      1.898179      0.741099
  H       5.774049      1.711566      1.798779
  H       7.065578      1.526093      0.611718
  C       5.989933      3.403304      0.474860
  H       6.667778      3.953313      1.147199
  H       4.972326      3.802363      0.620625
  H       6.286814      3.632881     -0.562115
  H       4.045068      1.442509     -0.011503
  H       5.317916      1.348173     -1.228170
  C       3.840355     -4.492120      0.089291
  H       2.987833     -4.702947      0.764524
  H       4.680767     -5.109733      0.455771
  H       3.561825     -4.810597     -0.923333
  C       0.939972     -1.834776      0.248022
  H       0.944365     -2.043248      1.319278
  C       1.125200     -0.590040     -0.220826
  C       1.359511      0.550620      0.713441
  O       1.388093      0.190925      2.017061
  C       1.610212      1.244080      2.950559
  H       1.547730      0.789060      3.947287
  H       2.603150      1.697268      2.801634
  H       0.851036      2.033431      2.841171
  O       1.534162      1.694982      0.355897
  C       1.134601     -0.228544     -1.677560
  H       2.108187      0.204476     -1.951942
  H       0.366572      0.531269     -1.895997
  H       0.969211     -1.114910     -2.303024
  H       0.792599     -2.671193     -0.439542
  O       4.302835     -0.930895     -1.050721
41
Coordinates from ORCA-job orca E -847.149436116082
  O       3.332606     -2.660168     -2.040371
  C       3.917777     -2.234466     -1.060454
  C       4.189296     -3.046071      0.122543
  C       4.770414     -2.447374      1.362516
  H       4.251628     -2.853148      2.250619
  H       5.821796     -2.791480      1.463874
  C       4.719276     -0.920564      1.347025
  H       5.372895     -0.507051      2.129744
  H       3.696292     -0.574185      1.556341
  C       5.151088     -0.395917     -0.016151
  H       6.184703     -0.740580     -0.221660
  C       5.085538      1.118751     -0.174267
  C       6.031536      1.898400      0.740806
  H       5.773333      1.712201      1.798523
  H       7.064877      1.525762      0.611649
  C       5.990163      3.403485      0.474224
  H       6.668180      3.953311      1.146535
  H       4.972727      3.803053      0.619788
  H       6.287276      3.632711     -0.562764
  H       4.044278      1.443428     -0.011336
  H       5.316875      1.348112     -1.228313
  C       3.840180     -4.492120      0.089470
  H       2.987836     -4.703163      0.764762
  H       4.680177     -5.110798      0.455125
  H       3.560885     -4.809579     -0.923257
  C       0.940438     -1.834804      0.247600
  H       0.943183     -2.043572      1.318805
  C       1.126238     -0.589931     -0.221233
  C       1.361042      0.550419      0.713181
  O       1.388812      0.190271      2.016745
  C       1.611184      1.242869      2.950837
  H       1.548598      0.787230      3.947266
  H       2.604106      1.696227      2.802268
  H       0.852044      2.032312      2.841767
  O       1.536218      1.694851      0.356148
  C       1.135602     -0.228598     -1.678049
  H       2.109169      0.204351     -1.952711
  H       0.367806      0.531554     -1.896119
  H       0.970775     -1.114954     -2.303599
  H       0.790721     -2.670473     -0.440293
  O       4.301489     -0.930753     -1.049991
41
Coordinates from ORCA-job orca E -847.149442218628
  O       3.332268     -2.660822     -2.039884
  C       3.917437     -2.234663     -1.060141
  C       4.189821     -3.046181      0.122587
  C       4.770357     -2.447126      1.362663
  H       4.252548     -2.853796      2.250870
  H       5.822411     -2.789309      1.463866
  C       4.717888     -0.920332      1.347340
  H       5.371375     -0.506636      2.130115
  H       3.694712     -0.574619      1.557161
  C       5.149565     -0.395320     -0.015644
  H       6.183245     -0.739988     -0.220873
  C       5.084180      1.119268     -0.174157
  C       6.030800      1.898639      0.740529
  H       5.772644      1.712771      1.798323
  H       7.063929      1.525436      0.611325
  C       5.990200      3.403689      0.473661
  H       6.668620      3.953281      1.145758
  H       4.973004      3.803833      0.619310
  H       6.287265      3.632554     -0.563420
  H       4.043162      1.444593     -0.011041
  H       5.315418      1.348090     -1.228333
  C       3.840013     -4.492073      0.090255
  H       2.987902     -4.702373      0.766079
  H       4.679413     -5.111868      0.455343
  H       3.559998     -4.808868     -0.922503
  C       0.940977     -1.834791      0.246797
  H       0.942093     -2.043990      1.317930
  C       1.127641     -0.589889     -0.221810
  C       1.362823      0.550048      0.712888
  O       1.389878      0.189430      2.016388
  C       1.612471      1.241460      2.951040
  H       1.549853      0.785222      3.947189
  H       2.605358      1.695042      2.802801
  H       0.853347      2.030992      2.842388
  O       1.538706      1.694539      0.356415
  C       1.136830     -0.228330     -1.678592
  H       2.110334      0.204583     -1.953634
  H       0.369124      0.532037     -1.896217
  H       0.972135     -1.114646     -2.304199
  H       0.789291     -2.669790     -0.441548
  O       4.300026     -0.930547     -1.049435
41
Coordinates from ORCA-job orca E -847.149444077546
  O       3.331786     -2.661371     -2.039514
  C       3.916922     -2.234887     -1.059827
  C       4.190114     -3.046179      0.122609
  C       4.770257     -2.447014      1.362871
  H       4.253061     -2.854631      2.250933
  H       5.822770     -2.787958      1.463702
  C       4.716744     -0.920169      1.347788
  H       5.370105     -0.506290      2.130581
  H       3.693247     -0.575182      1.558051
  C       5.147995     -0.394821     -0.015154
  H       6.181686     -0.739341     -0.220589
  C       5.082614      1.119709     -0.173942
  C       6.029948      1.898838      0.740255
  H       5.772122      1.713157      1.798166
  H       7.062871      1.525198      0.610690
  C       5.989871      3.403874      0.473238
  H       6.668818      3.953259      1.144975
  H       4.972908      3.804466      0.619282
  H       6.286579      3.632488     -0.564002
  H       4.041882      1.445800     -0.010642
  H       5.313720      1.348078     -1.228257
  C       3.840004     -4.492027      0.091497
  H       2.988283     -4.701098      0.768265
  H       4.679074     -5.112461      0.456191
  H       3.559297     -4.808744     -0.921133
  C       0.941242     -1.834728      0.245507
  H       0.940885     -2.044436      1.316556
  C       1.129186     -0.589889     -0.222587
  C       1.364789      0.549525      0.712580
  O       1.391252      0.188469      2.016002
  C       1.614074      1.240008      2.951099
  H       1.551499      0.783294      3.947037
  H       2.606943      1.693752      2.803085
  H       0.854986      2.029655      2.842931
  O       1.541573      1.694049      0.356679
  C       1.138244     -0.227635     -1.679205
  H       2.111712      0.205216     -1.954538
  H       0.370520      0.532844     -1.896363
  H       0.973184     -1.113797     -2.304948
  H       0.787902     -2.669139     -0.443336
  O       4.298391     -0.930334     -1.048943
41
Coordinates from ORCA-job orca E -847.149444073397
  O       3.331335     -2.661720     -2.039247
  C       3.916361     -2.235083     -1.059496
  C       4.190071     -3.046102      0.122787
  C       4.770201     -2.446957      1.363143
  H       4.253144     -2.855167      2.250975
  H       5.822824     -2.787673      1.463510
  C       4.716103     -0.920042      1.348249
  H       5.369395     -0.505965      2.130979
  H       3.692319     -0.575701      1.558779
  C       5.146757     -0.394531     -0.014823
  H       6.180408     -0.738812     -0.220809
  C       5.081289      1.119978     -0.173716
  C       6.029201      1.898975      0.740070
  H       5.771833      1.713296      1.798096
  H       7.061990      1.525137      0.610003
  C       5.989288      3.404016      0.473084
  H       6.668708      3.953262      1.144457
  H       4.972488      3.804829      0.619658
  H       6.285501      3.632559     -0.564313
  H       4.040793      1.446747     -0.010274
  H       5.312280      1.348084     -1.228120
  C       3.840006     -4.492007      0.092724
  H       2.988803     -4.699892      0.770578
  H       4.679192     -5.112449      0.457063
  H       3.558556     -4.809127     -0.919589
  C       0.941127     -1.834689      0.244112
  H       0.939966     -2.044846      1.315083
  C       1.130376     -0.589940     -0.223346
  C       1.366422      0.548959      0.712332
  O       1.392600      0.187592      2.015676
  C       1.615633      1.238866      2.950965
  H       1.553187      0.781947      3.946822
  H       2.608505      1.692655      2.802962
  H       0.856580      2.028611      2.843213
  O       1.544018      1.693492      0.356848
  C       1.139471     -0.226788     -1.679736
  H       2.112942      0.205985     -1.955196
  H       0.371645      0.533704     -1.896530
  H       0.973726     -1.112694     -2.305705
  H       0.787021     -2.668739     -0.445114
  O       4.296997     -0.930217     -1.048567
41
Coordinates from ORCA-job orca E -847.149443594419
  O       3.330867     -2.662032     -2.038818
  C       3.915643     -2.235255     -1.058936
  C       4.189706     -3.045971      0.123345
  C       4.770230     -2.446822      1.363590
  H       4.253204     -2.855330      2.251296
  H       5.822790     -2.787844      1.463330
  C       4.715628     -0.919883      1.348841
  H       5.368871     -0.505507      2.131410
  H       3.691577     -0.576314      1.559583
  C       5.145534     -0.394311     -0.014476
  H       6.179120     -0.738312     -0.221182
  C       5.079976      1.120196     -0.173416
  C       6.028419      1.899137      0.739920
  H       5.771596      1.713472      1.798082
  H       7.061107      1.525208      0.609281
  C       5.988485      3.404166      0.472922
  H       6.668360      3.953378      1.143863
  H       4.971808      3.805077      0.620078
  H       6.284104      3.632628     -0.564662
  H       4.039707      1.447631     -0.009835
  H       5.310823      1.348152     -1.227891
  C       3.839880     -4.491984      0.093971
  H       2.989427     -4.698952      0.773071
  H       4.679609     -5.112019      0.457708
  H       3.557394     -4.809707     -0.917861
  C       0.940616     -1.834723      0.242415
  H       0.939041     -2.045370      1.313289
  C       1.131384     -0.590013     -0.224229
  C       1.368092      0.548259      0.712084
  O       1.394098      0.186554      2.015322
  C       1.617455      1.237642      2.950716
  H       1.555197      0.780627      3.946541
  H       2.610355      1.691349      2.802585
  H       0.858472      2.027513      2.843410
  O       1.546578      1.692790      0.357015
  C       1.140782     -0.225746     -1.680340
  H       2.114318      0.206891     -1.955740
  H       0.372888      0.534800     -1.896767
  H       0.974171     -1.111227     -2.306727
  H       0.786221     -2.668452     -0.447174
  O       4.295526     -0.930143     -1.048021
41
Coordinates from ORCA-job orca E -847.148405513337
  O       3.321784     -2.659382     -2.034130
  C       3.921986     -2.240874     -1.054007
  C       4.224528     -3.071203      0.125807
  C       4.796379     -2.464433      1.359461
  H       4.290511     -2.887869      2.246797
  H       5.856830     -2.782259      1.455229
  C       4.710033     -0.932869      1.351261
  H       5.360725     -0.518878      2.136163
  H       3.667195     -0.574294      1.562916
  C       5.139703     -0.402696     -0.014466
  H       6.174687     -0.742431     -0.221285
  C       5.073121      1.110535     -0.173312
  C       6.022434      1.886595      0.741580
  H       5.763618      1.701329      1.799327
  H       7.054274      1.509856      0.612276
  C       5.987025      3.391811      0.474965
  H       6.667475      3.938953      1.147018
  H       4.971248      3.795483      0.620814
  H       6.284727      3.619761     -0.562139
  H       4.036615      1.444305     -0.010606
  H       5.305553      1.337392     -1.227677
  C       3.897834     -4.522676      0.089726
  H       3.056410     -4.747012      0.774841
  H       4.750130     -5.132334      0.442139
  H       3.609447     -4.837627     -0.921329
  C       0.886546     -1.794490      0.240540
  H       0.880308     -2.003574      1.313374
  C       1.101792     -0.564324     -0.221089
  C       1.352905      0.571680      0.711815
  O       1.374193      0.212674      2.014880
  C       1.608849      1.262502      2.948600
  H       1.541307      0.808073      3.945282
  H       2.606676      1.706749      2.800432
  H       0.858146      2.060041      2.839180
  O       1.546270      1.712436      0.355038
  C       1.127601     -0.213574     -1.673704
  H       2.105928      0.207302     -1.948712
  H       0.369667      0.555426     -1.895762
  H       0.963674     -1.101242     -2.300487
  H       0.739587     -2.631734     -0.457601
  O       4.291340     -0.937580     -1.045565
41
Coordinates from ORCA-job orca E -847.149226503796
  O       3.323045     -2.669106     -2.026910
  C       3.922195     -2.245162     -1.053226
  C       4.223395     -3.065764      0.120545
  C       4.783424     -2.457001      1.363761
  H       4.269273     -2.877422      2.248000
  H       5.842440     -2.774785      1.471178
  C       4.704442     -0.929621      1.353123
  H       5.352806     -0.514401      2.139218
  H       3.679388     -0.579140      1.560440
  C       5.138961     -0.402226     -0.009736
  H       6.173935     -0.744778     -0.212034
  C       5.075806      1.111538     -0.171773
  C       6.024876      1.889766      0.741905
  H       5.765562      1.706338      1.799838
  H       7.056929      1.513133      0.613887
  C       5.989110      3.394531      0.472690
  H       6.668975      3.943120      1.144157
  H       4.973104      3.798088      0.617279
  H       6.287292      3.620803     -0.564639
  H       4.037602      1.444387     -0.009847
  H       5.308683      1.336725     -1.226476
  C       3.898933     -4.516554      0.078193
  H       3.055068     -4.744991      0.758725
  H       4.751000     -5.125509      0.431713
  H       3.615853     -4.828585     -0.935508
  C       0.879914     -1.804757      0.248141
  H       0.874777     -2.012475      1.319506
  C       1.101629     -0.568398     -0.220751
  C       1.355917      0.569152      0.711860
  O       1.380270      0.209968      2.015752
  C       1.616553      1.259920      2.949259
  H       1.550428      0.805517      3.946005
  H       2.613706      1.704135      2.799773
  H       0.865730      2.057456      2.840998
  O       1.548904      1.710484      0.354236
  C       1.127965     -0.216805     -1.678337
  H       2.107260      0.203448     -1.952207
  H       0.370865      0.551985     -1.904442
  H       0.961398     -1.104783     -2.301300
  H       0.729231     -2.638211     -0.442290
  O       4.292414     -0.940467     -1.043120
41
Coordinates from ORCA-job orca E -847.149289732575
  O       3.321437     -2.672410     -2.024880
  C       3.920493     -2.246384     -1.053129
  C       4.221892     -3.062955      0.119430
  C       4.779822     -2.454833      1.365536
  H       4.261087     -2.872056      2.248481
  H       5.837026     -2.776996      1.477072
  C       4.707395     -0.928552      1.352484
  H       5.356358     -0.512341      2.137909
  H       3.684517     -0.580755      1.559288
  C       5.140935     -0.401899     -0.009798
  H       6.175311     -0.745675     -0.213291
  C       5.077358      1.112145     -0.171596
  C       6.026133      1.890690      0.741902
  H       5.767476      1.706441      1.799900
  H       7.058468      1.515120      0.613208
  C       5.988633      3.395493      0.473392
  H       6.668288      3.944445      1.144760
  H       4.972286      3.797914      0.618712
  H       6.286031      3.622571     -0.563993
  H       4.038079      1.443942     -0.009785
  H       5.310234      1.337745     -1.226150
  C       3.899596     -4.514532      0.077680
  H       3.055853     -4.744754      0.757769
  H       4.752641     -5.121781      0.432027
  H       3.618307     -4.827607     -0.935878
  C       0.876482     -1.807299      0.249226
  H       0.870573     -2.014709      1.320581
  C       1.101637     -0.569613     -0.221615
  C       1.356800      0.567430      0.711183
  O       1.382481      0.207720      2.015116
  C       1.618845      1.257703      2.948589
  H       1.553288      0.803165      3.945315
  H       2.615859      1.701892      2.798600
  H       0.867818      2.055150      2.840887
  O       1.549767      1.708858      0.353593
  C       1.128085     -0.215828     -1.680163
  H       2.107969      0.204072     -1.952684
  H       0.371313      0.552828     -1.907403
  H       0.958880     -1.103687     -2.302324
  H       0.721504     -2.640811     -0.439900
  O       4.292101     -0.940296     -1.042461
41
Coordinates from ORCA-job orca E -847.149314122291
  O       3.319587     -2.673275     -2.023945
  C       3.918400     -2.246376     -1.052776
  C       4.220415     -3.060867      0.119957
  C       4.779029     -2.453958      1.366795
  H       4.256855     -2.868141      2.249047
  H       5.834384     -2.781551      1.480117
  C       4.711727     -0.927869      1.351654
  H       5.361539     -0.510596      2.135815
  H       3.688225     -0.581984      1.558735
  C       5.142750     -0.401618     -0.010988
  H       6.176320     -0.746179     -0.217209
  C       5.078360      1.112600     -0.171769
  C       6.026886      1.891242      0.741794
  H       5.769082      1.705952      1.799818
  H       7.059484      1.516743      0.612159
  C       5.987752      3.396193      0.474379
  H       6.667354      3.945313      1.145674
  H       4.971114      3.797501      0.620688
  H       6.284199      3.624306     -0.563049
  H       4.038584      1.443088     -0.009847
  H       5.310917      1.339135     -1.226185
  C       3.899865     -4.513289      0.080351
  H       3.057072     -4.744313      0.761284
  H       4.754097     -5.118665      0.435114
  H       3.618865     -4.828435     -0.932582
  C       0.873823     -1.808146      0.247634
  H       0.866318     -2.015745      1.318972
  C       1.101606     -0.570372     -0.223153
  C       1.357476      0.565649      0.710454
  O       1.384011      0.205149      2.014219
  C       1.620138      1.254978      2.947892
  H       1.554930      0.800126      3.944510
  H       2.617113      1.699063      2.797645
  H       0.868966      2.052352      2.840718
  O       1.550565      1.707210      0.353336
  C       1.128405     -0.214014     -1.681426
  H       2.108794      0.205654     -1.952242
  H       0.371767      0.554644     -1.908885
  H       0.957049     -1.101295     -2.303871
  H       0.714394     -2.641401     -0.441106
  O       4.290840     -0.939257     -1.042136
41
Coordinates from ORCA-job orca E -847.149331172522
  O       3.317898     -2.672948     -2.022862
  C       3.916023     -2.245558     -1.051656
  C       4.218762     -3.058741      0.121755
  C       4.779898     -2.453247      1.368131
  H       4.254944     -2.864332      2.250171
  H       5.833301     -2.786946      1.481873
  C       4.716640     -0.927000      1.351166
  H       5.367304     -0.508325      2.133707
  H       3.691922     -0.583490      1.558785
  C       5.144214     -0.401265     -0.012511
  H       6.176760     -0.746580     -0.222409
  C       5.079198      1.113089     -0.172008
  C       6.027474      1.891949      0.741610
  H       5.770460      1.705999      1.799688
  H       7.060296      1.518338      0.611181
  C       5.987035      3.396998      0.474876
  H       6.666620      3.946352      1.145998
  H       4.970159      3.797422      0.621957
  H       6.282680      3.625784     -0.562633
  H       4.039087      1.441878     -0.009793
  H       5.311157      1.340796     -1.226316
  C       3.899402     -4.511798      0.084612
  H       3.058188     -4.743070      0.767331
  H       4.755011     -5.115472      0.438955
  H       3.617370     -4.829159     -0.927398
  C       0.870993     -1.808639      0.244109
  H       0.860974     -2.016785      1.315375
  C       1.101391     -0.571206     -0.225342
  C       1.358333      0.563377      0.709733
  O       1.385493      0.201607      2.013119
  C       1.621224      1.250957      2.947402
  H       1.556258      0.795447      3.943751
  H       2.618212      1.694879      2.797104
  H       0.869943      2.048298      2.840926
  O       1.551645      1.705201      0.353561
  C       1.129107     -0.211871     -1.682743
  H       2.110103      0.207611     -1.951217
  H       0.372606      0.556968     -1.909979
  H       0.956040     -1.098137     -2.306321
  H       0.706328     -2.641166     -0.444643
  O       4.288607     -0.937666     -1.041456
41
Coordinates from ORCA-job orca E -847.149325891824
  O       3.317405     -2.672262     -2.021793
  C       3.914851     -2.244668     -1.050248
  C       4.217810     -3.057649      0.123646
  C       4.781776     -2.452761      1.368881
  H       4.256612     -2.862587      2.251437
  H       5.834416     -2.789164      1.481454
  C       4.719166     -0.926322      1.351459
  H       5.370158     -0.506690      2.133086
  H       3.693676     -0.584575      1.559473
  C       5.144576     -0.400963     -0.013140
  H       6.176546     -0.746643     -0.225209
  C       5.079507      1.113449     -0.172072
  C       6.027598      1.892633      0.741446
  H       5.770689      1.707004      1.799583
  H       7.060472      1.519138      0.611041
  C       5.986984      3.397622      0.474283
  H       6.666478      3.947260      1.145266
  H       4.970047      3.797939      0.621213
  H       6.282639      3.626151     -0.563278
  H       4.039230      1.441126     -0.009575
  H       5.310966      1.341735     -1.226381
  C       3.898018     -4.510648      0.087506
  H       3.058049     -4.741447      0.771886
  H       4.754253     -5.114177      0.440565
  H       3.614107     -4.828621     -0.923840
  C       0.869347     -1.808932      0.241078
  H       0.857329     -2.017593      1.312255
  C       1.101101     -0.571698     -0.226898
  C       1.358970      0.561856      0.709390
  O       1.386173      0.198924      2.012383
  C       1.621668      1.247605      2.947498
  H       1.556678      0.791323      3.943497
  H       2.618715      1.691399      2.797449
  H       0.870404      2.045017      2.841598
  O       1.552527      1.703928      0.354138
  C       1.129962     -0.210747     -1.683637
  H       2.111404      0.208623     -1.950418
  H       0.373690      0.558442     -1.910526
  H       0.956636     -1.096154     -2.308454
  H       0.701568     -2.640688     -0.447946
  O       4.286858     -0.936635     -1.040507
41
Coordinates from ORCA-job orca E -847.149328806463
  O       3.317223     -2.671700     -2.020206
  C       3.913976     -2.243775     -1.048278
  C       4.216827     -3.056831      0.126036
  C       4.784580     -2.452128      1.369538
  H       4.261135     -2.861607      2.253350
  H       5.837183     -2.789382      1.479486
  C       4.720934     -0.925559      1.352276
  H       5.372039     -0.504989      2.133208
  H       3.694799     -0.585788      1.560704
  C       5.144454     -0.400553     -0.013259
  H       6.175981     -0.746541     -0.226972
  C       5.079609      1.113902     -0.172044
  C       6.027571      1.893510      0.741172
  H       5.770492      1.708727      1.799399
  H       7.060442      1.519823      0.611171
  C       5.987163      3.398327      0.472959
  H       6.666515      3.948369      1.143752
  H       4.970208      3.798809      0.619331
  H       6.283131      3.626114     -0.564674
  H       4.039178      1.440612     -0.009213
  H       5.310511      1.342457     -1.226426
  C       3.895645     -4.509419      0.090347
  H       3.057153     -4.739347      0.776824
  H       4.752275     -5.113704      0.441171
  H       3.608861     -4.827094     -0.920299
  C       0.867731     -1.809286      0.237721
  H       0.853513     -2.018562      1.308770
  C       1.100723     -0.572003     -0.228568
  C       1.359689      0.560442      0.709044
  O       1.386592      0.196003      2.011525
  C       1.622015      1.243607      2.947933
  H       1.556791      0.786157      3.943374
  H       2.619197      1.687227      2.798444
  H       0.870901      2.041243      2.842768
  O       1.553678      1.702818      0.355008
  C       1.131203     -0.209765     -1.684782
  H       2.113185      0.209382     -1.949807
  H       0.375470      0.560109     -1.911266
  H       0.958258     -1.094195     -2.311110
  H       0.697228     -2.640055     -0.451787
  O       4.285001     -0.935806     -1.039032
41
Coordinates from ORCA-job orca E -847.149334602952
  O       3.317035     -2.671655     -2.018403
  C       3.913397     -2.243254     -1.046321
  C       4.215933     -3.056344      0.128276
  C       4.787448     -2.451473      1.369987
  H       4.267239     -2.861551      2.255468
  H       5.840745     -2.787612      1.476471
  C       4.721801     -0.924911      1.353259
  H       5.372823     -0.503626      2.133844
  H       3.695227     -0.586984      1.562057
  C       5.144021     -0.400045     -0.012888
  H       6.175334     -0.746185     -0.227422
  C       5.079359      1.114410     -0.171965
  C       6.027303      1.894417      0.740842
  H       5.769892      1.710648      1.799164
  H       7.060107      1.520315      0.611434
  C       5.987412      3.399040      0.471399
  H       6.666630      3.949433      1.142041
  H       4.970502      3.799899      0.617032
  H       6.283881      3.625921     -0.566288
  H       4.038823      1.440520     -0.008829
  H       5.309788      1.342854     -1.226476
  C       3.892861     -4.508391      0.092852
  H       3.055841     -4.737293      0.781478
  H       4.749628     -5.113982      0.441125
  H       3.602956     -4.825192     -0.917162
  C       0.866370     -1.809597      0.234764
  H       0.850291     -2.019486      1.305678
  C       1.100487     -0.572035     -0.230132
  C       1.360387      0.559361      0.708623
  O       1.386804      0.193348      2.010609
  C       1.622425      1.239656      2.948481
  H       1.556860      0.780863      3.943273
  H       2.619784      1.683071      2.799711
  H       0.871582      2.037650      2.844146
  O       1.554971      1.702027      0.355869
  C       1.132589     -0.208872     -1.686057
  H       2.115111      0.209924     -1.949635
  H       0.377640      0.561898     -1.912193
  H       0.960250     -1.092436     -2.313733
  H       0.694025     -2.639408     -0.455357
  O       4.283496     -0.935370     -1.037433
41
Coordinates from ORCA-job orca E -847.149339880174
  O       3.316488     -2.672096     -2.016182
  C       3.912781     -2.243088     -1.044221
  C       4.214926     -3.055990      0.130664
  C       4.790593     -2.450800      1.370386
  H       4.275202     -2.862281      2.257999
  H       5.845214     -2.784242      1.472252
  C       4.722245     -0.924344      1.354419
  H       5.373034     -0.502399      2.134856
  H       3.695240     -0.588452      1.563653
  C       5.143313     -0.399366     -0.012113
  H       6.174561     -0.745488     -0.227045
  C       5.078603      1.115028     -0.171823
  C       6.026723      1.895420      0.740372
  H       5.768994      1.712765      1.798816
  H       7.059394      1.520744      0.611559
  C       5.987547      3.399832      0.469580
  H       6.666748      3.950522      1.139996
  H       4.970757      3.801235      0.614501
  H       6.284489      3.625678     -0.568199
  H       4.038014      1.440835     -0.008352
  H       5.308551      1.343022     -1.226530
  C       3.889560     -4.507443      0.095855
  H       3.054396     -4.735124      0.787138
  H       4.746429     -5.114682      0.441066
  H       3.595918     -4.823150     -0.913386
  C       0.864994     -1.809766      0.231487
  H       0.847118     -2.020466      1.302206
  C       1.100488     -0.571766     -0.232018
  C       1.361205      0.558368      0.707993
  O       1.386959      0.190471      2.009445
  C       1.623120      1.235087      2.949119
  H       1.557101      0.774600      3.943093
  H       2.620750      1.678185      2.801266
  H       0.872734      2.033656      2.845892
  O       1.556679      1.701368      0.356842
  C       1.134326     -0.207547     -1.687720
  H       2.117494      0.210664     -1.949892
  H       0.380504      0.564439     -1.913481
  H       0.962514     -1.090195     -2.316746
  H       0.691294     -2.638475     -0.459528
  O       4.282061     -0.935206     -1.035629
41
Coordinates from ORCA-job orca E -847.149350036761
  O       3.315384     -2.672956     -2.013801
  C       3.912009     -2.243374     -1.042271
  C       4.213916     -3.055761      0.132941
  C       4.793529     -2.450254      1.370771
  H       4.283550     -2.863535      2.260570
  H       5.849754     -2.780265      1.467594
  C       4.722443     -0.923953      1.355512
  H       5.372945     -0.501395      2.135892
  H       3.694998     -0.590083      1.565270
  C       5.142425     -0.398659     -0.011179
  H       6.173722     -0.744545     -0.226268
  C       5.077337      1.115625     -0.171689
  C       6.025910      1.896315      0.739742
  H       5.768208      1.714447      1.798342
  H       7.058446      1.521197      0.611120
  C       5.987207      3.400562      0.467998
  H       6.666550      3.951453      1.138102
  H       4.970539      3.802367      0.612645
  H       6.284254      3.625667     -0.569914
  H       4.036814      1.441519     -0.007850
  H       5.306796      1.342924     -1.226646
  C       3.886292     -4.506714      0.099400
  H       3.053316     -4.733131      0.793719
  H       4.743384     -5.115464      0.441454
  H       3.588708     -4.821607     -0.908908
  C       0.863776     -1.809641      0.227972
  H       0.844456     -2.021373      1.298454
  C       1.100855     -0.571192     -0.234182
  C       1.362139      0.557534      0.707196
  O       1.387186      0.187664      2.008147
  C       1.624223      1.230430      2.949644
  H       1.557740      0.768170      3.942759
  H       2.622204      1.673070      2.802728
  H       0.874465      2.029768      2.847711
  O       1.558744      1.700888      0.357851
  C       1.136250     -0.205635     -1.689635
  H       2.120127      0.211750     -1.950594
  H       0.383736      0.567737     -1.914987
  H       0.964485     -1.087390     -2.319853
  H       0.689403     -2.637232     -0.464174
  O       4.280834     -0.935378     -1.033995
41
Coordinates from ORCA-job orca E -847.149356879570
  O       3.313650     -2.674106     -2.011434
  C       3.911000     -2.244125     -1.040580
  C       4.212994     -3.055725      0.135009
  C       4.795901     -2.449985      1.371240
  H       4.290884     -2.864998      2.262930
  H       5.853612     -2.776779      1.463373
  C       4.722497     -0.923812      1.356444
  H       5.372737     -0.500655      2.136760
  H       3.694603     -0.591774      1.566826
  C       5.141413     -0.398093     -0.010300
  H       6.172866     -0.743456     -0.225500
  C       5.075624      1.116057     -0.171621
  C       6.024886      1.896985      0.738942
  H       5.767741      1.715349      1.797730
  H       7.057320      1.521744      0.609871
  C       5.986135      3.401168      0.466917
  H       6.665848      3.952150      1.136574
  H       4.969566      3.803054      0.612015
  H       6.282660      3.626061     -0.571192
  H       4.035308      1.442448     -0.007370
  H       5.304598      1.342538     -1.226856
  C       3.883578     -4.506362      0.103303
  H       3.052938     -4.731659      0.800732
  H       4.741128     -5.116108      0.442503
  H       3.582323     -4.821067     -0.903961
  C       0.862874     -1.809120      0.224251
  H       0.842648     -2.022131      1.294446
  C       1.101616     -0.570301     -0.236515
  C       1.363238      0.556934      0.706348
  O       1.387585      0.185201      2.006867
  C       1.625805      1.226193      2.949958
  H       1.558928      0.762345      3.942311
  H       2.624208      1.668180      2.803810
  H       0.876832      2.026453      2.849396
  O       1.561150      1.700628      0.358862
  C       1.138232     -0.203068     -1.691603
  H       2.122839      0.213234     -1.951640
  H       0.387052      0.571713     -1.916481
  H       0.965790     -1.083976     -2.322790
  H       0.688595     -2.635640     -0.469206
  O       4.279859     -0.935947     -1.032780
41
Coordinates from ORCA-job orca E -847.149358977969
  O       3.311132     -2.675430     -2.008649
  C       3.909527     -2.245229     -1.038648
  C       4.212005     -3.055840      0.137364
  C       4.798053     -2.449949      1.372028
  H       4.297481     -2.866441      2.265397
  H       5.857002     -2.774180      1.459652
  C       4.722533     -0.923873      1.357476
  H       5.372548     -0.499938      2.137577
  H       3.694106     -0.593815      1.568693
  C       5.140119     -0.397693     -0.009368
  H       6.171792     -0.742197     -0.224882
  C       5.073333      1.116313     -0.171489
  C       6.023532      1.897569      0.737913
  H       5.767508      1.715907      1.796974
  H       7.055885      1.522481      0.607800
  C       5.984248      3.401712      0.465831
  H       6.664609      3.952846      1.134705
  H       4.967772      3.803445      0.612028
  H       6.279588      3.626590     -0.572621
  H       4.033362      1.443535     -0.006709
  H       5.301690      1.341903     -1.227055
  C       3.881323     -4.506327      0.107939
  H       3.053511     -4.730749      0.808943
  H       4.739818     -5.116491      0.444070
  H       3.576162     -4.821431     -0.898033
  C       0.862109     -1.808151      0.219565
  H       0.841280     -2.022913      1.289378
  C       1.102741     -0.568984     -0.239327
  C       1.364690      0.556406      0.705470
  O       1.388206      0.182610      2.005512
  C       1.628012      1.221703      2.950187
  H       1.560742      0.756281      3.941781
  H       2.626982      1.662690      2.804707
  H       0.880097      2.023161      2.851234
  O       1.564245      1.700477      0.360147
  C       1.140540     -0.199360     -1.693808
  H       2.126044      0.215444     -1.952921
  H       0.390848      0.577030     -1.918003
  H       0.966579     -1.079214     -2.326074
  H       0.688459     -2.633467     -0.475520
  O       4.278848     -0.936878     -1.031674
41
Coordinates from ORCA-job orca E -847.149360528726
  O       3.308889     -2.676371     -2.006554
  C       3.908201     -2.246218     -1.037180
  C       4.211438     -3.056199      0.139043
  C       4.798923     -2.450194      1.372922
  H       4.299936     -2.867090      2.266940
  H       5.858217     -2.773875      1.458618
  C       4.722372     -0.924137      1.358260
  H       5.372334     -0.499554      2.138042
  H       3.693592     -0.595319      1.570201
  C       5.138988     -0.397724     -0.008734
  H       6.170882     -0.741372     -0.224548
  C       5.071429      1.116203     -0.171297
  C       6.022395      1.897840      0.737106
  H       5.767544      1.716085      1.796440
  H       7.054726      1.523078      0.605887
  C       5.982374      3.401948      0.464996
  H       6.663429      3.953317      1.132978
  H       4.965975      3.803418      0.612426
  H       6.276352      3.626827     -0.573840
  H       4.031790      1.444233     -0.006087
  H       5.299275      1.341226     -1.227105
  C       3.880805     -4.506790      0.110990
  H       3.054976     -4.731210      0.814294
  H       4.740385     -5.116533      0.445175
  H       3.573383     -4.822595     -0.894093
  C       0.861926     -1.807140      0.215919
  H       0.841178     -2.023440      1.285421
  C       1.103664     -0.567699     -0.241319
  C       1.365862      0.556272      0.705044
  O       1.388705      0.181107      2.004754
  C       1.629906      1.219038      2.950283
  H       1.562385      0.752803      3.941494
  H       2.629381      1.658994      2.805015
  H       0.882928      2.021504      2.852437
  O       1.566696      1.700587      0.361233
  C       1.142131     -0.196005     -1.695210
  H       2.128338      0.217445     -1.953819
  H       0.393469      0.581560     -1.918733
  H       0.966422     -1.074964     -2.328296
  H       0.689258     -2.631641     -0.480416
  O       4.278199     -0.937864     -1.031096
41
Coordinates from ORCA-job orca E -847.149360705695
  O       3.306809     -2.677152     -2.004653
  C       3.906951     -2.247092     -1.035780
  C       4.211225     -3.056776      0.140412
  C       4.798924     -2.450553      1.374034
  H       4.299385     -2.867006      2.267983
  H       5.857917     -2.775110      1.459849
  C       4.721950     -0.924484      1.358994
  H       5.372011     -0.499274      2.138330
  H       3.692962     -0.596504      1.571643
  C       5.137847     -0.398066     -0.008241
  H       6.169975     -0.740887     -0.224256
  C       5.069769      1.115816     -0.171060
  C       6.021394      1.897880      0.736373
  H       5.767725      1.716120      1.795992
  H       7.053725      1.523495      0.604068
  C       5.980538      3.401936      0.464116
  H       6.662257      3.953631      1.131149
  H       4.964189      3.803099      0.612742
  H       6.273153      3.626742     -0.575124
  H       4.030428      1.444580     -0.005453
  H       5.297124      1.340510     -1.227056
  C       3.881619     -4.507614      0.112776
  H       3.057189     -4.732788      0.817463
  H       4.742408     -5.116431      0.445589
  H       3.572982     -4.824043     -0.891752
  C       0.862212     -1.806117      0.212909
  H       0.842040     -2.023841      1.282144
  C       1.104346     -0.566347     -0.242739
  C       1.366855      0.556454      0.704963
  O       1.389043      0.180308      2.004389
  C       1.631617      1.217516      2.950345
  H       1.563875      0.750954      3.941393
  H       2.631606      1.656291      2.804971
  H       0.885569      2.020924      2.853258
  O       1.568767      1.700925      0.362245
  C       1.143222     -0.192807     -1.696079
  H       2.130072      0.219281     -1.954421
  H       0.395405      0.585789     -1.918826
  H       0.965616     -1.070860     -2.329973
  H       0.690688     -2.630037     -0.484406
  O       4.277674     -0.938913     -1.030721
41
Coordinates from ORCA-job orca E -847.149363940663
  O       3.305338     -2.677760     -2.003118
  C       3.906027     -2.247623     -1.034564
  C       4.211262     -3.057356      0.141421
  C       4.798625     -2.450789      1.375032
  H       4.297864     -2.866555      2.268693
  H       5.857163     -2.776378      1.461921
  C       4.721394     -0.924730      1.359622
  H       5.371621     -0.499035      2.138539
  H       3.692337     -0.597321      1.572832
  C       5.136870     -0.398435     -0.007852
  H       6.169159     -0.740793     -0.223866
  C       5.068650      1.115433     -0.170837
  C       6.020669      1.897869      0.735876
  H       5.767681      1.716431      1.795715
  H       7.052992      1.523631      0.603049
  C       5.979388      3.401829      0.463135
  H       6.661488      3.953862      1.129499
  H       4.963083      3.802892      0.612304
  H       6.271271      3.626295     -0.576380
  H       4.029472      1.444547     -0.004940
  H       5.295627      1.340012     -1.226953
  C       3.882916     -4.508431      0.113396
  H       3.059233     -4.734631      0.818632
  H       4.744622     -5.116466      0.445301
  H       3.573793     -4.824956     -0.890951
  C       0.862674     -1.805391      0.210929
  H       0.843068     -2.024096      1.279986
  C       1.104607     -0.565234     -0.243535
  C       1.367480      0.556779      0.705043
  O       1.389094      0.179958      2.004236
  C       1.632778      1.216693      2.950474
  H       1.564777      0.749984      3.941436
  H       2.633200      1.654401      2.804932
  H       0.887502      2.020849      2.853787
  O       1.570147      1.701326      0.362980
  C       1.143751     -0.190479     -1.696520
  H       2.131099      0.220504     -1.954675
  H       0.396668      0.589030     -1.918524
  H       0.964780     -1.067716     -2.331194
  H       0.691795     -2.628927     -0.486968
  O       4.277093     -0.939672     -1.030303
41
Coordinates from ORCA-job orca E -847.149362020188
  O       3.304441     -2.678304     -2.002112
  C       3.905471     -2.247938     -1.033799
  C       4.211538     -3.057887      0.141884
  C       4.798060     -2.450934      1.375738
  H       4.295910     -2.866068      2.268982
  H       5.856205     -2.777252      1.464203
  C       4.720769     -0.924899      1.359996
  H       5.371192     -0.498954      2.138615
  H       3.691756     -0.597699      1.573570
  C       5.136167     -0.398786     -0.007626
  H       6.168529     -0.741088     -0.223427
  C       5.068090      1.115091     -0.170722
  C       6.020244      1.897726      0.735642
  H       5.767457      1.716642      1.795595
  H       7.052562      1.523488      0.602757
  C       5.978837      3.401611      0.462464
  H       6.661021      3.953874      1.128549
  H       4.962534      3.802661      0.611677
  H       6.270553      3.625780     -0.577165
  H       4.028946      1.444244     -0.004670
  H       5.294895      1.339691     -1.226876
  C       3.884527     -4.509198      0.113054
  H       3.060979     -4.736515      0.818101
  H       4.746792     -5.116613      0.444632
  H       3.575631     -4.825449     -0.891437
  C       0.863293     -1.804937      0.210172
  H       0.844258     -2.024084      1.279157
  C       1.104522     -0.564419     -0.243731
  C       1.367678      0.557282      0.705150
  O       1.388883      0.180209      2.004225
  C       1.633412      1.216740      2.950560
  H       1.565116      0.750062      3.941517
  H       2.634178      1.653574      2.804821
  H       0.888733      2.021441      2.853899
  O       1.570777      1.701817      0.363272
  C       1.143633     -0.189170     -1.696600
  H       2.131316      0.221022     -1.954764
  H       0.397164      0.591106     -1.917986
  H       0.963824     -1.065823     -2.331835
  H       0.692620     -2.628332     -0.487907
  O       4.276546     -0.940164     -1.029986
41
Coordinates from ORCA-job orca E -847.148226904804
  O       3.295048     -2.675400     -1.998247
  C       3.911981     -2.253579     -1.028943
  C       4.246489     -3.083855      0.145063
  C       4.824033     -2.468214      1.371625
  H       4.333194     -2.897393      2.264699
  H       5.889679     -2.771257      1.456214
  C       4.715200     -0.937747      1.362072
  H       5.363133     -0.512192      2.142984
  H       3.667097     -0.595867      1.576721
  C       5.130379     -0.407116     -0.007899
  H       6.164124     -0.745135     -0.223881
  C       5.061237      1.105465     -0.170719
  C       6.014263      1.885142      0.737285
  H       5.759509      1.704319      1.796813
  H       7.045746      1.508145      0.605685
  C       5.977332      3.389249      0.464656
  H       6.660094      3.939385      1.131913
  H       4.961914      3.793008      0.612617
  H       6.271105      3.613043     -0.574477
  H       4.025807      1.440888     -0.005519
  H       5.289608      1.329109     -1.226740
  C       3.942382     -4.540199      0.109821
  H       3.128310     -4.784187      0.820561
  H       4.816600     -5.136728      0.430258
  H       3.627640     -4.854508     -0.893484
  C       0.809835     -1.764497      0.207535
  H       0.786160     -1.981831      1.278504
  C       1.075151     -0.538567     -0.240955
  C       1.352521      0.580542      0.704699
  O       1.368864      0.206143      2.003580
  C       1.624529      1.241164      2.948329
  H       1.550851      0.777071      3.940132
  H       2.630040      1.668458      2.802646
  H       0.888269      2.053405      2.849577
  O       1.570499      1.721048      0.361230
  C       1.130542     -0.176894     -1.689946
  H       2.122763      0.221552     -1.947769
  H       0.394234      0.611593     -1.916649
  H       0.953270     -1.055516     -2.325521
  H       0.647170     -2.590920     -0.499163
  O       4.272460     -0.947574     -1.027717
41
Coordinates from ORCA-job orca E -847.149084232474
  O       3.297168     -2.685824     -1.989928
  C       3.912679     -2.258182     -1.028024
  C       4.245506     -3.077803      0.138982
  C       4.810727     -2.460974      1.376053
  H       4.311452     -2.887827      2.265801
  H       5.875176     -2.763594      1.472640
  C       4.709351     -0.934771      1.364261
  H       5.354879     -0.508276      2.146565
  H       3.679115     -0.600536      1.574410
  C       5.129765     -0.406890     -0.002752
  H       6.163577     -0.747814     -0.213870
  C       5.063981      1.106199     -0.169135
  C       6.016676      1.888166      0.737611
  H       5.761342      1.709273      1.797310
  H       7.048395      1.511291      0.607419
  C       5.979321      3.391782      0.462253
  H       6.661393      3.943454      1.128948
  H       4.963629      3.795361      0.608827
  H       6.273660      3.613830     -0.577088
  H       4.026865      1.440632     -0.004844
  H       5.292877      1.327923     -1.225517
  C       3.943764     -4.533339      0.096927
  H       3.126284     -4.781382      0.802174
  H       4.817283     -5.129460      0.419235
  H       3.635358     -4.844063     -0.909752
  C       0.803274     -1.773847      0.216029
  H       0.780091     -1.989277      1.285628
  C       1.075193     -0.542666     -0.240151
  C       1.355569      0.578229      0.704776
  O       1.374833      0.203935      2.004610
  C       1.632103      1.239138      2.949045
  H       1.559673      0.775133      3.940929
  H       2.636996      1.666365      2.802110
  H       0.895812      2.051417      2.851228
  O       1.573160      1.719214      0.360119
  C       1.131032     -0.180965     -1.694456
  H       2.124114      0.216687     -1.951353
  H       0.395735      0.607352     -1.925488
  H       0.951193     -1.060334     -2.326013
  H       0.636232     -2.597118     -0.482815
  O       4.273826     -0.950887     -1.025112
41
Coordinates from ORCA-job orca E -847.149151378940
  O       3.295859     -2.689553     -1.987883
  C       3.911265     -2.259588     -1.028259
  C       4.244329     -3.074827      0.137169
  C       4.806888     -2.459020      1.377709
  H       4.302777     -2.883145      2.265873
  H       5.869669     -2.765786      1.478820
  C       4.712107     -0.933841      1.363632
  H       5.358154     -0.506539      2.145436
  H       3.684182     -0.602103      1.573183
  C       5.131762     -0.406650     -0.002738
  H       6.164971     -0.748886     -0.214875
  C       5.065547      1.106675     -0.169001
  C       6.017872      1.888943      0.737646
  H       5.763115      1.709149      1.797383
  H       7.049875      1.513132      0.606829
  C       5.978794      3.392626      0.463095
  H       6.660575      3.944627      1.129803
  H       4.962740      3.795034      0.610332
  H       6.272438      3.615557     -0.576259
  H       4.027325      1.439941     -0.004876
  H       5.294513      1.328712     -1.225236
  C       3.944959     -4.531228      0.095779
  H       3.126693     -4.780662      0.799642
  H       4.818906     -5.125752      0.420085
  H       3.639558     -4.843021     -0.911145
  C       0.800248     -1.775984      0.217855
  H       0.775799     -1.990756      1.287491
  C       1.075389     -0.543861     -0.240698
  C       1.356468      0.576776      0.704104
  O       1.376963      0.202184      2.004060
  C       1.634303      1.237489      2.948370
  H       1.562303      0.773415      3.940254
  H       2.639096      1.664643      2.800988
  H       0.897880      2.049724      2.850921
  O       1.573974      1.717800      0.359269
  C       1.130992     -0.180407     -1.696156
  H       2.124585      0.216799     -1.951980
  H       0.396098      0.607815     -1.928349
  H       0.948446     -1.059775     -2.326702
  H       0.628035     -2.599323     -0.479408
  O       4.273609     -0.950783     -1.024574
41
Coordinates from ORCA-job orca E -847.149176982406
  O       3.294189     -2.690636     -1.987309
  C       3.909395     -2.259717     -1.028343
  C       4.243244     -3.072851      0.137104
  C       4.805976     -2.458422      1.378701
  H       4.298230     -2.879920      2.265932
  H       5.867066     -2.770347      1.481891
  C       4.716207     -0.933330      1.362681
  H       5.363052     -0.505164      2.143351
  H       3.687737     -0.603234      1.572476
  C       5.133519     -0.406523     -0.003994
  H       6.165877     -0.749677     -0.218736
  C       5.066546      1.106953     -0.169266
  C       6.018545      1.889264      0.737591
  H       5.764600      1.708233      1.797311
  H       7.050838      1.514608      0.605819
  C       5.977736      3.393140      0.464402
  H       6.659364      3.945243      1.131185
  H       4.961344      3.794322      0.612636
  H       6.270486      3.617315     -0.574938
  H       4.027807      1.438819     -0.005054
  H       5.295262      1.329884     -1.225355
  C       3.945907     -4.530192      0.097961
  H       3.127559     -4.779991      0.801546
  H       4.820455     -5.122788      0.424157
  H       3.642230     -4.844328     -0.908698
  C       0.798218     -1.776465      0.216993
  H       0.771740     -1.991100      1.286641
  C       1.075553     -0.544497     -0.241885
  C       1.357160      0.575400      0.703404
  O       1.378376      0.200307      2.003270
  C       1.635468      1.235589      2.947617
  H       1.563667      0.771345      3.939447
  H       2.640266      1.662568      2.800024
  H       0.898983      2.047795      2.850449
  O       1.574686      1.716496      0.358817
  C       1.131058     -0.178894     -1.697176
  H       2.125060      0.217979     -1.951663
  H       0.396330      0.609370     -1.929506
  H       0.946296     -1.057766     -2.327795
  H       0.620706     -2.599461     -0.479655
  O       4.272322     -0.949778     -1.024446
41
Coordinates from ORCA-job orca E -847.149195282854
  O       3.292818     -2.690465     -1.986835
  C       3.907332     -2.259042     -1.027785
  C       4.242156     -3.070977      0.138189
  C       4.806693     -2.458035      1.379665
  H       4.295760     -2.876770      2.266352
  H       5.865943     -2.775861      1.483757
  C       4.720907     -0.932700      1.361974
  H       5.368571     -0.503364      2.141160
  H       3.691350     -0.604637      1.572266
  C       5.134951     -0.406393     -0.005637
  H       6.166221     -0.750462     -0.223993
  C       5.067384      1.107222     -0.169570
  C       6.018957      1.889695      0.737558
  H       5.765663      1.707836      1.797263
  H       7.051506      1.516001      0.605073
  C       5.976787      3.393706      0.465253
  H       6.658247      3.945996      1.132057
  H       4.960107      3.793907      0.614149
  H       6.268885      3.618726     -0.574082
  H       4.028253      1.437224     -0.005096
  H       5.295586      1.331353     -1.225530
  C       3.946267     -4.529030      0.101501
  H       3.127939     -4.778542      0.805148
  H       4.821345     -5.119803      0.429455
  H       3.643644     -4.845825     -0.904710
  C       0.796268     -1.776665      0.214431
  H       0.766830     -1.991460      1.284026
  C       1.075587     -0.545195     -0.243568
  C       1.358025      0.573617      0.702785
  O       1.379754      0.197680      2.002384
  C       1.636403      1.232731      2.947061
  H       1.564677      0.768097      3.938727
  H       2.641253      1.659469      2.799436
  H       0.899888      2.044931      2.850243
  O       1.575562      1.714894      0.358814
  C       1.131428     -0.177088     -1.698077
  H       2.125910      0.219481     -1.950722
  H       0.396825      0.611368     -1.930031
  H       0.944838     -1.055049     -2.329568
  H       0.612508     -2.598805     -0.481958
  O       4.270032     -0.948215     -1.023976
41
Coordinates from ORCA-job orca E -847.149189445317
  O       3.292646     -2.689889     -1.986241
  C       3.906408     -2.258299     -1.026754
  C       4.241579     -3.070180      0.139590
  C       4.808338     -2.457775      1.380155
  H       4.296833     -2.875340      2.267123
  H       5.866843     -2.778199      1.483507
  C       4.723254     -0.932232      1.362086
  H       5.371243     -0.502104      2.140446
  H       3.693062     -0.605609      1.572734
  C       5.135309     -0.406301     -0.006374
  H       6.165955     -0.750840     -0.226860
  C       5.067738      1.107395     -0.169672
  C       6.018990      1.890161      0.737506
  H       5.765743      1.708439      1.797222
  H       7.051648      1.516720      0.605060
  C       5.976476      3.394134      0.464960
  H       6.657740      3.946711      1.131730
  H       4.959672      3.794075      0.613699
  H       6.268605      3.619066     -0.574388
  H       4.028403      1.436184     -0.004943
  H       5.295489      1.332165     -1.225599
  C       3.945502     -4.528220      0.103645
  H       3.127036     -4.777067      0.807357
  H       4.820555     -5.118666      0.432183
  H       3.642875     -4.845956     -0.902325
  C       0.795257     -1.776816      0.212217
  H       0.763683     -1.991845      1.281737
  C       1.075478     -0.545579     -0.244647
  C       1.358675      0.572495      0.702590
  O       1.380397      0.195797      2.001896
  C       1.636740      1.230463      2.947097
  H       1.564880      0.765365      3.938540
  H       2.641663      1.657028      2.799700
  H       0.900271      2.042717      2.850529
  O       1.576241      1.713950      0.359211
  C       1.132048     -0.176227     -1.698578
  H       2.126884      0.220126     -1.949976
  H       0.397649      0.612575     -1.930084
  H       0.945070     -1.053451     -2.331062
  H       0.607910     -2.598142     -0.484262
  O       4.268272     -0.947279     -1.023164
41
Coordinates from ORCA-job orca E -847.149192047989
  O       3.292936     -2.689442     -1.985290
  C       3.905927     -2.257594     -1.025321
  C       4.241104     -3.069732      0.141255
  C       4.810706     -2.457399      1.380459
  H       4.300375     -2.874641      2.268338
  H       5.869128     -2.778580      1.481893
  C       4.724757     -0.931759      1.362639
  H       5.372867     -0.500945      2.140439
  H       3.694129     -0.606623      1.573625
  C       5.135232     -0.406106     -0.006595
  H       6.165450     -0.750948     -0.228567
  C       5.067846      1.107638     -0.169658
  C       6.018808      1.890799      0.737407
  H       5.765266      1.709772      1.797162
  H       7.051497      1.517241      0.605446
  C       5.976471      3.394630      0.463967
  H       6.657492      3.947579      1.130678
  H       4.959617      3.794686      0.612059
  H       6.269029      3.618931     -0.575393
  H       4.028310      1.435389     -0.004648
  H       5.295124      1.332762     -1.225619
  C       3.943767     -4.527383      0.105367
  H       3.124968     -4.775186      0.809091
  H       4.818347     -5.118446      0.434021
  H       3.640641     -4.845145     -0.900460
  C       0.794433     -1.777087      0.210029
  H       0.760864     -1.992396      1.279452
  C       1.075347     -0.545825     -0.245614
  C       1.359342      0.571535      0.702488
  O       1.380787      0.193894      2.001432
  C       1.636885      1.227914      2.947469
  H       1.564702      0.762109      3.938552
  H       2.641923      1.654329      2.800569
  H       0.900523      2.040287      2.851201
  O       1.576996      1.713195      0.359833
  C       1.133005     -0.175686     -1.699142
  H       2.128219      0.220371     -1.949423
  H       0.399051      0.613696     -1.930180
  H       0.946230     -1.052165     -2.332731
  H       0.604352     -2.597518     -0.486717
  O       4.266607     -0.946598     -1.021925
41
Coordinates from ORCA-job orca E -847.149197455029
  O       3.293201     -2.689479     -1.984271
  C       3.905755     -2.257274     -1.024082
  C       4.240732     -3.069588      0.142591
  C       4.812896     -2.457054      1.380533
  H       4.304930     -2.874765      2.269584
  H       5.871817     -2.777283      1.479526
  C       4.725431     -0.931461      1.363247
  H       5.373519     -0.500237      2.140819
  H       3.694572     -0.607523      1.574504
  C       5.134955     -0.405829     -0.006411
  H       6.165004     -0.750783     -0.229028
  C       5.067678      1.107933     -0.169594
  C       6.018497      1.891417      0.737270
  H       5.764607      1.711115      1.797064
  H       7.051178      1.517620      0.605853
  C       5.976478      3.395101      0.462931
  H       6.657291      3.948343      1.129608
  H       4.959615      3.795377      0.610357
  H       6.269514      3.618749     -0.576435
  H       4.027998      1.435065     -0.004355
  H       5.294603      1.333086     -1.225624
  C       3.941715     -4.526764      0.106653
  H       3.122560     -4.773434      0.810399
  H       4.815583     -5.118934      0.435206
  H       3.637925     -4.844058     -0.899105
  C       0.793869     -1.777302      0.208424
  H       0.758960     -1.992875      1.277757
  C       1.075364     -0.545847     -0.246375
  C       1.359907      0.570932      0.702349
  O       1.381003      0.192400      2.000984
  C       1.637036      1.225685      2.947901
  H       1.564469      0.759128      3.938596
  H       2.642196      1.651980      2.801587
  H       0.900840      2.038236      2.851945
  O       1.577727      1.712765      0.360390
  C       1.134014     -0.175333     -1.699770
  H       2.129567      0.220346     -1.949342
  H       0.400667      0.614724     -1.930482
  H       0.947566     -1.051271     -2.334174
  H       0.602343     -2.597035     -0.488677
  O       4.265477     -0.946319     -1.020761
41
Coordinates from ORCA-job orca E -847.149201545654
  O       3.293222     -2.689919     -1.983038
  C       3.905578     -2.257251     -1.022852
  C       4.240275     -3.069537      0.143925
  C       4.815261     -2.456733      1.380502
  H       4.310831     -2.875470      2.271063
  H       5.875113     -2.774899      1.476223
  C       4.725896     -0.931265      1.363900
  H       5.373889     -0.499708      2.141382
  H       3.694830     -0.608619      1.575489
  C       5.134549     -0.405450     -0.006001
  H       6.164544     -0.750364     -0.228974
  C       5.067161      1.108277     -0.169507
  C       6.017976      1.892043      0.737025
  H       5.763820      1.712417      1.796875
  H       7.050623      1.517994      0.606066
  C       5.976234      3.395582      0.461855
  H       6.656839      3.949092      1.128518
  H       4.959359      3.796037      0.608671
  H       6.269718      3.618657     -0.577513
  H       4.027384      1.435000     -0.004014
  H       5.293731      1.333250     -1.225647
  C       3.939267     -4.526223      0.108279
  H       3.119724     -4.771504      0.812093
  H       4.812213     -5.119758      0.436804
  H       3.634756     -4.842989     -0.897402
  C       0.793321     -1.777344      0.206727
  H       0.757269     -1.993277      1.275946
  C       1.075610     -0.545640     -0.247309
  C       1.360568      0.570451      0.702067
  O       1.381263      0.190854      2.000381
  C       1.637392      1.223179      2.948368
  H       1.564326      0.755679      3.938576
  H       2.642731      1.649303      2.802806
  H       0.901468      2.036032      2.852843
  O       1.578710      1.712483      0.360991
  C       1.135271     -0.174719     -1.700647
  H       2.131235      0.220357     -1.949636
  H       0.402804      0.616254     -1.931028
  H       0.948974     -1.050105     -2.335791
  H       0.600866     -2.596364     -0.490887
  O       4.264461     -0.946253     -1.019537
41
Coordinates from ORCA-job orca E -847.149215724776
  O       3.292739     -2.690730     -1.981526
  C       3.905169     -2.257545     -1.021587
  C       4.239692     -3.069509      0.145384
  C       4.817961     -2.456504      1.380401
  H       4.318077     -2.876690      2.272771
  H       5.879040     -2.771953      1.471922
  C       4.726482     -0.931186      1.364523
  H       5.374369     -0.499245      2.141908
  H       3.695127     -0.610058      1.576603
  C       5.134028     -0.405008     -0.005547
  H       6.164019     -0.749692     -0.228912
  C       5.066193      1.108644     -0.169460
  C       6.017158      1.892667      0.736647
  H       5.762985      1.713456      1.796574
  H       7.049774      1.518479      0.605856
  C       5.975494      3.396116      0.460958
  H       6.656029      3.949829      1.127527
  H       4.958609      3.796632      0.607535
  H       6.269096      3.618842     -0.578450
  H       4.026388      1.435127     -0.003633
  H       5.292348      1.333309     -1.225748
  C       3.936422     -4.525730      0.110761
  H       3.116488     -4.769200      0.814769
  H       4.808291     -5.120692      0.439541
  H       3.631189     -4.842312     -0.894737
  C       0.792745     -1.777121      0.204527
  H       0.755638     -1.993622      1.273585
  C       1.076185     -0.545184     -0.248649
  C       1.361449      0.570001      0.701575
  O       1.381727      0.189106      1.999543
  C       1.638124      1.220225      2.948786
  H       1.564441      0.751593      3.938408
  H       2.643725      1.646065      2.804145
  H       0.902629      2.033541      2.853849
  O       1.580115      1.712278      0.361667
  C       1.136858     -0.173551     -1.701868
  H       2.133355      0.220588     -1.950317
  H       0.405566      0.618620     -1.931844
  H       0.950245     -1.048302     -2.337741
  H       0.599689     -2.595341     -0.493826
  O       4.263401     -0.946389     -1.018333
41
Coordinates from ORCA-job orca E -847.149207511360
  O       3.291502     -2.692021     -1.979182
  C       3.904298     -2.258223     -1.019785
  C       4.238852     -3.069452      0.147563
  C       4.822037     -2.456383      1.380267
  H       4.328785     -2.878686      2.275186
  H       5.884809     -2.768181      1.465374
  C       4.727619     -0.931260      1.365350
  H       5.375368     -0.498656      2.142501
  H       3.695722     -0.612489      1.578323
  C       5.133244     -0.404395     -0.004957
  H       6.163257     -0.748484     -0.229152
  C       5.064392      1.109138     -0.169360
  C       6.015730      1.893579      0.735996
  H       5.761925      1.714715      1.796081
  H       7.048321      1.519389      0.605017
  C       5.973853      3.396935      0.459818
  H       6.654495      3.950945      1.126034
  H       4.956958      3.797363      0.606534
  H       6.267141      3.619344     -0.579742
  H       4.024628      1.435434     -0.002961
  H       5.289860      1.333357     -1.225890
  C       3.932142     -4.525034      0.115282
  H       3.111809     -4.765449      0.819896
  H       4.802481     -5.121870      0.444644
  H       3.625721     -4.842000     -0.889726
  C       0.792004     -1.776537      0.200646
  H       0.753548     -1.994203      1.269399
  C       1.077376     -0.544336     -0.251007
  C       1.362947      0.569291      0.700769
  O       1.382655      0.186335      1.998197
  C       1.639524      1.215575      2.949307
  H       1.564887      0.745231      3.938049
  H       2.645571      1.640885      2.806065
  H       0.904782      2.029692      2.855360
  O       1.582517      1.711974      0.362817
  C       1.139427     -0.171128     -1.703855
  H       2.136805      0.221346     -1.951531
  H       0.409980      0.622925     -1.933128
  H       0.951669     -1.044833     -2.340789
  H       0.598479     -2.593522     -0.499014
  O       4.261941     -0.946761     -1.016806
41
Coordinates from ORCA-job orca E -847.149214839666
  O       3.290345     -2.692670     -1.978137
  C       3.903647     -2.258825     -1.019151
  C       4.238534     -3.069580      0.148359
  C       4.823162     -2.456582      1.380394
  H       4.331877     -2.879554      2.276018
  H       5.886398     -2.767444      1.463402
  C       4.727981     -0.931489      1.365617
  H       5.375718     -0.498554      2.142597
  H       3.695876     -0.613563      1.579088
  C       5.132781     -0.404332     -0.004758
  H       6.162879     -0.747904     -0.229318
  C       5.063273      1.109139     -0.169334
  C       6.014978      1.893730      0.735574
  H       5.761793      1.714630      1.795765
  H       7.047577      1.519778      0.603972
  C       5.972626      3.397110      0.459643
  H       6.653570      3.951163      1.125514
  H       4.955738      3.797304      0.607051
  H       6.265219      3.619727     -0.580071
  H       4.023642      1.435711     -0.002648
  H       5.288420      1.333113     -1.225985
  C       3.931150     -4.525116      0.117320
  H       3.110796     -4.764583      0.822210
  H       4.801222     -5.122064      0.447167
  H       3.624587     -4.842831     -0.887430
  C       0.791926     -1.775923      0.198804
  H       0.753430     -1.994318      1.267407
  C       1.078084     -0.543675     -0.252117
  C       1.363636      0.569232      0.700439
  O       1.383187      0.185489      1.997686
  C       1.640441      1.214054      2.949359
  H       1.565433      0.743193      3.937827
  H       2.646736      1.638958      2.806580
  H       0.906148      2.028629      2.855829
  O       1.583693      1.712079      0.363352
  C       1.140464     -0.169466     -1.704673
  H       2.138272      0.222019     -1.952220
  H       0.411821      0.625414     -1.933567
  H       0.951516     -1.042690     -2.341937
  H       0.598932     -2.592509     -0.501507
  O       4.261552     -0.947251     -1.016532
41
Coordinates from ORCA-job orca E -847.149217621379
  O       3.287051     -2.694231     -1.975115
  C       3.901733     -2.260401     -1.017142
  C       4.237817     -3.070104      0.150663
  C       4.825827     -2.457243      1.381082
  H       4.338107     -2.881188      2.278091
  H       5.889729     -2.767098      1.459769
  C       4.729004     -0.932186      1.366441
  H       5.376853     -0.498198      2.142721
  H       3.696336     -0.616514      1.581373
  C       5.131498     -0.404458     -0.004293
  H       6.161835     -0.746539     -0.229988
  C       5.060335      1.108898     -0.169205
  C       6.012994      1.894100      0.734339
  H       5.761756      1.714352      1.794881
  H       7.045673      1.521051      0.600810
  C       5.968917      3.397518      0.459002
  H       6.650761      3.951891      1.123682
  H       4.952005      3.796861      0.608575
  H       6.259254      3.620697     -0.581230
  H       4.021087      1.436195     -0.001704
  H       5.284501      1.332352     -1.226186
  C       3.929204     -4.525574      0.122454
  H       3.108882     -4.762967      0.828058
  H       4.798937     -5.122356      0.453437
  H       3.622317     -4.845417     -0.881561
  C       0.791945     -1.774216      0.193558
  H       0.753434     -1.994734      1.261722
  C       1.079889     -0.541742     -0.255069
  C       1.365603      0.569162      0.699751
  O       1.384701      0.183334      1.996479
  C       1.643057      1.210266      2.949493
  H       1.567063      0.738264      3.937361
  H       2.650082      1.633860      2.807772
  H       0.910076      2.026134      2.856993
  O       1.586965      1.712437      0.364933
  C       1.143220     -0.164571     -1.706720
  H       2.142277      0.224023     -1.953811
  H       0.416741      0.632594     -1.934437
  H       0.950737     -1.036273     -2.345105
  H       0.600338     -2.589714     -0.508467
  O       4.260519     -0.948713     -1.015822
41
Coordinates from ORCA-job orca E -847.149219987078
  O       3.285497     -2.694842     -1.973535
  C       3.900849     -2.261051     -1.015975
  C       4.237700     -3.070556      0.151764
  C       4.826644     -2.457597      1.381669
  H       4.339298     -2.881456      2.278943
  H       5.890486     -2.767775      1.459598
  C       4.729195     -0.932561      1.366967
  H       5.377158     -0.498054      2.142840
  H       3.696342     -0.617842      1.582625
  C       5.130823     -0.404691     -0.003992
  H       6.161306     -0.746096     -0.230050
  C       5.059112      1.108648     -0.169040
  C       6.012153      1.894292      0.733772
  H       5.761771      1.714574      1.794519
  H       7.044876      1.521630      0.599491
  C       5.967305      3.397647      0.458260
  H       6.649519      3.952364      1.122277
  H       4.950375      3.796647      0.608619
  H       6.256695      3.620767     -0.582244
  H       4.020018      1.436246     -0.001163
  H       5.282797      1.331935     -1.226169
  C       3.929009     -4.526019      0.124100
  H       3.108802     -4.763070      0.829962
  H       4.798872     -5.122536      0.455212
  H       3.621923     -4.846511     -0.879660
  C       0.792246     -1.773446      0.191222
  H       0.753923     -1.995002      1.259184
  C       1.080506     -0.540704     -0.256199
  C       1.366403      0.569277      0.699655
  O       1.385238      0.182526      1.996106
  C       1.644158      1.208816      2.949638
  H       1.567670      0.736441      3.937292
  H       2.651565      1.631648      2.808290
  H       0.911838      2.025306      2.857496
  O       1.588294      1.712731      0.365764
  C       1.144299     -0.162176     -1.707428
  H       2.143985      0.224953     -1.954302
  H       0.418851      0.636109     -1.934469
  H       0.950123     -1.033032     -2.346502
  H       0.601325     -2.588497     -0.511515
  O       4.260113     -0.949488     -1.015432
41
Coordinates from ORCA-job orca E -847.149213930634
  O       3.282788     -2.695970     -1.970500
  C       3.899336     -2.262078     -1.013683
  C       4.237727     -3.071542      0.153706
  C       4.827693     -2.458134      1.382927
  H       4.340114     -2.881424      2.280423
  H       5.891251     -2.769143      1.460702
  C       4.729156     -0.933173      1.367990
  H       5.377417     -0.497760      2.143093
  H       3.696098     -0.620060      1.584945
  C       5.129514     -0.405206     -0.003381
  H       6.160282     -0.745604     -0.229729
  C       5.057162      1.108101     -0.168717
  C       6.010797      1.894557      0.732789
  H       5.761687      1.715205      1.793913
  H       7.043591      1.522425      0.597502
  C       5.964795      3.397767      0.456601
  H       6.647524      3.953177      1.119507
  H       4.947836      3.796300      0.607963
  H       6.252841      3.620512     -0.584353
  H       4.018281      1.436056     -0.000208
  H       5.280019      1.331155     -1.226084
  C       3.929461     -4.527028      0.126080
  H       3.109505     -4.764245      0.832202
  H       4.799756     -5.123037      0.456960
  H       3.622037     -4.847984     -0.877418
  C       0.793046     -1.772222      0.187484
  H       0.755128     -1.995480      1.255117
  C       1.081225     -0.538780     -0.257868
  C       1.367572      0.569709      0.699620
  O       1.385891      0.181426      1.995562
  C       1.645911      1.206667      2.949972
  H       1.568469      0.733745      3.937295
  H       2.654035      1.627968      2.809174
  H       0.914829      2.024288      2.858274
  O       1.590284      1.713437      0.367175
  C       1.145824     -0.158094     -1.708478
  H       2.146664      0.226337     -1.954926
  H       0.422378      0.642380     -1.934168
  H       0.948815     -1.027302     -2.348975
  H       0.603025     -2.586518     -0.516329
  O       4.259296     -0.950876     -1.014570
41
Coordinates from ORCA-job orca E -847.149217509866
  O       3.281846     -2.696436     -1.969333
  C       3.898872     -2.262370     -1.012844
  C       4.238023     -3.072050      0.154214
  C       4.827571     -2.458305      1.383506
  H       4.339209     -2.881198      2.280821
  H       5.890933     -2.769613      1.462266
  C       4.728711     -0.933389      1.368385
  H       5.377127     -0.497760      2.143239
  H       3.695668     -0.620638      1.585770
  C       5.128979     -0.405485     -0.003071
  H       6.159846     -0.745794     -0.229162
  C       5.056680      1.107815     -0.168567
  C       6.010426      1.894532      0.732553
  H       5.761487      1.715615      1.793792
  H       7.043212      1.522391      0.597274
  C       5.964341      3.397637      0.455799
  H       6.647141      3.953324      1.118410
  H       4.947385      3.796188      0.607126
  H       6.252262      3.619985     -0.585276
  H       4.017819      1.435767      0.000090
  H       5.279329      1.330816     -1.225994
  C       3.930553     -4.527634      0.125858
  H       3.110816     -4.765713      0.831971
  H       4.801246     -5.123374      0.456185
  H       3.623005     -4.848128     -0.877736
  C       0.793657     -1.771861      0.186715
  H       0.756059     -1.995532      1.254282
  C       1.081123     -0.538015     -0.258107
  C       1.367637      0.570152      0.699685
  O       1.385752      0.181520      1.995488
  C       1.646274      1.206508      2.950113
  H       1.568406      0.733526      3.937372
  H       2.654696      1.627107      2.809396
  H       0.915699      2.024567      2.858360
  O       1.590510      1.713934      0.367490
  C       1.145817     -0.156865     -1.708623
  H       2.147074      0.226557     -1.954982
  H       0.423230      0.644544     -1.933704
  H       0.947932     -1.025436     -2.349701
  H       0.603758     -2.585980     -0.517292
  O       4.258949     -0.951360     -1.014179
41
Coordinates from ORCA-job orca E -847.149218306713
  O       3.280611     -2.697201     -1.967943
  C       3.898298     -2.262776     -1.011986
  C       4.238548     -3.072677      0.154651
  C       4.827442     -2.458471      1.384080
  H       4.338549     -2.881125      2.281261
  H       5.890776     -2.769532      1.463922
  C       4.728085     -0.933607      1.368735
  H       5.376714     -0.497784      2.143339
  H       3.695087     -0.621233      1.586622
  C       5.128265     -0.405805     -0.002782
  H       6.159180     -0.746253     -0.228503
  C       5.056113      1.107457     -0.168493
  C       6.009939      1.894279      0.732381
  H       5.760976      1.715765      1.793696
  H       7.042703      1.522015      0.597275
  C       5.963940      3.397312      0.455184
  H       6.646653      3.953163      1.117737
  H       4.946972      3.795923      0.606251
  H       6.252017      3.619343     -0.585916
  H       4.017247      1.435277      0.000303
  H       5.278616      1.330399     -1.225961
  C       3.932209     -4.528440      0.125532
  H       3.112933     -4.767713      0.831795
  H       4.803444     -5.123874      0.454985
  H       3.624344     -4.848210     -0.878175
  C       0.794580     -1.771410      0.186099
  H       0.757406     -1.995390      1.253618
  C       1.080895     -0.537069     -0.258354
  C       1.367515      0.570890      0.699592
  O       1.385421      0.181987      1.995291
  C       1.646665      1.206674      2.950147
  H       1.568172      0.733631      3.937321
  H       2.655485      1.626321      2.809536
  H       0.916800      2.025331      2.858195
  O       1.590503      1.714713      0.367578
  C       1.145430     -0.155555     -1.708838
  H       2.147201      0.226560     -1.955170
  H       0.424101      0.647205     -1.933082
  H       0.946476     -1.023362     -2.350573
  H       0.604497     -2.585325     -0.518055
  O       4.258251     -0.951885     -1.013706
41
Coordinates from ORCA-job orca E -847.148258446898
  O       3.272234     -2.694410     -1.964828
  C       3.904837     -2.268104     -1.006765
  C       4.270520     -3.096061      0.159405
  C       4.852713     -2.471568      1.381085
  H       4.374720     -2.904651      2.279293
  H       5.922297     -2.762331      1.456788
  C       4.726281     -0.942553      1.369587
  H       5.373551     -0.506158      2.145007
  H       3.677023     -0.618630      1.589749
  C       5.124685     -0.412557     -0.003679
  H       6.156668     -0.749270     -0.230156
  C       5.050653      1.098993     -0.168811
  C       6.005584      1.883386      0.733015
  H       5.755783      1.704669      1.794098
  H       7.037690      1.509210      0.598148
  C       5.962624      3.386687      0.456768
  H       6.646106      3.940789      1.119996
  H       4.946358      3.787169      0.607619
  H       6.251615      3.608832     -0.584056
  H       4.014809      1.431736      0.000073
  H       5.273700      1.321569     -1.226241
  C       3.983918     -4.555901      0.126449
  H       3.173539     -4.808699      0.838451
  H       4.865543     -5.141469      0.446255
  H       3.670279     -4.875132     -0.875659
  C       0.734345     -1.738568      0.176837
  H       0.679787     -1.969234      1.242348
  C       1.051451     -0.514889     -0.255250
  C       1.353744      0.590009      0.701048
  O       1.369101      0.203525      1.997793
  C       1.641180      1.227157      2.950307
  H       1.559474      0.756844      3.938533
  H       2.653421      1.638757      2.808405
  H       0.918273      2.051874      2.857079
  O       1.591060      1.730270      0.368136
  C       1.135093     -0.144003     -1.702529
  H       2.140439      0.226971     -1.948154
  H       0.425258      0.667717     -1.931669
  H       0.938638     -1.012605     -2.345720
  H       0.558255     -2.551276     -0.539877
  O       4.255810     -0.958541     -1.011287
41
Coordinates from ORCA-job orca E -847.148926418834
  O       3.274393     -2.704024     -1.954881
  C       3.905520     -2.271952     -1.005006
  C       4.268724     -3.089313      0.154458
  C       4.842457     -2.465716      1.384845
  H       4.357738     -2.897030      2.280517
  H       5.911012     -2.756996      1.469471
  C       4.723308     -0.940797      1.371830
  H       5.368454     -0.504109      2.148730
  H       3.689221     -0.623638      1.587748
  C       5.125732     -0.412305      0.000476
  H       6.157848     -0.751069     -0.222426
  C       5.053928      1.100126     -0.167749
  C       6.008058      1.887090      0.733093
  H       5.757702      1.710025      1.794288
  H       7.040561      1.513475      0.599596
  C       5.964126      3.389925      0.454355
  H       6.646672      3.945702      1.117150
  H       4.947424      3.789825      0.603837
  H       6.253659      3.610605     -0.586627
  H       4.016521      1.431352      0.000286
  H       5.277341      1.321308     -1.225476
  C       3.982502     -4.548004      0.115503
  H       3.169851     -4.803769      0.823718
  H       4.863338     -5.134274      0.435545
  H       3.672782     -4.863364     -0.889359
  C       0.728369     -1.743016      0.186044
  H       0.673753     -1.968469      1.252792
  C       1.052981     -0.518540     -0.255182
  C       1.356873      0.586555      0.700073
  O       1.374026      0.198523      1.996387
  C       1.645909      1.221646      2.949872
  H       1.564570      0.750525      3.937723
  H       2.657744      1.634068      2.808192
  H       0.922642      2.046158      2.857498
  O       1.593583      1.727122      0.366657
  C       1.137237     -0.148521     -1.706783
  H       2.143769      0.221655     -1.951468
  H       0.428012      0.662646     -1.940246
  H       0.938039     -1.018160     -2.345895
  H       0.544746     -2.553974     -0.522919
  O       4.257934     -0.961740     -1.009073
41
Coordinates from ORCA-job orca E -847.148985872408
  O       3.272993     -2.707465     -1.952249
  C       3.904141     -2.273093     -1.005032
  C       4.267474     -3.086137      0.152925
  C       4.839898     -2.464328      1.386251
  H       4.351724     -2.893767      2.280791
  H       5.907202     -2.759203      1.473785
  C       4.726251     -0.940386      1.371583
  H       5.371727     -0.503161      2.148220
  H       3.694048     -0.625444      1.586921
  C       5.127813     -0.412051      0.000506
  H       6.159371     -0.751744     -0.223592
  C       5.055528      1.100692     -0.167683
  C       6.009305      1.887986      0.733032
  H       5.759447      1.710205      1.794268
  H       7.042058      1.515297      0.599001
  C       5.963868      3.390844      0.454874
  H       6.646163      3.946957      1.117634
  H       4.946856      3.789739      0.604905
  H       6.252794      3.612210     -0.586137
  H       4.017154      1.430799      0.000194
  H       5.278987      1.322120     -1.225286
  C       3.983171     -4.545630      0.114636
  H       3.170594     -4.802736      0.822457
  H       4.864685     -5.130595      0.435451
  H       3.675148     -4.861782     -0.890165
  C       0.725796     -1.743426      0.188594
  H       0.671075     -1.965476      1.255789
  C       1.053483     -0.519442     -0.256514
  C       1.357534      0.585156      0.699017
  O       1.375313      0.196120      1.994957
  C       1.646614      1.218755      2.949204
  H       1.565184      0.747006      3.936744
  H       2.658389      1.631246      2.807852
  H       0.923315      2.043307      2.857333
  O       1.594310      1.725857      0.365887
  C       1.137875     -0.148316     -1.708998
  H       2.145042      0.221310     -1.952268
  H       0.428755      0.662421     -1.943870
  H       0.936018     -1.018074     -2.347013
  H       0.533987     -2.554622     -0.517798
  O       4.257972     -0.961597     -1.008613
41
Coordinates from ORCA-job orca E -847.149006755603
  O       3.271289     -2.708201     -1.951601
  C       3.902383     -2.273041     -1.005097
  C       4.266610     -3.084239      0.152885
  C       4.839774     -2.464085      1.387038
  H       4.349233     -2.891829      2.280981
  H       5.905869     -2.763087      1.475487
  C       4.729887     -0.940173      1.371045
  H       5.375956     -0.502195      2.146765
  H       3.697116     -0.626629      1.586640
  C       5.129251     -0.411920     -0.000403
  H       6.160030     -0.752283     -0.226960
  C       5.056332      1.100946     -0.167814
  C       6.009901      1.888248      0.733009
  H       5.760620      1.709654      1.794244
  H       7.042821      1.516292      0.598302
  C       5.963344      3.391217      0.455681
  H       6.645580      3.947409      1.118438
  H       4.946131      3.789331      0.606390
  H       6.251644      3.613344     -0.585341
  H       4.017562      1.429894      0.000125
  H       5.279583      1.322994     -1.225314
  C       3.984124     -4.544633      0.116693
  H       3.172307     -4.802196      0.825156
  H       4.866554     -5.127853      0.438180
  H       3.676644     -4.862830     -0.887570
  C       0.724299     -1.743189      0.188159
  H       0.669346     -1.963135      1.255660
  C       1.053541     -0.519829     -0.258352
  C       1.357920      0.584067      0.698144
  O       1.375948      0.194266      1.993799
  C       1.646669      1.216415      2.948708
  H       1.565055      0.744076      3.935956
  H       2.658497      1.628722      2.807660
  H       0.923428      2.041053      2.857263
  O       1.594848      1.724948      0.365640
  C       1.138161     -0.146952     -1.710501
  H       2.145846      0.222247     -1.951988
  H       0.428989      0.663581     -1.945742
  H       0.934317     -1.016233     -2.348630
  H       0.524869     -2.554101     -0.516770
  O       4.256786     -0.960525     -1.008373
41
Coordinates from ORCA-job orca E -847.149012769610
  O       3.270021     -2.707715     -1.951251
  C       3.900674     -2.272413     -1.004571
  C       4.265933     -3.082954      0.153806
  C       4.840848     -2.464054      1.387689
  H       4.348664     -2.890290      2.281421
  H       5.905839     -2.767003      1.476007
  C       4.733265     -0.939869      1.370807
  H       5.379893     -0.500899      2.145374
  H       3.699605     -0.627721      1.586859
  C       5.130045     -0.411924     -0.001379
  H       6.159951     -0.752975     -0.230783
  C       5.056840      1.101007     -0.167948
  C       6.010215      1.888424      0.732964
  H       5.761409      1.709343      1.794207
  H       7.043272      1.517030      0.597744
  C       5.962837      3.391475      0.456151
  H       6.645061      3.947791      1.118824
  H       4.945478      3.789010      0.607371
  H       6.250618      3.614076     -0.584913
  H       4.017851      1.428705      0.000151
  H       5.279711      1.323689     -1.225402
  C       3.984714     -4.543947      0.119508
  H       3.173883     -4.801536      0.829026
  H       4.868073     -5.125655      0.441136
  H       3.676918     -4.864120     -0.884098
  C       0.723187     -1.742980      0.186177
  H       0.667985     -1.961743      1.253902
  C       1.053247     -0.520096     -0.260290
  C       1.358448      0.582972      0.697430
  O       1.376444      0.192482      1.992822
  C       1.646646      1.214101      2.948390
  H       1.564763      0.741125      3.935316
  H       2.658604      1.626095      2.807690
  H       0.923515      2.038863      2.857339
  O       1.595505      1.724065      0.365703
  C       1.138375     -0.145311     -1.711641
  H       2.146630      0.223441     -1.951023
  H       0.429259      0.665285     -1.946788
  H       0.933265     -1.013764     -2.350634
  H       0.516796     -2.553240     -0.517787
  O       4.254773     -0.959222     -1.007717
41
Coordinates from ORCA-job orca E -847.149013644820
  O       3.269803     -2.707099     -1.950784
  C       3.899925     -2.271859     -1.003655
  C       4.265624     -3.082571      0.154883
  C       4.842097     -2.463973      1.388064
  H       4.349759     -2.889644      2.282022
  H       5.906686     -2.768459      1.475622
  C       4.734703     -0.939620      1.371131
  H       5.381557     -0.499996      2.145048
  H       3.700601     -0.628397      1.587459
  C       5.130052     -0.411964     -0.001632
  H       6.159465     -0.753456     -0.232585
  C       5.057012      1.101008     -0.167894
  C       6.010231      1.888675      0.732938
  H       5.761436      1.709866      1.794214
  H       7.043328      1.517331      0.597801
  C       5.962762      3.391666      0.455750
  H       6.644891      3.948213      1.118326
  H       4.945347      3.789141      0.606786
  H       6.250605      3.614024     -0.585347
  H       4.017905      1.427951      0.000322
  H       5.279563      1.323923     -1.225373
  C       3.984467     -4.543555      0.120959
  H       3.174194     -4.800950      0.831168
  H       4.868196     -5.124940      0.442109
  H       3.675930     -4.864225     -0.882305
  C       0.722679     -1.743058      0.184413
  H       0.667425     -1.961847      1.252172
  C       1.052817     -0.520178     -0.261253
  C       1.358869      0.582314      0.697163
  O       1.376621      0.191375      1.992377
  C       1.646609      1.212607      2.948405
  H       1.564473      0.739164      3.935088
  H       2.658687      1.624367      2.808029
  H       0.923579      2.037472      2.857570
  O       1.596005      1.723536      0.365938
  C       1.138517     -0.144378     -1.712104
  H       2.147192      0.224018     -1.950128
  H       0.429706      0.666568     -1.947018
  H       0.933280     -1.012181     -2.352005
  H       0.513266     -2.552793     -0.519313
  O       4.253196     -0.958525     -1.006769
41
Coordinates from ORCA-job orca E -847.148050158323
  O       3.259832     -2.703802     -1.948332
  C       3.905693     -2.276401     -0.998193
  C       4.296472     -3.104724      0.160685
  C       4.868265     -2.475584      1.386713
  H       4.386615     -2.910514      2.282148
  H       5.938584     -2.761316      1.469826
  C       4.735939     -0.947116      1.373063
  H       5.381981     -0.506405      2.147043
  H       3.687445     -0.626349      1.591792
  C       5.128059     -0.417715     -0.002064
  H       6.158413     -0.755651     -0.234084
  C       5.052322      1.093104     -0.168158
  C       6.006737      1.878751      0.733173
  H       5.757642      1.699684      1.794335
  H       7.039264      1.505892      0.597835
  C       5.961599      3.381983      0.456895
  H       6.644573      3.937074      1.119824
  H       4.944795      3.780940      0.608149
  H       6.249810      3.604528     -0.584061
  H       4.015821      1.424021      0.000226
  H       5.275131      1.315891     -1.225609
  C       4.033329     -4.569107      0.123812
  H       3.232185     -4.838516      0.840083
  H       4.926653     -5.141217      0.435350
  H       3.718405     -4.889635     -0.877532
  C       0.659921     -1.712627      0.171578
  H       0.584831     -1.938224      1.236916
  C       1.021205     -0.500226     -0.260652
  C       1.345492      0.599142      0.698116
  O       1.361901      0.209690      1.995436
  C       1.642645      1.229752      2.949178
  H       1.558032      0.758972      3.936932
  H       2.657598      1.634413      2.807547
  H       0.925908      2.060012      2.857246
  O       1.597172      1.736760      0.366693
  C       1.128086     -0.133220     -1.706822
  H       2.140238      0.224812     -1.943571
  H       0.431511      0.687181     -1.946016
  H       0.922785     -1.000758     -2.348589
  H       0.465105     -2.519756     -0.545116
  O       4.251065     -0.964190     -1.004207
41
Coordinates from ORCA-job orca E -847.148678585174
  O       3.263500     -2.712908     -1.935921
  C       3.906901     -2.279861     -0.994716
  C       4.294154     -3.097630      0.156806
  C       4.860263     -2.470330      1.389423
  H       4.373234     -2.903546      2.283024
  H       5.929491     -2.757194      1.479098
  C       4.734620     -0.945996      1.374972
  H       5.378809     -0.505195      2.150272
  H       3.699648     -0.631863      1.589785
  C       5.129883     -0.417700      0.001701
  H       6.160172     -0.757457     -0.227902
  C       5.055965      1.094353     -0.167070
  C       6.009106      1.883078      0.733337
  H       5.759243      1.706031      1.794624
  H       7.042146      1.510971      0.599738
  C       5.962775      3.385732      0.454019
  H       6.644529      3.942868      1.116490
  H       4.945421      3.783958      0.603481
  H       6.251779      3.606484     -0.587096
  H       4.017810      1.423510      0.000534
  H       5.278960      1.315973     -1.224809
  C       4.029289     -4.560312      0.113837
  H       3.226275     -4.831675      0.827193
  H       4.921446     -5.134449      0.424371
  H       3.716459     -4.876203     -0.889937
  C       0.654133     -1.714809      0.181608
  H       0.579783     -1.934569      1.248326
  C       1.023036     -0.502906     -0.259879
  C       1.348450      0.595285      0.696798
  O       1.365840      0.203204      1.992407
  C       1.645551      1.222107      2.947959
  H       1.560640      0.749800      3.934950
  H       2.660281      1.627768      2.807441
  H       0.928435      2.052204      2.857053
  O       1.599744      1.733163      0.365388
  C       1.131329     -0.137815     -1.710931
  H       2.144759      0.218881     -1.946327
  H       0.435554      0.682087     -1.954968
  H       0.924429     -1.006477     -2.349025
  H       0.451663     -2.521317     -0.527440
  O       4.253557     -0.967693     -1.001024
41
Coordinates from ORCA-job orca E -847.148735020721
  O       3.262615     -2.716258     -1.932664
  C       3.905610     -2.280917     -0.994082
  C       4.292563     -3.094585      0.156026
  C       4.858716     -2.469085      1.390567
  H       4.369568     -2.900697      2.283687
  H       5.926965     -2.759085      1.481725
  C       4.737466     -0.945684      1.374875
  H       5.382082     -0.504196      2.149717
  H       3.703887     -0.633799      1.589583
  C       5.131565     -0.417456      0.001707
  H       6.161297     -0.757940     -0.229435
  C       5.057486      1.094993     -0.166905
  C       6.010201      1.884200      0.733275
  H       5.760672      1.706803      1.794629
  H       7.043495      1.512914      0.599398
  C       5.962480      3.386801      0.454090
  H       6.643888      3.944429      1.116490
  H       4.944808      3.784109      0.603810
  H       6.251086      3.607922     -0.587064
  H       4.018513      1.423023      0.000639
  H       5.280349      1.316811     -1.224580
  C       4.029068     -4.557899      0.113483
  H       3.226282     -4.830356      0.826700
  H       4.921794     -5.131175      0.424280
  H       3.717312     -4.874191     -0.890148
  C       0.651459     -1.714669      0.183449
  H       0.577600     -1.931563      1.250505
  C       1.023886     -0.503460     -0.261178
  C       1.349339      0.593861      0.695847
  O       1.366869      0.200600      1.990719
  C       1.645966      1.218604      2.947580
  H       1.560711      0.745263      3.934045
  H       2.660733      1.624088      2.807651
  H       0.929039      2.048950      2.857504
  O       1.601109      1.731939      0.365002
  C       1.132167     -0.137676     -1.713390
  H       2.146361      0.218156     -1.946970
  H       0.436641      0.681863     -1.958901
  H       0.923605     -1.006376     -2.350852
  H       0.440496     -2.521082     -0.523184
  O       4.253309     -0.967630     -1.000040
41
Coordinates from ORCA-job orca E -847.148755680546
  O       3.261087     -2.717277     -1.931565
  C       3.903745     -2.280916     -0.993694
  C       4.291338     -3.092589      0.156575
  C       4.859168     -2.468635      1.391421
  H       4.368870     -2.898802      2.284502
  H       5.926483     -2.762148      1.482413
  C       4.740875     -0.945340      1.374623
  H       5.386148     -0.502804      2.148343
  H       3.706780     -0.635256      1.590045
  C       5.132520     -0.417206      0.000942
  H       6.161491     -0.758243     -0.232786
  C       5.058142      1.095405     -0.166931
  C       6.010732      1.884694      0.733130
  H       5.761732      1.706808      1.794531
  H       7.044168      1.514017      0.598705
  C       5.962017      3.387334      0.454386
  H       6.643378      3.945145      1.116685
  H       4.944169      3.783983      0.604629
  H       6.250083      3.608929     -0.586817
  H       4.018813      1.422251      0.000791
  H       5.280607      1.317695     -1.224577
  C       4.029335     -4.556727      0.116099
  H       3.227481     -4.829472      0.830195
  H       4.922911     -5.128524      0.427199
  H       3.717690     -4.874868     -0.886904
  C       0.649586     -1.714347      0.182026
  H       0.576018     -1.929829      1.249300
  C       1.024267     -0.503711     -0.263280
  C       1.350210      0.592506      0.695047
  O       1.367577      0.198279      1.989415
  C       1.646172      1.215365      2.947452
  H       1.560579      0.740969      3.933378
  H       2.661080      1.620448      2.807993
  H       0.929476      2.045978      2.858217
  O       1.602520      1.730836      0.365128
  C       1.132568     -0.136122     -1.715315
  H       2.147498      0.218940     -1.946573
  H       0.437189      0.683338     -1.961219
  H       0.922761     -1.004184     -2.353298
  H       0.430121     -2.519828     -0.523324
  O       4.251677     -0.966540     -0.999296
41
Coordinates from ORCA-job orca E -847.148762604903
  O       3.259706     -2.717142     -1.930723
  C       3.901658     -2.280288     -0.992659
  C       4.290248     -3.090951      0.158223
  C       4.860946     -2.468271      1.392361
  H       4.370227     -2.897151      2.285792
  H       5.927395     -2.765354      1.482006
  C       4.744431     -0.944769      1.374760
  H       5.390403     -0.500790      2.146962
  H       3.709402     -0.636862      1.591272
  C       5.132840     -0.416971      0.000133
  H       6.160858     -0.758683     -0.236772
  C       5.058353      1.095718     -0.166959
  C       6.010944      1.885179      0.732849
  H       5.762471      1.707193      1.794337
  H       7.044458      1.514873      0.597974
  C       5.961606      3.387823      0.454140
  H       6.643031      3.945867      1.116184
  H       4.943665      3.784067      0.604765
  H       6.249189      3.609527     -0.587171
  H       4.018802      1.421199      0.001086
  H       5.280152      1.318459     -1.224653
  C       4.029158     -4.555646      0.120086
  H       3.228620     -4.828052      0.835713
  H       4.923641     -5.126086      0.430999
  H       3.716644     -4.875892     -0.882039
  C       0.647913     -1.714163      0.178507
  H       0.574615     -1.929217      1.245907
  C       1.024220     -0.503902     -0.265926
  C       1.351430      0.590784      0.694278
  O       1.368280      0.195408      1.988154
  C       1.646457      1.211363      2.947505
  H       1.560450      0.735642      3.932757
  H       2.661598      1.615915      2.808621
  H       0.930008      2.042273      2.859241
  O       1.604325      1.729417      0.365632
  C       1.133019     -0.133723     -1.717062
  H       2.148866      0.220408     -1.945314
  H       0.438028      0.686060     -1.962814
  H       0.922425     -1.000646     -2.356444
  H       0.419728     -2.518072     -0.526116
  O       4.248849     -0.964992     -0.998001
41
Coordinates from ORCA-job orca E -847.148766577755
  O       3.259257     -2.716717     -1.929864
  C       3.900509     -2.279720     -0.991262
  C       4.289668     -3.090380      0.159970
  C       4.862799     -2.467960      1.393007
  H       4.372810     -2.896462      2.287042
  H       5.929004     -2.766360      1.480912
  C       4.746077     -0.944288      1.375401
  H       5.392407     -0.499321      2.146637
  H       3.710481     -0.637970      1.592704
  C       5.132396     -0.416828      0.000008
  H       6.159821     -0.759041     -0.238747
  C       5.058101      1.095895     -0.166886
  C       6.010743      1.885628      0.732579
  H       5.762391      1.708147      1.794167
  H       7.044239      1.515234      0.597748
  C       5.961458      3.388170      0.453234
  H       6.642893      3.946492      1.115035
  H       4.943511      3.784471      0.603678
  H       6.249050      3.609415     -0.588170
  H       4.018459      1.420573      0.001421
  H       5.279373      1.318708     -1.224689
  C       4.028406     -4.555055      0.122708
  H       3.228803     -4.826959      0.839549
  H       4.923339     -5.125207      0.432815
  H       3.714583     -4.876044     -0.878826
  C       0.647088     -1.714179      0.175386
  H       0.574025     -1.929840      1.242744
  C       1.023854     -0.503850     -0.267596
  C       1.352438      0.589632      0.693850
  O       1.368646      0.193327      1.987405
  C       1.646824      1.208407      2.947654
  H       1.560494      0.731686      3.932400
  H       2.662174      1.612546      2.809248
  H       0.930589      2.039560      2.860054
  O       1.605815      1.728432      0.366161
  C       1.133455     -0.131863     -1.717951
  H       2.150008      0.221473     -1.944104
  H       0.439152      0.688614     -1.963310
  H       0.922824     -0.997826     -2.358688
  H       0.414673     -2.516888     -0.529274
  O       4.246424     -0.964103     -0.996555
41
Coordinates from ORCA-job orca E -847.148781055691
  O       3.259042     -2.716621     -1.928293
  C       3.899438     -2.279286     -0.989067
  C       4.289047     -3.090162      0.162375
  C       4.865273     -2.467487      1.393778
  H       4.377345     -2.896149      2.288914
  H       5.931662     -2.765919      1.478925
  C       4.747115     -0.943736      1.376625
  H       5.393764     -0.497763      2.146923
  H       3.711030     -0.639360      1.594867
  C       5.131287     -0.416596      0.000379
  H       6.158144     -0.759363     -0.240014
  C       5.057356      1.096157     -0.166682
  C       6.010131      1.886309      0.732215
  H       5.761691      1.709887      1.793950
  H       7.043534      1.515491      0.597749
  C       5.961371      3.388648      0.451594
  H       6.642889      3.947328      1.113005
  H       4.943518      3.785373      0.601551
  H       6.249176      3.608899     -0.589961
  H       4.017645      1.420146      0.001947
  H       5.278006      1.318774     -1.224666
  C       4.026963     -4.554533      0.125419
  H       3.228451     -4.825804      0.843728
  H       4.922228     -5.125031      0.433949
  H       3.711098     -4.875519     -0.875508
  C       0.646344     -1.714230      0.171551
  H       0.573639     -1.931288      1.238726
  C       1.023250     -0.503488     -0.269393
  C       1.353645      0.588490      0.693356
  O       1.368942      0.190886      1.986519
  C       1.647574      1.204780      2.947903
  H       1.560831      0.726811      3.932012
  H       2.663224      1.608332      2.810133
  H       0.931749      2.036365      2.861145
  O       1.607828      1.727431      0.366873
  C       1.134090     -0.129571     -1.718974
  H       2.151558      0.222567     -1.942823
  H       0.441143      0.692214     -1.963731
  H       0.923626     -0.994344     -2.361408
  H       0.411051     -2.515628     -0.533625
  O       4.243361     -0.963463     -0.994375
41
Coordinates from ORCA-job orca E -847.148777514079
  O       3.258638     -2.717284     -1.926013
  C       3.898311     -2.279248     -0.986436
  C       4.288317     -3.090190      0.165082
  C       4.867889     -2.466900      1.394626
  H       4.383299     -2.896297      2.291257
  H       5.934928     -2.763952      1.476263
  C       4.747461     -0.943229      1.378194
  H       5.394377     -0.496390      2.147733
  H       3.711006     -0.641001      1.597504
  C       5.129608     -0.416234      0.001172
  H       6.156013     -0.759484     -0.240496
  C       5.056053      1.096509     -0.166399
  C       6.009131      1.887035      0.731740
  H       5.760491      1.711922      1.793644
  H       7.042364      1.515540      0.597771
  C       5.961191      3.389118      0.449563
  H       6.642814      3.948147      1.110571
  H       4.943491      3.786484      0.598851
  H       6.249372      3.608144     -0.592148
  H       4.016327      1.420125      0.002615
  H       5.276084      1.318677     -1.224608
  C       4.025290     -4.554198      0.128179
  H       3.228047     -4.824979      0.848101
  H       4.920851     -5.125370      0.434633
  H       3.707028     -4.874637     -0.872148
  C       0.645681     -1.714053      0.167478
  H       0.573426     -1.933066      1.234333
  C       1.022694     -0.502685     -0.271283
  C       1.354840      0.587589      0.692754
  O       1.369166      0.188328      1.985436
  C       1.648800      1.200732      2.948144
  H       1.561605      0.721367      3.931540
  H       2.664852      1.603504      2.811079
  H       0.933640      2.032992      2.862428
  O       1.610260      1.726629      0.367701
  C       1.134889     -0.126856     -1.720248
  H       2.153406      0.223633     -1.941931
  H       0.443940      0.696811     -1.964234
  H       0.924361     -0.990316     -2.364389
  H       0.409155     -2.514153     -0.538676
  O       4.239961     -0.963211     -0.991794
41
Coordinates from ORCA-job orca E -847.148784084949
  O       3.257593     -2.719199     -1.922461
  C       3.896697     -2.279857     -0.982955
  C       4.287346     -3.090451      0.168614
  C       4.871125     -2.466197      1.395746
  H       4.391928     -2.897063      2.294571
  H       5.939397     -2.760178      1.472317
  C       4.747284     -0.942769      1.380293
  H       5.394529     -0.495029      2.149022
  H       3.710458     -0.643376      1.601183
  C       5.126917     -0.415706      0.002446
  H       6.152884     -0.759353     -0.240523
  C       5.053670      1.096972     -0.166069
  C       6.007454      1.887826      0.730930
  H       5.758826      1.714123      1.793078
  H       7.040445      1.515522      0.597285
  C       5.960404      3.389638      0.447145
  H       6.642311      3.948963      1.107605
  H       4.942927      3.787737      0.595969
  H       6.248769      3.607394     -0.594782
  H       4.014071      1.420633      0.003528
  H       5.272899      1.318329     -1.224621
  C       4.023224     -4.554097      0.132090
  H       3.227885     -4.824378      0.854325
  H       4.919216     -5.126208      0.435601
  H       3.701656     -4.873682     -0.867414
  C       0.645063     -1.713394      0.162062
  H       0.573351     -1.935288      1.228373
  C       1.022312     -0.501092     -0.273956
  C       1.356284      0.586899      0.691808
  O       1.369479      0.185259      1.983810
  C       1.651108      1.195438      2.948357
  H       1.563303      0.714234      3.930803
  H       2.667808      1.596879      2.812124
  H       0.937205      2.028942      2.864243
  O       1.613825      1.726027      0.368824
  C       1.136100     -0.122835     -1.722304
  H       2.156069      0.224997     -1.941622
  H       0.448280      0.703750     -1.965087
  H       0.924768     -0.984529     -2.368474
  H       0.408717     -2.511905     -0.545866
  O       4.235473     -0.963424     -0.988428
41
Coordinates from ORCA-job orca E -847.148793012802
  O       3.255423     -2.722376     -1.917894
  C       3.894418     -2.281286     -0.979088
  C       4.286258     -3.090915      0.172560
  C       4.874504     -2.465599      1.397094
  H       4.402102     -2.898493      2.298473
  H       5.944410     -2.755312      1.467628
  C       4.746619     -0.942526      1.382646
  H       5.394233     -0.493911      2.150593
  H       3.709421     -0.646411      1.605623
  C       5.123309     -0.415110      0.004054
  H       6.148959     -0.758780     -0.240241
  C       5.050019      1.097434     -0.165648
  C       6.005001      1.888439      0.729884
  H       5.756753      1.716037      1.792354
  H       7.037648      1.515203      0.596152
  C       5.958924      3.390003      0.444644
  H       6.641493      3.949466      1.104304
  H       4.941796      3.788957      0.593515
  H       6.247012      3.606549     -0.597612
  H       4.010768      1.421791      0.004733
  H       5.268358      1.317719     -1.224606
  C       4.021580     -4.554438      0.137176
  H       3.228916     -4.824460      0.862440
  H       4.918392     -5.127162      0.437182
  H       3.696139     -4.873427     -0.861216
  C       0.644713     -1.711995      0.155548
  H       0.573411     -1.937335      1.221139
  C       1.022364     -0.498586     -0.277427
  C       1.357724      0.586647      0.690587
  O       1.369849      0.182024      1.981713
  C       1.654482      1.189331      2.948427
  H       1.565971      0.706060      3.929793
  H       2.672073      1.588819      2.812936
  H       0.942502      2.024697      2.866464
  O       1.618146      1.725884      0.370295
  C       1.137662     -0.117371     -1.725093
  H       2.159370      0.226803     -1.942307
  H       0.453832      0.712944     -1.966142
  H       0.924194     -0.976871     -2.373395
  H       0.410010     -2.508678     -0.554909
  O       4.230303     -0.964215     -0.984789
41
Coordinates from ORCA-job orca E -847.148806314410
  O       3.252203     -2.725981     -1.913366
  C       3.891772     -2.283310     -0.975799
  C       4.285428     -3.091555      0.175921
  C       4.877027     -2.465450      1.398457
  H       4.410601     -2.900238      2.301920
  H       5.948379     -2.751265      1.463816
  C       4.745713     -0.942691      1.384644
  H       5.393677     -0.493384      2.151940
  H       3.708214     -0.649436      1.609825
  C       5.119592     -0.414747      0.005544
  H       6.145155     -0.757845     -0.239932
  C       5.045792      1.097616     -0.165248
  C       6.002333      1.888565      0.728740
  H       5.755030      1.716824      1.791546
  H       7.034622      1.514637      0.594208
  C       5.956831      3.390007      0.442803
  H       6.640383      3.949396      1.101516
  H       4.940080      3.789602      0.592525
  H       6.243982      3.605900     -0.599851
  H       4.007097      1.423356      0.005971
  H       5.263320      1.316816     -1.224599
  C       4.021360     -4.555348      0.142367
  H       3.231693     -4.825588      0.870776
  H       4.919466     -5.127720      0.439216
  H       3.692510     -4.874596     -0.854801
  C       0.644936     -1.710007      0.149287
  H       0.573634     -1.938394      1.214170
  C       1.022963     -0.495589     -0.280994
  C       1.358734      0.587055      0.689427
  O       1.370154      0.179604      1.979690
  C       1.658174      1.184083      2.948315
  H       1.568979      0.699095      3.928775
  H       2.676744      1.581276      2.813154
  H       0.948467      2.021596      2.868566
  O       1.621976      1.726443      0.371859
  C       1.139300     -0.111382     -1.727947
  H       2.162612      0.228828     -1.944080
  H       0.459272      0.722556     -1.966980
  H       0.922329     -0.968644     -2.378007
  H       0.412772     -2.505009     -0.563868
  O       4.225754     -0.965528     -0.981917
41
Coordinates from ORCA-job orca E -847.148812710134
  O       3.248435     -2.729071     -1.909544
  C       3.889154     -2.285453     -0.973398
  C       4.285148     -3.092331      0.178268
  C       4.878490     -2.465794      1.399706
  H       4.415600     -2.901741      2.304331
  H       5.950674     -2.749396      1.461938
  C       4.745004     -0.943206      1.386031
  H       5.393297     -0.493325      2.152746
  H       3.707302     -0.651968      1.613232
  C       5.116493     -0.414796      0.006628
  H       6.142181     -0.756813     -0.239847
  C       5.041835      1.097421     -0.164890
  C       5.999933      1.888285      0.727692
  H       5.753978      1.716612      1.790830
  H       7.031942      1.514071      0.591835
  C       5.954433      3.389706      0.441706
  H       6.639106      3.948950      1.099378
  H       4.938016      3.789597      0.592889
  H       6.240125      3.605449     -0.601379
  H       4.003788      1.424872      0.007098
  H       5.258698      1.315803     -1.224555
  C       4.022537     -4.556636      0.146787
  H       3.235762     -4.827398      0.878071
  H       4.922252     -5.127774      0.441152
  H       3.691050     -4.877028     -0.849153
  C       0.645809     -1.707920      0.143991
  H       0.574026     -1.938451      1.208327
  C       1.023975     -0.492689     -0.284101
  C       1.359275      0.587904      0.688597
  O       1.370332      0.178243      1.978155
  C       1.661427      1.180457      2.948108
  H       1.571654      0.694370      3.927967
  H       2.680913      1.575343      2.812791
  H       0.953925      2.020015      2.870240
  O       1.624489      1.727546      0.373370
  C       1.140841     -0.105725     -1.730290
  H       2.165379      0.230822     -1.946521
  H       0.463739      0.731140     -1.967240
  H       0.919474     -0.960891     -2.381659
  H       0.416008     -2.501534     -0.571495
  O       4.222559     -0.967115     -0.980197
41
Coordinates from ORCA-job orca E -847.148817449293
  O       3.244967     -2.730897     -1.906729
  C       3.887004     -2.287105     -0.971715
  C       4.285321     -3.093191      0.179661
  C       4.878912     -2.466479      1.400813
  H       4.416623     -2.902618      2.305614
  H       5.951189     -2.749922      1.462331
  C       4.744622     -0.943904      1.386913
  H       5.393227     -0.493551      2.153091
  H       3.706860     -0.653646      1.615601
  C       5.114488     -0.415254      0.007306
  H       6.140398     -0.756127     -0.239859
  C       5.039046      1.096890     -0.164573
  C       5.998344      1.887845      0.726838
  H       5.753810      1.716001      1.790273
  H       7.030205      1.513744      0.589568
  C       5.952329      3.389260      0.441012
  H       6.637973      3.948511      1.097669
  H       4.936123      3.789095      0.593746
  H       6.236437      3.605065     -0.602493
  H       4.001552      1.425828      0.007955
  H       5.255399      1.314799     -1.224448
  C       4.024708     -4.558016      0.149424
  H       3.240123     -4.829713      0.882667
  H       4.926060     -5.127434      0.442144
  H       3.691765     -4.879740     -0.845628
  C       0.647007     -1.706223      0.140331
  H       0.574499     -1.937810      1.204367
  C       1.024964     -0.490410     -0.286197
  C       1.359460      0.588900      0.688232
  O       1.370267      0.177909      1.977350
  C       1.663482      1.178761      2.947982
  H       1.573224      0.692206      3.927570
  H       2.683682      1.571723      2.812260
  H       0.957673      2.019842      2.871279
  O       1.625360      1.728865      0.374571
  C       1.142032     -0.101319     -1.731689
  H       2.167316      0.232420     -1.948837
  H       0.466716      0.737494     -1.966821
  H       0.916493     -0.954751     -2.383989
  H       0.418490     -2.498926     -0.576596
  O       4.220910     -0.968572     -0.979404
41
Coordinates from ORCA-job orca E -847.148820117886
  O       3.241744     -2.731794     -1.904177
  C       3.885177     -2.288255     -0.970055
  C       4.285801     -3.094132      0.180726
  C       4.878936     -2.467234      1.401949
  H       4.415471     -2.902910      2.306401
  H       5.950862     -2.751726      1.464246
  C       4.744501     -0.944630      1.387686
  H       5.393473     -0.493804      2.153254
  H       3.706775     -0.654837      1.617543
  C       5.113184     -0.415945      0.007848
  H       6.139316     -0.755834     -0.239809
  C       5.037183      1.096165     -0.164218
  C       5.997322      1.887452      0.726131
  H       5.754050      1.715644      1.789869
  H       7.029116      1.513595      0.587691
  C       5.950624      3.388803      0.440139
  H       6.637042      3.948308      1.095766
  H       4.934540      3.788476      0.594143
  H       6.233300      3.604471     -0.603780
  H       4.000096      1.426207      0.008697
  H       5.253069      1.313807     -1.224263
  C       4.027262     -4.559361      0.150725
  H       3.244406     -4.832329      0.885318
  H       4.930167     -5.127085      0.441975
  H       3.693345     -4.882029     -0.843717
  C       0.648390     -1.704910      0.137597
  H       0.575231     -1.937016      1.201489
  C       1.025811     -0.488571     -0.287613
  C       1.359518      0.589869      0.688143
  O       1.369956      0.177962      1.976944
  C       1.664572      1.177969      2.947972
  H       1.573802      0.691204      3.927409
  H       2.685366      1.569258      2.811874
  H       0.960066      2.020188      2.871917
  O       1.625143      1.730235      0.375608
  C       1.142959     -0.097700     -1.732476
  H       2.168762      0.233663     -1.950904
  H       0.468975      0.742692     -1.965854
  H       0.913578     -0.949472     -2.385708
  H       0.420169     -2.497005     -0.580091
  O       4.220002     -0.969840     -0.978808
41
Coordinates from ORCA-job orca E -847.148818486698
  O       3.238844     -2.732163     -1.901579
  C       3.883627     -2.288944     -0.968182
  C       4.286346     -3.095079      0.181804
  C       4.879066     -2.467831      1.403060
  H       4.414041     -2.902799      2.307130
  H       5.950543     -2.753545      1.466570
  C       4.744606     -0.945216      1.388470
  H       5.394052     -0.493907      2.153335
  H       3.706998     -0.655706      1.619262
  C       5.112336     -0.416647      0.008325
  H       6.138589     -0.755961     -0.239679
  C       5.036079      1.095448     -0.163892
  C       5.996714      1.887221      0.725552
  H       5.754368      1.715686      1.789552
  H       7.028501      1.513613      0.586370
  C       5.949383      3.388475      0.439126
  H       6.636271      3.948378      1.093925
  H       4.933347      3.787964      0.593911
  H       6.231069      3.603850     -0.605127
  H       3.999208      1.426036      0.009301
  H       5.251499      1.312934     -1.224081
  C       4.029500     -4.560533      0.151219
  H       3.247957     -4.834850      0.886713
  H       4.933653     -5.127061      0.440974
  H       3.694729     -4.883419     -0.842873
  C       0.649680     -1.704011      0.135440
  H       0.576229     -1.936510      1.199258
  C       1.026432     -0.487155     -0.288614
  C       1.359614      0.590675      0.688085
  O       1.369559      0.178035      1.976643
  C       1.665011      1.177486      2.948016
  H       1.573678      0.690528      3.927305
  H       2.686298      1.567391      2.811786
  H       0.961448      2.020497      2.872208
  O       1.624413      1.731466      0.376402
  C       1.143514     -0.094824     -1.732999
  H       2.169749      0.234422     -1.952665
  H       0.470893      0.747153     -1.964651
  H       0.910917     -0.944980     -2.387272
  H       0.421070     -2.495728     -0.582520
  O       4.219226     -0.970837     -0.978018
41
Coordinates from ORCA-job orca E -847.148823042987
  O       3.235841     -2.732457     -1.898533
  C       3.882128     -2.289425     -0.965986
  C       4.286897     -3.096019      0.183050
  C       4.879450     -2.468290      1.404199
  H       4.413302     -2.902652      2.308067
  H       5.950612     -2.754745      1.468749
  C       4.744788     -0.945714      1.389388
  H       5.394816     -0.493975      2.153489
  H       3.707334     -0.656441      1.621027
  C       5.111651     -0.417323      0.008884
  H       6.137897     -0.756496     -0.239393
  C       5.035375      1.094740     -0.163572
  C       5.996310      1.887026      0.725052
  H       5.754616      1.715964      1.789277
  H       7.028106      1.513595      0.585458
  C       5.948445      3.388139      0.437970
  H       6.635580      3.948514      1.092102
  H       4.932401      3.787451      0.593147
  H       6.229477      3.603083     -0.606546
  H       3.998575      1.425457      0.009839
  H       5.250319      1.312054     -1.223902
  C       4.031601     -4.561614      0.151365
  H       3.251286     -4.837492      0.887589
  H       4.936834     -5.127348      0.439334
  H       3.695834     -4.883989     -0.842543
  C       0.650924     -1.703251      0.133480
  H       0.577621     -1.936277      1.197222
  C       1.026878     -0.485828     -0.289519
  C       1.359664      0.591508      0.687896
  O       1.369057      0.178120      1.976228
  C       1.665052      1.177061      2.948062
  H       1.572991      0.689797      3.927130
  H       2.686823      1.565707      2.812057
  H       0.962306      2.020725      2.872233
  O       1.623441      1.732734      0.376999
  C       1.143622     -0.092208     -1.733567
  H       2.170348      0.234776     -1.954454
  H       0.472808      0.751737     -1.963314
  H       0.908015     -0.940660     -2.389002
  H       0.421815     -2.494749     -0.584521
  O       4.218221     -0.971686     -0.976847
41
Coordinates from ORCA-job orca E -847.148824399895
  O       3.233925     -2.732508     -1.896354
  C       3.881346     -2.289472     -0.964516
  C       4.287344     -3.096476      0.183824
  C       4.880097     -2.468440      1.404770
  H       4.413787     -2.902573      2.308713
  H       5.951218     -2.754890      1.469674
  C       4.745221     -0.945909      1.389937
  H       5.395707     -0.493985      2.153551
  H       3.707890     -0.656705      1.621981
  C       5.111567     -0.417650      0.009178
  H       6.137658     -0.757161     -0.239329
  C       5.035404      1.094374     -0.163428
  C       5.996232      1.886979      0.724925
  H       5.754535      1.716336      1.789225
  H       7.028059      1.513563      0.585509
  C       5.948258      3.387995      0.437302
  H       6.635231      3.948658      1.091353
  H       4.932147      3.787250      0.592183
  H       6.229443      3.602604     -0.607242
  H       3.998474      1.424609      0.010060
  H       5.250084      1.311645     -1.223818
  C       4.032453     -4.562041      0.151333
  H       3.252694     -4.838686      0.887882
  H       4.938001     -5.127860      0.438140
  H       3.695905     -4.883566     -0.842570
  C       0.651657     -1.703026      0.132521
  H       0.578932     -1.936491      1.196232
  C       1.027017     -0.485251     -0.290023
  C       1.359590      0.591934      0.687604
  O       1.368788      0.178093      1.975823
  C       1.664638      1.176796      2.948058
  H       1.571983      0.689235      3.926921
  H       2.686662      1.564939      2.812607
  H       0.962171      2.020646      2.871912
  O       1.622471      1.733456      0.377092
  C       1.143111     -0.090998     -1.733998
  H       2.170173      0.234476     -1.955719
  H       0.473792      0.754506     -1.962347
  H       0.905781     -0.938354     -2.390208
  H       0.422146     -2.494543     -0.585304
  O       4.217465     -0.971957     -0.975866
41
Coordinates from ORCA-job orca E -847.147862396479
  O       3.215993     -2.728641     -1.894458
  C       3.881395     -2.301715     -0.958964
  C       4.320179     -3.117490      0.190282
  C       4.908710     -2.476638      1.401760
  H       4.456743     -2.920797      2.308287
  H       5.986259     -2.740558      1.460010
  C       4.742856     -0.952905      1.390095
  H       5.392831     -0.497805      2.152265
  H       3.692945     -0.654421      1.625668
  C       5.107818     -0.426659      0.007419
  H       6.134813     -0.762972     -0.241723
  C       5.029568      1.083917     -0.163738
  C       5.992188      1.872906      0.725904
  H       5.749955      1.701265      1.789923
  H       7.023138      1.497226      0.586059
  C       5.947843      3.374463      0.440500
  H       6.636080      3.932512      1.095464
  H       4.932669      3.775921      0.595851
  H       6.229666      3.589947     -0.603693
  H       3.995485      1.419408      0.010202
  H       5.244718      1.301727     -1.223922
  C       4.088042     -4.587055      0.159705
  H       3.321043     -4.875723      0.905248
  H       5.005401     -5.139486      0.435632
  H       3.742958     -4.912846     -0.829928
  C       0.591020     -1.672568      0.115637
  H       0.499402     -1.914800      1.176132
  C       0.995605     -0.462415     -0.291068
  C       1.345749      0.610341      0.688256
  O       1.352981      0.196855      1.978011
  C       1.659635      1.194213      2.948891
  H       1.564330      0.709252      3.928798
  H       2.684633      1.574570      2.812186
  H       0.963911      2.043596      2.871873
  O       1.623039      1.747985      0.378397
  C       1.130563     -0.073770     -1.730555
  H       2.160623      0.240058     -1.951018
  H       0.474121      0.781179     -1.961674
  H       0.892134     -0.919683     -2.388988
  H       0.371915     -2.458853     -0.616144
  O       4.210103     -0.979991     -0.974995
41
Coordinates from ORCA-job orca E -847.148484760085
  O       3.222020     -2.740170     -1.879209
  C       3.885126     -2.302697     -0.954948
  C       4.317663     -3.111176      0.186215
  C       4.898792     -2.473647      1.406313
  H       4.438820     -2.916286      2.309726
  H       5.974664     -2.740749      1.473085
  C       4.743991     -0.952174      1.393174
  H       5.392416     -0.497782      2.157096
  H       3.706138     -0.659616      1.624546
  C       5.110148     -0.425068      0.011615
  H       6.136756     -0.763138     -0.236103
  C       5.033346      1.086347     -0.163073
  C       5.994687      1.879184      0.725057
  H       5.751996      1.710021      1.789314
  H       7.026270      1.504542      0.586922
  C       5.948644      3.380005      0.435959
  H       6.635586      3.940626      1.090108
  H       4.932803      3.780466      0.589507
  H       6.231007      3.593310     -0.608524
  H       3.997680      1.419289      0.010133
  H       5.248336      1.302779     -1.223678
  C       4.081922     -4.579194      0.147381
  H       3.311320     -4.869950      0.888196
  H       4.996767     -5.135168      0.423400
  H       3.740410     -4.898867     -0.845857
  C       0.585940     -1.672179      0.126770
  H       0.494970     -1.906918      1.189108
  C       0.998298     -0.465288     -0.290182
  C       1.348970      0.606210      0.686979
  O       1.357335      0.189597      1.974964
  C       1.661779      1.185205      2.948009
  H       1.565700      0.698117      3.926759
  H       2.686365      1.567396      2.813346
  H       0.965218      2.033977      2.871868
  O       1.625474      1.744405      0.377177
  C       1.135033     -0.079738     -1.734058
  H       2.166724      0.233110     -1.953086
  H       0.479371      0.774489     -1.970480
  H       0.894963     -0.927670     -2.388674
  H       0.360856     -2.459505     -0.596787
  O       4.214756     -0.982545     -0.970476
41
Coordinates from ORCA-job orca E -847.148544128565
  O       3.222462     -2.744195     -1.874871
  C       3.884873     -2.301656     -0.954013
  C       4.315567     -3.108195      0.185361
  C       4.896607     -2.473137      1.408111
  H       4.433476     -2.913786      2.310700
  H       5.971335     -2.744533      1.477045
  C       4.748335     -0.951892      1.393486
  H       5.397254     -0.497295      2.157033
  H       3.711567     -0.661532      1.624503
  C       5.112208     -0.424177      0.011713
  H       6.138164     -0.763134     -0.238100
  C       5.035050      1.087373     -0.163133
  C       5.995930      1.880963      0.724543
  H       5.753728      1.711508      1.788917
  H       7.027795      1.507289      0.586031
  C       5.948207      3.381684      0.435417
  H       6.634760      3.942978      1.089368
  H       4.931992      3.781066      0.589289
  H       6.230033      3.595300     -0.609160
  H       3.998420      1.418724      0.010140
  H       5.249778      1.303866     -1.223696
  C       4.080442     -4.576693      0.145953
  H       3.309023     -4.868454      0.885518
  H       4.995159     -5.132477      0.423072
  H       3.741194     -4.896037     -0.847744
  C       0.582916     -1.671476      0.129204
  H       0.492304     -1.902964      1.191965
  C       0.999301     -0.466284     -0.291416
  C       1.349743      0.604481      0.686196
  O       1.358766      0.186703      1.973489
  C       1.661835      1.181305      2.947823
  H       1.565235      0.693047      3.925946
  H       2.686272      1.563924      2.814253
  H       0.965131      2.030042      2.872293
  O       1.626410      1.743031      0.377134
  C       1.136635     -0.080721     -1.736275
  H       2.168925      0.231362     -1.953302
  H       0.481279      0.773135     -1.974419
  H       0.895043     -0.928631     -2.390229
  H       0.350711     -2.458986     -0.591890
  O       4.215196     -0.981975     -0.968664
41
Coordinates from ORCA-job orca E -847.148562367832
  O       3.221824     -2.744885     -1.873776
  C       3.883710     -2.300131     -0.953585
  C       4.314111     -3.106464      0.185776
  C       4.897159     -2.473114      1.408882
  H       4.432740     -2.912005      2.311546
  H       5.970980     -2.748330      1.477662
  C       4.752442     -0.951650      1.393284
  H       5.401960     -0.496448      2.155884
  H       3.715086     -0.662871      1.624721
  C       5.113519     -0.423768      0.010970
  H       6.138640     -0.763406     -0.241569
  C       5.035913      1.087799     -0.163297
  C       5.996553      1.881620      0.724254
  H       5.754900      1.711604      1.788658
  H       7.028593      1.508661      0.585168
  C       5.947652      3.382390      0.435616
  H       6.634074      3.943926      1.089497
  H       4.931212      3.780979      0.590026
  H       6.228921      3.596570     -0.609000
  H       3.998854      1.417740      0.010196
  H       5.250225      1.304648     -1.223854
  C       4.079784     -4.575461      0.147942
  H       3.308371     -4.867105      0.887507
  H       4.994735     -5.130298      0.426215
  H       3.741556     -4.896214     -0.845566
  C       0.580963     -1.671085      0.128366
  H       0.490537     -1.901297      1.191325
  C       0.999589     -0.466812     -0.293196
  C       1.350271      0.603122      0.685566
  O       1.359641      0.184624      1.972460
  C       1.661603      1.178470      2.947782
  H       1.564554      0.689286      3.925401
  H       2.686044      1.561209      2.815051
  H       0.964870      2.027231      2.872759
  O       1.627182      1.741971      0.377441
  C       1.137282     -0.080134     -1.737807
  H       2.170075      0.231197     -1.952806
  H       0.482130      0.773737     -1.976314
  H       0.894619     -0.927298     -2.392284
  H       0.342229     -2.457724     -0.591750
  O       4.213956     -0.980734     -0.967559
41
Coordinates from ORCA-job orca E -847.148571183667
  O       3.221298     -2.744269     -1.873354
  C       3.882428     -2.298524     -0.952802
  C       4.312969     -3.105113      0.186932
  C       4.899180     -2.473118      1.409316
  H       4.434424     -2.910408      2.312554
  H       5.972186     -2.751905      1.476699
  C       4.756436     -0.951345      1.393250
  H       5.406487     -0.495284      2.154741
  H       3.718285     -0.664328      1.625291
  C       5.114566     -0.423577      0.010238
  H       6.138648     -0.763993     -0.245415
  C       5.036650      1.088022     -0.163377
  C       5.996988      1.882196      0.724065
  H       5.755757      1.711906      1.788500
  H       7.029190      1.509830      0.584590
  C       5.947127      3.382976      0.435569
  H       6.633436      3.944841      1.089291
  H       4.930495      3.780910      0.590338
  H       6.227932      3.597428     -0.609111
  H       3.999250      1.416382      0.010361
  H       5.250394      1.305214     -1.223982
  C       4.078741     -4.574303      0.151065
  H       3.307430     -4.865065      0.891040
  H       4.993828     -5.128361      0.430359
  H       3.740785     -4.896775     -0.842043
  C       0.579384     -1.671018      0.126036
  H       0.489123     -1.900837      1.189102
  C       0.999432     -0.467238     -0.295203
  C       1.350984      0.601616      0.684930
  O       1.360430      0.182372      1.971465
  C       1.661231      1.175440      2.947819
  H       1.563625      0.685225      3.924869
  H       2.685750      1.558221      2.816072
  H       0.964463      2.024203      2.873295
  O       1.628137      1.740752      0.377863
  C       1.137627     -0.078891     -1.739066
  H       2.171075      0.231402     -1.951820
  H       0.482929      0.775380     -1.977326
  H       0.894133     -0.924913     -2.394741
  H       0.333979     -2.456222     -0.593606
  O       4.211849     -0.979282     -0.966216
41
Coordinates from ORCA-job orca E -847.148569061975
  O       3.221396     -2.743568     -1.873148
  C       3.882019     -2.297988     -0.952014
  C       4.312668     -3.104749      0.187912
  C       4.900945     -2.473043      1.409383
  H       4.436856     -2.909904      2.313210
  H       5.973740     -2.752870      1.475301
  C       4.757998     -0.951177      1.393561
  H       5.408173     -0.494639      2.154600
  H       3.719515     -0.665181      1.625908
  C       5.114881     -0.423551      0.010189
  H       6.138397     -0.764426     -0.246961
  C       5.036955      1.088096     -0.163252
  C       5.997052      1.882653      0.724059
  H       5.755751      1.712738      1.788524
  H       7.029319      1.510367      0.584786
  C       5.947062      3.383329      0.435004
  H       6.633196      3.945520      1.088628
  H       4.930344      3.781175      0.589450
  H       6.228024      3.597420     -0.609705
  H       3.999369      1.415579      0.010578
  H       5.250321      1.305343     -1.223929
  C       4.077725     -4.573765      0.152714
  H       3.306274     -4.863659      0.892888
  H       4.992619     -5.127933      0.432362
  H       3.739508     -4.896796     -0.840173
  C       0.578904     -1.671234      0.124325
  H       0.488854     -1.901407      1.187377
  C       0.999039     -0.467350     -0.296126
  C       1.351486      0.600804      0.684625
  O       1.360730      0.181086      1.970987
  C       1.660950      1.173725      2.947935
  H       1.562968      0.682893      3.924644
  H       2.685542      1.556507      2.816849
  H       0.964138      2.022467      2.873640
  O       1.628761      1.740048      0.378080
  C       1.137603     -0.077967     -1.739518
  H       2.171522      0.231484     -1.951157
  H       0.483537      0.776917     -1.977305
  H       0.893815     -0.923229     -2.396117
  H       0.330601     -2.455556     -0.595317
  O       4.210505     -0.978605     -0.965208
41
Coordinates from ORCA-job orca E -847.148576700223
  O       3.221663     -2.743204     -1.872679
  C       3.881882     -2.297974     -0.951041
  C       4.312551     -3.104696      0.189004
  C       4.902760     -2.472876      1.409411
  H       4.440056     -2.909804      2.313960
  H       5.975640     -2.752651      1.473536
  C       4.758873     -0.951039      1.394065
  H       5.409056     -0.494148      2.154871
  H       3.720213     -0.665956      1.626653
  C       5.114937     -0.423527      0.010410
  H       6.138037     -0.764781     -0.247751
  C       5.037100      1.088159     -0.163090
  C       5.996961      1.883099      0.724057
  H       5.755461      1.713669      1.788552
  H       7.029278      1.510795      0.585140
  C       5.946971      3.383659      0.434339
  H       6.632883      3.946182      1.087910
  H       4.930177      3.781490      0.588318
  H       6.228223      3.597298     -0.610386
  H       3.999347      1.414918      0.010801
  H       5.250119      1.305329     -1.223855
  C       4.076560     -4.573439      0.153966
  H       3.304750     -4.862464      0.894131
  H       4.991054     -5.128145      0.433843
  H       3.738017     -4.896525     -0.838815
  C       0.578719     -1.671483      0.122728
  H       0.489040     -1.902319      1.185712
  C       0.998563     -0.467281     -0.296809
  C       1.352033      0.600224      0.684310
  O       1.360991      0.180038      1.970528
  C       1.660854      1.172294      2.947997
  H       1.562490      0.680911      3.924393
  H       2.685538      1.555035      2.817574
  H       0.964028      2.021033      2.873862
  O       1.629495      1.739503      0.378153
  C       1.137398     -0.077024     -1.739894
  H       2.171836      0.231289     -1.950772
  H       0.484390      0.778835     -1.977034
  H       0.893200     -0.921548     -2.397326
  H       0.328597     -2.455073     -0.597052
  O       4.209317     -0.978252     -0.964130
