41
Coordinates from ORCA-job orca E -847.149443594419
  O           3.33086673374297     -2.66203206209007     -2.03881830232778
  C           3.91564334245326     -2.23525492500386     -1.05893636044350
  C           4.18970585355686     -3.04597095661357      0.12334487912728
  C           4.77023028210413     -2.44682195653981      1.36359046431705
  H           4.25320401477152     -2.85532950533353      2.25129606693465
  H           5.82278982678671     -2.78784399811482      1.46332973898877
  C           4.71562810354218     -0.91988337923896      1.34884137729114
  H           5.36887072643213     -0.50550720138297      2.13141009854669
  H           3.69157723606449     -0.57631377465598      1.55958281984344
  C           5.14553372614330     -0.39431072683261     -0.01447608818535
  H           6.17912047855054     -0.73831238555227     -0.22118189996110
  C           5.07997565376631      1.12019568913572     -0.17341640823501
  C           6.02841913531479      1.89913709410142      0.73992020914002
  H           5.77159559110850      1.71347202988651      1.79808177516232
  H           7.06110719539682      1.52520832016434      0.60928050962829
  C           5.98848506091506      3.40416588525763      0.47292210851919
  H           6.66836010261229      3.95337777008954      1.14386322534254
  H           4.97180841810959      3.80507650332746      0.62007826146776
  H           6.28410443901925      3.63262831291699     -0.56466215309228
  H           4.03970684785673      1.44763088167400     -0.00983532442640
  H           5.31082342347937      1.34815191654716     -1.22789102737936
  C           3.83987957096798     -4.49198399428269      0.09397066066997
  H           2.98942683815651     -4.69895205860654      0.77307121183221
  H           4.67960857335826     -5.11201936296064      0.45770798824943
  H           3.55739385145601     -4.80970675569014     -0.91786130123116
  C           0.94061604264206     -1.83472334452210      0.24241506353256
  H           0.93904111224152     -2.04537047961741      1.31328928601668
  C           1.13138445192972     -0.59001340105500     -0.22422941307634
  C           1.36809162353236      0.54825908095336      0.71208393523199
  O           1.39409808538904      0.18655437840479      2.01532187758297
  C           1.61745476626316      1.23764200916730      2.95071623276825
  H           1.55519744740140      0.78062657695811      3.94654096266142
  H           2.61035523547460      1.69134889872983      2.80258451086289
  H           0.85847212668652      2.02751293634672      2.84340953669538
  O           1.54657812126779      1.69278991858880      0.35701476801201
  C           1.14078163187401     -0.22574635185983     -1.68033959322205
  H           2.11431794481750      0.20689121627236     -1.95574041231480
  H           0.37288810827313      0.53479974993096     -1.89676733409958
  H           0.97417145068012     -1.11122722871531     -2.30672703916171
  H           0.78622126020834     -2.66845202188637     -0.44717435119602
  O           4.29552556565087     -0.93014329789824     -1.04802056007270
