41
Coordinates from ORCA-job orca E -847.149362020188
  O           3.30444108872118     -2.67830359774813     -2.00211208982607
  C           3.90547142091645     -2.24793837227811     -1.03379899824496
  C           4.21153781836632     -3.05788738568749      0.14188350106537
  C           4.79805964330773     -2.45093353800119      1.37573810367193
  H           4.29591024838519     -2.86606824532716      2.26898182676072
  H           5.85620460177388     -2.77725164152558      1.46420325737298
  C           4.72076907895333     -0.92489865440525      1.35999578008865
  H           5.37119168373433     -0.49895354047688      2.13861492780180
  H           3.69175575621360     -0.59769876710980      1.57356980505091
  C           5.13616668476348     -0.39878599228739     -0.00762590788088
  H           6.16852901555462     -0.74108825518511     -0.22342737181990
  C           5.06808964864743      1.11509084276606     -0.17072239637558
  C           6.02024430619651      1.89772645237529      0.73564191079773
  H           5.76745741359915      1.71664237635499      1.79559461698268
  H           7.05256183911601      1.52348798287896      0.60275727399700
  C           5.97883659231665      3.40161069703003      0.46246389023035
  H           6.66102054451972      3.95387366982622      1.12854925494790
  H           4.96253399768177      3.80266147475603      0.61167684734105
  H           6.27055327060909      3.62578028382157     -0.57716541088277
  H           4.02894618355397      1.44424374251655     -0.00467009159859
  H           5.29489539655944      1.33969060202962     -1.22687627343418
  C           3.88452682943953     -4.50919762922768      0.11305437091123
  H           3.06097929160581     -4.73651534211214      0.81810128897175
  H           4.74679221925273     -5.11661265171279      0.44463239069015
  H           3.57563120197815     -4.82544867343455     -0.89143678874986
  C           0.86329341386444     -1.80493712017929      0.21017226244077
  H           0.84425818845056     -2.02408427645088      1.27915665386970
  C           1.10452232809214     -0.56441894627858     -0.24373077930149
  C           1.36767808906511      0.55728190375875      0.70514983481953
  O           1.38888281810283      0.18020931671776      2.00422544180230
  C           1.63341213749793      1.21673974810593      2.95056008032730
  H           1.56511602379853      0.75006190060048      3.94151742159652
  H           2.63417822048957      1.65357395252010      2.80482148150676
  H           0.88873337845211      2.02144109292483      2.85389904134644
  O           1.57077658162529      1.70181729817135      0.36327237015636
  C           1.14363324523183     -0.18916954428593     -1.69659987255911
  H           2.13131564492766      0.22102165946288     -1.95476377064099
  H           0.39716424716284      0.59110589092285     -1.91798586666094
  H           0.96382404921500     -1.06582252384159     -2.33183527494724
  H           0.69262029462371     -2.62833171744901     -0.48790676850370
  O           4.27654556363197     -0.94016447253543     -1.02998597312190
