41
Coordinates from ORCA-job orca E -847.148644842517
  O           3.41776928336427     -2.60925542583347     -2.13438639497073
  C           3.92935258415569     -2.18549587346399     -1.11365603816050
  C           4.05576779780216     -2.97801270511289      0.10559813456338
  C           4.65045793376782     -2.40480853669559      1.35068622923069
  H           4.09769692403276     -2.77443498897629      2.23355647227484
  H           5.67832567857904     -2.81088818353881      1.46731896496608
  C           4.69098606798792     -0.87837164206682      1.33092936600781
  H           5.36094205548035     -0.50324544662310      2.11934148776947
  H           3.68928667839206     -0.47643675720244      1.53786463557385
  C           5.16813357570008     -0.37015773568708     -0.02336346772125
  H           6.20358255447464     -0.72653898551297     -0.19599100342999
  C           5.12281928511221      1.14549152940976     -0.18409593637478
  C           6.05837785900526      1.91528097958014      0.74999411858814
  H           5.77762721251777      1.73145266702832      1.80234873366891
  H           7.08972828308486      1.53112597065848      0.64063602928730
  C           6.03964607113274      3.42071191843149      0.48305104512807
  H           6.71158174537431      3.96248096921350      1.16787044974609
  H           5.02472785818579      3.83296077816655      0.61001807400040
  H           6.35858554642905      3.64641218243896     -0.54822298352619
  H           4.08117199098182      1.48046336703278     -0.04102319292911
  H           5.37757502179966      1.37149469324849     -1.23331764278419
  C           3.66278152271116     -4.41313221395972      0.07103145380263
  H           2.88144932666151     -4.62654779182211      0.82450417972385
  H           4.52108153373778     -5.06201254151412      0.33067278570996
  H           3.28958093819769     -4.69545323900257     -0.92159080265131
  C           1.20077485443960     -1.93472623208389      0.28976481511974
  H           1.26928870822025     -2.13421034157975      1.36021432945851
  C           1.21795390158979     -0.67944419656832     -0.19029606940227
  C           1.37311429604853      0.48819241995289      0.72609515455659
  O           1.41447984689677      0.15162420072986      2.03568792451883
  C           1.58208691091437      1.22933090638636      2.95239951253381
  H           1.54479483964202      0.78711666638032      3.95610675035714
  H           2.54952241583383      1.73220849715504      2.79453796254264
  H           0.78214775721951      1.97575003523258      2.83254956505213
  O           1.47653287603929      1.63523661038667      0.35048658065013
  C           1.13232780882970     -0.33179333453195     -1.64769778447655
  H           2.05972804091717      0.16589921315034     -1.97091760324802
  H           0.30526759986070      0.37250901343937     -1.83328830723305
  H           0.99928096606064     -1.23173283475360     -2.26123006670365
  H           1.10158406302853     -2.78532730131000     -0.38770832871743
  O           4.35113978578896     -0.89416631018219     -1.08888913250217
