41
Coordinates from ORCA-job orca E -847.167843590793
  O           3.58874092619617     -2.56259011964974     -2.19643686479089
  C           3.90758608723376     -2.00580476988567     -1.17645784394923
  C           3.39073869994719     -2.47422655514443      0.18818983245606
  C           4.04168213466055     -1.77126528721487      1.38874493799774
  H           3.37691918368659     -1.84962892428436      2.26173490370154
  H           4.96925213387000     -2.31274037798031      1.64818774282786
  C           4.40441781914737     -0.31819360521963      1.10556658466111
  H           4.94163456737003      0.11219830940250      1.96508471062735
  H           3.51274126939285      0.30724374622163      0.94518425417497
  C           5.29122954628854     -0.24032686082784     -0.12560525764816
  H           6.23617867384254     -0.78088598054643      0.07680017519771
  C           5.61725471111170      1.17145179655216     -0.59725954755521
  C           6.47670355970175      1.97877022711837      0.37813594297955
  H           5.94077413303981      2.10817578199882      1.33463187574742
  H           7.39285582607972      1.40777312864272      0.61765176278279
  C           6.85877014108202      3.35254740802085     -0.17356504383980
  H           7.47487868212135      3.91854961172189      0.54307833044259
  H           5.96234812400168      3.95603373657958     -0.39376613227279
  H           7.43284828572077      3.26084574089359     -1.11070886684860
  H           4.66886558115961      1.70196662191342     -0.79655915038122
  H           6.13416607896205      1.08611297115790     -1.56797452273080
  C           3.56411780882694     -3.99363563191414      0.28575338438943
  H           3.12502810523173     -4.36684316633228      1.22461980172805
  H           4.63238679688542     -4.26545738020031      0.27871358483619
  H           3.08126836033936     -4.49847342782304     -0.56169628001850
  C           1.74846141051930     -2.19683343234502      0.14548033426800
  H           1.35756847131141     -2.64489329818901      1.06782321200359
  C           1.33184787437740     -0.77723411429872      0.02337996780692
  C           0.99499235555226      0.02215559603297      1.19668262194761
  O           1.04997473313970     -0.68343516810870      2.36037808244622
  C           0.73465858666090      0.04618426966426      3.54021358451759
  H           0.82395058054444     -0.66211375911168      4.37409786086250
  H           1.42870571917162      0.89010924264819      3.68014443298835
  H          -0.28844804811628      0.45104534778869      3.49249290657739
  O           0.70524459729386      1.20592948304763      1.17398746118622
  C           1.31724484433799     -0.09382154072572     -1.30191892902753
  H           2.33517149386306      0.23073439659208     -1.59321045285339
  H           0.68540577244103      0.80444895603521     -1.27487567561912
  H           0.98180838325307     -0.77744266487244     -2.09749723674261
  H           1.39598995635599     -2.76988000119367     -0.72491306036188
  O           4.67309603339443     -0.89700030616439     -1.25672342451510
