41
Coordinates from ORCA-job orca E -847.170279098600
  O           3.53066896042216     -2.51037796110362     -2.20203075029294
  C           3.87944207495219     -1.97278434454981     -1.18184822200841
  C           3.34438358356636     -2.43558052613458      0.18724839511090
  C           4.01571839387890     -1.72824877220608      1.38280239726780
  H           3.35142824120554     -1.78781074169543      2.25745826490774
  H           4.93658847719968     -2.27758209342482      1.64568793154529
  C           4.39829688713079     -0.28345241068054      1.08456363409584
  H           4.92806794493835      0.15335527612754      1.94556237364338
  H           3.51608071520896      0.35060034635418      0.90297530317589
  C           5.30659937747613     -0.23711749618285     -0.13202777827550
  H           6.24081181940952     -0.78524830773529      0.09743084960814
  C           5.66013677594334      1.16154524202475     -0.62320622355403
  C           6.50978620507670      1.97551710443426      0.35513481706122
  H           5.95422689448023      2.13278718369495      1.29618410933254
  H           7.41072237802532      1.39517100809538      0.62772467740466
  C           6.92698690608070      3.33134141576151     -0.21492922545448
  H           7.53446986886092      3.90254822731800      0.50494937633921
  H           6.04609030454755      3.94409374730464     -0.46958014005669
  H           7.52212048644158      3.21138801315702     -1.13561843865109
  H           4.72323237138349      1.70018738522614     -0.85268491230458
  H           6.19580121549863      1.05092802655005     -1.58112244911830
  C           3.57930773079955     -3.95378521817088      0.28252140678466
  H           3.17192523483241     -4.33841513109244      1.23129629232351
  H           4.65521567493561     -4.18887851487012      0.25318950053002
  H           3.09386976891544     -4.47627319551028     -0.55300992285284
  C           1.80199863633263     -2.20296546299260      0.16403398721263
  H           1.39553644676000     -2.65413066712131      1.07988392378186
  C           1.33850556712904     -0.78547759400941      0.05310601593125
  C           0.95556657578075     -0.01139595691696      1.22852708516568
  O           1.00698984029584     -0.72892501991107      2.38539662151979
  C           0.64589243784633     -0.02270519501165      3.56621217214465
  H           0.73513092544879     -0.73858044885033      4.39360307609751
  H           1.31373978447249      0.83751936532860      3.73202446518602
  H          -0.38617870263774      0.35604247560230      3.50002395748067
  O           0.63090747963067      1.16358859061973      1.21378138174686
  C           1.31622168934735     -0.08849299284325     -1.26473578324591
  H           2.32747786153017      0.26261649752664     -1.54872813209790
  H           0.66394135096609      0.79471137193010     -1.23159946090736
  H           1.00251078006316     -0.77140480940730     -2.06981098589533
  H           1.41664680091326     -2.76722847511284     -0.70060088462062
  O           4.70219423491087     -0.90752994152228     -1.26219870606180
