41
Coordinates from ORCA-job orca E -847.139539190621
  O           3.68795419473771     -2.66644412272737     -2.14130663901774
  C           4.00044735410449     -2.07514020553242     -1.12711404144932
  C           3.75299846657840     -2.60478963459668      0.22278852139988
  C           4.15288239580420     -1.82601688232423      1.44196126459107
  H           3.37589344221962     -1.92193604787964      2.21950845176875
  H           5.05935523434393     -2.30326349993209      1.87001586959803
  C           4.44536273119977     -0.35608160431560      1.14758162276509
  H           5.00452611477871      0.09303938762178      1.98263535969395
  H           3.51738314655902      0.22462172691533      1.03903432198476
  C           5.24384597064520     -0.22369389540298     -0.14071590638585
  H           6.20356109940082     -0.76787813843865     -0.03303404165499
  C           5.53182622119065      1.20915912966424     -0.57030875331102
  C           6.48201965947240      1.96952065630712      0.35720394958317
  H           6.04044614511494      2.05083010361274      1.36597637939309
  H           7.41531143355460      1.38935897324099      0.48009499862687
  C           6.81374809432228      3.36938009238231     -0.16006801204626
  H           7.49716593051411      3.90093446613526      0.52113858596751
  H           5.90224214110391      3.98143671053491     -0.26454407098822
  H           7.29552008023593      3.32476110064372     -1.15114814363020
  H           4.57182148573838      1.74900529743267     -0.65700973287301
  H           5.95630185997888      1.16853175529545     -1.58766280553276
  C           3.58316006210895     -4.08450036641682      0.35402455068155
  H           2.99297949758917     -4.34853788615339      1.24639911206087
  H           4.57291395438270     -4.56887037825076      0.46946508998914
  H           3.11473980676693     -4.51378725562023     -0.54164888110007
  C           1.40066949953189     -2.12318451125871      0.03194859845091
  H           1.26845087528025     -2.63183054699030      0.98598589468170
  C           1.21766038010571     -0.78021573504703     -0.05948805051190
  C           1.01670820427206      0.04562203529199      1.15744307539484
  O           1.01575482788324     -0.67299625911679      2.30663253987923
  C           0.82451962240480      0.07244263943819      3.50491452567786
  H           0.84686113327888     -0.65486668328651      4.32655974029783
  H           1.62201012034913      0.82084391486441      3.63567097813645
  H          -0.14149586060982      0.60049932211504      3.48988229179562
  O           0.88139285296523      1.25011749123146      1.14677150259456
  C           1.27392015866389     -0.02431038812052     -1.35451219224008
  H           2.10091030987244      0.70377190257991     -1.34724055122144
  H           0.34887636304257      0.55490981492101     -1.51014014115422
  H           1.42707762571427     -0.70556660574047     -2.20224771345359
  H           1.45614841480539     -2.72861694205997     -0.87313898372080
  O           4.52518894999335     -0.82670893101725     -1.23471856472137
