41
Coordinates from ORCA-job orca E -847.149352432089
  O           3.37131774532115     -2.63723089607943     -2.08562566824362
  C           3.92136513283343     -2.21217183927942     -1.08525095986537
  C           4.12550241887859     -3.01505852854160      0.11628663921297
  C           4.71457197405520     -2.42765348243868      1.35751193061582
  H           4.18133054551227     -2.81756638369049      2.24386532146314
  H           5.75603014103300     -2.79995659269356      1.46401330706320
  C           4.70450791124931     -0.90014955554686      1.33996847687349
  H           5.36681025494698     -0.50360782181473      2.12425388334802
  H           3.69055836892456     -0.52986500915938      1.55037101311955
  C           5.15540268194913     -0.38241107412696     -0.01964653661414
  H           6.19043073335342     -0.73096568172240     -0.21043697647215
  C           5.09736593659261      1.13264448966091     -0.17932161583053
  C           6.04182207617414      1.90834292712469      0.74083653994055
  H           5.77736386163639      1.72325015607225      1.79720945631621
  H           7.07401765876872      1.53087680640086      0.61688758181490
  C           6.00912685619067      3.41354990818444      0.47387094823399
  H           6.68685266829656      3.96010716854957      1.14913117886261
  H           4.99316743416663      3.81854263813403      0.61482737349676
  H           6.31206919575810      3.64108001631420     -0.56180991875430
  H           4.05649835729621      1.46254272353114     -0.02209442394329
  H           5.33609623660707      1.35995416439646     -1.23210567941395
  C           3.74550941082268     -4.45338024595733      0.08823786477781
  H           2.92037251664565     -4.65371507181739      0.79882853337745
  H           4.58858145147097     -5.09155280357519      0.41291012914903
  H           3.42424924927840     -4.75723943066712     -0.91612115081080
  C           1.07344274482220     -1.88610218997324      0.26115797224912
  H           1.10589806724917     -2.09520397315166      1.33173964592746
  C           1.17825750271442     -0.63228662369099     -0.20934550062892
  C           1.37269399630322      0.51902804361719      0.72062419270811
  O           1.40117871789509      0.16655907325522      2.02626761754496
  C           1.59862573262920      1.22833045601346      2.95552828939691
  H           1.54508408499804      0.77616566655366      3.95406253919162
  H           2.58122706938791      1.70350665460612      2.80595730112055
  H           0.82189158695182      1.99985230112723      2.84208368824580
  O           1.51812441329176      1.66594771101368      0.35853711299542
  C           1.14456195606553     -0.27066632434487     -1.66561382920131
  H           2.09737762129347      0.19495904922299     -1.96027984908558
  H           0.34754966063018      0.46351108904181     -1.86679944702996
  H           0.99591047372243     -1.16124273193604     -2.28917898832884
  H           0.95493250864822     -2.72770691390165     -0.42532963942034
  O           4.32138304563332     -0.91346786871070     -1.06841835340257
