41
Coordinates from ORCA-job orca E -847.146202031903
  O           3.71619725991681     -2.66512503902436     -2.16624259197901
  C           3.97484160527203     -2.06562255557891     -1.15101828142378
  C           3.53556006119482     -2.54489561114876      0.20851212065602
  C           4.09559190176995     -1.81639809689437      1.41729837994952
  H           3.40123961498458     -1.91488668362172      2.26569392921622
  H           5.02887171991811     -2.33123500536642      1.71909522127859
  C           4.41655149621998     -0.35206803299486      1.13828304982873
  H           4.96735283136216      0.08182297381008      1.98721598303355
  H           3.50441003155979      0.24956623186363      1.01227728240788
  C           5.25634594702895     -0.23203148492004     -0.12298023956748
  H           6.21599158821676     -0.76448484868150      0.02760623466349
  C           5.54553486790150      1.19619700817774     -0.56709881232833
  C           6.44604039656227      1.98313369842297      0.38774231491703
  H           5.95986374185077      2.07549921184076      1.37468948379000
  H           7.37958088984432      1.41627475970255      0.56059035247292
  C           6.78386041311966      3.37828489025422     -0.13829921748294
  H           7.43112211923233      3.92867134330949      0.56291092753681
  H           5.87084664746929      3.97759790325821     -0.29164451579523
  H           7.30852614246096      3.32354371260869     -1.10680537938668
  H           4.58387259578707      1.72285370052506     -0.70281054343010
  H           6.01413901695548      1.14429255029217     -1.56436439067815
  C           3.55385604354077     -4.05355177317153      0.32956189039429
  H           3.03443445901126     -4.37914411193515      1.24437992969897
  H           4.59541894266263     -4.41753705979272      0.38931192038875
  H           3.08665917421009     -4.52784932960781     -0.54343494018909
  C           1.59233746862778     -2.16424876952651      0.07955382689655
  H           1.27345498947936     -2.64190232570462      1.01009223277188
  C           1.28310830023609     -0.76488315745796     -0.03518569368594
  C           1.04060816904662      0.05605975361808      1.15340803116706
  O           1.07978686762485     -0.65568778224963      2.31300852520008
  C           0.84739515348945      0.08845400064218      3.50298645817857
  H           0.91075816502269     -0.62805227272780      4.33222056012943
  H           1.60080465554960      0.88264596748953      3.62676772262781
  H          -0.14669799961513      0.56204695395017      3.48465345180649
  O           0.83452703106090      1.25575271433271      1.13994089077598
  C           1.30333872100840     -0.06613351477729     -1.35561846165565
  H           2.33237843898572      0.24414449412948     -1.61914471207272
  H           0.68616099158135      0.84263535884075     -1.32930315777206
  H           0.96607452738296     -0.73276723697655     -2.16387884933790
  H           1.39249777212551     -2.75648764217195     -0.81994215178180
  O           4.59581724034087     -0.86493489273792     -1.24243878121983
