41
Coordinates from ORCA-job orca E -847.143154827324
  O           3.65500641632448     -2.64857731891901     -2.12805041367770
  C           4.01115312070435     -2.07284843238821     -1.11700848271183
  C           3.84899022634179     -2.63047453641103      0.22676295826286
  C           4.18913686979495     -1.83723502619158      1.45068052817129
  H           3.38122020805050     -1.94023263613830      2.19653589303622
  H           5.08274162192485     -2.29815712411405      1.92152282863550
  C           4.46525585963768     -0.36307326866124      1.15582225062123
  H           5.02446940749260      0.09222007897303      1.98735351140152
  H           3.52991621203066      0.20726658614091      1.05351434449512
  C           5.25073737870623     -0.21975773012489     -0.13966780623143
  H           6.21304255566390     -0.76232779241479     -0.04639384021054
  C           5.52891925642801      1.21732790386277     -0.56193543460942
  C           6.48933666516430      1.97369619740255      0.35820622023378
  H           6.06219091356160      2.04438714116509      1.37399601793318
  H           7.42681353011895      1.39667893434818      0.46257600078283
  C           6.80738147691903      3.37951076648705     -0.15144049759040
  H           7.49842168537628      3.90811412247620      0.52437109679726
  H           5.89180547203683      3.98840427854997     -0.23716048763451
  H           7.27475105987719      3.34583013860067     -1.14983048885048
  H           4.56607552563698      1.75455674931752     -0.63135638798907
  H           5.93958971885293      1.18578181243980     -1.58527803939564
  C           3.61637567593946     -4.09750263007743      0.35880310414687
  H           2.93744202859659     -4.32651343261633      1.19707482311592
  H           4.57035088476991     -4.61730854895484      0.57831224609259
  H           3.21484243140322     -4.52035390822833     -0.57152772124463
  C           1.28575563629434     -2.12723401962238      0.01337374320751
  H           1.18590755676738     -2.63428634071735      0.97244244283669
  C           1.16911178004285     -0.78766891821355     -0.07678318004443
  C           1.00953237373726      0.04665500717795      1.14629341260085
  O           0.99170131498413     -0.67109275809306      2.29381184932444
  C           0.84729310631735      0.08030219468845      3.49537330303936
  H           0.84430015013191     -0.64900641507325      4.31547206178484
  H           1.68055845962360      0.78993233681570      3.61860327041282
  H          -0.09312323329683      0.65270426884112      3.49088142182445
  O           0.92552516104141      1.25499248151096      1.13598370322024
  C           1.24983606203832     -0.02886594331881     -1.36992052031796
  H           2.08847492374642      0.68467422840715     -1.35141965333523
  H           0.33506335988070      0.56427148113821     -1.53329806913645
  H           1.40029889104740     -0.71156462084510     -2.21688749400944
  H           1.38455264310933     -2.73728862311175     -0.88532487480870
  O           4.51830561317988     -0.81638668410786     -1.22689364017965
