41
Coordinates from ORCA-job orca E -847.149013644820
  O           3.26980275102400     -2.70709881711972     -1.95078432914556
  C           3.89992521140356     -2.27185901869862     -1.00365458119910
  C           4.26562405698448     -3.08257078998068      0.15488256334324
  C           4.84209694217141     -2.46397253132395      1.38806435845895
  H           4.34975895219459     -2.88964430937055      2.28202151907665
  H           5.90668578031197     -2.76845928171064      1.47562244314221
  C           4.73470315893692     -0.93961984915899      1.37113077772432
  H           5.38155709341864     -0.49999553839299      2.14504849565034
  H           3.70060068510847     -0.62839661593574      1.58745949406863
  C           5.13005194265456     -0.41196411442834     -0.00163245045932
  H           6.15946539154909     -0.75345628294818     -0.23258493304360
  C           5.05701247407420      1.10100848865684     -0.16789417973437
  C           6.01023100671277      1.88867482186387      0.73293778850914
  H           5.76143609898596      1.70986602237336      1.79421411689751
  H           7.04332828612504      1.51733148977922      0.59780099301370
  C           5.96276197337277      3.39166600226589      0.45574985062212
  H           6.64489097712017      3.94821303541827      1.11832608448783
  H           4.94534716655133      3.78914082212482      0.60678612883264
  H           6.25060537384061      3.61402429924366     -0.58534741280796
  H           4.01790544636087      1.42795069076434      0.00032200607519
  H           5.27956278343912      1.32392298401585     -1.22537304611904
  C           3.98446704916525     -4.54355506742499      0.12095856109787
  H           3.17419397420282     -4.80094980636780      0.83116800381364
  H           4.86819634679050     -5.12494037542615      0.44210868689799
  H           3.67592953768838     -4.86422507589850     -0.88230467573992
  C           0.72267896401428     -1.74305808697188      0.18441261799356
  H           0.66742465729661     -1.96184719387605      1.25217209166130
  C           1.05281656634824     -0.52017810207731     -0.26125264406051
  C           1.35886864555710      0.58231375130357      0.69716312635722
  O           1.37662121871002      0.19137519722001      1.99237720104335
  C           1.64660865614999      1.21260689753643      2.94840484345794
  H           1.56447296626644      0.73916449880167      3.93508761876172
  H           2.65868713889883      1.62436671442380      2.80802854307196
  H           0.92357891620717      2.03747194849433      2.85757018131353
  O           1.59600543305431      1.72353620321680      0.36593755813400
  C           1.13851679875495     -0.14437840917355     -1.71210400110742
  H           2.14719212322768      0.22401758760678     -1.95012833892316
  H           0.42970611544867      0.66656780577964     -1.94701760850981
  H           0.93327961950853     -1.01218142210741     -2.35200542816259
  H           0.51326610893992     -2.55279311781949     -0.51931254563679
  O           4.25319561142717     -0.95852545467736     -1.00676947885771
