41
Coordinates from ORCA-job orca E -847.146731041540
  O           3.55154686185721     -2.59924327780636     -2.10487983215541
  C           3.98066738709102     -2.07780685463009     -1.09189306448656
  C           3.96933501079266     -2.72730860243797      0.21599221928122
  C           4.31957227124344     -1.98532004769911      1.46658484698185
  H           3.53296706762549     -2.15406460341460      2.22536305662215
  H           5.23686314977339     -2.43957929192778      1.89620617932233
  C           4.53233639974472     -0.48833857518253      1.24069005430982
  H           5.12717571346025     -0.05833449231350      2.06067019618258
  H           3.57328207386667      0.04849910058531      1.22780664768394
  C           5.22380626350773     -0.23800914668829     -0.09164673336345
  H           6.21119459295535     -0.74210527926185     -0.09506448961802
  C           5.40788024018646      1.23420203351501     -0.43867518182717
  C           6.40634978041662      1.97552918114913      0.45285605653615
  H           6.05989800409692      1.96185162041389      1.50131478774374
  H           7.37311443957089      1.43876686333478      0.44556885913073
  C           6.62203421150303      3.42427468117514      0.01451488782031
  H           7.33973129749031      3.94290939558431      0.67002873069137
  H           5.67650648929475      3.99142922930035      0.03724638915635
  H           7.01167596837940      3.47507110900757     -1.01598190051157
  H           4.42008356189944      1.72708566407417     -0.39600376056872
  H           5.73739259382992      1.28592033785988     -1.49009674534178
  C           3.67191517507267     -4.18438112963309      0.29007668023679
  H           2.89701145844157     -4.39749415093330      1.04802943656940
  H           4.57151157197278     -4.74883741498994      0.60495637950251
  H           3.34455658246381     -4.56940997586437     -0.68426672028983
  C           1.09798242820679     -2.12506369235635      0.03957549355645
  H           1.03247211259153     -2.54965428403192      1.04191333209626
  C           1.11785965171666     -0.79528343714815     -0.15157731478294
  C           1.11371824599377      0.14040468664343      1.01015167673340
  O           1.09861999297344     -0.48472153563592      2.20978765084568
  C           1.10930658155199      0.36363918760268      3.35384850742300
  H           1.07055325792586     -0.29868356579097      4.22808344943034
  H           2.02469791992081      0.97602022175861      3.38046775211725
  H           0.24249820866200      1.04215524873165      3.34974751258050
  O           1.15098683381158      1.34654642872901      0.90801229514532
  C           1.19625576582923     -0.14163757564164     -1.50113667392670
  H           2.11272384376264      0.46282409341439     -1.58272666427671
  H           0.34553667713643      0.54206923573656     -1.65481525469988
  H           1.21542507559273     -0.89445166532653     -2.30003031013043
  H           1.12936896356150     -2.80947795664736     -0.81055622640447
  O           4.44264627422482     -0.80044176325405     -1.16255220531599
