41
Coordinates from ORCA-job orca E -847.149458297266
  O           3.34827234168018     -2.65176020028910     -2.06019117288092
  C           3.91842457249601     -2.22647123037200     -1.07119065073297
  C           4.16018974517190     -3.03426353277612      0.12031244762229
  C           4.74961442895316     -2.44147999572977      1.35914144831454
  H           4.22910022735765     -2.84254868819982      2.24814171051097
  H           5.79791710664655     -2.79605896702620      1.45722770610555
  C           4.71313317410933     -0.91431569874913      1.34418329150672
  H           5.37074148060197     -0.50738396055386      2.12707827764250
  H           3.69319461738765     -0.56103231437472      1.55623433559894
  C           5.15082839364274     -0.39036910266336     -0.01735805569633
  H           6.18589793003867     -0.73380876814231     -0.21729401588471
  C           5.08569469007056      1.12447215141772     -0.17523082825250
  C           6.03304633998217      1.90287556481749      0.73968448115339
  H           5.77607418048352      1.71556253855183      1.79752035206439
  H           7.06602631164671      1.52987997151921      0.60880240261922
  C           5.99216050575458      3.40824966891567      0.47469353545259
  H           6.67159512962914      3.95701042625267      1.14644063505718
  H           4.97523330501833      3.80839384340989      0.62227381815442
  H           6.28775487969888      3.63829051825589     -0.56254987438102
  H           4.04502090127971      1.45140689100519     -0.01174882946105
  H           5.31734127544517      1.35352025819983     -1.22925167885806
  C           3.79030837328675     -4.47535912518864      0.09251078796684
  H           2.94250966057120     -4.67236989666464      0.77762386972717
  H           4.62477339305192     -5.10618754831079      0.45030634884125
  H           3.49767870925182     -4.78947577906996     -0.91745851290420
  C           1.01177352326165     -1.85805901256496      0.25071387504798
  H           1.03016429922143     -2.06850835147543      1.32140094256836
  C           1.15707615823857     -0.60751733345864     -0.21748201398962
  C           1.37121136848832      0.53752601073853      0.71592587544603
  O           1.39988417304626      0.18038031803552      2.02032543919682
  C           1.60696831495788      1.23762945052500      2.95269257745233
  H           1.54726571979563      0.78341192749918      3.94994767399573
  H           2.59461768289104      1.70314864345189      2.80601929489531
  H           0.83846395902297      2.01743726497576      2.83998713091415
  O           1.53120274983290      1.68368000236153      0.35736585714812
  C           1.14430426872954     -0.24367332927880     -1.67356789849254
  H           2.10886543041423      0.20254595293426     -1.95951535573689
  H           0.36402540502344      0.50653333473883     -1.88118494156831
  H           0.98332483032142     -1.13088714848890     -2.29889726549090
  H           0.87803316878400     -2.69596997824883     -0.43773601249242
  O           4.30934727471219     -0.92490477597964     -1.05830700818060
