41
Coordinates from ORCA-job orca E -847.153159409435
  O           3.68201418016441     -2.63947936718783     -2.17680547669265
  C           3.95797579195224     -2.05250045688145     -1.16000227995336
  C           3.48583146957192     -2.52575920220475      0.20054771893956
  C           4.08073292271434     -1.80927184203913      1.40686575031705
  H           3.39973853883691     -1.90334225983148      2.26613420169038
  H           5.01373421330036     -2.33374131378042      1.68850999411762
  C           4.41424382004889     -0.34783709530500      1.12906852670492
  H           4.96004949526080      0.08394748705320      1.98235982541782
  H           3.50821715581136      0.26111974617292      0.99274192282707
  C           5.27043841973163     -0.23760987982300     -0.12170175524844
  H           6.22794430480986     -0.76812075463591      0.04696695932171
  C           5.56509313665758      1.18693708272655     -0.57446963547829
  C           6.44641912609523      1.98490058534539      0.38906052582198
  H           5.94098448716034      2.08766031489015      1.36520741958401
  H           7.37680079585532      1.42077098844536      0.58625778938931
  C           6.79346561527132      3.37450694552488     -0.14568523909598
  H           7.42632236114303      3.93324766844302      0.56202255310454
  H           5.88314894338177      3.97113639388717     -0.32349899757249
  H           7.33713252158422      3.30955562690359     -1.10300598284497
  H           4.60499379517627      1.71013461307316     -0.73269387389147
  H           6.05181211474066      1.12671534794318     -1.56254633637837
  C           3.55292889838189     -4.03966887513545      0.31442543110106
  H           3.05594281198961     -4.38104916648255      1.23597368795387
  H           4.60411750962247     -4.37441317092576      0.35527211565704
  H           3.08202785385775     -4.52302672769223     -0.55168642029886
  C           1.64331203133981     -2.17504719226927      0.10061225524263
  H           1.29122150248714     -2.64139688091112      1.02637203494883
  C           1.30241950393633     -0.76369492768419     -0.01750596338973
  C           1.03240947676781      0.05232715403098      1.16498306142421
  O           1.07728147558278     -0.65734384899156      2.32635052704739
  C           0.82160436376954      0.08390819419161      3.51324531471856
  H           0.89392189437956     -0.62964799051159      4.34429968461644
  H           1.55768364798967      0.89363686186100      3.64048524107068
  H          -0.18181692742117      0.53712574802766      3.48724654832787
  O           0.80300489372516      1.24856813987297      1.14912331117890
  C           1.31322376367220     -0.07383033819102     -1.34105782369484
  H           2.34433011942129      0.20570012723392     -1.63133650793588
  H           0.72121488235357      0.85099957769280     -1.30752649945027
  H           0.94175810760312     -0.73661961834687     -2.13819974476786
  H           1.38585084360734     -2.75862626172517     -0.79167569090402
  O           4.62953013766516     -0.88132143276365     -1.24714417292602
