41
Coordinates from ORCA-job orca E -847.145895211474
  O           3.57672923548855     -2.60430981620605     -2.12227957124107
  C           3.98465229390439     -2.07445454673289     -1.10512130496210
  C           3.93487590103147     -2.70923678439001      0.20975899588869
  C           4.28239732673759     -1.96205476410524      1.45831596541804
  H           3.49116455980775     -2.11860111088689      2.21439898752762
  H           5.19446906619331     -2.42091090046353      1.89441996655741
  C           4.51019219712243     -0.46876463179805      1.22420528990609
  H           5.09636417435153     -0.03725998096371      2.04966442259890
  H           3.55553608996719      0.07553186139945      1.19343208127196
  C           5.22401907342590     -0.23545295526308     -0.09925967889142
  H           6.20683572380641     -0.74813521404343     -0.08310883987545
  C           5.42819913824587      1.23172392444342     -0.45620003106794
  C           6.41964236005655      1.97088051052376      0.44495485068033
  H           6.05601995590464      1.97012879453181      1.48767772004489
  H           7.38063026398021      1.42399763577149      0.45827267900487
  C           6.65796132087465      3.41324470376083     -0.00248297674003
  H           7.37077123792221      3.92987078027262      0.65989698321382
  H           5.71855695691679      3.99095709939361      0.00021518453251
  H           7.06450836631746      3.45068686625730     -1.02701034648407
  H           4.44501695026350      1.73507912475311     -0.43416077011562
  H           5.77506373824432      1.27070407879570     -1.50256038651770
  C           3.65673975062520     -4.17029821589491      0.28870808332909
  H           2.90211425566978     -4.39563169062318      1.06269409955910
  H           4.57162249343479     -4.72190331242672      0.58241242463468
  H           3.31687300704204     -4.55932291207051     -0.67984085629729
  C           1.16614554305288     -2.13089388566307      0.04917630672049
  H           1.10796688456185     -2.56324963432466      1.04827575316730
  C           1.13289757978256     -0.79962341125320     -0.13464004145749
  C           1.08845121712305      0.12848864424281      1.03183917118236
  O           1.10056356136136     -0.50368752515027      2.22811147888297
  C           1.07633920872824      0.33815007191343      3.37678223884598
  H           1.07553958714182     -0.32979289523567      4.24759351453883
  H           1.96020311631165      0.99515035317900      3.40107264570420
  H           0.17680110105523      0.97275659390754      3.38169556140744
  O           1.07198615367755      1.33555731908329      0.93650069511622
  C           1.19441771969649     -0.13642680469979     -1.48026564904744
  H           2.09852598376962      0.48717975270421     -1.55988019045702
  H           0.33016694470654      0.53119930867516     -1.62797728463778
  H           1.22722156598195     -0.88322003293242     -2.28443458371289
  H           1.21573954441269     -2.80819885287833     -0.80529497868563
  O           4.45513885130042     -0.80030754560272     -1.17796760954300
