41
Coordinates from ORCA-job orca E -847.161179265723
  O           3.64035375801043     -2.60469035192323     -2.18776617077156
  C           3.93400838921736     -2.03126754447701     -1.16900453676518
  C           3.43788851676545     -2.50318732520762      0.19291686547215
  C           4.06285529550213     -1.79632555845395      1.39712131084800
  H           3.39208382066497     -1.88562417289467      2.26464797704511
  H           4.99435641446394     -2.32941824119436      1.66348816448269
  C           4.40935343056365     -0.33790870445910      1.12027872777163
  H           4.95216451374819      0.09098717006376      1.97698692570938
  H           3.50982917360382      0.27916905053475      0.97523837294786
  C           5.27859179743594     -0.23915397064989     -0.12215132461651
  H           6.23098052332074     -0.77410466007165      0.06001052308540
  C           5.58597678498904      1.18084921483898     -0.58097745822673
  C           6.45738969847400      1.98178509277114      0.38907897400893
  H           5.93867287168648      2.09402483903664      1.35716728062288
  H           7.38225632542022      1.41488821194463      0.60353735968965
  C           6.81840831292323      3.36583904266648     -0.15089316765186
  H           7.44372561001232      3.92694103566101      0.56162181368868
  H           5.91342362776435      3.96519837298629     -0.34590924667966
  H           7.37525505443230      3.29136423204983     -1.09990035473772
  H           4.63044535473641      1.70705156630411     -0.75609918348246
  H           6.08589515954140      1.11169700443367     -1.56184387387899
  C           3.55711321751231     -4.02084573027094      0.29706239685649
  H           3.08772999974420     -4.37971041150913      1.22657614578411
  H           4.61743129705413     -4.32449718243885      0.31433278107979
  H           3.08037250943572     -4.51337643665854     -0.56079215104344
  C           1.69532763218965     -2.18795079829461      0.12430288203869
  H           1.32209261095737     -2.64156319934113      1.04960998228124
  C           1.31803993626401     -0.77067436253108     -0.00013852071496
  C           1.01906333816471      0.04214493032793      1.17541398502367
  O           1.07273033762458     -0.66124353203382      2.34045210096752
  C           0.79205772719750      0.07921808820115      3.52217574155109
  H           0.87581728062928     -0.62860306487241      4.35704844254322
  H           1.50815842279477      0.90654899082676      3.64997849457319
  H          -0.22151460641981      0.50867946917652      3.48766015761359
  O           0.76025407424635      1.23275259126362      1.15271955569475
  C           1.31260966507596     -0.08998599552669     -1.32743732059611
  H           2.33729783943338      0.20669538978900     -1.62412157154027
  H           0.70418342821380      0.82427105795473     -1.29862085436607
  H           0.95281962254420     -0.76570798399719     -2.11915958863642
  H           1.38578541172149     -2.76792627585423     -0.75560908274547
  O           4.64777582233959     -0.88678984817082     -1.25141255492634
