41
Coordinates from ORCA-job orca E -847.148824399895
  O           3.23392540574884     -2.73250821233463     -1.89635437958039
  C           3.88134642711593     -2.28947167387514     -0.96451600298800
  C           4.28734420511080     -3.09647628692076      0.18382423293896
  C           4.88009725418128     -2.46844039654896      1.40477007051909
  H           4.41378695537236     -2.90257323995911      2.30871317721785
  H           5.95121815148330     -2.75488983851160      1.46967381964411
  C           4.74522121709117     -0.94590892984717      1.38993661100237
  H           5.39570672894114     -0.49398476850231      2.15355125168188
  H           3.70789012491639     -0.65670549289275      1.62198055857750
  C           5.11156736742506     -0.41765028854221      0.00917764682389
  H           6.13765823460566     -0.75716095174501     -0.23932913542126
  C           5.03540360085990      1.09437383722785     -0.16342807183506
  C           5.99623217068129      1.88697909145945      0.72492493713106
  H           5.75453495329752      1.71633644782672      1.78922520254601
  H           7.02805931261725      1.51356340214236      0.58550913770743
  C           5.94825841817781      3.38799508575100      0.43730231899539
  H           6.63523148665122      3.94865775914007      1.09135331650186
  H           4.93214702732980      3.78724963392792      0.59218313183704
  H           6.22944256688897      3.60260446658584     -0.60724216349780
  H           3.99847408944272      1.42460896237181      0.01005972348660
  H           5.25008370499624      1.31164523193110     -1.22381798294434
  C           4.03245261070973     -4.56204077931076      0.15133320995194
  H           3.25269385095848     -4.83868569125711      0.88788248686179
  H           4.93800083502311     -5.12786042219816      0.43814022967772
  H           3.69590460261794     -4.88356624576748     -0.84257040270110
  C           0.65165669687841     -1.70302631291303      0.13252085338545
  H           0.57893221507368     -1.93649108180102      1.19623208893086
  C           1.02701749382097     -0.48525116953705     -0.29002301612276
  C           1.35958990972591      0.59193387357042      0.68760449132732
  O           1.36878808641416      0.17809331340931      1.97582266003730
  C           1.66463778976519      1.17679599305736      2.94805811944977
  H           1.57198329863198      0.68923538149948      3.92692082691626
  H           2.68666216648158      1.56493879733807      2.81260724637284
  H           0.96217118324481      2.02064561070453      2.87191221036608
  O           1.62247117710574      1.73345608167628      0.37709229955235
  C           1.14311116291389     -0.09099841928193     -1.73399758569608
  H           2.17017303861872      0.23447598593493     -1.95571880199002
  H           0.47379231882545      0.75450589198482     -1.96234707917077
  H           0.90578147216888     -0.93835410509044     -2.39020769459197
  H           0.42214611148583     -2.49454305437827     -0.58530370778803
  O           4.21746457659817     -0.97195748632410     -0.97586583511346
