41
Coordinates from ORCA-job orca E -847.141259811631
  O           3.70930715920007     -2.67193294611196     -2.16249689978171
  C           3.97573948186331     -2.07270787171281     -1.14654996613821
  C           3.58490805661529     -2.56716703378030      0.21127920715557
  C           4.11445926775990     -1.83249219425619      1.42281012205535
  H           3.40737850970242     -1.93433895453594      2.26111827579362
  H           5.04570161284680     -2.34080298588704      1.74489787337854
  C           4.42641801830498     -0.36554996575505      1.14507440592519
  H           4.98642511733729      0.06732691687940      1.98840103910519
  H           3.50923345228400      0.23115775199880      1.03488055963697
  C           5.24507907075067     -0.23449320819199     -0.12934442762042
  H           6.20744058775783     -0.76814004100972     -0.00011958485480
  C           5.52759948938267      1.19804372906084     -0.56380087661934
  C           6.44996595397967      1.97339054189305      0.37945617972872
  H           5.98605552038130      2.05521565759176      1.37803013933498
  H           7.38638602831811      1.40367608758078      0.52517531394948
  C           6.77780284287287      3.37395013177995     -0.13836695059010
  H           7.44129817615678      3.91588777251755      0.55421470723448
  H           5.86239395442130      3.97593021873993     -0.26474787864892
  H           7.28060698844929      3.32943089970329     -1.11893255163969
  H           4.56451080901240      1.72816373602531     -0.67350078812914
  H           5.97432697564378      1.15563434019851     -1.57147963958632
  C           3.54939503558601     -4.06949823430537      0.33017169933282
  H           3.01261809617646     -4.38265886437188      1.23947771773316
  H           4.57877383580462     -4.46773636183564      0.40059379421167
  H           3.07903309026415     -4.52767988685062     -0.54971709374737
  C           1.54102343305835     -2.15129014525794      0.07163809707947
  H           1.27266196315801     -2.63602517143614      1.01238019379177
  C           1.27487020465090     -0.76934279771089     -0.04104084048422
  C           1.04882726330649      0.06037768566481      1.14989894465374
  O           1.07433960824914     -0.64548741451181      2.31202057744744
  C           0.85727977606984      0.10887097639506      3.49879182841771
  H           0.90813416855237     -0.60459887687469      4.33144573657454
  H           1.62570883199176      0.88925866584364      3.61776071140196
  H          -0.12779643595070      0.60077959291313      3.47902595825917
  O           0.86700582289548      1.26226944950188      1.12687206268973
  C           1.31097891875920     -0.05280562371240     -1.35378721503024
  H           2.21486434710242      0.57656528645051     -1.43541503947677
  H           0.45051226474228      0.62819140219945     -1.45344852975505
  H           1.32738688368783     -0.76010606655608     -2.19407666040901
  H           1.40771158312605     -2.75467534542640     -0.83020958029432
  O           4.56269423572791     -0.85504085284669     -1.24079062208574
