41
Coordinates from ORCA-job orca E -847.144672823275
  O           3.63695961981184     -2.64393173761734     -2.11528413161087
  C           4.01069651775562     -2.07476984612044     -1.10641310910290
  C           3.88915302474471     -2.64709587455835      0.23356307728064
  C           4.21460493652169     -1.85332503166768      1.46009323235085
  H           3.40105086177211     -1.96460387378329      2.19931179663780
  H           5.10737865447205     -2.30780287416074      1.93857520565677
  C           4.47789294491331     -0.37555589326607      1.16943247617522
  H           5.04131617074824      0.08055601635305      1.99761055572246
  H           3.53709469567594      0.18764787078029      1.07813136202657
  C           5.24854487813799     -0.21995457790222     -0.13355124740785
  H           6.21429110110344     -0.75880919059714     -0.05500953416416
  C           5.51467267515682      1.22142675320502     -0.54885930639949
  C           6.48346204835307      1.97527643373161      0.36461299789223
  H           6.06911644683162      2.03623548941767      1.38633213628482
  H           7.42481533890947      1.40183607237236      0.45254790991595
  C           6.78864564605301      3.38634915852604     -0.13825289584825
  H           7.48557775994438      3.91308850265364      0.53295951340215
  H           5.86929376023612      3.99156179132201     -0.20809837005094
  H           7.24383596121045      3.36233365285241     -1.14254183554634
  H           4.54859511902961      1.75467144703202     -0.60166325821951
  H           5.91249652845393      1.19920963669654     -1.57750481431383
  C           3.63771429797781     -4.11060465126990      0.36124690334678
  H           2.95117755639008     -4.33287565214041      1.19548382028534
  H           4.58421769937934     -4.64242249320002      0.58461485824372
  H           3.23565787814360     -4.52581638594488     -0.57228825753975
  C           1.22238163003304     -2.12718850144244      0.00049916945067
  H           1.12534317214909     -2.62943059020844      0.96276327345457
  C           1.14922748951227     -0.78699491005534     -0.09288843261185
  C           1.01654172038980      0.05541548544573      1.12932749955522
  O           0.99067983604444     -0.65742245724425      2.27918331180809
  C           0.87406265955764      0.10159864803592      3.47905905067142
  H           0.85769239916651     -0.62458476849717      4.30174484513992
  H           1.72667289618787      0.78932802725518      3.59386355587799
  H          -0.05093656745063      0.69856195112204      3.47889106916201
  O           0.96195166026578      1.26524393858365      1.11497208931938
  C           1.24497838016682     -0.03279111163633     -1.38789496366916
  H           2.10276362108126      0.65744658075586     -1.37410007726807
  H           0.34529172522693      0.58350355431189     -1.54884789389259
  H           1.37479655045305     -0.72107713970608     -2.23371178392297
  H           1.32412220801155     -2.74193261468432     -0.89511842310277
  O           4.50522849747696     -0.81275083474988     -1.21520137498942
