41
Coordinates from ORCA-job orca E -847.138277658462
  O           3.70245500316328     -2.67469686606764     -2.14779000547475
  C           3.99438526578290     -2.07726186638352     -1.13283534281142
  C           3.69816638174867     -2.59250407320352      0.21969873051770
  C           4.13767876830520     -1.82588563224627      1.43630212314712
  H           3.38206794252882     -1.92140985126436      2.23385392844677
  H           5.05250898419576     -2.31337125144919      1.83339793451702
  C           4.43779169883740     -0.35752370069556      1.14539161277418
  H           4.99799420340371      0.08664346271273      1.98248941411289
  H           3.51388998960423      0.22916203877693      1.03601381935903
  C           5.24240986080120     -0.22742134138695     -0.13900151822183
  H           6.20271168484236     -0.76882367213373     -0.02425433001268
  C           5.52949208759703      1.20480213554160     -0.57133032906828
  C           6.47031019054886      1.97092457700503      0.36098688811204
  H           6.02065228630869      2.05429292675841      1.36598881919864
  H           7.40426775932756      1.39384466395649      0.49297755647234
  C           6.80194049128990      3.37003038983336     -0.15839946910852
  H           7.47846998750731      3.90582364205736      0.52633505398014
  H           5.88947608270999      3.97903087521696     -0.27191792011764
  H           7.29152003977468      3.32356933941699     -1.14555713956328
  H           4.56854227998656      1.74152718828215     -0.66668300301030
  H           5.96171543559658      1.16234632847245     -1.58532666208496
  C           3.56427163140498     -4.07887687966350      0.34957434858166
  H           2.99071094654525     -4.35655386863069      1.24838217869039
  H           4.56621296993329     -4.53988088506184      0.45032471269738
  H           3.09335636804324     -4.51684295790253     -0.54049375621847
  C           1.45021762918156     -2.12644699913405      0.04214928638730
  H           1.28337680684212     -2.63222350386714      0.99267420680040
  C           1.24213498517811     -0.77598313034537     -0.05276461615292
  C           1.03112859746020      0.04828183438494      1.15863080509188
  O           1.03320276072371     -0.66934055100624      2.30990532116260
  C           0.83019786117865      0.07624122984963      3.50579651757638
  H           0.85835079419035     -0.64892886541063      4.32920542527198
  H           1.61862204620102      0.83410864889224      3.63736166130805
  H          -0.14166419890316      0.59345102062305      3.48704131835584
  O           0.88212780300815      1.25203606916297      1.14661749832525
  C           1.29286855808213     -0.02706884214247     -1.35082719522818
  H           2.13405255633742      0.68541110710394     -1.36024660455694
  H           0.37738583173651      0.57015000904131     -1.49431388126409
  H           1.42094805156423     -0.71316106248859     -2.19882755827956
  H           1.45895154620618     -2.73200389523120     -0.86508764688720
  O           4.53416003122444     -0.83591779137342     -1.23785218282606
