41
Coordinates from ORCA-job orca E -847.141346933574
  O           3.67985721995716     -2.66539442274478     -2.13329119209890
  C           4.01058143316246     -2.07970920156567     -1.12042903560519
  C           3.80386117173470     -2.62164202810630      0.22695685650100
  C           4.17274691314793     -1.83444559807165      1.44811215709293
  H           3.38007402418238     -1.93288700265157      2.21002450801207
  H           5.07315915265730     -2.30286259940549      1.89839872649725
  C           4.45639840691023     -0.36249160441256      1.15235335296692
  H           5.01488625613786      0.09084603268128      1.98548791023815
  H           3.52386478639686      0.21149395236719      1.04640799627850
  C           5.24862917563843     -0.22454535773653     -0.13944473359383
  H           6.21067116091050     -0.76594368349989     -0.03771034133700
  C           5.52954892876393      1.21055318529224     -0.56649501324450
  C           6.48332213201710      1.97123881619333      0.35703555038514
  H           6.04854284123502      2.04738821098124      1.36917812264729
  H           7.41961970379532      1.39419453863687      0.47140485308145
  C           6.80615236380690      3.37415598307802     -0.15757326829502
  H           7.49239657915109      3.90588931773092      0.52064935560034
  H           5.89166038691953      3.98316324897341     -0.25347146567797
  H           7.28104956756998      3.33483861372223     -1.15219875667252
  H           4.56732959808860      1.74760542588050     -0.64547018329381
  H           5.94761083912937      1.17418003402523     -1.58666555978015
  C           3.59765932325529     -4.09466424419792      0.35846697669719
  H           2.98768150920282     -4.34304978408711      1.24221027265732
  H           4.57333887570346     -4.60314823181773      0.49148149468994
  H           3.13342410374596     -4.51436083286586     -0.54391897840028
  C           1.34861463352486     -2.11870196532727      0.01971890422356
  H           1.23452870931718     -2.62772180445489      0.97595904931006
  C           1.19694350014103     -0.77829601609007     -0.06902204250572
  C           1.01147424642444      0.04983726824641      1.15203345785736
  O           1.00651915137800     -0.66952501559850      2.29974165143006
  C           0.83250154402895      0.07691295728996      3.50025865521895
  H           0.84774407811198     -0.65207737581163      4.32054541902069
  H           1.64222517539668      0.81252327882388      3.62813809711810
  H          -0.12534338647142      0.61970130151554      3.49075958222242
  O           0.89436735948408      1.25570207278275      1.14265594880479
  C           1.26369481299430     -0.01864419953291     -1.36209676103630
  H           2.09508487691477      0.70391350244838     -1.34914123321193
  H           0.34261958990848      0.56602051465090     -1.52033184287620
  H           1.41641414488158     -0.69953749216548     -2.21017661103372
  H           1.43257888186567     -2.72445966335225     -0.88294828092563
  O           4.52502622887814     -0.82650013182407     -1.23000359896294
