41
Coordinates from ORCA-job orca E -847.149101208812
  O           3.39605031205460     -2.62151600008768     -2.11423658664519
  C           3.92789645869570     -2.19947360238649     -1.10303766787530
  C           4.09291731674577     -2.99935012892341      0.10665417072648
  C           4.68522956642422     -2.42035568634122      1.35041678596102
  H           4.14230804431394     -2.80153566352488      2.23454783298711
  H           5.72054933520470     -2.80820572623607      1.46155246270148
  C           4.69849250600112     -0.89317578077623      1.33346987098840
  H           5.36255076943666     -0.50763041427518      2.12178913723408
  H           3.68966755218123     -0.50850196734170      1.54032566882426
  C           5.16402502857736     -0.37785901268731     -0.02214162741494
  H           6.20010833668054     -0.72840354570327     -0.20306496574408
  C           5.11094840283087      1.13770141163784     -0.18032755579935
  C           6.05050426666397      1.90970737101001      0.74794298123095
  H           5.77840745011085      1.72302049242089      1.80207144234696
  H           7.08261689318979      1.53008307608101      0.63027041838690
  C           6.02331305114458      3.41550873012001      0.48373931055809
  H           6.69784534099205      3.95905222921866      1.16459461052711
  H           5.00750001354061      3.82293445770745      0.61875976438787
  H           6.33372600702449      3.64435277280585     -0.54943605640055
  H           4.06948927617492      1.46943319906789     -0.02966343118139
  H           5.35749845275914      1.36605061603546     -1.23103227035001
  C           3.70488981605662     -4.43580487838784      0.07337098778711
  H           2.90530146670456     -4.64301302235428      0.80993343745648
  H           4.55657960113627     -5.08166543086784      0.35935940897535
  H           3.35174142671312     -4.72564698195672     -0.92437121251563
  C           1.14137721377042     -1.90954562087350      0.28401247380840
  H           1.19355600875605     -2.10947744930927      1.35542818317813
  C           1.19850968893326     -0.65573261225519     -0.19585239396871
  C           1.37024934279529      0.50781178028219      0.72309352881379
  O           1.41030864740966      0.16795796054356      2.03179843856610
  C           1.58608111014399      1.24228227353724      2.95097263670042
  H           1.54327919662155      0.79833285051868      3.95369578920440
  H           2.55806124466919      1.73716850889373      2.79586773228871
  H           0.79294697614822      1.99596748339145      2.83131102755369
  O           1.48804487127082      1.65425720582062      0.34984254518878
  C           1.13631951192543     -0.30584079041742     -1.65404665258602
  H           2.07579040987312      0.17552200818633     -1.96652182277516
  H           0.32355440069827      0.41252968973419     -1.84873134828330
  H           0.99494444617242     -1.20333613874334     -2.26927485367629
  H           1.03508565600945     -2.75904094113527     -0.39429349830635
  O           4.34079458344310     -0.90501272242871     -1.08119870286004
