41
Coordinates from ORCA-job orca E -848.339833458611
  O           3.51968617094688     -2.46750818305474     -2.19956429292686
  C           3.88127789505432     -1.94240882226606     -1.18223959066586
  C           3.36148837645856     -2.41396331601408      0.18148992400938
  C           4.03835982800938     -1.71564112794456      1.36826718609738
  H           3.38417843335135     -1.77738767961955      2.23956300407567
  H           4.95260914507311     -2.26156880924801      1.62295787038125
  C           4.41290729303761     -0.27645231229021      1.06636101244296
  H           4.93162063898061      0.16565865737684      1.91878910655854
  H           3.53153118982218      0.34230489084969      0.87384573440385
  C           5.32194933385596     -0.23872394821347     -0.14100219772819
  H           6.24372960107772     -0.78980934908787      0.08615325236490
  C           5.67874463435152      1.15484957706098     -0.62515385297087
  C           6.51062354965979      1.95819570926663      0.36833497232712
  H           5.93901160323179      2.12667268780183      1.28541489746813
  H           7.39261851165415      1.37643549895196      0.65802105676738
  C           6.95055301200291      3.30100342403221     -0.20012655937349
  H           7.54226675522447      3.86462658318380      0.52277773845563
  H           6.08748534894034      3.91277292291544     -0.47249649929212
  H           7.55790686396917      3.16831620946723     -1.09820745541403
  H           4.75273177490843      1.69017936965022     -0.86070060371751
  H           6.22645699170382      1.05204806769717     -1.56592227667978
  C           3.60369193617407     -3.92441282761523      0.26610337462892
  H           3.22514542353856     -4.30587278574075      1.21704903572300
  H           4.67021055643264     -4.15150538882017      0.21074829458180
  H           3.10352232523804     -4.44465065548000     -0.54928779818573
  C           1.81618726581386     -2.19419179563150      0.18230008604727
  H           1.43584453481669     -2.64626874637523      1.09853874581324
  C           1.33177979485569     -0.78772158887665      0.07255864592608
  C           0.92686596783158     -0.02000903464042      1.23859578896524
  O           0.99155310622105     -0.72223391413664      2.39271266550532
  C           0.61807012814773     -0.00517245942120      3.56313308287909
  H           0.71437023544459     -0.70969602201231      4.38567559865747
  H           1.27600639972456      0.85083506699422      3.71689420614372
  H          -0.40887891143975      0.35245070168723      3.48711685477259
  O           0.57366463110751      1.14028147703871      1.21002478107568
  C           1.26515867314126     -0.11381340217621     -1.25022259619438
  H           2.25480580901533      0.23820765575573     -1.56746715306901
  H           0.60854598324217      0.75302770441251     -1.21338483427318
  H           0.93303986863310     -0.81093282615135     -2.02165317485177
  H           1.42392096991290     -2.75937484168970     -0.66698878698510
  O           4.71781835083420     -0.89899636763643     -1.27141924374377
